%nprocshared=8
%mem=72000MB
%chk=BQTJMKIHKULPCZ-UHFFFAOYSA-N.chk
#T CCSD(T)/cc-pVDZ symm=veryloose

C1=c2ccccc2=CC1

0 1
C        -0.000000      -1.187356       1.545209
C        -0.000000      -0.741971       0.253763
C         0.000000      -1.442871      -1.007919
C         0.000000      -0.726256      -2.167324
C         0.000000       0.726256      -2.167324
C         0.000000       1.442871      -1.007919
C         0.000000       0.741971       0.253763
C         0.000000       1.187356       1.545209
C        -0.000000      -0.000000       2.464045
H        -0.000000      -2.226780       1.878276
H        -0.000000      -2.537053      -1.019755
H         0.000000      -1.244491      -3.131348
H         0.000000       1.244491      -3.131348
H         0.000000       2.537053      -1.019755
H         0.000000       2.226780       1.878276
H        -0.882516      -0.000000       3.138324
H         0.882516       0.000000       3.138324


--link1--
%nprocshared=8
%mem=72000MB
%chk=BQTJMKIHKULPCZ-UHFFFAOYSA-N.chk
#T CCSD(T)/cc-pVTZ symm=veryloose geom=allcheck

