 Entering Gaussian System, Link 0=g16
 Initial command:
 /home/software/g16/l1.exe "/home/software/g16tmp/Gau-108316.inp" -scrdir="/home/software/g16tmp/"
 Default is to use a total of   8 processors:
                                8 via shared-memory
                                1 via Linda
 Entering Link 1 = /home/software/g16/l1.exe PID=    108317.
  
 Copyright (c) 1988-2019, Gaussian, Inc.  All Rights Reserved.
  
 This is part of the Gaussian(R) 16 program.  It is based on
 the Gaussian(R) 09 system (copyright 2009, Gaussian, Inc.),
 the Gaussian(R) 03 system (copyright 2003, Gaussian, Inc.),
 the Gaussian(R) 98 system (copyright 1998, Gaussian, Inc.),
 the Gaussian(R) 94 system (copyright 1995, Gaussian, Inc.),
 the Gaussian 92(TM) system (copyright 1992, Gaussian, Inc.),
 the Gaussian 90(TM) system (copyright 1990, Gaussian, Inc.),
 the Gaussian 88(TM) system (copyright 1988, Gaussian, Inc.),
 the Gaussian 86(TM) system (copyright 1986, Carnegie Mellon
 University), and the Gaussian 82(TM) system (copyright 1983,
 Carnegie Mellon University). Gaussian is a federally registered
 trademark of Gaussian, Inc.
  
 This software contains proprietary and confidential information,
 including trade secrets, belonging to Gaussian, Inc.
  
 This software is provided under written license and may be
 used, copied, transmitted, or stored only in accord with that
 written license.
  
 The following legend is applicable only to US Government
 contracts under FAR:
  
                    RESTRICTED RIGHTS LEGEND
  
 Use, reproduction and disclosure by the US Government is
 subject to restrictions as set forth in subparagraphs (a)
 and (c) of the Commercial Computer Software - Restricted
 Rights clause in FAR 52.227-19.
  
 Gaussian, Inc.
 340 Quinnipiac St., Bldg. 40, Wallingford CT 06492
  
  
 ---------------------------------------------------------------
 Warning -- This program may not be used in any manner that
 competes with the business of Gaussian, Inc. or will provide
 assistance to any competitor of Gaussian, Inc.  The licensee
 of this program is prohibited from giving any competitor of
 Gaussian, Inc. access to this program.  By using this program,
 the user acknowledges that Gaussian, Inc. is engaged in the
 business of creating and licensing software in the field of
 computational chemistry and represents and warrants to the
 licensee that it is not a competitor of Gaussian, Inc. and that
 it will not use this program in any manner prohibited above.
 ---------------------------------------------------------------
  

 Cite this work as:
 Gaussian 16, Revision C.01,
 M. J. Frisch, G. W. Trucks, H. B. Schlegel, G. E. Scuseria, 
 M. A. Robb, J. R. Cheeseman, G. Scalmani, V. Barone, 
 G. A. Petersson, H. Nakatsuji, X. Li, M. Caricato, A. V. Marenich, 
 J. Bloino, B. G. Janesko, R. Gomperts, B. Mennucci, H. P. Hratchian, 
 J. V. Ortiz, A. F. Izmaylov, J. L. Sonnenberg, D. Williams-Young, 
 F. Ding, F. Lipparini, F. Egidi, J. Goings, B. Peng, A. Petrone, 
 T. Henderson, D. Ranasinghe, V. G. Zakrzewski, J. Gao, N. Rega, 
 G. Zheng, W. Liang, M. Hada, M. Ehara, K. Toyota, R. Fukuda, 
 J. Hasegawa, M. Ishida, T. Nakajima, Y. Honda, O. Kitao, H. Nakai, 
 T. Vreven, K. Throssell, J. A. Montgomery, Jr., J. E. Peralta, 
 F. Ogliaro, M. J. Bearpark, J. J. Heyd, E. N. Brothers, K. N. Kudin, 
 V. N. Staroverov, T. A. Keith, R. Kobayashi, J. Normand, 
 K. Raghavachari, A. P. Rendell, J. C. Burant, S. S. Iyengar, 
 J. Tomasi, M. Cossi, J. M. Millam, M. Klene, C. Adamo, R. Cammi, 
 J. W. Ochterski, R. L. Martin, K. Morokuma, O. Farkas, 
 J. B. Foresman, and D. J. Fox, Gaussian, Inc., Wallingford CT, 2019.
 
 ******************************************
 Gaussian 16:  ES64L-G16RevC.01  3-Jul-2019
                20-Dec-2023 
 ******************************************
 %nprocshared=16
 Will use up to   16 processors via shared memory.
 %mem=12000MB
 %chk=CCGKOQOJPYTBIH-UHFFFAOYSA-N.chk
 ---------------------------------
 #T CCSD(T)/cc-pVDZ symm=veryloose
 ---------------------------------
 -----
 C=C=O
 -----
 Symbolic Z-matrix:
 Charge =  0 Multiplicity = 1
 C                     0.        0.       -1.21325 
 C                     0.        0.        0.1055 
 O                     0.        0.        1.26995 
 H                     0.       -0.94927  -1.75654 
 H                     0.        0.94927  -1.75654 
 
                    Distance matrix (angstroms):
                    1          2          3          4          5
     1  C    0.000000
     2  C    1.318749   0.000000
     3  O    2.483197   1.164448   0.000000
     4  H    1.093744   2.090045   3.171862   0.000000
     5  H    1.093744   2.090045   3.171862   1.898544   0.000000
 Framework group  C2V[C2(CCO),SGV(H2)]
 Deg. of freedom     4
                         Standard orientation:                         
 ---------------------------------------------------------------------
 Center     Atomic      Atomic             Coordinates (Angstroms)
 Number     Number       Type             X           Y           Z
 ---------------------------------------------------------------------
      1          6           0        0.000000    0.000000   -1.213250
      2          6           0       -0.000000    0.000000    0.105499
      3          8           0       -0.000000    0.000000    1.269947
      4          1           0        0.000000    0.949272   -1.756535
      5          1           0       -0.000000   -0.949272   -1.756535
 ---------------------------------------------------------------------
 Rotational constants (GHZ):         278.2407395          10.2046665           9.8436442
    52 basis functions,   113 primitive gaussians,    55 cartesian basis functions
    11 alpha electrons       11 beta electrons
       nuclear repulsion energy        58.2803151031 Hartrees.
 NAtoms=    5 NActive=    5 NUniq=    4 SFac= 1.56D+00 NAtFMM=   60 NAOKFM=F Big=F
 ExpMin= 1.22D-01 ExpMax= 1.17D+04 ExpMxC= 4.01D+02 IAcc=3 IRadAn=         5 AccDes= 0.00D+00
 Harris functional with IExCor=  205 and IRadAn=       5 diagonalized for initial guess.
 HarFok:  IExCor=  205 AccDes= 0.00D+00 IRadAn=         5 IDoV= 1 UseB2=F ITyADJ=14
 ICtDFT=  3500011 ScaDFX=  1.000000  1.000000  1.000000  1.000000
 FoFCou: FMM=F IPFlag=           0 FMFlag=      100000 FMFlg1=           0
         NFxFlg=           0 DoJE=T BraDBF=F KetDBF=T FulRan=T
         wScrn=  0.000000 ICntrl=       500 IOpCl=  0 I1Cent=   200000004 NGrid=           0
         NMat0=    1 NMatS0=      1 NMatT0=    0 NMatD0=    1 NMtDS0=    0 NMtDT0=    0
 Petite list used in FoFCou.
 Initial guess orbital symmetries:
       Occupied  (A1) (A1) (A1) (A1) (A1) (A1) (A1) (B2) (B1) (B2)
                 (B1)
       Virtual   (B2) (B1) (A1) (B2) (A1) (A1) (B1) (A1) (B2) (A1)
                 (B1) (B2) (B2) (A1) (A1) (A2) (A1) (B1) (A1) (B2)
                 (B1) (A1) (A2) (B2) (B2) (A1) (B1) (A1) (B1) (A1)
                 (A2) (B2) (A1) (A1) (B2) (A2) (A1) (A1) (B1) (B2)
                 (A1)
 The electronic state of the initial guess is 1-A1.
 SCF Done:  E(RHF) =  -151.739333497     A.U. after   12 cycles
            NFock= 12  Conv=0.57D-08     -V/T= 2.0020
 ExpMin= 1.22D-01 ExpMax= 1.17D+04 ExpMxC= 4.01D+02 IAcc=3 IRadAn=         5 AccDes= 0.00D+00
 HarFok:  IExCor=  205 AccDes= 0.00D+00 IRadAn=         5 IDoV=-2 UseB2=F ITyADJ=14
 ICtDFT= 12500011 ScaDFX=  1.000000  1.000000  1.000000  1.000000
 NROrb=     49 NOA=     8 NOB=     8 NVA=    41 NVB=    41
 Semi-Direct transformation.
 ModeAB=           4 MOrb=             8 LenV=    1572629688
 LASXX=       106770 LTotXX=      106770 LenRXX=      221804
 LTotAB=      115034 MaxLAS=      532336 LenRXY=           0
 NonZer=      328574 LenScr=      786432 LnRSAI=      532336
 LnScr1=     1310720 LExtra=           0 Total=      2851292
 MaxDsk=          -1 SrtSym=           T ITran=            4
 JobTyp=0 Pass  1:  I=   1 to   8.
 (rs|ai) integrals will be sorted in core.
 ANorm=    0.1070987229D+01
 E2 =    -0.4376169328D+00 EUMP2 =    -0.15217695043008D+03
 CIDS: In Core Option IDoMem=           1.
 Produce multiple copies of IABC intergrals
 MP4(R+Q)=  0.88037210D-02
 E3=       -0.71848890D-02        EUMP3=      -0.15218413532D+03
 E4(DQ)=   -0.29075765D-02        UMP4(DQ)=   -0.15218704290D+03
 E4(SDQ)=  -0.10328415D-01        UMP4(SDQ)=  -0.15219446373D+03
 DE(Corr)= -0.43536904     E(Corr)=     -152.17470254    
 NORM(A)=   0.10734698D+01
 DE(Corr)= -0.45131765     E(CORR)=     -152.19065114     Delta=-1.59D-02
 NORM(A)=   0.10804500D+01
 DE(Corr)= -0.45100314     E(CORR)=     -152.19033664     Delta= 3.15D-04
 NORM(A)=   0.10828798D+01
 DE(Corr)= -0.45284446     E(CORR)=     -152.19217796     Delta=-1.84D-03
 NORM(A)=   0.10834419D+01
 DE(Corr)= -0.45301219     E(CORR)=     -152.19234569     Delta=-1.68D-04
 NORM(A)=   0.10835860D+01
 DE(Corr)= -0.45302487     E(CORR)=     -152.19235837     Delta=-1.27D-05
 NORM(A)=   0.10835974D+01
 DE(Corr)= -0.45302647     E(CORR)=     -152.19235997     Delta=-1.59D-06
 NORM(A)=   0.10835967D+01
 DE(Corr)= -0.45302494     E(CORR)=     -152.19235843     Delta= 1.53D-06
 NORM(A)=   0.10835982D+01
 DE(Corr)= -0.45302604     E(CORR)=     -152.19235954     Delta=-1.11D-06
 NORM(A)=   0.10835986D+01
 DE(Corr)= -0.45302583     E(CORR)=     -152.19235933     Delta= 2.12D-07
 NORM(A)=   0.10835989D+01
 DE(Corr)= -0.45302638     E(CORR)=     -152.19235987     Delta=-5.46D-07
 NORM(A)=   0.10835991D+01
 DE(Corr)= -0.45302634     E(CORR)=     -152.19235984     Delta= 3.79D-08
 NORM(A)=   0.10835992D+01
 Wavefunction amplitudes converged. E(Corr)=     -152.19235984    
 Largest amplitude= 9.63D-02
 Time for triples=        3.88 seconds.
 T4(CCSD)= -0.18892285D-01
 T5(CCSD)=  0.17274570D-02
 CCSD(T)= -0.15220952466D+03
 Discarding MO integrals.

 **********************************************************************

            Population analysis using the SCF Density.

 **********************************************************************

 Orbital symmetries:
       Occupied  (A1) (A1) (A1) (A1) (A1) (A1) (A1) (B2) (B1) (B2)
                 (B1)
       Virtual   (B2) (A1) (B1) (B2) (A1) (A1) (B1) (B2) (A1) (A1)
                 (B1) (B2) (B2) (A1) (A1) (A2) (A1) (B1) (B2) (A1)
                 (B1) (A1) (A2) (B2) (B2) (A1) (B1) (A1) (B1) (A2)
                 (A1) (B2) (A1) (A1) (B2) (A2) (A1) (A1) (B1) (B2)
                 (A1)
 The electronic state is 1-A1.
 Alpha  occ. eigenvalues --  -20.63374 -11.39325 -11.24822  -1.47433  -1.04776
 Alpha  occ. eigenvalues --   -0.75658  -0.67429  -0.64832  -0.63922  -0.55484
 Alpha  occ. eigenvalues --   -0.36136
 Alpha virt. eigenvalues --    0.13141   0.19148   0.22214   0.26613   0.35993
 Alpha virt. eigenvalues --    0.42631   0.64369   0.67120   0.67584   0.69399
 Alpha virt. eigenvalues --    0.75944   0.83869   0.91017   0.95907   1.02614
 Alpha virt. eigenvalues --    1.12197   1.19335   1.27252   1.30302   1.32218
 Alpha virt. eigenvalues --    1.35132   1.35509   1.38287   1.67477   1.69843
 Alpha virt. eigenvalues --    1.78132   1.86413   2.02786   2.15165   2.16718
 Alpha virt. eigenvalues --    2.17267   2.32734   2.49655   2.82341   2.86169
 Alpha virt. eigenvalues --    2.97201   2.99380   3.16191   3.59128   3.74745
 Alpha virt. eigenvalues --    3.88640
          Condensed to atoms (all electrons):
 Mulliken charges:
               1
     1  C   -0.241810
     2  C    0.235749
     3  O   -0.209565
     4  H    0.107813
     5  H    0.107813
 Sum of Mulliken charges =   0.00000
 Mulliken charges with hydrogens summed into heavy atoms:
               1
     1  C   -0.026184
     2  C    0.235749
     3  O   -0.209565
 Electronic spatial extent (au):  <R**2>=            145.4718
 Charge=              0.0000 electrons
 Dipole moment (field-independent basis, Debye):
    X=             -0.0000    Y=              0.0000    Z=             -1.6463  Tot=              1.6463
 Unable to Open any file for archive entry.
 1\1\GINC-NODE06\SP\RCCSD(T)-FC\CC-pVDZ\C2H2O1\XUHJ\20-Dec-2023\0\\#T C
 CSD(T)/cc-pVDZ symm=veryloose\\C=C=O\\0,1\C,0,0.,0.,-1.21325\C,0,0.,0.
 ,0.105499\O,0,0.,0.,1.269947\H,0,0.,-0.949272,-1.756535\H,0,0.,0.94927
 2,-1.756535\\Version=ES64L-G16RevC.01\State=1-A1\HF=-151.7393335\MP2=-
 152.1769504\MP3=-152.1841353\MP4D=-152.1958466\MP4DQ=-152.1870429\MP4S
 DQ=-152.1944637\CCSD=-152.1923598\CCSD(T)=-152.2095247\RMSD=5.661e-09\
 PG=C02V [C2(C1C1O1),SGV(H2)]\\@
 The archive entry for this job was punched.


 MOST BUREAUCRACIES FUNCTION LIKE A SEPTIC TANK.
 THE LARGE CHUNKS RISE TO THE TOP.
 Job cpu time:       0 days  0 hours  0 minutes 21.6 seconds.
 Elapsed time:       0 days  0 hours  0 minutes  1.6 seconds.
 File lengths (MBytes):  RWF=     42 Int=      0 D2E=      0 Chk=      2 Scr=      2
 Normal termination of Gaussian 16 at Wed Dec 20 01:36:40 2023.
 Initial command:
 /home/software/g16/l1.exe "/home/software/g16tmp/Gau-108316.inp" -scrdir="/home/software/g16tmp/"
 Default is to use a total of   8 processors:
                                8 via shared-memory
                                1 via Linda
 Entering Link 1 = /home/software/g16/l1.exe PID=    108814.
  
 Copyright (c) 1988-2019, Gaussian, Inc.  All Rights Reserved.
  
 This is part of the Gaussian(R) 16 program.  It is based on
 the Gaussian(R) 09 system (copyright 2009, Gaussian, Inc.),
 the Gaussian(R) 03 system (copyright 2003, Gaussian, Inc.),
 the Gaussian(R) 98 system (copyright 1998, Gaussian, Inc.),
 the Gaussian(R) 94 system (copyright 1995, Gaussian, Inc.),
 the Gaussian 92(TM) system (copyright 1992, Gaussian, Inc.),
 the Gaussian 90(TM) system (copyright 1990, Gaussian, Inc.),
 the Gaussian 88(TM) system (copyright 1988, Gaussian, Inc.),
 the Gaussian 86(TM) system (copyright 1986, Carnegie Mellon
 University), and the Gaussian 82(TM) system (copyright 1983,
 Carnegie Mellon University). Gaussian is a federally registered
 trademark of Gaussian, Inc.
  
 This software contains proprietary and confidential information,
 including trade secrets, belonging to Gaussian, Inc.
  
 This software is provided under written license and may be
 used, copied, transmitted, or stored only in accord with that
 written license.
  
 The following legend is applicable only to US Government
 contracts under FAR:
  
                    RESTRICTED RIGHTS LEGEND
  
 Use, reproduction and disclosure by the US Government is
 subject to restrictions as set forth in subparagraphs (a)
 and (c) of the Commercial Computer Software - Restricted
 Rights clause in FAR 52.227-19.
  
 Gaussian, Inc.
 340 Quinnipiac St., Bldg. 40, Wallingford CT 06492
  
  
 ---------------------------------------------------------------
 Warning -- This program may not be used in any manner that
 competes with the business of Gaussian, Inc. or will provide
 assistance to any competitor of Gaussian, Inc.  The licensee
 of this program is prohibited from giving any competitor of
 Gaussian, Inc. access to this program.  By using this program,
 the user acknowledges that Gaussian, Inc. is engaged in the
 business of creating and licensing software in the field of
 computational chemistry and represents and warrants to the
 licensee that it is not a competitor of Gaussian, Inc. and that
 it will not use this program in any manner prohibited above.
 ---------------------------------------------------------------
  

 Cite this work as:
 Gaussian 16, Revision C.01,
 M. J. Frisch, G. W. Trucks, H. B. Schlegel, G. E. Scuseria, 
 M. A. Robb, J. R. Cheeseman, G. Scalmani, V. Barone, 
 G. A. Petersson, H. Nakatsuji, X. Li, M. Caricato, A. V. Marenich, 
 J. Bloino, B. G. Janesko, R. Gomperts, B. Mennucci, H. P. Hratchian, 
 J. V. Ortiz, A. F. Izmaylov, J. L. Sonnenberg, D. Williams-Young, 
 F. Ding, F. Lipparini, F. Egidi, J. Goings, B. Peng, A. Petrone, 
 T. Henderson, D. Ranasinghe, V. G. Zakrzewski, J. Gao, N. Rega, 
 G. Zheng, W. Liang, M. Hada, M. Ehara, K. Toyota, R. Fukuda, 
 J. Hasegawa, M. Ishida, T. Nakajima, Y. Honda, O. Kitao, H. Nakai, 
 T. Vreven, K. Throssell, J. A. Montgomery, Jr., J. E. Peralta, 
 F. Ogliaro, M. J. Bearpark, J. J. Heyd, E. N. Brothers, K. N. Kudin, 
 V. N. Staroverov, T. A. Keith, R. Kobayashi, J. Normand, 
 K. Raghavachari, A. P. Rendell, J. C. Burant, S. S. Iyengar, 
 J. Tomasi, M. Cossi, J. M. Millam, M. Klene, C. Adamo, R. Cammi, 
 J. W. Ochterski, R. L. Martin, K. Morokuma, O. Farkas, 
 J. B. Foresman, and D. J. Fox, Gaussian, Inc., Wallingford CT, 2019.
 
 ******************************************
 Gaussian 16:  ES64L-G16RevC.01  3-Jul-2019
                20-Dec-2023 
 ******************************************
 %nprocshared=16
 Will use up to   16 processors via shared memory.
 %mem=12000MB
 %chk=CCGKOQOJPYTBIH-UHFFFAOYSA-N.chk
 -----------------------------------------------
 #T CCSD(T)/cc-pVTZ symm=veryloose geom=allcheck
 -----------------------------------------------
 Structure from the checkpoint file:  "CCGKOQOJPYTBIH-UHFFFAOYSA-N.chk"
 -----
 C=C=O
 -----
 Charge =  0 Multiplicity = 1
 Z-Matrix found in chk file.
 C,0,0.,0.,-1.21325
 C,0,0.,0.,0.105499
 O,0,0.,0.,1.269947
 H,0,0.,-0.949272,-1.756535
 H,0,0.,0.949272,-1.756535
 Recover connectivity data from disk.
                    Distance matrix (angstroms):
                    1          2          3          4          5
     1  C    0.000000
     2  C    1.318749   0.000000
     3  O    2.483197   1.164448   0.000000
     4  H    1.093744   2.090045   3.171862   0.000000
     5  H    1.093744   2.090045   3.171862   1.898544   0.000000
 Framework group  C2V[C2(CCO),SGV(H2)]
 Deg. of freedom     4
                         Standard orientation:                         
 ---------------------------------------------------------------------
 Center     Atomic      Atomic             Coordinates (Angstroms)
 Number     Number       Type             X           Y           Z
 ---------------------------------------------------------------------
      1          6           0       -0.000000    0.000000   -1.213250
      2          6           0        0.000000   -0.000000    0.105499
      3          8           0        0.000000   -0.000000    1.269947
      4          1           0       -0.000000    0.949272   -1.756535
      5          1           0       -0.000000   -0.949272   -1.756535
 ---------------------------------------------------------------------
 Rotational constants (GHZ):         278.2407395          10.2046665           9.8436442
   118 basis functions,   190 primitive gaussians,   135 cartesian basis functions
    11 alpha electrons       11 beta electrons
       nuclear repulsion energy        58.2803151031 Hartrees.
 NAtoms=    5 NActive=    5 NUniq=    4 SFac= 1.56D+00 NAtFMM=   60 NAOKFM=F Big=F
 ExpMin= 1.03D-01 ExpMax= 1.53D+04 ExpMxC= 5.22D+02 IAcc=3 IRadAn=         5 AccDes= 0.00D+00
 Harris functional with IExCor=  205 and IRadAn=       5 diagonalized for initial guess.
 HarFok:  IExCor=  205 AccDes= 0.00D+00 IRadAn=         5 IDoV= 1 UseB2=F ITyADJ=14
 ICtDFT=  3500011 ScaDFX=  1.000000  1.000000  1.000000  1.000000
 FoFCou: FMM=F IPFlag=           0 FMFlag=      100000 FMFlg1=           0
         NFxFlg=           0 DoJE=T BraDBF=F KetDBF=T FulRan=T
         wScrn=  0.000000 ICntrl=       500 IOpCl=  0 I1Cent=   200000004 NGrid=           0
         NMat0=    1 NMatS0=      1 NMatT0=    0 NMatD0=    1 NMtDS0=    0 NMtDT0=    0
 Petite list used in FoFCou.
 Initial guess orbital symmetries:
       Occupied  (A1) (A1) (A1) (A1) (A1) (A1) (A1) (B2) (B1) (B2)
                 (B1)
       Virtual   (B2) (B1) (A1) (B2) (A1) (A1) (B1) (A1) (B2) (A1)
                 (B1) (B2) (A1) (B2) (A2) (A1) (A1) (B1) (A1) (A2)
                 (B2) (A1) (B1) (B2) (A1) (B1) (B2) (A1) (A2) (B1)
                 (A1) (B2) (B2) (A1) (A1) (A1) (A2) (A1) (B1) (A1)
                 (B1) (B2) (A1) (B1) (B2) (A1) (B2) (B2) (B1) (A2)
                 (B1) (B2) (A1) (A2) (B2) (A1) (B1) (A1) (B2) (A2)
                 (A1) (B1) (A1) (A2) (B2) (B1) (A1) (B2) (A1) (A2)
                 (B2) (B1) (A1) (B2) (A1) (B1) (A2) (B1) (A1) (B2)
                 (A1) (B1) (B2) (A1) (B2) (B1) (A2) (A1) (B2) (B1)
                 (A1) (A1) (A2) (B2) (A1) (B2) (A2) (A1) (A1) (B1)
                 (B2) (B1) (A1) (B2) (A1) (A1) (A1)
 The electronic state of the initial guess is 1-A1.
 SCF Done:  E(RHF) =  -151.783032317     A.U. after   12 cycles
            NFock= 12  Conv=0.44D-08     -V/T= 2.0022
 ExpMin= 1.03D-01 ExpMax= 1.53D+04 ExpMxC= 5.22D+02 IAcc=3 IRadAn=         5 AccDes= 0.00D+00
 HarFok:  IExCor=  205 AccDes= 0.00D+00 IRadAn=         5 IDoV=-2 UseB2=F ITyADJ=14
 ICtDFT= 12500011 ScaDFX=  1.000000  1.000000  1.000000  1.000000
 NROrb=    115 NOA=     8 NOB=     8 NVA=   107 NVB=   107

 **** Warning!!: The largest alpha MO coefficient is  0.10438494D+02

 Semi-Direct transformation.
 ModeAB=           4 MOrb=             8 LenV=    1572342232
 LASXX=      1475070 LTotXX=     1475070 LenRXX=     2996198
 LTotAB=     1521128 MaxLAS=     7055480 LenRXY=           0
 NonZer=     4471268 LenScr=     7208960 LnRSAI=     7055480
 LnScr1=    11141120 LExtra=           0 Total=     28401758
 MaxDsk=          -1 SrtSym=           T ITran=            4
 JobTyp=0 Pass  1:  I=   1 to   8.
 (rs|ai) integrals will be sorted in core.
 ANorm=    0.1078620958D+01
 E2 =    -0.5402138639D+00 EUMP2 =    -0.15232324618135D+03
 CIDS: In Core Option IDoMem=           1.
 Produce multiple copies of IABC intergrals
 MP4(R+Q)=  0.13752469D-01
 E3=       -0.31675554D-02        EUMP3=      -0.15232641374D+03
 E4(DQ)=    0.38085350D-03        UMP4(DQ)=   -0.15232603288D+03
 E4(SDQ)=  -0.81227005D-02        UMP4(SDQ)=  -0.15233453644D+03
 DE(Corr)= -0.52897200     E(Corr)=     -152.31200432    
 NORM(A)=   0.10783328D+01
 DE(Corr)= -0.54771786     E(CORR)=     -152.33075018     Delta=-1.87D-02
 NORM(A)=   0.10851945D+01
 DE(Corr)= -0.54643347     E(CORR)=     -152.32946579     Delta= 1.28D-03
 NORM(A)=   0.10873957D+01
 DE(Corr)= -0.54821656     E(CORR)=     -152.33124887     Delta=-1.78D-03
 NORM(A)=   0.10880181D+01
 DE(Corr)= -0.54841484     E(CORR)=     -152.33144716     Delta=-1.98D-04
 NORM(A)=   0.10881893D+01
 DE(Corr)= -0.54842551     E(CORR)=     -152.33145783     Delta=-1.07D-05
 NORM(A)=   0.10882076D+01
 DE(Corr)= -0.54842767     E(CORR)=     -152.33145998     Delta=-2.15D-06
 NORM(A)=   0.10882045D+01
 DE(Corr)= -0.54842768     E(CORR)=     -152.33146000     Delta=-1.46D-08
 NORM(A)=   0.10882067D+01
 DE(Corr)= -0.54842683     E(CORR)=     -152.33145915     Delta= 8.47D-07
 NORM(A)=   0.10882063D+01
 DE(Corr)= -0.54842742     E(CORR)=     -152.33145974     Delta=-5.86D-07
 NORM(A)=   0.10882069D+01
 DE(Corr)= -0.54842757     E(CORR)=     -152.33145989     Delta=-1.50D-07
 NORM(A)=   0.10882071D+01
 DE(Corr)= -0.54842766     E(CORR)=     -152.33145998     Delta=-9.22D-08
 NORM(A)=   0.10882072D+01
 Wavefunction amplitudes converged. E(Corr)=     -152.33145998    
 Largest amplitude= 8.47D-02
 Time for triples=       41.65 seconds.
 T4(CCSD)= -0.28296313D-01
 T5(CCSD)=  0.17686758D-02
 CCSD(T)= -0.15235798762D+03
 Discarding MO integrals.

 **********************************************************************

            Population analysis using the SCF Density.

 **********************************************************************

 Orbital symmetries:
       Occupied  (A1) (A1) (A1) (A1) (A1) (A1) (A1) (B2) (B1) (B2)
                 (B1)
       Virtual   (B2) (A1) (B1) (B2) (A1) (A1) (B1) (B2) (A1) (B1)
                 (A1) (B2) (A1) (B2) (A2) (A1) (A1) (A1) (B1) (B2)
                 (A2) (B1) (A1) (B2) (A1) (B1) (B2) (A2) (A1) (A1)
                 (B1) (B2) (B2) (A1) (A1) (A1) (A2) (A1) (B1) (B2)
                 (A1) (B1) (A1) (B2) (B1) (A1) (B2) (B2) (B1) (A2)
                 (B1) (B2) (A1) (A2) (B2) (A1) (B1) (A2) (A1) (B2)
                 (A1) (B1) (A1) (A2) (B2) (B1) (A1) (B2) (A1) (A2)
                 (B2) (B1) (A1) (B2) (A1) (B1) (A2) (B1) (A1) (B2)
                 (A1) (B1) (B2) (A1) (B2) (B1) (A2) (A1) (A1) (B2)
                 (B1) (A1) (B2) (A2) (A1) (B2) (A1) (A2) (A1) (B1)
                 (B2) (B1) (B2) (A1) (A1) (A1) (A1)
 The electronic state is 1-A1.
 Alpha  occ. eigenvalues --  -20.62910 -11.38535 -11.24331  -1.47244  -1.04892
 Alpha  occ. eigenvalues --   -0.75837  -0.67808  -0.65148  -0.64240  -0.55883
 Alpha  occ. eigenvalues --   -0.36552
 Alpha virt. eigenvalues --    0.12302   0.14700   0.20788   0.20882   0.25203
 Alpha virt. eigenvalues --    0.32494   0.41876   0.44412   0.48918   0.51811
 Alpha virt. eigenvalues --    0.52456   0.59714   0.62702   0.65838   0.66723
 Alpha virt. eigenvalues --    0.67107   0.76349   0.83040   0.86067   0.88737
 Alpha virt. eigenvalues --    0.88762   0.99213   1.01261   1.05701   1.19086
 Alpha virt. eigenvalues --    1.19588   1.27109   1.35550   1.36153   1.46858
 Alpha virt. eigenvalues --    1.49561   1.49766   1.61172   1.65123   1.68806
 Alpha virt. eigenvalues --    1.86247   1.87239   2.06988   2.25372   2.33784
 Alpha virt. eigenvalues --    2.34299   2.35582   2.43742   2.57670   2.59474
 Alpha virt. eigenvalues --    2.62023   2.72326   2.76634   2.83481   2.91470
 Alpha virt. eigenvalues --    2.92230   2.93674   3.03099   3.05393   3.06815
 Alpha virt. eigenvalues --    3.15830   3.20370   3.29231   3.29310   3.30766
 Alpha virt. eigenvalues --    3.38583   3.38747   3.40229   3.44706   3.62438
 Alpha virt. eigenvalues --    3.69654   3.70216   3.75226   3.85983   3.87225
 Alpha virt. eigenvalues --    4.02828   4.07138   4.12455   4.18269   4.29294
 Alpha virt. eigenvalues --    4.30504   4.37041   4.58193   4.66195   4.67423
 Alpha virt. eigenvalues --    4.83728   4.95936   5.01455   5.14670   5.16434
 Alpha virt. eigenvalues --    5.20063   5.24541   5.42680   5.53590   5.55649
 Alpha virt. eigenvalues --    5.55749   5.77201   6.02015   6.05149   6.12096
 Alpha virt. eigenvalues --    6.27050   6.79296   6.79308   6.95887   7.20778
 Alpha virt. eigenvalues --    7.31126   7.37789   7.49545   7.60114   9.10473
 Alpha virt. eigenvalues --   14.40536  14.86538
          Condensed to atoms (all electrons):
 Mulliken charges:
               1
     1  C   -0.523890
     2  C    0.411794
     3  O   -0.236733
     4  H    0.174415
     5  H    0.174415
 Sum of Mulliken charges =   0.00000
 Mulliken charges with hydrogens summed into heavy atoms:
               1
     1  C   -0.175061
     2  C    0.411794
     3  O   -0.236733
 Electronic spatial extent (au):  <R**2>=            145.7121
 Charge=              0.0000 electrons
 Dipole moment (field-independent basis, Debye):
    X=             -0.0000    Y=             -0.0000    Z=             -1.7387  Tot=              1.7387
 Unable to Open any file for archive entry.
 1\1\GINC-NODE06\SP\RCCSD(T)-FC\CC-pVTZ\C2H2O1\XUHJ\20-Dec-2023\0\\#T C
 CSD(T)/cc-pVTZ symm=veryloose geom=allcheck\\C=C=O\\0,1\C,0,0.,0.,-1.2
 1325\C,0,0.,0.,0.105499\O,0,0.,0.,1.269947\H,0,0.,-0.949272,-1.756535\
 H,0,0.,0.949272,-1.756535\\Version=ES64L-G16RevC.01\State=1-A1\HF=-151
 .7830323\MP2=-152.3232462\MP3=-152.3264137\MP4D=-152.3397854\MP4DQ=-15
 2.3260329\MP4SDQ=-152.3345364\CCSD=-152.33146\CCSD(T)=-152.3579876\RMS
 D=4.397e-09\PG=C02V [C2(C1C1O1),SGV(H2)]\\@
 The archive entry for this job was punched.


 CHEMISTRY BEGAN BY SAYING IT WOULD CHANGE THE BASER
 METALS INTO GOLD.  BY NOT DOING THAT IT HAS DONE MUCH
 GREATER THINGS.  --  RALPH WALDO EMERSON
 Job cpu time:       0 days  0 hours  1 minutes 53.2 seconds.
 Elapsed time:       0 days  0 hours  0 minutes  7.4 seconds.
 File lengths (MBytes):  RWF=    244 Int=      0 D2E=      0 Chk=      3 Scr=      2
 Normal termination of Gaussian 16 at Wed Dec 20 01:36:48 2023.
