%nprocshared=8
%mem=80000MB
%chk=CSHWQDPOILHKBI-UHFFFAOYSA-N.chk
#T CCSD(T)/cc-pVDZ symm=veryloose

c1cc2cccc3c4cccc5cccc(c(c1)c23)c54

0 1
C        -2.886886       2.426689       0.000000
C        -3.577951       1.234201       0.000000
C        -2.876502       0.000000       0.000000
C        -3.577951      -1.234201      -0.000000
C        -2.886886      -2.426689      -0.000000
C        -1.478534      -2.430478       0.000000
C        -0.737925      -1.250064       0.000000
C         0.737925      -1.250064       0.000000
C         1.478534      -2.430478       0.000000
C         2.886886      -2.426689       0.000000
C         3.577951      -1.234201       0.000000
C         2.876502      -0.000000      -0.000000
C         3.577951       1.234201       0.000000
C         2.886886       2.426689       0.000000
C         1.478534       2.430478       0.000000
C         0.737925       1.250064       0.000000
C        -0.737925       1.250064       0.000000
C        -1.478534       2.430478       0.000000
C        -1.440116       0.000000       0.000000
C         1.440116      -0.000000       0.000000
H        -3.425591       3.378748       0.000000
H        -4.671823       1.219433       0.000000
H        -4.671823      -1.219433      -0.000000
H        -3.425591      -3.378748      -0.000000
H        -0.970688      -3.395606       0.000000
H         0.970688      -3.395606       0.000000
H         3.425591      -3.378748       0.000000
H         4.671823      -1.219433       0.000000
H         4.671823       1.219433       0.000000
H         3.425591       3.378748       0.000000
H         0.970688       3.395606       0.000000
H        -0.970688       3.395606       0.000000


--link1--
%nprocshared=8
%mem=80000MB
%chk=CSHWQDPOILHKBI-UHFFFAOYSA-N.chk
#T CCSD(T)/cc-pVTZ symm=veryloose geom=allcheck

