%nprocshared=8
%mem=48000MB
%chk=DITHIFQMPPCBCU-UHFFFAOYSA-N1.chk
#T ROCCSD(T)/cc-pVDZ symm=veryloose

C#C[CH2]

0 2
C        -0.000000       0.000000       1.347257
C        -0.000000       0.000000       0.114870
C         0.000000      -0.000000      -1.258419
H        -0.000000       0.000000       2.421591
H         0.000000      -0.940443      -1.821918
H         0.000000       0.940443      -1.821918


--link1--
%nprocshared=8
%mem=48000MB
%chk=DITHIFQMPPCBCU-UHFFFAOYSA-N1.chk
#T ROCCSD(T)/cc-pVTZ symm=veryloose geom=allcheck

