 Entering Gaussian System, Link 0=g16
 Initial command:
 /home/soft/g16/l1.exe "/home/soft/tmp/Gau-6970.inp" -scrdir="/home/soft/tmp/"
 Entering Link 1 = /home/soft/g16/l1.exe PID=      6973.
  
 Copyright (c) 1988-2019, Gaussian, Inc.  All Rights Reserved.
  
 This is part of the Gaussian(R) 16 program.  It is based on
 the Gaussian(R) 09 system (copyright 2009, Gaussian, Inc.),
 the Gaussian(R) 03 system (copyright 2003, Gaussian, Inc.),
 the Gaussian(R) 98 system (copyright 1998, Gaussian, Inc.),
 the Gaussian(R) 94 system (copyright 1995, Gaussian, Inc.),
 the Gaussian 92(TM) system (copyright 1992, Gaussian, Inc.),
 the Gaussian 90(TM) system (copyright 1990, Gaussian, Inc.),
 the Gaussian 88(TM) system (copyright 1988, Gaussian, Inc.),
 the Gaussian 86(TM) system (copyright 1986, Carnegie Mellon
 University), and the Gaussian 82(TM) system (copyright 1983,
 Carnegie Mellon University). Gaussian is a federally registered
 trademark of Gaussian, Inc.
  
 This software contains proprietary and confidential information,
 including trade secrets, belonging to Gaussian, Inc.
  
 This software is provided under written license and may be
 used, copied, transmitted, or stored only in accord with that
 written license.
  
 The following legend is applicable only to US Government
 contracts under FAR:
  
                    RESTRICTED RIGHTS LEGEND
  
 Use, reproduction and disclosure by the US Government is
 subject to restrictions as set forth in subparagraphs (a)
 and (c) of the Commercial Computer Software - Restricted
 Rights clause in FAR 52.227-19.
  
 Gaussian, Inc.
 340 Quinnipiac St., Bldg. 40, Wallingford CT 06492
  
  
 ---------------------------------------------------------------
 Warning -- This program may not be used in any manner that
 competes with the business of Gaussian, Inc. or will provide
 assistance to any competitor of Gaussian, Inc.  The licensee
 of this program is prohibited from giving any competitor of
 Gaussian, Inc. access to this program.  By using this program,
 the user acknowledges that Gaussian, Inc. is engaged in the
 business of creating and licensing software in the field of
 computational chemistry and represents and warrants to the
 licensee that it is not a competitor of Gaussian, Inc. and that
 it will not use this program in any manner prohibited above.
 ---------------------------------------------------------------
  

 Cite this work as:
 Gaussian 16, Revision C.01,
 M. J. Frisch, G. W. Trucks, H. B. Schlegel, G. E. Scuseria, 
 M. A. Robb, J. R. Cheeseman, G. Scalmani, V. Barone, 
 G. A. Petersson, H. Nakatsuji, X. Li, M. Caricato, A. V. Marenich, 
 J. Bloino, B. G. Janesko, R. Gomperts, B. Mennucci, H. P. Hratchian, 
 J. V. Ortiz, A. F. Izmaylov, J. L. Sonnenberg, D. Williams-Young, 
 F. Ding, F. Lipparini, F. Egidi, J. Goings, B. Peng, A. Petrone, 
 T. Henderson, D. Ranasinghe, V. G. Zakrzewski, J. Gao, N. Rega, 
 G. Zheng, W. Liang, M. Hada, M. Ehara, K. Toyota, R. Fukuda, 
 J. Hasegawa, M. Ishida, T. Nakajima, Y. Honda, O. Kitao, H. Nakai, 
 T. Vreven, K. Throssell, J. A. Montgomery, Jr., J. E. Peralta, 
 F. Ogliaro, M. J. Bearpark, J. J. Heyd, E. N. Brothers, K. N. Kudin, 
 V. N. Staroverov, T. A. Keith, R. Kobayashi, J. Normand, 
 K. Raghavachari, A. P. Rendell, J. C. Burant, S. S. Iyengar, 
 J. Tomasi, M. Cossi, J. M. Millam, M. Klene, C. Adamo, R. Cammi, 
 J. W. Ochterski, R. L. Martin, K. Morokuma, O. Farkas, 
 J. B. Foresman, and D. J. Fox, Gaussian, Inc., Wallingford CT, 2019.
 
 ******************************************
 Gaussian 16:  ES64L-G16RevC.01  3-Jul-2019
                 6-Nov-2024 
 ******************************************
 %nprocshared=8
 Will use up to    8 processors via shared memory.
 %mem=48000MB
 %chk=FATAVLOOLIRUNA-UHFFFAOYSA-N.chk
 -----------------------------------
 #T ROCCSD(T)/cc-pVDZ symm=veryloose
 -----------------------------------
 ------
 C=C[O]
 ------
 Symbolic Z-matrix:
 Charge =  0 Multiplicity = 2
 C                    -1.05506  -0.53992   0. 
 C                     0.        0.4267    0. 
 O                     1.19363   0.12731   0. 
 H                    -2.10741  -0.23473   0. 
 H                    -0.79856  -1.60549   0. 
 H                    -0.31274   1.50112   0. 
 
                    Distance matrix (angstroms):
                    1          2          3          4          5
     1  C    0.000000
     2  C    1.430909   0.000000
     3  O    2.345590   1.230605   0.000000
     4  H    1.095715   2.208770   3.320835   0.000000
     5  H    1.096000   2.183456   2.640344   1.895270   0.000000
     6  H    2.171845   1.119014   2.038750   2.496808   3.144369
                    6
     6  H    0.000000
 Framework group  CS[SG(C2H3O)]
 Deg. of freedom     9
                         Standard orientation:                         
 ---------------------------------------------------------------------
 Center     Atomic      Atomic             Coordinates (Angstroms)
 Number     Number       Type             X           Y           Z
 ---------------------------------------------------------------------
      1          6           0       -1.055056   -0.539924    0.000000
      2          6           0        0.000000    0.426697    0.000000
      3          8           0        1.193631    0.127307    0.000000
      4          1           0       -2.107410   -0.234732    0.000000
      5          1           0       -0.798564   -1.605488    0.000000
      6          1           0       -0.312735    1.501122    0.000000
 ---------------------------------------------------------------------
 Rotational constants (GHZ):          66.9900739          11.3702604           9.7204101
    57 basis functions,   120 primitive gaussians,    60 cartesian basis functions
    12 alpha electrons       11 beta electrons
       nuclear repulsion energy        63.3828710899 Hartrees.
 NAtoms=    6 NActive=    6 NUniq=    6 SFac= 1.00D+00 NAtFMM=   60 NAOKFM=F Big=F
 ExpMin= 1.22D-01 ExpMax= 1.17D+04 ExpMxC= 4.01D+02 IAcc=3 IRadAn=         5 AccDes= 0.00D+00
 Harris functional with IExCor=  205 and IRadAn=       5 diagonalized for initial guess.
 HarFok:  IExCor=  205 AccDes= 0.00D+00 IRadAn=         5 IDoV= 1 UseB2=F ITyADJ=14
 ICtDFT=  3500011 ScaDFX=  1.000000  1.000000  1.000000  1.000000
 FoFCou: FMM=F IPFlag=           0 FMFlag=      100000 FMFlg1=           0
         NFxFlg=           0 DoJE=T BraDBF=F KetDBF=T FulRan=T
         wScrn=  0.000000 ICntrl=       500 IOpCl=  0 I1Cent=   200000004 NGrid=           0
         NMat0=    1 NMatS0=      1 NMatT0=    0 NMatD0=    1 NMtDS0=    0 NMtDT0=    0
 Petite list used in FoFCou.
 Initial guess orbital symmetries:
       Occupied  (A') (A') (A') (A') (A') (A') (A') (A') (A') (A")
                 (A') (A")
       Virtual   (A") (A') (A') (A') (A') (A') (A') (A") (A') (A')
                 (A") (A') (A') (A') (A') (A') (A") (A") (A') (A")
                 (A') (A') (A") (A') (A') (A') (A') (A") (A') (A")
                 (A') (A") (A') (A") (A') (A') (A') (A') (A') (A')
                 (A") (A') (A") (A') (A')
 The electronic state of the initial guess is 2-A".
 SCF Done:  E(ROHF) =  -152.297416785     A.U. after   14 cycles
            NFock= 14  Conv=0.32D-08     -V/T= 2.0015
 <Sx>= 0.0000 <Sy>= 0.0000 <Sz>= 0.5000 <S**2>= 0.7500 S= 0.5000
 <L.S>=  0.00000000000    
 Annihilation of the first spin contaminant:
 S**2 before annihilation     0.7500,   after     0.7500
 GenMOA:  NOpAll=  2 NOp2=2 NOpUse=  2 JSym2X=1
 <Sx>= 0.0000 <Sy>= 0.0000 <Sz>= 0.5000 <S**2>= 0.7500 S= 0.5000
 ExpMin= 1.22D-01 ExpMax= 1.17D+04 ExpMxC= 4.01D+02 IAcc=3 IRadAn=         5 AccDes= 0.00D+00
 HarFok:  IExCor=  205 AccDes= 0.00D+00 IRadAn=         5 IDoV=-2 UseB2=F ITyADJ=14
 ICtDFT= 12500011 ScaDFX=  1.000000  1.000000  1.000000  1.000000
 NROrb=     54 NOA=     9 NOB=     8 NVA=    45 NVB=    46
 Singles contribution to E2=   -0.3169679349D-02
 Semi-Direct transformation.
 ModeAB=           2 MOrb=             9 LenV=    6291199028
 LASXX=       320985 LTotXX=      320985 LenRXX=      320985
 LTotAB=      351765 MaxLAS=      889380 LenRXY=      889380
 NonZer=      923886 LenScr=     2078208 LnRSAI=           0
 LnScr1=           0 LExtra=           0 Total=      3288573
 MaxDsk=          -1 SrtSym=           F ITran=            4
 JobTyp=1 Pass  1:  I=   1 to   9.
 (rs|ai) integrals will be sorted in core.
 ModeAB=           2 MOrb=             8 LenV=    6291199028
 LASXX=       293120 LTotXX=      293120 LenRXX=      790560
 LTotAB=      222265 MaxLAS=      790560 LenRXY=      222265
 NonZer=      821232 LenScr=     1846272 LnRSAI=           0
 LnScr1=           0 LExtra=           0 Total=      2859097
 MaxDsk=          -1 SrtSym=           F ITran=            4
 JobTyp=2 Pass  1:  I=   1 to   8.
 (rs|ai) integrals will be sorted in core.
 ANorm=    0.1068174378D+01
 E2 =    -0.4333015412D+00 EUMP2 =    -0.15273071832633D+03
 (S**2,0)=  0.75000D+00           (S**2,1)=  0.75000D+00
 E(PUHF)=      -0.15229741679D+03        E(PMP2)=      -0.15273071833D+03
 CIDS: In Core Option IDoMem=           1.
 Produce multiple copies of IABC intergrals
 MP4(R+Q)=  0.24972770D-01
 E3=       -0.17129016D-01        EROMP3=      -0.15274784734D+03
 E4(SDQ)=  -0.10415786D-01        ROMP4(SDQ)=  -0.15275826313D+03
 DE(Corr)= -0.42537063     E(Corr)=     -152.72278741    
 NORM(A)=   0.10650102D+01
 DE(Corr)= -0.44173986     E(CORR)=     -152.73915665     Delta=-1.64D-02
 NORM(A)=   0.10662178D+01
 DE(Corr)= -0.44509750     E(CORR)=     -152.74251428     Delta=-3.36D-03
 NORM(A)=   0.10708010D+01
 DE(Corr)= -0.44868347     E(CORR)=     -152.74610026     Delta=-3.59D-03
 NORM(A)=   0.10908937D+01
 DE(Corr)= -0.46241304     E(CORR)=     -152.75982982     Delta=-1.37D-02
 NORM(A)=   0.10864805D+01
 DE(Corr)= -0.45894133     E(CORR)=     -152.75635811     Delta= 3.47D-03
 NORM(A)=   0.10923895D+01
 DE(Corr)= -0.46129235     E(CORR)=     -152.75870913     Delta=-2.35D-03
 NORM(A)=   0.10928138D+01
 DE(Corr)= -0.46133977     E(CORR)=     -152.75875655     Delta=-4.74D-05
 NORM(A)=   0.10928777D+01
 DE(Corr)= -0.46130039     E(CORR)=     -152.75871718     Delta= 3.94D-05
 NORM(A)=   0.10929126D+01
 DE(Corr)= -0.46131964     E(CORR)=     -152.75873642     Delta=-1.92D-05
 NORM(A)=   0.10929134D+01
 DE(Corr)= -0.46131854     E(CORR)=     -152.75873532     Delta= 1.10D-06
 NORM(A)=   0.10929127D+01
 DE(Corr)= -0.46132145     E(CORR)=     -152.75873823     Delta=-2.91D-06
 NORM(A)=   0.10929157D+01
 DE(Corr)= -0.46132196     E(CORR)=     -152.75873874     Delta=-5.10D-07
 NORM(A)=   0.10929186D+01
 DE(Corr)= -0.46132231     E(CORR)=     -152.75873910     Delta=-3.57D-07
 NORM(A)=   0.10929213D+01
 DE(Corr)= -0.46132278     E(CORR)=     -152.75873956     Delta=-4.63D-07
 NORM(A)=   0.10929231D+01
 DE(Corr)= -0.46132286     E(CORR)=     -152.75873964     Delta=-8.12D-08
 NORM(A)=   0.10929240D+01
 Wavefunction amplitudes converged. E(Corr)=     -152.75873964    
 Dominant configurations:
 ***********************
 Spin Case        I    J    A    B          Value
    BB           10        12            0.129932D+00
 Largest amplitude= 1.30D-01
 Time for triples=       16.02 seconds.
 T4(CCSD)= -0.15917298D-01
 T5(CCSD)=  0.13622851D-02
 CCSD(T)= -0.15277329466D+03
 Discarding MO integrals.

 **********************************************************************

            Population analysis using the SCF Density.

 **********************************************************************

 Orbital symmetries:
       Occupied  (A') (A') (A') (A') (A') (A') (A') (A') (A') (A")
                 (A') (A")
       Virtual   (A") (A') (A') (A') (A') (A') (A') (A") (A') (A')
                 (A") (A') (A') (A') (A') (A') (A") (A') (A") (A')
                 (A") (A') (A") (A') (A') (A') (A") (A') (A') (A")
                 (A') (A") (A') (A") (A') (A') (A') (A') (A') (A')
                 (A") (A') (A") (A') (A')
 The electronic state is 2-A".
 Alpha  occ. eigenvalues --  -20.55877 -11.33996 -11.28284  -1.38515  -1.04103
 Alpha  occ. eigenvalues --   -0.79935  -0.68624  -0.63665  -0.58137  -0.56163
 Alpha  occ. eigenvalues --   -0.43561  -0.39293
 Alpha virt. eigenvalues --    0.16973   0.19024   0.20987   0.25295   0.38839
 Alpha virt. eigenvalues --    0.43330   0.62740   0.63294   0.65656   0.68862
 Alpha virt. eigenvalues --    0.72540   0.83976   0.85997   0.90368   0.94250
 Alpha virt. eigenvalues --    1.02362   1.10045   1.15238   1.17118   1.26240
 Alpha virt. eigenvalues --    1.30821   1.37751   1.39310   1.57412   1.67832
 Alpha virt. eigenvalues --    1.75309   1.79322   1.81565   1.85949   1.91017
 Alpha virt. eigenvalues --    2.01652   2.04453   2.15087   2.18061   2.28068
 Alpha virt. eigenvalues --    2.44425   2.53760   2.66850   2.86322   2.99483
 Alpha virt. eigenvalues --    3.04927   3.23418   3.43160   3.78088   3.83992
          Condensed to atoms (all electrons):
          Atomic-Atomic Spin Densities.
 Mulliken charges and spin densities:
               1          2
     1  C   -0.070945   0.847304
     2  C    0.218636   0.039267
     3  O   -0.338958   0.103767
     4  H    0.077501   0.004931
     5  H    0.089473   0.004565
     6  H    0.024292   0.000166
 Sum of Mulliken charges =  -0.00000   1.00000
 Mulliken charges and spin densities with hydrogens summed into heavy atoms:
               1          2
     1  C    0.096029   0.856799
     2  C    0.242929   0.039433
     3  O   -0.338958   0.103767
 Electronic spatial extent (au):  <R**2>=            151.3709
 Charge=             -0.0000 electrons
 Dipole moment (field-independent basis, Debye):
    X=             -3.2960    Y=              0.1348    Z=              0.0000  Tot=              3.2987
                          Isotropic Fermi Contact Couplings
        Atom                 a.u.       MegaHertz       Gauss      10(-4) cm-1
     1  C(13)              0.00000       0.00000       0.00000       0.00000
     2  C(13)             -0.00000      -0.00000      -0.00000      -0.00000
     3  O(17)              0.00000      -0.00000      -0.00000      -0.00000
     4  H(1)              -0.00000      -0.00000      -0.00000      -0.00000
     5  H(1)               0.00000       0.00000       0.00000       0.00000
     6  H(1)              -0.00000      -0.00000      -0.00000      -0.00000
 --------------------------------------------------------
       Center         ----  Spin Dipole Couplings  ----
                      3XX-RR        3YY-RR        3ZZ-RR
 --------------------------------------------------------
     1   Atom       -0.475697     -0.476433      0.952130
     2   Atom        0.007027     -0.019005      0.011979
     3   Atom       -0.177590     -0.199152      0.376741
     4   Atom        0.049087     -0.048878     -0.000209
     5   Atom       -0.049324      0.050708     -0.001384
     6   Atom       -0.008512      0.018004     -0.009492
 --------------------------------------------------------
                        XY            XZ            YZ
 --------------------------------------------------------
     1   Atom        0.004735      0.000000      0.000000
     2   Atom        0.035459      0.000000      0.000000
     3   Atom        0.005462      0.000000      0.000000
     4   Atom       -0.027171      0.000000      0.000000
     5   Atom       -0.022432      0.000000      0.000000
     6   Atom        0.007472      0.000000      0.000000
 --------------------------------------------------------


 ---------------------------------------------------------------------------------
              Anisotropic Spin Dipole Couplings in Principal Axis System
 ---------------------------------------------------------------------------------

       Atom             a.u.   MegaHertz   Gauss  10(-4) cm-1        Axes

              Baa    -0.4808   -64.521   -23.023   -21.522 -0.6792  0.7340  0.0000
     1 C(13)  Bbb    -0.4713   -63.246   -22.568   -21.097  0.7340  0.6792  0.0000
              Bcc     0.9521   127.767    45.590    42.618  0.0000  0.0000  1.0000
 
              Baa    -0.0438    -5.872    -2.095    -1.959 -0.5725  0.8199  0.0000
     2 C(13)  Bbb     0.0120     1.607     0.574     0.536  0.0000  0.0000  1.0000
              Bcc     0.0318     4.265     1.522     1.423  0.8199  0.5725  0.0000
 
              Baa    -0.2005    14.505     5.176     4.838 -0.2323  0.9726  0.0000
     3 O(17)  Bbb    -0.1763    12.756     4.552     4.255  0.9726  0.2323  0.0000
              Bcc     0.3767   -27.261    -9.727    -9.093  0.0000  0.0000  1.0000
 
              Baa    -0.0559   -29.831   -10.644    -9.950  0.2505  0.9681  0.0000
     4 H(1)   Bbb    -0.0002    -0.112    -0.040    -0.037  0.0000  0.0000  1.0000
              Bcc     0.0561    29.942    10.684     9.988  0.9681 -0.2505 -0.0000
 
              Baa    -0.0541   -28.878   -10.304    -9.633  0.9779  0.2092  0.0000
     5 H(1)   Bbb    -0.0014    -0.738    -0.264    -0.246  0.0000  0.0000  1.0000
              Bcc     0.0555    29.616    10.568     9.879 -0.2092  0.9779  0.0000
 
              Baa    -0.0105    -5.588    -1.994    -1.864  0.9673 -0.2538 -0.0000
     6 H(1)   Bbb    -0.0095    -5.065    -1.807    -1.689  0.0000  0.0000  1.0000
              Bcc     0.0200    10.652     3.801     3.553  0.2538  0.9673  0.0000
 

 ---------------------------------------------------------------------------------

 Unable to Open any file for archive entry.
 1\1\GINC-GPU\SP\ROCCSD(T)-FC\CC-pVDZ\C2H3O1(2)\XUHJ\06-Nov-2024\0\\#T 
 ROCCSD(T)/cc-pVDZ symm=veryloose\\C=C[O]\\0,2\C,0,-1.055056,-0.539924,
 0.\C,0,0.,0.426697,0.\O,0,1.193631,0.127308,0.\H,0,-2.10741,-0.234733,
 0.\H,0,-0.798563,-1.605488,0.\H,0,-0.312735,1.501122,0.\\Version=ES64L
 -G16RevC.01\State=2-A"\HF=-152.2974168\MP2=-152.7307183\MP3=-152.74784
 73\PUHF=-152.2974168\PMP2-0=-152.7307183\MP4SDQ=-152.7582631\CCSD=-152
 .7587396\CCSD(T)=-152.7732947\RMSD=3.162e-09\PG=CS [SG(C2H3O1)]\\@
 The archive entry for this job was punched.


 I DO NOT DEFINE TIME, SPACE, PLACE, AND MOTION, AS BEING WELL KNOWN TO ALL.
                                            -- NEWTON (1642-1726), PRINCIPIA
 Job cpu time:       0 days  0 hours  1 minutes 18.2 seconds.
 Elapsed time:       0 days  0 hours  0 minutes 10.0 seconds.
 File lengths (MBytes):  RWF=     67 Int=      0 D2E=      0 Chk=      1 Scr=      1
 Normal termination of Gaussian 16 at Wed Nov  6 06:20:34 2024.
 Initial command:
 /home/soft/g16/l1.exe "/home/soft/tmp/Gau-6970.inp" -scrdir="/home/soft/tmp/"
 Entering Link 1 = /home/soft/g16/l1.exe PID=      7517.
  
 Copyright (c) 1988-2019, Gaussian, Inc.  All Rights Reserved.
  
 This is part of the Gaussian(R) 16 program.  It is based on
 the Gaussian(R) 09 system (copyright 2009, Gaussian, Inc.),
 the Gaussian(R) 03 system (copyright 2003, Gaussian, Inc.),
 the Gaussian(R) 98 system (copyright 1998, Gaussian, Inc.),
 the Gaussian(R) 94 system (copyright 1995, Gaussian, Inc.),
 the Gaussian 92(TM) system (copyright 1992, Gaussian, Inc.),
 the Gaussian 90(TM) system (copyright 1990, Gaussian, Inc.),
 the Gaussian 88(TM) system (copyright 1988, Gaussian, Inc.),
 the Gaussian 86(TM) system (copyright 1986, Carnegie Mellon
 University), and the Gaussian 82(TM) system (copyright 1983,
 Carnegie Mellon University). Gaussian is a federally registered
 trademark of Gaussian, Inc.
  
 This software contains proprietary and confidential information,
 including trade secrets, belonging to Gaussian, Inc.
  
 This software is provided under written license and may be
 used, copied, transmitted, or stored only in accord with that
 written license.
  
 The following legend is applicable only to US Government
 contracts under FAR:
  
                    RESTRICTED RIGHTS LEGEND
  
 Use, reproduction and disclosure by the US Government is
 subject to restrictions as set forth in subparagraphs (a)
 and (c) of the Commercial Computer Software - Restricted
 Rights clause in FAR 52.227-19.
  
 Gaussian, Inc.
 340 Quinnipiac St., Bldg. 40, Wallingford CT 06492
  
  
 ---------------------------------------------------------------
 Warning -- This program may not be used in any manner that
 competes with the business of Gaussian, Inc. or will provide
 assistance to any competitor of Gaussian, Inc.  The licensee
 of this program is prohibited from giving any competitor of
 Gaussian, Inc. access to this program.  By using this program,
 the user acknowledges that Gaussian, Inc. is engaged in the
 business of creating and licensing software in the field of
 computational chemistry and represents and warrants to the
 licensee that it is not a competitor of Gaussian, Inc. and that
 it will not use this program in any manner prohibited above.
 ---------------------------------------------------------------
  

 Cite this work as:
 Gaussian 16, Revision C.01,
 M. J. Frisch, G. W. Trucks, H. B. Schlegel, G. E. Scuseria, 
 M. A. Robb, J. R. Cheeseman, G. Scalmani, V. Barone, 
 G. A. Petersson, H. Nakatsuji, X. Li, M. Caricato, A. V. Marenich, 
 J. Bloino, B. G. Janesko, R. Gomperts, B. Mennucci, H. P. Hratchian, 
 J. V. Ortiz, A. F. Izmaylov, J. L. Sonnenberg, D. Williams-Young, 
 F. Ding, F. Lipparini, F. Egidi, J. Goings, B. Peng, A. Petrone, 
 T. Henderson, D. Ranasinghe, V. G. Zakrzewski, J. Gao, N. Rega, 
 G. Zheng, W. Liang, M. Hada, M. Ehara, K. Toyota, R. Fukuda, 
 J. Hasegawa, M. Ishida, T. Nakajima, Y. Honda, O. Kitao, H. Nakai, 
 T. Vreven, K. Throssell, J. A. Montgomery, Jr., J. E. Peralta, 
 F. Ogliaro, M. J. Bearpark, J. J. Heyd, E. N. Brothers, K. N. Kudin, 
 V. N. Staroverov, T. A. Keith, R. Kobayashi, J. Normand, 
 K. Raghavachari, A. P. Rendell, J. C. Burant, S. S. Iyengar, 
 J. Tomasi, M. Cossi, J. M. Millam, M. Klene, C. Adamo, R. Cammi, 
 J. W. Ochterski, R. L. Martin, K. Morokuma, O. Farkas, 
 J. B. Foresman, and D. J. Fox, Gaussian, Inc., Wallingford CT, 2019.
 
 ******************************************
 Gaussian 16:  ES64L-G16RevC.01  3-Jul-2019
                 6-Nov-2024 
 ******************************************
 %nprocshared=8
 Will use up to    8 processors via shared memory.
 %mem=48000MB
 %chk=FATAVLOOLIRUNA-UHFFFAOYSA-N.chk
 -------------------------------------------------
 #T ROCCSD(T)/cc-pVTZ symm=veryloose geom=allcheck
 -------------------------------------------------
 Structure from the checkpoint file:  "FATAVLOOLIRUNA-UHFFFAOYSA-N.chk"
 ------
 C=C[O]
 ------
 Charge =  0 Multiplicity = 2
 Z-Matrix found in chk file.
 C,0,-1.055056,-0.539924,0.
 C,0,0.,0.426697,0.
 O,0,1.193631,0.127308,0.
 H,0,-2.10741,-0.234733,0.
 H,0,-0.798563,-1.605488,0.
 H,0,-0.312735,1.501122,0.
 Recover connectivity data from disk.
                    Distance matrix (angstroms):
                    1          2          3          4          5
     1  C    0.000000
     2  C    1.430909   0.000000
     3  O    2.345590   1.230605   0.000000
     4  H    1.095715   2.208770   3.320835   0.000000
     5  H    1.096000   2.183456   2.640344   1.895270   0.000000
     6  H    2.171845   1.119014   2.038750   2.496808   3.144369
                    6
     6  H    0.000000
 Framework group  CS[SG(C2H3O)]
 Deg. of freedom     9
                         Standard orientation:                         
 ---------------------------------------------------------------------
 Center     Atomic      Atomic             Coordinates (Angstroms)
 Number     Number       Type             X           Y           Z
 ---------------------------------------------------------------------
      1          6           0       -1.055056   -0.539924    0.000000
      2          6           0        0.000000    0.426697    0.000000
      3          8           0        1.193631    0.127307    0.000000
      4          1           0       -2.107410   -0.234732    0.000000
      5          1           0       -0.798564   -1.605488    0.000000
      6          1           0       -0.312735    1.501122    0.000000
 ---------------------------------------------------------------------
 Rotational constants (GHZ):          66.9900739          11.3702604           9.7204101
   132 basis functions,   207 primitive gaussians,   150 cartesian basis functions
    12 alpha electrons       11 beta electrons
       nuclear repulsion energy        63.3828710899 Hartrees.
 NAtoms=    6 NActive=    6 NUniq=    6 SFac= 1.00D+00 NAtFMM=   60 NAOKFM=F Big=F
 ExpMin= 1.03D-01 ExpMax= 1.53D+04 ExpMxC= 5.22D+02 IAcc=3 IRadAn=         5 AccDes= 0.00D+00
 Harris functional with IExCor=  205 and IRadAn=       5 diagonalized for initial guess.
 HarFok:  IExCor=  205 AccDes= 0.00D+00 IRadAn=         5 IDoV= 1 UseB2=F ITyADJ=14
 ICtDFT=  3500011 ScaDFX=  1.000000  1.000000  1.000000  1.000000
 FoFCou: FMM=F IPFlag=           0 FMFlag=      100000 FMFlg1=           0
         NFxFlg=           0 DoJE=T BraDBF=F KetDBF=T FulRan=T
         wScrn=  0.000000 ICntrl=       500 IOpCl=  0 I1Cent=   200000004 NGrid=           0
         NMat0=    1 NMatS0=      1 NMatT0=    0 NMatD0=    1 NMtDS0=    0 NMtDT0=    0
 Petite list used in FoFCou.
 Initial guess orbital symmetries:
       Occupied  (A') (A') (A') (A') (A') (A') (A') (A') (A') (A")
                 (A') (A")
       Virtual   (A") (A') (A') (A') (A') (A') (A') (A") (A') (A')
                 (A") (A') (A') (A') (A') (A") (A') (A') (A") (A")
                 (A') (A') (A") (A') (A') (A') (A") (A') (A") (A')
                 (A") (A') (A') (A') (A") (A') (A') (A') (A') (A')
                 (A") (A") (A') (A") (A') (A') (A') (A") (A') (A')
                 (A') (A") (A') (A') (A") (A') (A') (A") (A") (A')
                 (A") (A') (A') (A') (A") (A") (A') (A") (A") (A')
                 (A') (A') (A") (A') (A') (A') (A') (A") (A") (A')
                 (A') (A") (A") (A') (A') (A") (A") (A') (A') (A")
                 (A') (A') (A') (A") (A') (A') (A") (A') (A") (A')
                 (A') (A') (A") (A') (A') (A") (A') (A') (A') (A")
                 (A') (A") (A') (A") (A') (A') (A') (A') (A') (A')
 The electronic state of the initial guess is 2-A".
 SCF Done:  E(ROHF) =  -152.341493112     A.U. after   14 cycles
            NFock= 14  Conv=0.32D-08     -V/T= 2.0019
 <Sx>= 0.0000 <Sy>= 0.0000 <Sz>= 0.5000 <S**2>= 0.7500 S= 0.5000
 <L.S>=  0.00000000000    
 Annihilation of the first spin contaminant:
 S**2 before annihilation     0.7500,   after     0.7500
 GenMOA:  NOpAll=  2 NOp2=2 NOpUse=  2 JSym2X=1
 <Sx>= 0.0000 <Sy>= 0.0000 <Sz>= 0.5000 <S**2>= 0.7500 S= 0.5000
 ExpMin= 1.03D-01 ExpMax= 1.53D+04 ExpMxC= 5.22D+02 IAcc=3 IRadAn=         5 AccDes= 0.00D+00
 HarFok:  IExCor=  205 AccDes= 0.00D+00 IRadAn=         5 IDoV=-2 UseB2=F ITyADJ=14
 ICtDFT= 12500011 ScaDFX=  1.000000  1.000000  1.000000  1.000000
 NROrb=    129 NOA=     9 NOB=     8 NVA=   120 NVB=   121
 Singles contribution to E2=   -0.3323704303D-02
 Semi-Direct transformation.
 ModeAB=           2 MOrb=             9 LenV=    6290778279
 LASXX=      4684878 LTotXX=     4684878 LenRXX=     4684878
 LTotAB=     4833417 MaxLAS=    13148325 LenRXY=    13148325
 NonZer=    13501269 LenScr=    21026304 LnRSAI=           0
 LnScr1=           0 LExtra=           0 Total=     38859507
 MaxDsk=          -1 SrtSym=           F ITran=            4
 JobTyp=1 Pass  1:  I=   1 to   9.
 (rs|ai) integrals will be sorted in core.
 ModeAB=           2 MOrb=             8 LenV=    6290778279
 LASXX=      4213619 LTotXX=     4213619 LenRXX=    11687400
 LTotAB=     3754600 MaxLAS=    11687400 LenRXY=     3754600
 NonZer=    12001128 LenScr=    18776064 LnRSAI=           0
 LnScr1=           0 LExtra=           0 Total=     34218064
 MaxDsk=          -1 SrtSym=           F ITran=            4
 JobTyp=2 Pass  1:  I=   1 to   8.
 (rs|ai) integrals will be sorted in core.
 ANorm=    0.1076099312D+01
 E2 =    -0.5390712028D+00 EUMP2 =    -0.15288056431523D+03
 (S**2,0)=  0.75000D+00           (S**2,1)=  0.75000D+00
 E(PUHF)=      -0.15234149311D+03        E(PMP2)=      -0.15288056432D+03
 CIDS: In Core Option IDoMem=           1.
 Produce multiple copies of IABC intergrals
 MP4(R+Q)=  0.25135550D-01
 E3=       -0.12727988D-01        EROMP3=      -0.15289329230D+03
 E4(SDQ)=  -0.83755023D-02        ROMP4(SDQ)=  -0.15290166781D+03
 DE(Corr)= -0.52653923     E(Corr)=     -152.86803234    
 NORM(A)=   0.10715328D+01
 DE(Corr)= -0.53882812     E(CORR)=     -152.88032123     Delta=-1.23D-02
 NORM(A)=   0.10727270D+01
 DE(Corr)= -0.54362229     E(CORR)=     -152.88511540     Delta=-4.79D-03
 NORM(A)=   0.10770913D+01
 DE(Corr)= -0.54665413     E(CORR)=     -152.88814724     Delta=-3.03D-03
 NORM(A)=   0.10939680D+01
 DE(Corr)= -0.56005495     E(CORR)=     -152.90154806     Delta=-1.34D-02
 NORM(A)=   0.10919514D+01
 DE(Corr)= -0.55753530     E(CORR)=     -152.89902841     Delta= 2.52D-03
 NORM(A)=   0.10965909D+01
 DE(Corr)= -0.55937052     E(CORR)=     -152.90086363     Delta=-1.84D-03
 NORM(A)=   0.10971057D+01
 DE(Corr)= -0.55945220     E(CORR)=     -152.90094531     Delta=-8.17D-05
 NORM(A)=   0.10971831D+01
 DE(Corr)= -0.55941099     E(CORR)=     -152.90090411     Delta= 4.12D-05
 NORM(A)=   0.10972080D+01
 DE(Corr)= -0.55942626     E(CORR)=     -152.90091937     Delta=-1.53D-05
 NORM(A)=   0.10972099D+01
 DE(Corr)= -0.55942757     E(CORR)=     -152.90092068     Delta=-1.31D-06
 NORM(A)=   0.10972079D+01
 DE(Corr)= -0.55942965     E(CORR)=     -152.90092276     Delta=-2.08D-06
 NORM(A)=   0.10972113D+01
 DE(Corr)= -0.55943059     E(CORR)=     -152.90092371     Delta=-9.48D-07
 NORM(A)=   0.10972141D+01
 DE(Corr)= -0.55943106     E(CORR)=     -152.90092417     Delta=-4.62D-07
 NORM(A)=   0.10972171D+01
 DE(Corr)= -0.55943158     E(CORR)=     -152.90092469     Delta=-5.24D-07
 NORM(A)=   0.10972188D+01
 DE(Corr)= -0.55943167     E(CORR)=     -152.90092479     Delta=-9.33D-08
 NORM(A)=   0.10972199D+01
 Wavefunction amplitudes converged. E(Corr)=     -152.90092479    
 Dominant configurations:
 ***********************
 Spin Case        I    J    A    B          Value
    BB           10        12            0.124704D+00
 Largest amplitude= 1.25D-01
 Time for triples=      427.89 seconds.
 T4(CCSD)= -0.25118059D-01
 T5(CCSD)=  0.14693726D-02
 CCSD(T)= -0.15292457347D+03
 Discarding MO integrals.

 **********************************************************************

            Population analysis using the SCF Density.

 **********************************************************************

 Orbital symmetries:
       Occupied  (A') (A') (A') (A') (A') (A') (A') (A') (A') (A")
                 (A') (A")
       Virtual   (A') (A') (A") (A') (A') (A') (A") (A') (A') (A")
                 (A') (A') (A') (A') (A') (A") (A') (A') (A") (A')
                 (A") (A') (A") (A') (A') (A") (A") (A') (A') (A')
                 (A") (A') (A') (A') (A") (A') (A') (A') (A') (A')
                 (A") (A') (A") (A") (A') (A') (A') (A") (A') (A')
                 (A") (A') (A') (A") (A') (A') (A") (A') (A") (A')
                 (A") (A') (A') (A') (A") (A") (A') (A") (A") (A')
                 (A') (A') (A") (A') (A') (A') (A') (A") (A") (A')
                 (A") (A') (A") (A') (A') (A") (A') (A") (A') (A")
                 (A') (A') (A") (A') (A') (A") (A') (A') (A") (A')
                 (A') (A') (A") (A') (A') (A') (A") (A') (A') (A")
                 (A') (A") (A') (A") (A') (A') (A') (A') (A') (A')
 The electronic state is 2-A".
 Alpha  occ. eigenvalues --  -20.55624 -11.33625 -11.28114  -1.38463  -1.04280
 Alpha  occ. eigenvalues --   -0.80180  -0.68930  -0.63971  -0.58480  -0.56539
 Alpha  occ. eigenvalues --   -0.44030  -0.39671
 Alpha virt. eigenvalues --    0.14811   0.15631   0.16894   0.20416   0.30029
 Alpha virt. eigenvalues --    0.32655   0.40097   0.42269   0.48602   0.49352
 Alpha virt. eigenvalues --    0.49896   0.56430   0.59725   0.62833   0.64549
 Alpha virt. eigenvalues --    0.66085   0.68411   0.75786   0.78707   0.86678
 Alpha virt. eigenvalues --    0.88786   0.93386   0.95165   0.97782   1.04959
 Alpha virt. eigenvalues --    1.14325   1.16388   1.16872   1.21195   1.29150
 Alpha virt. eigenvalues --    1.29457   1.37868   1.41314   1.47387   1.47840
 Alpha virt. eigenvalues --    1.53278   1.62278   1.69553   1.75409   1.90851
 Alpha virt. eigenvalues --    1.95082   2.16640   2.22097   2.32319   2.35632
 Alpha virt. eigenvalues --    2.38656   2.43507   2.45812   2.51214   2.66515
 Alpha virt. eigenvalues --    2.72234   2.72620   2.82154   2.91849   2.92367
 Alpha virt. eigenvalues --    3.02324   3.05354   3.08532   3.09126   3.16065
 Alpha virt. eigenvalues --    3.16809   3.22401   3.27888   3.35902   3.36742
 Alpha virt. eigenvalues --    3.39230   3.44317   3.44531   3.51943   3.54226
 Alpha virt. eigenvalues --    3.61759   3.67308   3.70156   3.79948   3.82852
 Alpha virt. eigenvalues --    3.88496   3.94018   3.95892   4.01475   4.07024
 Alpha virt. eigenvalues --    4.13798   4.19021   4.24300   4.32386   4.33431
 Alpha virt. eigenvalues --    4.36645   4.45063   4.52604   4.54906   4.55019
 Alpha virt. eigenvalues --    4.76700   4.83437   4.89303   4.95455   5.12109
 Alpha virt. eigenvalues --    5.13982   5.15027   5.17976   5.22363   5.34322
 Alpha virt. eigenvalues --    5.53881   5.60793   5.66382   5.67811   5.95443
 Alpha virt. eigenvalues --    6.03070   6.07287   6.16723   6.29761   6.59992
 Alpha virt. eigenvalues --    6.73717   6.87473   6.93040   7.31962   7.36349
 Alpha virt. eigenvalues --    7.52999   7.54989  10.47212  12.36729  13.74207
          Condensed to atoms (all electrons):
          Atomic-Atomic Spin Densities.
 Mulliken charges and spin densities:
               1          2
     1  C   -0.230525   0.832022
     2  C    0.198966   0.051647
     3  O   -0.365834   0.097810
     4  H    0.153165   0.009273
     5  H    0.158810   0.008820
     6  H    0.085418   0.000429
 Sum of Mulliken charges =  -0.00000   1.00000
 Mulliken charges and spin densities with hydrogens summed into heavy atoms:
               1          2
     1  C    0.081450   0.850114
     2  C    0.284384   0.052076
     3  O   -0.365834   0.097810
 Electronic spatial extent (au):  <R**2>=            151.5598
 Charge=              0.0000 electrons
 Dipole moment (field-independent basis, Debye):
    X=             -3.4431    Y=              0.1321    Z=              0.0000  Tot=              3.4457
                          Isotropic Fermi Contact Couplings
        Atom                 a.u.       MegaHertz       Gauss      10(-4) cm-1
     1  C(13)              0.00000       0.00000       0.00000       0.00000
     2  C(13)              0.00000       0.00000       0.00000       0.00000
     3  O(17)              0.00000      -0.00000      -0.00000      -0.00000
     4  H(1)               0.00000       0.00000       0.00000       0.00000
     5  H(1)              -0.00000      -0.00000      -0.00000      -0.00000
     6  H(1)              -0.00000      -0.00000      -0.00000      -0.00000
 --------------------------------------------------------
       Center         ----  Spin Dipole Couplings  ----
                      3XX-RR        3YY-RR        3ZZ-RR
 --------------------------------------------------------
     1   Atom       -0.481339     -0.481609      0.962948
     2   Atom        0.005424     -0.020649      0.015225
     3   Atom       -0.180388     -0.202768      0.383156
     4   Atom        0.048680     -0.049027      0.000347
     5   Atom       -0.049113      0.050670     -0.001557
     6   Atom       -0.008795      0.018184     -0.009388
 --------------------------------------------------------
                        XY            XZ            YZ
 --------------------------------------------------------
     1   Atom        0.005858      0.000000      0.000000
     2   Atom        0.036141      0.000000      0.000000
     3   Atom        0.005337      0.000000      0.000000
     4   Atom       -0.026697      0.000000      0.000000
     5   Atom       -0.022432      0.000000      0.000000
     6   Atom        0.007634      0.000000      0.000000
 --------------------------------------------------------


 ---------------------------------------------------------------------------------
              Anisotropic Spin Dipole Couplings in Principal Axis System
 ---------------------------------------------------------------------------------

       Atom             a.u.   MegaHertz   Gauss  10(-4) cm-1        Axes

              Baa    -0.4873   -65.396   -23.335   -21.814 -0.6989  0.7152  0.0000
     1 C(13)  Bbb    -0.4756   -63.823   -22.774   -21.289  0.7152  0.6989  0.0000
              Bcc     0.9629   129.218    46.108    43.103  0.0000  0.0000  1.0000
 
              Baa    -0.0460    -6.177    -2.204    -2.060 -0.5748  0.8183  0.0000
     2 C(13)  Bbb     0.0152     2.043     0.729     0.681  0.0000  0.0000  1.0000
              Bcc     0.0308     4.134     1.475     1.379  0.8183  0.5748  0.0000
 
              Baa    -0.2040    14.760     5.267     4.923 -0.2207  0.9753  0.0000
     3 O(17)  Bbb    -0.1792    12.965     4.626     4.325  0.9753  0.2207  0.0000
              Bcc     0.3832   -27.725    -9.893    -9.248  0.0000  0.0000  1.0000
 
              Baa    -0.0558   -29.797   -10.632    -9.939  0.2475  0.9689  0.0000
     4 H(1)   Bbb     0.0003     0.185     0.066     0.062  0.0000  0.0000  1.0000
              Bcc     0.0555    29.612    10.566     9.877  0.9689 -0.2475 -0.0000
 
              Baa    -0.0539   -28.771   -10.266    -9.597  0.9778  0.2097  0.0000
     5 H(1)   Bbb    -0.0016    -0.831    -0.296    -0.277  0.0000  0.0000  1.0000
              Bcc     0.0555    29.602    10.563     9.874 -0.2097  0.9778  0.0000
 
              Baa    -0.0108    -5.766    -2.057    -1.923  0.9670 -0.2547 -0.0000
     6 H(1)   Bbb    -0.0094    -5.009    -1.787    -1.671  0.0000  0.0000  1.0000
              Bcc     0.0202    10.775     3.845     3.594  0.2547  0.9670  0.0000
 

 ---------------------------------------------------------------------------------

 Unable to Open any file for archive entry.
 1\1\GINC-GPU\SP\ROCCSD(T)-FC\CC-pVTZ\C2H3O1(2)\XUHJ\06-Nov-2024\0\\#T 
 ROCCSD(T)/cc-pVTZ symm=veryloose geom=allcheck\\C=C[O]\\0,2\C,0,-1.055
 056,-0.539924,0.\C,0,0.,0.426697,0.\O,0,1.193631,0.127308,0.\H,0,-2.10
 741,-0.234733,0.\H,0,-0.798563,-1.605488,0.\H,0,-0.312735,1.501122,0.\
 \Version=ES64L-G16RevC.01\State=2-A"\HF=-152.3414931\MP2=-152.8805643\
 MP3=-152.8932923\PUHF=-152.3414931\PMP2-0=-152.8805643\MP4SDQ=-152.901
 6678\CCSD=-152.9009248\CCSD(T)=-152.9245735\RMSD=3.224e-09\PG=CS [SG(C
 2H3O1)]\\@
 The archive entry for this job was punched.


 THE MOST INCOMPREHENSIBLE THING ABOUT THE WORLD
 IS THAT IT IS COMPREHENSIBLE. -- A. EINSTEIN
 Job cpu time:       0 days  0 hours 18 minutes 26.7 seconds.
 Elapsed time:       0 days  0 hours  2 minutes 19.5 seconds.
 File lengths (MBytes):  RWF=    942 Int=      0 D2E=      0 Chk=      3 Scr=      1
 Normal termination of Gaussian 16 at Wed Nov  6 06:22:53 2024.
