 Entering Gaussian System, Link 0=g16
 Initial command:
 /opt/g16/l1.exe "/tmp/Gau-1777241.inp" -scrdir="/tmp/"
 Entering Link 1 = /opt/g16/l1.exe PID=   1777243.
  
 Copyright (c) 1988-2019, Gaussian, Inc.  All Rights Reserved.
  
 This is part of the Gaussian(R) 16 program.  It is based on
 the Gaussian(R) 09 system (copyright 2009, Gaussian, Inc.),
 the Gaussian(R) 03 system (copyright 2003, Gaussian, Inc.),
 the Gaussian(R) 98 system (copyright 1998, Gaussian, Inc.),
 the Gaussian(R) 94 system (copyright 1995, Gaussian, Inc.),
 the Gaussian 92(TM) system (copyright 1992, Gaussian, Inc.),
 the Gaussian 90(TM) system (copyright 1990, Gaussian, Inc.),
 the Gaussian 88(TM) system (copyright 1988, Gaussian, Inc.),
 the Gaussian 86(TM) system (copyright 1986, Carnegie Mellon
 University), and the Gaussian 82(TM) system (copyright 1983,
 Carnegie Mellon University). Gaussian is a federally registered
 trademark of Gaussian, Inc.
  
 This software contains proprietary and confidential information,
 including trade secrets, belonging to Gaussian, Inc.
  
 This software is provided under written license and may be
 used, copied, transmitted, or stored only in accord with that
 written license.
  
 The following legend is applicable only to US Government
 contracts under FAR:
  
                    RESTRICTED RIGHTS LEGEND
  
 Use, reproduction and disclosure by the US Government is
 subject to restrictions as set forth in subparagraphs (a)
 and (c) of the Commercial Computer Software - Restricted
 Rights clause in FAR 52.227-19.
  
 Gaussian, Inc.
 340 Quinnipiac St., Bldg. 40, Wallingford CT 06492
  
  
 ---------------------------------------------------------------
 Warning -- This program may not be used in any manner that
 competes with the business of Gaussian, Inc. or will provide
 assistance to any competitor of Gaussian, Inc.  The licensee
 of this program is prohibited from giving any competitor of
 Gaussian, Inc. access to this program.  By using this program,
 the user acknowledges that Gaussian, Inc. is engaged in the
 business of creating and licensing software in the field of
 computational chemistry and represents and warrants to the
 licensee that it is not a competitor of Gaussian, Inc. and that
 it will not use this program in any manner prohibited above.
 ---------------------------------------------------------------
  

 Cite this work as:
 Gaussian 16, Revision C.01,
 M. J. Frisch, G. W. Trucks, H. B. Schlegel, G. E. Scuseria, 
 M. A. Robb, J. R. Cheeseman, G. Scalmani, V. Barone, 
 G. A. Petersson, H. Nakatsuji, X. Li, M. Caricato, A. V. Marenich, 
 J. Bloino, B. G. Janesko, R. Gomperts, B. Mennucci, H. P. Hratchian, 
 J. V. Ortiz, A. F. Izmaylov, J. L. Sonnenberg, D. Williams-Young, 
 F. Ding, F. Lipparini, F. Egidi, J. Goings, B. Peng, A. Petrone, 
 T. Henderson, D. Ranasinghe, V. G. Zakrzewski, J. Gao, N. Rega, 
 G. Zheng, W. Liang, M. Hada, M. Ehara, K. Toyota, R. Fukuda, 
 J. Hasegawa, M. Ishida, T. Nakajima, Y. Honda, O. Kitao, H. Nakai, 
 T. Vreven, K. Throssell, J. A. Montgomery, Jr., J. E. Peralta, 
 F. Ogliaro, M. J. Bearpark, J. J. Heyd, E. N. Brothers, K. N. Kudin, 
 V. N. Staroverov, T. A. Keith, R. Kobayashi, J. Normand, 
 K. Raghavachari, A. P. Rendell, J. C. Burant, S. S. Iyengar, 
 J. Tomasi, M. Cossi, J. M. Millam, M. Klene, C. Adamo, R. Cammi, 
 J. W. Ochterski, R. L. Martin, K. Morokuma, O. Farkas, 
 J. B. Foresman, and D. J. Fox, Gaussian, Inc., Wallingford CT, 2019.
 
 ******************************************
 Gaussian 16:  ES64L-G16RevC.01  3-Jul-2019
                 8-Jan-2025 
 ******************************************
 %nprocshared=16
 Will use up to   16 processors via shared memory.
 %mem=12800MB
 %chk=FONOSWYYBCBQGN-UHFFFAOYSA-N-1.chk
 ---------------------------------
 #T CCSD(T)/cc-pVDZ symm=veryloose
 ---------------------------------
 -------
 O=C=C=O
 -------
 Symbolic Z-matrix:
 Charge =  0 Multiplicity = 1
 C                     0.        0.        0.64841 
 C                     0.        0.       -0.64841 
 O                     0.        0.        1.83778 
 O                     0.        0.       -1.83778 
 
                    Distance matrix (angstroms):
                    1          2          3          4
     1  C    0.000000
     2  C    1.296826   0.000000
     3  O    1.189368   2.486194   0.000000
     4  O    2.486194   1.189368   3.675562   0.000000
 Framework group  D*H[C*(OC.CO)]
 Deg. of freedom     2
                         Standard orientation:                         
 ---------------------------------------------------------------------
 Center     Atomic      Atomic             Coordinates (Angstroms)
 Number     Number       Type             X           Y           Z
 ---------------------------------------------------------------------
      1          6           0        0.000000    0.000000    0.648413
      2          6           0        0.000000    0.000000   -0.648413
      3          8           0        0.000000    0.000000    1.837781
      4          8           0        0.000000    0.000000   -1.837781
 ---------------------------------------------------------------------
 Rotational constants (GHZ):           0.0000000           4.2780061           4.2780061
    56 basis functions,   132 primitive gaussians,    60 cartesian basis functions
    14 alpha electrons       14 beta electrons
       nuclear repulsion energy        87.0500544635 Hartrees.
 NAtoms=    4 NActive=    4 NUniq=    2 SFac= 4.00D+00 NAtFMM=   60 NAOKFM=F Big=F
 ExpMin= 1.52D-01 ExpMax= 1.17D+04 ExpMxC= 4.01D+02 IAcc=3 IRadAn=         5 AccDes= 0.00D+00
 Harris functional with IExCor=  205 and IRadAn=       5 diagonalized for initial guess.
 HarFok:  IExCor=  205 AccDes= 0.00D+00 IRadAn=         5 IDoV= 1 UseB2=F ITyADJ=14
 ICtDFT=  3500011 ScaDFX=  1.000000  1.000000  1.000000  1.000000
 FoFCou: FMM=F IPFlag=           0 FMFlag=      100000 FMFlg1=           0
         NFxFlg=           0 DoJE=T BraDBF=F KetDBF=T FulRan=T
         wScrn=  0.000000 ICntrl=       500 IOpCl=  0 I1Cent=   200000004 NGrid=           0
         NMat0=    1 NMatS0=      1 NMatT0=    0 NMatD0=    1 NMtDS0=    0 NMtDT0=    0
 Petite list used in FoFCou.
 Initial guess orbital symmetries:
       Occupied  (SGU) (SGG) (SGG) (SGU) (SGG) (SGU) (SGG) (SGU)
                 (SGG) (PIU) (PIU) (PIG) (PIG) (PIU)
       Virtual   (PIU) (PIG) (PIG) (SGU) (SGG) (SGU) (PIU) (PIU)
                 (SGG) (PIG) (PIG) (SGG) (SGU) (SGG) (PIU) (PIU)
                 (DLTG) (DLTG) (SGU) (PIG) (PIG) (PIU) (PIU) (SGU)
                 (DLTU) (DLTU) (PIG) (PIG) (SGG) (SGU) (DLTG) (DLTG)
                 (SGG) (DLTU) (DLTU) (SGU) (PIU) (PIU) (SGG) (PIG)
                 (PIG) (SGU)
 SCF Done:  E(RHF) =  -225.346626177     A.U. after   11 cycles
            NFock= 11  Conv=0.28D-08     -V/T= 2.0017
 ExpMin= 1.52D-01 ExpMax= 1.17D+04 ExpMxC= 4.01D+02 IAcc=3 IRadAn=         5 AccDes= 0.00D+00
 HarFok:  IExCor=  205 AccDes= 0.00D+00 IRadAn=         5 IDoV=-2 UseB2=F ITyADJ=14
 ICtDFT= 12500011 ScaDFX=  1.000000  1.000000  1.000000  1.000000
 NROrb=     52 NOA=    10 NOB=    10 NVA=    42 NVB=    42

 **** Warning!!: The largest alpha MO coefficient is  0.10728010D+02

 Semi-Direct transformation.
 ModeAB=           4 MOrb=            10 LenV=    1677479462
 LASXX=        78083 LTotXX=       78083 LenRXX=      161947
 LTotAB=       83864 MaxLAS=      521040 LenRXY=           0
 NonZer=      240030 LenScr=      785920 LnRSAI=      521040
 LnScr1=     1562624 LExtra=           0 Total=      3031531
 MaxDsk=          -1 SrtSym=           T ITran=            4
 JobTyp=0 Pass  1:  I=   1 to  10.
 (rs|ai) integrals will be sorted in core.
 ANorm=    0.1096790168D+01
 E2 =    -0.6073852920D+00 EUMP2 =    -0.22595401146895D+03
 CIDS: In Core Option IDoMem=           1.
 Produce multiple copies of IABC intergrals
 MP4(R+Q)=  0.13909505D-01
 E3=        0.72881157D-02        EUMP3=      -0.22594672335D+03
 E4(DQ)=   -0.44345742D-02        UMP4(DQ)=   -0.22595115793D+03
 E4(SDQ)=  -0.17493350D-01        UMP4(SDQ)=  -0.22596421670D+03
 DE(Corr)= -0.58502021     E(Corr)=     -225.93164639    
 NORM(A)=   0.10949888D+01
 DE(Corr)= -0.61146199     E(CORR)=     -225.95808817     Delta=-2.64D-02
 NORM(A)=   0.11058737D+01
 DE(Corr)= -0.60943372     E(CORR)=     -225.95605989     Delta= 2.03D-03
 NORM(A)=   0.11102914D+01
 DE(Corr)= -0.61275430     E(CORR)=     -225.95938048     Delta=-3.32D-03
 NORM(A)=   0.11115817D+01
 DE(Corr)= -0.61309424     E(CORR)=     -225.95972041     Delta=-3.40D-04
 NORM(A)=   0.11119887D+01
 DE(Corr)= -0.61313561     E(CORR)=     -225.95976178     Delta=-4.14D-05
 NORM(A)=   0.11121153D+01
 DE(Corr)= -0.61314279     E(CORR)=     -225.95976897     Delta=-7.19D-06
 NORM(A)=   0.11121263D+01
 DE(Corr)= -0.61313875     E(CORR)=     -225.95976493     Delta= 4.04D-06
 NORM(A)=   0.11121477D+01
 DE(Corr)= -0.61314058     E(CORR)=     -225.95976676     Delta=-1.83D-06
 NORM(A)=   0.11121513D+01
 DE(Corr)= -0.61313943     E(CORR)=     -225.95976561     Delta= 1.15D-06
 NORM(A)=   0.11121543D+01
 DE(Corr)= -0.61314308     E(CORR)=     -225.95976926     Delta=-3.65D-06
 NORM(A)=   0.11121573D+01
 DE(Corr)= -0.61314241     E(CORR)=     -225.95976858     Delta= 6.74D-07
 NORM(A)=   0.11121585D+01
 DE(Corr)= -0.61314338     E(CORR)=     -225.95976956     Delta=-9.78D-07
 NORM(A)=   0.11121594D+01
 DE(Corr)= -0.61314339     E(CORR)=     -225.95976956     Delta=-9.44D-10
 NORM(A)=   0.11121598D+01
 Wavefunction amplitudes converged. E(Corr)=     -225.95976956    
 Dominant configurations:
 ***********************
 Spin Case        I    J    A    B          Value
   ABAB          13   13   15   15      -0.102995D+00
   ABAB          14   14   16   16      -0.101229D+00
 Largest amplitude= 1.03D-01
 Time for triples=        6.08 seconds.
 T4(CCSD)= -0.29023600D-01
 T5(CCSD)=  0.30005576D-02
 CCSD(T)= -0.22598579260D+03
 Discarding MO integrals.

 **********************************************************************

            Population analysis using the SCF Density.

 **********************************************************************

 Orbital symmetries:
       Occupied  (SGU) (SGG) (SGG) (SGU) (SGG) (SGU) (SGG) (SGU)
                 (SGG) (PIU) (PIU) (?A) (?A) (?B)
       Virtual   (?B) (?A) (SGU) (?A) (SGG) (SGU) (?B) (?B) (SGG)
                 (PIG) (PIG) (SGG) (SGU) (?C) (?C) (?C) (?B) (?B)
                 (SGU) (PIG) (PIG) (?B) (?B) (SGU) (DLTU) (DLTU)
                 (PIG) (PIG) (SGG) (SGU) (?D) (?D) (?D) (DLTU)
                 (DLTU) (SGU) (PIU) (PIU) (PIG) (PIG) (SGG) (SGU)
 Unable to determine electronic state:  an orbital has unidentified symmetry.
 Alpha  occ. eigenvalues --  -20.65988 -20.65988 -11.40707 -11.40518  -1.47733
 Alpha  occ. eigenvalues --   -1.46863  -1.06446  -0.76203  -0.73576  -0.68932
 Alpha  occ. eigenvalues --   -0.63599  -0.62666  -0.56343  -0.35403
 Alpha virt. eigenvalues --   -0.01005   0.25469   0.26191   0.30745   0.34593
 Alpha virt. eigenvalues --    0.51346   0.59687   0.59721   0.67696   0.72087
 Alpha virt. eigenvalues --    0.73059   0.95038   1.01201   1.13979   1.14032
 Alpha virt. eigenvalues --    1.17825   1.23014   1.23907   1.26064   1.33151
 Alpha virt. eigenvalues --    1.33890   1.36986   1.37119   1.45915   1.49527
 Alpha virt. eigenvalues --    1.49543   2.05166   2.06241   2.12288   2.16215
 Alpha virt. eigenvalues --    2.92382   2.92438   2.92931   2.96273   2.96276
 Alpha virt. eigenvalues --    3.29955   3.33048   3.34144   3.79588   3.81166
 Alpha virt. eigenvalues --    3.83141   3.86685
          Condensed to atoms (all electrons):
 Mulliken charges:
               1
     1  C    0.177207
     2  C    0.177207
     3  O   -0.177207
     4  O   -0.177207
 Sum of Mulliken charges =  -0.00000
 Mulliken charges with hydrogens summed into heavy atoms:
               1
     1  C    0.177207
     2  C    0.177207
     3  O   -0.177207
     4  O   -0.177207
 Electronic spatial extent (au):  <R**2>=            262.6383
 Charge=              0.0000 electrons
 Dipole moment (field-independent basis, Debye):
    X=             -0.0000    Y=              0.0000    Z=              0.0000  Tot=              0.0000
 Unable to Open any file for archive entry.
 1\1\GINC-NODE01\SP\RCCSD(T)-FC\CC-pVDZ\C2O2\XUHJ\08-Jan-2025\0\\#T CCS
 D(T)/cc-pVDZ symm=veryloose\\O=C=C=O\\0,1\C,0,0.,0.,0.648413\C,0,0.,0.
 ,-0.648413\O,0,0.,0.,1.837781\O,0,0.,0.,-1.837781\\Version=ES64L-G16Re
 vC.01\HF=-225.3466262\MP2=-225.9540115\MP3=-225.9467234\MP4D=-225.9650
 674\MP4DQ=-225.9511579\MP4SDQ=-225.9642167\CCSD=-225.9597696\CCSD(T)=-
 225.9857926\RMSD=2.803e-09\PG=D*H [C*(O1C1.C1O1)]\\@
 The archive entry for this job was punched.


 ERWIN WITH HIS PSI CAN DO
 CALCULATIONS QUITE A FEW.
 BUT ONE THING HAS NOT BEEN SEEN
 JUST WHAT DOES PSI REALLY MEAN.
 -- WALTER HUCKEL, TRANS. BY FELIX BLOCH
 Job cpu time:       0 days  0 hours  0 minutes 20.0 seconds.
 Elapsed time:       0 days  0 hours  0 minutes  1.3 seconds.
 File lengths (MBytes):  RWF=     32 Int=      0 D2E=      0 Chk=      1 Scr=      1
 Normal termination of Gaussian 16 at Wed Jan  8 23:19:36 2025.
 Initial command:
 /opt/g16/l1.exe "/tmp/Gau-1777241.inp" -scrdir="/tmp/"
 Entering Link 1 = /opt/g16/l1.exe PID=   1777561.
  
 Copyright (c) 1988-2019, Gaussian, Inc.  All Rights Reserved.
  
 This is part of the Gaussian(R) 16 program.  It is based on
 the Gaussian(R) 09 system (copyright 2009, Gaussian, Inc.),
 the Gaussian(R) 03 system (copyright 2003, Gaussian, Inc.),
 the Gaussian(R) 98 system (copyright 1998, Gaussian, Inc.),
 the Gaussian(R) 94 system (copyright 1995, Gaussian, Inc.),
 the Gaussian 92(TM) system (copyright 1992, Gaussian, Inc.),
 the Gaussian 90(TM) system (copyright 1990, Gaussian, Inc.),
 the Gaussian 88(TM) system (copyright 1988, Gaussian, Inc.),
 the Gaussian 86(TM) system (copyright 1986, Carnegie Mellon
 University), and the Gaussian 82(TM) system (copyright 1983,
 Carnegie Mellon University). Gaussian is a federally registered
 trademark of Gaussian, Inc.
  
 This software contains proprietary and confidential information,
 including trade secrets, belonging to Gaussian, Inc.
  
 This software is provided under written license and may be
 used, copied, transmitted, or stored only in accord with that
 written license.
  
 The following legend is applicable only to US Government
 contracts under FAR:
  
                    RESTRICTED RIGHTS LEGEND
  
 Use, reproduction and disclosure by the US Government is
 subject to restrictions as set forth in subparagraphs (a)
 and (c) of the Commercial Computer Software - Restricted
 Rights clause in FAR 52.227-19.
  
 Gaussian, Inc.
 340 Quinnipiac St., Bldg. 40, Wallingford CT 06492
  
  
 ---------------------------------------------------------------
 Warning -- This program may not be used in any manner that
 competes with the business of Gaussian, Inc. or will provide
 assistance to any competitor of Gaussian, Inc.  The licensee
 of this program is prohibited from giving any competitor of
 Gaussian, Inc. access to this program.  By using this program,
 the user acknowledges that Gaussian, Inc. is engaged in the
 business of creating and licensing software in the field of
 computational chemistry and represents and warrants to the
 licensee that it is not a competitor of Gaussian, Inc. and that
 it will not use this program in any manner prohibited above.
 ---------------------------------------------------------------
  

 Cite this work as:
 Gaussian 16, Revision C.01,
 M. J. Frisch, G. W. Trucks, H. B. Schlegel, G. E. Scuseria, 
 M. A. Robb, J. R. Cheeseman, G. Scalmani, V. Barone, 
 G. A. Petersson, H. Nakatsuji, X. Li, M. Caricato, A. V. Marenich, 
 J. Bloino, B. G. Janesko, R. Gomperts, B. Mennucci, H. P. Hratchian, 
 J. V. Ortiz, A. F. Izmaylov, J. L. Sonnenberg, D. Williams-Young, 
 F. Ding, F. Lipparini, F. Egidi, J. Goings, B. Peng, A. Petrone, 
 T. Henderson, D. Ranasinghe, V. G. Zakrzewski, J. Gao, N. Rega, 
 G. Zheng, W. Liang, M. Hada, M. Ehara, K. Toyota, R. Fukuda, 
 J. Hasegawa, M. Ishida, T. Nakajima, Y. Honda, O. Kitao, H. Nakai, 
 T. Vreven, K. Throssell, J. A. Montgomery, Jr., J. E. Peralta, 
 F. Ogliaro, M. J. Bearpark, J. J. Heyd, E. N. Brothers, K. N. Kudin, 
 V. N. Staroverov, T. A. Keith, R. Kobayashi, J. Normand, 
 K. Raghavachari, A. P. Rendell, J. C. Burant, S. S. Iyengar, 
 J. Tomasi, M. Cossi, J. M. Millam, M. Klene, C. Adamo, R. Cammi, 
 J. W. Ochterski, R. L. Martin, K. Morokuma, O. Farkas, 
 J. B. Foresman, and D. J. Fox, Gaussian, Inc., Wallingford CT, 2019.
 
 ******************************************
 Gaussian 16:  ES64L-G16RevC.01  3-Jul-2019
                 8-Jan-2025 
 ******************************************
 %nprocshared=16
 Will use up to   16 processors via shared memory.
 %mem=12800MB
 %chk=FONOSWYYBCBQGN-UHFFFAOYSA-N-1.chk
 -----------------------------------------------
 #T CCSD(T)/cc-pVTZ symm=veryloose geom=allcheck
 -----------------------------------------------
 Structure from the checkpoint file:  "FONOSWYYBCBQGN-UHFFFAOYSA-N-1.chk"
 -------
 O=C=C=O
 -------
 Charge =  0 Multiplicity = 1
 Z-Matrix found in chk file.
 C,0,0.,0.,0.648413
 C,0,0.,0.,-0.648413
 O,0,0.,0.,1.837781
 O,0,0.,0.,-1.837781
 Recover connectivity data from disk.
                    Distance matrix (angstroms):
                    1          2          3          4
     1  C    0.000000
     2  C    1.296826   0.000000
     3  O    1.189368   2.486194   0.000000
     4  O    2.486194   1.189368   3.675562   0.000000
 Framework group  D*H[C*(OC.CO)]
 Deg. of freedom     2
                         Standard orientation:                         
 ---------------------------------------------------------------------
 Center     Atomic      Atomic             Coordinates (Angstroms)
 Number     Number       Type             X           Y           Z
 ---------------------------------------------------------------------
      1          6           0        0.000000    0.000000    0.648413
      2          6           0        0.000000    0.000000   -0.648413
      3          8           0        0.000000    0.000000    1.837781
      4          8           0        0.000000    0.000000   -1.837781
 ---------------------------------------------------------------------
 Rotational constants (GHZ):           0.0000000           4.2780061           4.2780061
   120 basis functions,   208 primitive gaussians,   140 cartesian basis functions
    14 alpha electrons       14 beta electrons
       nuclear repulsion energy        87.0500544635 Hartrees.
 NAtoms=    4 NActive=    4 NUniq=    2 SFac= 4.00D+00 NAtFMM=   60 NAOKFM=F Big=F
 ExpMin= 1.21D-01 ExpMax= 1.53D+04 ExpMxC= 5.22D+02 IAcc=3 IRadAn=         5 AccDes= 0.00D+00
 Harris functional with IExCor=  205 and IRadAn=       5 diagonalized for initial guess.
 HarFok:  IExCor=  205 AccDes= 0.00D+00 IRadAn=         5 IDoV= 1 UseB2=F ITyADJ=14
 ICtDFT=  3500011 ScaDFX=  1.000000  1.000000  1.000000  1.000000
 FoFCou: FMM=F IPFlag=           0 FMFlag=      100000 FMFlg1=           0
         NFxFlg=           0 DoJE=T BraDBF=F KetDBF=T FulRan=T
         wScrn=  0.000000 ICntrl=       500 IOpCl=  0 I1Cent=   200000004 NGrid=           0
         NMat0=    1 NMatS0=      1 NMatT0=    0 NMatD0=    1 NMtDS0=    0 NMtDT0=    0
 Petite list used in FoFCou.
 Initial guess orbital symmetries:
       Occupied  (SGG) (SGU) (SGG) (SGU) (SGG) (SGU) (SGG) (SGU)
                 (SGG) (PIU) (PIU) (PIG) (PIG) (PIU)
       Virtual   (PIU) (PIG) (PIG) (SGU) (SGG) (SGU) (PIU) (PIU)
                 (SGG) (PIG) (PIG) (SGU) (SGG) (DLTG) (DLTG) (SGG)
                 (PIU) (PIU) (PIG) (PIG) (SGU) (DLTU) (DLTU) (PIU)
                 (PIU) (SGU) (SGG) (SGU) (PIG) (PIG) (DLTG) (DLTG)
                 (DLTU) (DLTU) (SGU) (PIU) (PIU) (SGG) (PIG) (PIG)
                 (SGU) (SGG) (PIU) (PIU) (SGG) (PIG) (PIG) (PHIU)
                 (PHIU) (DLTG) (DLTG) (PIU) (PIU) (SGU) (PHIG)
                 (PHIG) (DLTG) (DLTG) (DLTU) (DLTU) (PIG) (PIG)
                 (SGG) (PIU) (PIU) (DLTU) (DLTU) (SGG) (SGU) (PIG)
                 (PIG) (PIU) (PIU) (SGU) (SGU) (PIG) (PIG) (SGG)
                 (PHIU) (PHIU) (PHIG) (PHIG) (DLTG) (DLTG) (DLTU)
                 (DLTU) (SGG) (DLTG) (DLTG) (DLTU) (DLTU) (PIU)
                 (PIU) (SGU) (PIG) (PIG) (PIU) (PIU) (SGG) (SGU)
                 (PIG) (PIG) (SGG) (SGU) (SGU) (SGG)
 SCF Done:  E(RHF) =  -225.409833793     A.U. after   11 cycles
            NFock= 11  Conv=0.31D-08     -V/T= 2.0020
 ExpMin= 1.21D-01 ExpMax= 1.53D+04 ExpMxC= 5.22D+02 IAcc=3 IRadAn=         5 AccDes= 0.00D+00
 HarFok:  IExCor=  205 AccDes= 0.00D+00 IRadAn=         5 IDoV=-2 UseB2=F ITyADJ=14
 ICtDFT= 12500011 ScaDFX=  1.000000  1.000000  1.000000  1.000000
 NROrb=    116 NOA=    10 NOB=    10 NVA=   106 NVB=   106

 **** Warning!!: The largest alpha MO coefficient is  0.21936511D+02

 Semi-Direct transformation.
 ModeAB=           4 MOrb=            10 LenV=    1677196293
 LASXX=       938967 LTotXX=      938967 LenRXX=     1907275
 LTotAB=      968308 MaxLAS=     5928760 LenRXY=           0
 NonZer=     2846242 LenScr=     4978176 LnRSAI=     5928760
 LnScr1=     9631232 LExtra=           0 Total=     22445443
 MaxDsk=          -1 SrtSym=           T ITran=            4
 JobTyp=0 Pass  1:  I=   1 to  10.
 (rs|ai) integrals will be sorted in core.
 ANorm=    0.1106191283D+01
 E2 =    -0.7511862583D+00 EUMP2 =    -0.22616102005153D+03
 CIDS: In Core Option IDoMem=           1.
 Produce multiple copies of IABC intergrals
 MP4(R+Q)=  0.21202636D-01
 E3=        0.12924271D-01        EUMP3=      -0.22614809578D+03
 E4(DQ)=   -0.12365435D-03        UMP4(DQ)=   -0.22614821944D+03
 E4(SDQ)=  -0.14997638D-01        UMP4(SDQ)=  -0.22616309342D+03
 DE(Corr)= -0.71590412     E(Corr)=     -226.12573791    
 NORM(A)=   0.11006572D+01
 DE(Corr)= -0.74751670     E(CORR)=     -226.15735049     Delta=-3.16D-02
 NORM(A)=   0.11112664D+01
 DE(Corr)= -0.74380661     E(CORR)=     -226.15364040     Delta= 3.71D-03
 NORM(A)=   0.11152199D+01
 DE(Corr)= -0.74698416     E(CORR)=     -226.15681795     Delta=-3.18D-03
 NORM(A)=   0.11166443D+01
 DE(Corr)= -0.74740609     E(CORR)=     -226.15723988     Delta=-4.22D-04
 NORM(A)=   0.11170949D+01
 DE(Corr)= -0.74743885     E(CORR)=     -226.15727264     Delta=-3.28D-05
 NORM(A)=   0.11172153D+01
 DE(Corr)= -0.74744185     E(CORR)=     -226.15727565     Delta=-3.00D-06
 NORM(A)=   0.11172136D+01
 DE(Corr)= -0.74744942     E(CORR)=     -226.15728321     Delta=-7.56D-06
 NORM(A)=   0.11172339D+01
 DE(Corr)= -0.74744059     E(CORR)=     -226.15727438     Delta= 8.83D-06
 NORM(A)=   0.11172321D+01
 DE(Corr)= -0.74744488     E(CORR)=     -226.15727867     Delta=-4.29D-06
 NORM(A)=   0.11172352D+01
 DE(Corr)= -0.74744406     E(CORR)=     -226.15727785     Delta= 8.20D-07
 NORM(A)=   0.11172368D+01
 DE(Corr)= -0.74744528     E(CORR)=     -226.15727908     Delta=-1.23D-06
 NORM(A)=   0.11172378D+01
 DE(Corr)= -0.74744537     E(CORR)=     -226.15727916     Delta=-8.62D-08
 NORM(A)=   0.11172384D+01
 Wavefunction amplitudes converged. E(Corr)=     -226.15727916    
 Largest amplitude= 9.52D-02
 Time for triples=       49.25 seconds.
 T4(CCSD)= -0.42805164D-01
 T5(CCSD)=  0.30529637D-02
 CCSD(T)= -0.22619703136D+03
 Discarding MO integrals.

 **********************************************************************

            Population analysis using the SCF Density.

 **********************************************************************

 Orbital symmetries:
       Occupied  (SGG) (SGU) (SGG) (SGU) (SGG) (SGU) (SGG) (SGU)
                 (SGG) (PIU) (PIU) (?A) (?A) (?B)
       Virtual   (?B) (SGG) (SGU) (?A) (?A) (?B) (?B) (SGU) (PIG)
                 (PIG) (SGG) (SGU) (?C) (?C) (?C) (SGG) (PIU) (PIU)
                 (SGU) (PIG) (PIG) (DLTU) (DLTU) (PIU) (PIU) (SGG)
                 (SGU) (SGU) (PIG) (PIG) (DLTG) (DLTG) (?D) (?D)
                 (?D) (SGG) (PIU) (PIU) (PIG) (PIG) (SGU) (PIU)
                 (PIU) (SGG) (PHIU) (PHIU) (?E) (?F) (?F) (?E)
                 (?E) (PIU) (PIU) (SGU) (?F) (?F) (DLTG) (DLTG)
                 (DLTU) (DLTU) (PIG) (PIG) (SGG) (DLTU) (DLTU)
                 (PIU) (PIU) (SGU) (SGG) (PIG) (PIG) (PIU) (PIU)
                 (SGU) (PIG) (PIG) (SGU) (SGG) (PHIU) (PHIU) (PHIG)
                 (PHIG) (DLTG) (DLTG) (DLTU) (DLTU) (SGG) (DLTG)
                 (DLTG) (DLTU) (DLTU) (PIU) (PIU) (SGU) (PIG) (PIG)
                 (PIU) (PIU) (SGG) (SGU) (PIG) (PIG) (SGG) (SGU)
                 (SGU) (SGG)
 Unable to determine electronic state:  an orbital has unidentified symmetry.
 Alpha  occ. eigenvalues --  -20.65533 -20.65533 -11.40136 -11.39940  -1.47577
 Alpha  occ. eigenvalues --   -1.46721  -1.06467  -0.76357  -0.73805  -0.69310
 Alpha  occ. eigenvalues --   -0.63939  -0.62951  -0.56711  -0.35917
 Alpha virt. eigenvalues --   -0.01522   0.20176   0.22017   0.24983   0.29999
 Alpha virt. eigenvalues --    0.38114   0.38500   0.41176   0.47736   0.48720
 Alpha virt. eigenvalues --    0.51053   0.59848   0.67621   0.67627   0.75015
 Alpha virt. eigenvalues --    0.81465   0.81938   0.82381   0.89790   0.91592
 Alpha virt. eigenvalues --    0.92028   0.95438   0.95455   1.10582   1.10930
 Alpha virt. eigenvalues --    1.30477   1.33467   1.42614   1.56841   1.57455
 Alpha virt. eigenvalues --    1.72326   1.72327   1.88122   1.88135   1.96426
 Alpha virt. eigenvalues --    2.09077   2.15127   2.16083   2.24662   2.26165
 Alpha virt. eigenvalues --    2.43338   2.45104   2.46526   2.47879   2.71792
 Alpha virt. eigenvalues --    2.71793   2.75359   2.77995   2.79687   2.81284
 Alpha virt. eigenvalues --    2.81432   2.86679   2.88402   3.04921   3.06507
 Alpha virt. eigenvalues --    3.06509   3.17745   3.17761   3.25386   3.25395
 Alpha virt. eigenvalues --    3.39863   3.41456   3.46272   3.79853   3.79860
 Alpha virt. eigenvalues --    3.86351   3.87461   4.37001   4.37565   4.49782
 Alpha virt. eigenvalues --    4.50794   4.56733   4.58609   4.97190   5.25177
 Alpha virt. eigenvalues --    5.27893   5.35565   5.52615   5.52846   5.52846
 Alpha virt. eigenvalues --    5.53828   5.53829   5.80909   5.80911   6.09599
 Alpha virt. eigenvalues --    6.09622   6.59596   6.73748   6.73751   6.78697
 Alpha virt. eigenvalues --    6.78698   6.85979   6.87976   6.98495   7.25699
 Alpha virt. eigenvalues --    7.27496   7.37418   7.39510   7.50349   7.60878
 Alpha virt. eigenvalues --    7.63828   7.66200   7.74068  13.42245  14.49185
 Alpha virt. eigenvalues --   14.69756
          Condensed to atoms (all electrons):
 Mulliken charges:
               1
     1  C    0.212571
     2  C    0.212571
     3  O   -0.212571
     4  O   -0.212571
 Sum of Mulliken charges =  -0.00000
 Mulliken charges with hydrogens summed into heavy atoms:
               1
     1  C    0.212571
     2  C    0.212571
     3  O   -0.212571
     4  O   -0.212571
 Electronic spatial extent (au):  <R**2>=            262.9165
 Charge=             -0.0000 electrons
 Dipole moment (field-independent basis, Debye):
    X=             -0.0000    Y=             -0.0000    Z=              0.0000  Tot=              0.0000
 Unable to Open any file for archive entry.
 1\1\GINC-NODE01\SP\RCCSD(T)-FC\CC-pVTZ\C2O2\XUHJ\08-Jan-2025\0\\#T CCS
 D(T)/cc-pVTZ symm=veryloose geom=allcheck\\O=C=C=O\\0,1\C,0,0.,0.,0.64
 8413\C,0,0.,0.,-0.648413\O,0,0.,0.,1.837781\O,0,0.,0.,-1.837781\\Versi
 on=ES64L-G16RevC.01\HF=-225.4098338\MP2=-226.1610201\MP3=-226.1480958\
 MP4D=-226.1694221\MP4DQ=-226.1482194\MP4SDQ=-226.1630934\CCSD=-226.157
 2792\CCSD(T)=-226.1970314\RMSD=3.121e-09\PG=D*H [C*(O1C1.C1O1)]\\@
 The archive entry for this job was punched.


 TELEVISION IS CALLED A MEDIUM BECAUSE IT ISN'T
 RARE, AND IT ISN'T WELL DONE.
 Job cpu time:       0 days  0 hours  1 minutes 37.4 seconds.
 Elapsed time:       0 days  0 hours  0 minutes  6.1 seconds.
 File lengths (MBytes):  RWF=    190 Int=      0 D2E=      0 Chk=      2 Scr=      1
 Normal termination of Gaussian 16 at Wed Jan  8 23:19:42 2025.
