%nprocshared=12
%mem=15600MB
%chk=FUDUPLHPBBXJRW-UHFFFAOYSA-N-1.chk
#T CCSD(T)/cc-pVDZ symm=veryloose 

c1ccc2cc3c(cc2c1)c1ccccc1c1cc2ccccc2cc13

0 1
C        -0.000000       5.696486      -1.595399
C        -0.000000       4.988436      -2.828892
C        -0.000000       3.611298      -2.840398
C        -0.000000       2.874000      -1.620805
C        -0.000000       1.464577      -1.585584
C        -0.000000       0.737033      -0.398372
C         0.000000       1.453531       0.850572
C         0.000000       2.845841       0.821112
C        -0.000000       3.587083      -0.378513
C        -0.000000       5.011948      -0.400316
C         0.000000       0.709958       2.123058
C         0.000000       1.383640       3.364613
C         0.000000       0.700527       4.572024
C        -0.000000      -0.700527       4.572024
C        -0.000000      -1.383640       3.364613
C        -0.000000      -0.709958       2.123058
C        -0.000000      -1.453531       0.850572
C        -0.000000      -2.845841       0.821112
C        -0.000000      -3.587083      -0.378513
C        -0.000000      -5.011948      -0.400316
C        -0.000000      -5.696486      -1.595399
C        -0.000000      -4.988436      -2.828892
C        -0.000000      -3.611298      -2.840398
C        -0.000000      -2.874000      -1.620805
C        -0.000000      -1.464577      -1.585584
C        -0.000000      -0.737033      -0.398372
H        -0.000000       6.790476      -1.601474
H        -0.000000       5.545382      -3.770517
H        -0.000000       3.062826      -3.787586
H        -0.000000       0.948223      -2.546149
H         0.000000       3.415557       1.750758
H         0.000000       5.553420       0.550891
H         0.000000       2.473272       3.391497
H         0.000000       1.256518       5.513981
H        -0.000000      -1.256518       5.513981
H        -0.000000      -2.473272       3.391497
H        -0.000000      -3.415557       1.750758
H        -0.000000      -5.553420       0.550891
H        -0.000000      -6.790476      -1.601474
H        -0.000000      -5.545382      -3.770517
H        -0.000000      -3.062826      -3.787586
H        -0.000000      -0.948223      -2.546149


--link1--
%nprocshared=12
%mem=15600MB
%chk=FUDUPLHPBBXJRW-UHFFFAOYSA-N-1.chk
#T CCSD(T)/cc-pVTZ symm=veryloose geom=allcheck 

