%nprocshared=16
%mem=70400MB
%chk=GBROPGWFBFCKAG-UHFFFAOYSA-N-1.chk
#T CCSD(T)/cc-pVDZ symm=veryloose 

c1ccc2c(c1)ccc1c2ccc2c3ccccc3ccc21

0 1
C         0.000000       5.729215       0.385497
C        -0.000000       5.044649       1.619229
C        -0.000000       3.660748       1.654020
C        -0.000000       2.890119       0.463206
C         0.000000       3.590730      -0.780811
C         0.000000       5.007788      -0.793141
C         0.000000       2.841257      -1.998092
C         0.000000       1.475743      -1.993037
C         0.000000       0.723908      -0.770965
C        -0.000000       1.435975       0.459257
C        -0.000000       0.685691       1.668293
C         0.000000      -0.685691       1.668293
C        -0.000000      -1.435975       0.459257
C        -0.000000      -2.890119       0.463206
C        -0.000000      -3.660748       1.654020
C        -0.000000      -5.044649       1.619229
C        -0.000000      -5.729215       0.385497
C        -0.000000      -5.007788      -0.793141
C        -0.000000      -3.590730      -0.780811
C        -0.000000      -2.841257      -1.998092
C        -0.000000      -1.475743      -1.993037
C        -0.000000      -0.723908      -0.770965
H         0.000000       6.822938       0.364906
H        -0.000000       5.609657       2.556037
H        -0.000000       3.165129       2.625801
H         0.000000       5.522743      -1.758862
H         0.000000       3.386351      -2.946896
H         0.000000       0.954156      -2.949859
H        -0.000000       1.203084       2.628142
H         0.000000      -1.203084       2.628142
H        -0.000000      -3.165129       2.625801
H        -0.000000      -5.609657       2.556037
H        -0.000000      -6.822938       0.364906
H        -0.000000      -5.522743      -1.758862
H        -0.000000      -3.386351      -2.946896
H        -0.000000      -0.954156      -2.949859


--link1--
%nprocshared=16
%mem=70400MB
%chk=GBROPGWFBFCKAG-UHFFFAOYSA-N-1.chk
#T CCSD(T)/cc-pVTZ symm=veryloose geom=allcheck 

