 Entering Gaussian System, Link 0=g16
 Initial command:
 /home/software/g16/l1.exe "/home/software/g16tmp/Gau-120481.inp" -scrdir="/home/software/g16tmp/"
 Default is to use a total of   8 processors:
                                8 via shared-memory
                                1 via Linda
 Entering Link 1 = /home/software/g16/l1.exe PID=    120482.
  
 Copyright (c) 1988-2019, Gaussian, Inc.  All Rights Reserved.
  
 This is part of the Gaussian(R) 16 program.  It is based on
 the Gaussian(R) 09 system (copyright 2009, Gaussian, Inc.),
 the Gaussian(R) 03 system (copyright 2003, Gaussian, Inc.),
 the Gaussian(R) 98 system (copyright 1998, Gaussian, Inc.),
 the Gaussian(R) 94 system (copyright 1995, Gaussian, Inc.),
 the Gaussian 92(TM) system (copyright 1992, Gaussian, Inc.),
 the Gaussian 90(TM) system (copyright 1990, Gaussian, Inc.),
 the Gaussian 88(TM) system (copyright 1988, Gaussian, Inc.),
 the Gaussian 86(TM) system (copyright 1986, Carnegie Mellon
 University), and the Gaussian 82(TM) system (copyright 1983,
 Carnegie Mellon University). Gaussian is a federally registered
 trademark of Gaussian, Inc.
  
 This software contains proprietary and confidential information,
 including trade secrets, belonging to Gaussian, Inc.
  
 This software is provided under written license and may be
 used, copied, transmitted, or stored only in accord with that
 written license.
  
 The following legend is applicable only to US Government
 contracts under FAR:
  
                    RESTRICTED RIGHTS LEGEND
  
 Use, reproduction and disclosure by the US Government is
 subject to restrictions as set forth in subparagraphs (a)
 and (c) of the Commercial Computer Software - Restricted
 Rights clause in FAR 52.227-19.
  
 Gaussian, Inc.
 340 Quinnipiac St., Bldg. 40, Wallingford CT 06492
  
  
 ---------------------------------------------------------------
 Warning -- This program may not be used in any manner that
 competes with the business of Gaussian, Inc. or will provide
 assistance to any competitor of Gaussian, Inc.  The licensee
 of this program is prohibited from giving any competitor of
 Gaussian, Inc. access to this program.  By using this program,
 the user acknowledges that Gaussian, Inc. is engaged in the
 business of creating and licensing software in the field of
 computational chemistry and represents and warrants to the
 licensee that it is not a competitor of Gaussian, Inc. and that
 it will not use this program in any manner prohibited above.
 ---------------------------------------------------------------
  

 Cite this work as:
 Gaussian 16, Revision C.01,
 M. J. Frisch, G. W. Trucks, H. B. Schlegel, G. E. Scuseria, 
 M. A. Robb, J. R. Cheeseman, G. Scalmani, V. Barone, 
 G. A. Petersson, H. Nakatsuji, X. Li, M. Caricato, A. V. Marenich, 
 J. Bloino, B. G. Janesko, R. Gomperts, B. Mennucci, H. P. Hratchian, 
 J. V. Ortiz, A. F. Izmaylov, J. L. Sonnenberg, D. Williams-Young, 
 F. Ding, F. Lipparini, F. Egidi, J. Goings, B. Peng, A. Petrone, 
 T. Henderson, D. Ranasinghe, V. G. Zakrzewski, J. Gao, N. Rega, 
 G. Zheng, W. Liang, M. Hada, M. Ehara, K. Toyota, R. Fukuda, 
 J. Hasegawa, M. Ishida, T. Nakajima, Y. Honda, O. Kitao, H. Nakai, 
 T. Vreven, K. Throssell, J. A. Montgomery, Jr., J. E. Peralta, 
 F. Ogliaro, M. J. Bearpark, J. J. Heyd, E. N. Brothers, K. N. Kudin, 
 V. N. Staroverov, T. A. Keith, R. Kobayashi, J. Normand, 
 K. Raghavachari, A. P. Rendell, J. C. Burant, S. S. Iyengar, 
 J. Tomasi, M. Cossi, J. M. Millam, M. Klene, C. Adamo, R. Cammi, 
 J. W. Ochterski, R. L. Martin, K. Morokuma, O. Farkas, 
 J. B. Foresman, and D. J. Fox, Gaussian, Inc., Wallingford CT, 2019.
 
 ******************************************
 Gaussian 16:  ES64L-G16RevC.01  3-Jul-2019
                20-Dec-2023 
 ******************************************
 %nprocshared=16
 Will use up to   16 processors via shared memory.
 %mem=8000MB
 %chk=GRVDJDISBSALJP-UHFFFAOYSA-N.chk
 ---------------------------------
 #T CCSD(T)/cc-pVDZ symm=veryloose
 ---------------------------------
 ----
 C[O]
 ----
 Symbolic Z-matrix:
 Charge =  0 Multiplicity = 2
 C                    -0.28653  -0.22959   0.43187 
 O                     0.42236   0.31234  -0.58812 
 H                    -0.14492   0.28817   1.4096 
 H                    -0.15097  -1.33034   0.54507 
 H                    -1.36378  -0.07899   0.15908 
 
                    Distance matrix (angstroms):
                    1          2          3          4          5
     1  C    0.000000
     2  O    1.355200   0.000000
     3  H    1.115381   2.076836   0.000000
     4  H    1.114823   2.076340   1.834937   0.000000
     5  H    1.121410   1.975272   1.784431   1.784869   0.000000
 This structure is nearly, but not quite of a higher symmetry.
 Consider Symm=Loose if the higher symmetry is desired.
 Framework group  C1[X(CH3O)]
 Deg. of freedom     9
                         Standard orientation:                         
 ---------------------------------------------------------------------
 Center     Atomic      Atomic             Coordinates (Angstroms)
 Number     Number       Type             X           Y           Z
 ---------------------------------------------------------------------
      1          6           0        0.168177   -0.473994    0.261465
      2          8           0       -0.207237    0.666060   -0.367746
      3          1           0        0.722146   -0.305973    1.214861
      4          1           0        0.714749   -1.194210   -0.390747
      5          1           0       -0.788067   -0.984330    0.549067
 ---------------------------------------------------------------------
 Rotational constants (GHZ):         154.7277476          28.1448142          27.9469968
    43 basis functions,    87 primitive gaussians,    45 cartesian basis functions
     9 alpha electrons        8 beta electrons
       nuclear repulsion energy        34.3708785609 Hartrees.
 NAtoms=    5 NActive=    5 NUniq=    5 SFac= 1.00D+00 NAtFMM=   60 NAOKFM=F Big=F
 ExpMin= 1.22D-01 ExpMax= 1.17D+04 ExpMxC= 4.01D+02 IAcc=3 IRadAn=         5 AccDes= 0.00D+00
 Harris functional with IExCor=  205 and IRadAn=       5 diagonalized for initial guess.
 HarFok:  IExCor=  205 AccDes= 0.00D+00 IRadAn=         5 IDoV= 1 UseB2=F ITyADJ=14
 ICtDFT=  3500011 ScaDFX=  1.000000  1.000000  1.000000  1.000000
 FoFCou: FMM=F IPFlag=           0 FMFlag=      100000 FMFlg1=           0
         NFxFlg=           0 DoJE=T BraDBF=F KetDBF=T FulRan=T
         wScrn=  0.000000 ICntrl=       500 IOpCl=  0 I1Cent=   200000004 NGrid=           0
         NMat0=    1 NMatS0=      1 NMatT0=    0 NMatD0=    1 NMtDS0=    0 NMtDT0=    0
 Petite list used in FoFCou.
 Initial guess <Sx>= 0.0000 <Sy>= 0.0000 <Sz>= 0.5000 <S**2>= 0.7500 S= 0.5000
 SCF Done:  E(UHF) =  -114.428491001     A.U. after   21 cycles
            NFock= 21  Conv=0.22D-08     -V/T= 2.0006
 <Sx>= 0.0000 <Sy>= 0.0000 <Sz>= 0.5000 <S**2>= 0.7581 S= 0.5041
 <L.S>=  0.00000000000    
 Annihilation of the first spin contaminant:
 S**2 before annihilation     0.7581,   after     0.7500
 ExpMin= 1.22D-01 ExpMax= 1.17D+04 ExpMxC= 4.01D+02 IAcc=3 IRadAn=         5 AccDes= 0.00D+00
 HarFok:  IExCor=  205 AccDes= 0.00D+00 IRadAn=         5 IDoV=-2 UseB2=F ITyADJ=14
 ICtDFT= 12500011 ScaDFX=  1.000000  1.000000  1.000000  1.000000
 NROrb=     41 NOA=     7 NOB=     6 NVA=    34 NVB=    35
 Semi-Direct transformation.
 ModeAB=           2 MOrb=             7 LenV=    1048354590
 LASXX=       207172 LTotXX=      207172 LenRXX=      207172
 LTotAB=      229026 MaxLAS=      297045 LenRXY=      297045
 NonZer=      414344 LenScr=     1048576 LnRSAI=           0
 LnScr1=           0 LExtra=           0 Total=      1552793
 MaxDsk=          -1 SrtSym=           F ITran=            4
 JobTyp=1 Pass  1:  I=   1 to   7.
 (rs|ai) integrals will be sorted in core.
 ModeAB=           2 MOrb=             6 LenV=    1048354590
 LASXX=       181245 LTotXX=      181245 LenRXX=      254610
 LTotAB=      137445 MaxLAS=      254610 LenRXY=      137445
 NonZer=      362490 LenScr=     1048576 LnRSAI=           0
 LnScr1=           0 LExtra=           0 Total=      1440631
 MaxDsk=          -1 SrtSym=           F ITran=            4
 JobTyp=2 Pass  1:  I=   1 to   6.
 (rs|ai) integrals will be sorted in core.
 SymMOI:  orbitals are not symmetric.
 ANorm=    0.1040419035D+01
 E2 =    -0.2880763466D+00 EUMP2 =    -0.11471656734729D+03
 (S**2,0)=  0.75815D+00           (S**2,1)=  0.75162D+00
 E(PUHF)=      -0.11443188030D+03        E(PMP2)=      -0.11471860334D+03
 CIDS: In Core Option IDoMem=           1.
 Produce multiple copies of IABC intergrals
 E(PMP3)=      -0.11474282866D+03
 MP4(R+Q)=  0.42583634D-02
 E3=       -0.25056103D-01        EUMP3=      -0.11474162345D+03
 E4(DQ)=   -0.25802941D-02        UMP4(DQ)=   -0.11474420374D+03
 E4(SDQ)=  -0.49453358D-02        UMP4(SDQ)=  -0.11474656879D+03
 DE(Corr)= -0.30884621     E(Corr)=     -114.73733721    
 NORM(A)=   0.10488388D+01
 DE(Corr)= -0.31660705     E(CORR)=     -114.74509805     Delta=-7.76D-03
 NORM(A)=   0.10529057D+01
 DE(Corr)= -0.31836781     E(CORR)=     -114.74685881     Delta=-1.76D-03
 NORM(A)=   0.10546354D+01
 DE(Corr)= -0.31933323     E(CORR)=     -114.74782423     Delta=-9.65D-04
 NORM(A)=   0.10556387D+01
 DE(Corr)= -0.31956751     E(CORR)=     -114.74805851     Delta=-2.34D-04
 NORM(A)=   0.10559530D+01
 DE(Corr)= -0.31960621     E(CORR)=     -114.74809721     Delta=-3.87D-05
 NORM(A)=   0.10559994D+01
 DE(Corr)= -0.31960852     E(CORR)=     -114.74809952     Delta=-2.32D-06
 NORM(A)=   0.10560093D+01
 DE(Corr)= -0.31960681     E(CORR)=     -114.74809781     Delta= 1.71D-06
 NORM(A)=   0.10560149D+01
 DE(Corr)= -0.31960944     E(CORR)=     -114.74810044     Delta=-2.63D-06
 NORM(A)=   0.10560153D+01
 DE(Corr)= -0.31960923     E(CORR)=     -114.74810023     Delta= 2.12D-07
 NORM(A)=   0.10560157D+01
 DE(Corr)= -0.31960967     E(CORR)=     -114.74810067     Delta=-4.38D-07
 NORM(A)=   0.10560159D+01
 DE(Corr)= -0.31960969     E(CORR)=     -114.74810069     Delta=-1.82D-08
 NORM(A)=   0.10560164D+01
 Wavefunction amplitudes converged. E(Corr)=     -114.74810069    
 Largest amplitude= 6.32D-02
 Time for triples=        3.08 seconds.
 T4(CCSD)= -0.73440158D-02
 T5(CCSD)=  0.52659995D-03
 CCSD(T)= -0.11475491810D+03

 S**2, projected HF & approx projected MPn energies after annihilation of
 unwanted spin states (see manual for definitions):

 spins       (S**2,0) (S**2,1)    PUHF        PMP2        PMP3        PMP4
 annihilated
 s+1         0.74997  0.75002 -114.431880 -114.718603 -114.742829
 s+1,s+2     0.75000  0.75000 -114.431871 -114.718595 -114.742821
 s+1 to s+3  0.75000  0.75000 -114.431871 -114.718595 -114.742821
 s+1 to s+4  0.75000  0.75000 -114.431871 -114.718595 -114.742821
 s+1 to s+5  0.75000  0.75000 -114.431871
 s+1 to s+6  0.75000  0.75000 -114.431871

 Discarding MO integrals.

 **********************************************************************

            Population analysis using the SCF Density.

 **********************************************************************

 Orbital symmetries:
 Alpha Orbitals:
       Occupied  (A) (A) (A) (A) (A) (A) (A) (A) (A)
       Virtual   (A) (A) (A) (A) (A) (A) (A) (A) (A) (A) (A) (A)
                 (A) (A) (A) (A) (A) (A) (A) (A) (A) (A) (A) (A)
                 (A) (A) (A) (A) (A) (A) (A) (A) (A) (A)
 Beta  Orbitals:
       Occupied  (A) (A) (A) (A) (A) (A) (A) (A)
       Virtual   (A) (A) (A) (A) (A) (A) (A) (A) (A) (A) (A) (A)
                 (A) (A) (A) (A) (A) (A) (A) (A) (A) (A) (A) (A)
                 (A) (A) (A) (A) (A) (A) (A) (A) (A) (A) (A)
 The electronic state is 2-A.
 Alpha  occ. eigenvalues --  -20.61545 -11.29093  -1.40821  -0.91399  -0.69948
 Alpha  occ. eigenvalues --   -0.64870  -0.62573  -0.50616  -0.46957
 Alpha virt. eigenvalues --    0.18654   0.25118   0.26031   0.32177   0.59818
 Alpha virt. eigenvalues --    0.64174   0.75654   0.82667   0.83744   0.85046
 Alpha virt. eigenvalues --    1.08584   1.10911   1.12984   1.20612   1.30335
 Alpha virt. eigenvalues --    1.32344   1.64509   1.81081   1.83400   1.86866
 Alpha virt. eigenvalues --    1.89479   1.92874   1.98898   2.24236   2.29589
 Alpha virt. eigenvalues --    2.36907   2.65565   2.65789   2.68691   2.97778
 Alpha virt. eigenvalues --    2.98718   3.32337   3.42041   3.59308
  Beta  occ. eigenvalues --  -20.57535 -11.29413  -1.27960  -0.88343  -0.63321
  Beta  occ. eigenvalues --   -0.59183  -0.57321  -0.43734
  Beta virt. eigenvalues --    0.12550   0.18790   0.26014   0.26854   0.33522
  Beta virt. eigenvalues --    0.61808   0.64654   0.76576   0.82822   0.83563
  Beta virt. eigenvalues --    0.86498   1.10605   1.13765   1.19002   1.22268
  Beta virt. eigenvalues --    1.33641   1.40213   1.65071   1.82413   1.83852
  Beta virt. eigenvalues --    1.87873   1.89695   1.94306   2.01418   2.25891
  Beta virt. eigenvalues --    2.30561   2.38489   2.66886   2.67429   2.69422
  Beta virt. eigenvalues --    3.07697   3.08391   3.41447   3.43551   3.63586
          Condensed to atoms (all electrons):
          Atomic-Atomic Spin Densities.
 Mulliken charges and spin densities:
               1          2
     1  C    0.116501  -0.135467
     2  O   -0.244701   1.001053
     3  H    0.034677   0.019791
     4  H    0.034678   0.019620
     5  H    0.058845   0.095003
 Sum of Mulliken charges =  -0.00000   1.00000
 Mulliken charges and spin densities with hydrogens summed into heavy atoms:
               1          2
     1  C    0.244701  -0.001053
     2  O   -0.244701   1.001053
 Electronic spatial extent (au):  <R**2>=             74.3243
 Charge=             -0.0000 electrons
 Dipole moment (field-independent basis, Debye):
    X=              0.3728    Y=             -1.6031    Z=              0.8856  Tot=              1.8690
 Unable to Open any file for archive entry.
 1\1\GINC-NODE06\SP\UCCSD(T)-FC\CC-pVDZ\C1H3O1(2)\XUHJ\20-Dec-2023\0\\#
 T CCSD(T)/cc-pVDZ symm=veryloose\\C[O]\\0,2\C,0,-0.286527,-0.22959,0.4
 31867\O,0,0.422355,0.312336,-0.588118\H,0,-0.144924,0.288167,1.409595\
 H,0,-0.150974,-1.330336,0.545068\H,0,-1.363776,-0.078985,0.159078\\Ver
 sion=ES64L-G16RevC.01\State=2-A\HF=-114.428491\MP2=-114.7165673\MP3=-1
 14.7416235\MP4D=-114.7484621\MP4DQ=-114.7442037\PUHF=-114.4318803\PMP2
 -0=-114.7186033\PMP3-0=-114.7428287\MP4SDQ=-114.7465688\CCSD=-114.7481
 007\CCSD(T)=-114.7549181\S2=0.758148\S2-1=0.751618\S2A=0.750049\RMSD=2
 .194e-09\PG=C01 [X(C1H3O1)]\\@
 The archive entry for this job was punched.


 BE NOT THE FIRST BY WHOM THE NEW ARE TRIED,
 NOR YET THE THE LAST TO LAY THE OLD ASIDE.

                          -- ALEXANDER POPE
 Job cpu time:       0 days  0 hours  0 minutes 35.6 seconds.
 Elapsed time:       0 days  0 hours  0 minutes  2.5 seconds.
 File lengths (MBytes):  RWF=    113 Int=      0 D2E=      0 Chk=      2 Scr=      2
 Normal termination of Gaussian 16 at Wed Dec 20 02:06:40 2023.
 Initial command:
 /home/software/g16/l1.exe "/home/software/g16tmp/Gau-120481.inp" -scrdir="/home/software/g16tmp/"
 Default is to use a total of   8 processors:
                                8 via shared-memory
                                1 via Linda
 Entering Link 1 = /home/software/g16/l1.exe PID=    120850.
  
 Copyright (c) 1988-2019, Gaussian, Inc.  All Rights Reserved.
  
 This is part of the Gaussian(R) 16 program.  It is based on
 the Gaussian(R) 09 system (copyright 2009, Gaussian, Inc.),
 the Gaussian(R) 03 system (copyright 2003, Gaussian, Inc.),
 the Gaussian(R) 98 system (copyright 1998, Gaussian, Inc.),
 the Gaussian(R) 94 system (copyright 1995, Gaussian, Inc.),
 the Gaussian 92(TM) system (copyright 1992, Gaussian, Inc.),
 the Gaussian 90(TM) system (copyright 1990, Gaussian, Inc.),
 the Gaussian 88(TM) system (copyright 1988, Gaussian, Inc.),
 the Gaussian 86(TM) system (copyright 1986, Carnegie Mellon
 University), and the Gaussian 82(TM) system (copyright 1983,
 Carnegie Mellon University). Gaussian is a federally registered
 trademark of Gaussian, Inc.
  
 This software contains proprietary and confidential information,
 including trade secrets, belonging to Gaussian, Inc.
  
 This software is provided under written license and may be
 used, copied, transmitted, or stored only in accord with that
 written license.
  
 The following legend is applicable only to US Government
 contracts under FAR:
  
                    RESTRICTED RIGHTS LEGEND
  
 Use, reproduction and disclosure by the US Government is
 subject to restrictions as set forth in subparagraphs (a)
 and (c) of the Commercial Computer Software - Restricted
 Rights clause in FAR 52.227-19.
  
 Gaussian, Inc.
 340 Quinnipiac St., Bldg. 40, Wallingford CT 06492
  
  
 ---------------------------------------------------------------
 Warning -- This program may not be used in any manner that
 competes with the business of Gaussian, Inc. or will provide
 assistance to any competitor of Gaussian, Inc.  The licensee
 of this program is prohibited from giving any competitor of
 Gaussian, Inc. access to this program.  By using this program,
 the user acknowledges that Gaussian, Inc. is engaged in the
 business of creating and licensing software in the field of
 computational chemistry and represents and warrants to the
 licensee that it is not a competitor of Gaussian, Inc. and that
 it will not use this program in any manner prohibited above.
 ---------------------------------------------------------------
  

 Cite this work as:
 Gaussian 16, Revision C.01,
 M. J. Frisch, G. W. Trucks, H. B. Schlegel, G. E. Scuseria, 
 M. A. Robb, J. R. Cheeseman, G. Scalmani, V. Barone, 
 G. A. Petersson, H. Nakatsuji, X. Li, M. Caricato, A. V. Marenich, 
 J. Bloino, B. G. Janesko, R. Gomperts, B. Mennucci, H. P. Hratchian, 
 J. V. Ortiz, A. F. Izmaylov, J. L. Sonnenberg, D. Williams-Young, 
 F. Ding, F. Lipparini, F. Egidi, J. Goings, B. Peng, A. Petrone, 
 T. Henderson, D. Ranasinghe, V. G. Zakrzewski, J. Gao, N. Rega, 
 G. Zheng, W. Liang, M. Hada, M. Ehara, K. Toyota, R. Fukuda, 
 J. Hasegawa, M. Ishida, T. Nakajima, Y. Honda, O. Kitao, H. Nakai, 
 T. Vreven, K. Throssell, J. A. Montgomery, Jr., J. E. Peralta, 
 F. Ogliaro, M. J. Bearpark, J. J. Heyd, E. N. Brothers, K. N. Kudin, 
 V. N. Staroverov, T. A. Keith, R. Kobayashi, J. Normand, 
 K. Raghavachari, A. P. Rendell, J. C. Burant, S. S. Iyengar, 
 J. Tomasi, M. Cossi, J. M. Millam, M. Klene, C. Adamo, R. Cammi, 
 J. W. Ochterski, R. L. Martin, K. Morokuma, O. Farkas, 
 J. B. Foresman, and D. J. Fox, Gaussian, Inc., Wallingford CT, 2019.
 
 ******************************************
 Gaussian 16:  ES64L-G16RevC.01  3-Jul-2019
                20-Dec-2023 
 ******************************************
 %nprocshared=16
 Will use up to   16 processors via shared memory.
 %mem=8000MB
 %chk=GRVDJDISBSALJP-UHFFFAOYSA-N.chk
 -----------------------------------------------
 #T CCSD(T)/cc-pVTZ symm=veryloose geom=allcheck
 -----------------------------------------------
 Structure from the checkpoint file:  "GRVDJDISBSALJP-UHFFFAOYSA-N.chk"
 ----
 C[O]
 ----
 Charge =  0 Multiplicity = 2
 Z-Matrix found in chk file.
 C,0,-0.286527,-0.22959,0.431867
 O,0,0.422355,0.312336,-0.588118
 H,0,-0.144924,0.288167,1.409595
 H,0,-0.150974,-1.330336,0.545068
 H,0,-1.363776,-0.078985,0.159078
 Recover connectivity data from disk.
                    Distance matrix (angstroms):
                    1          2          3          4          5
     1  C    0.000000
     2  O    1.355200   0.000000
     3  H    1.115381   2.076836   0.000000
     4  H    1.114823   2.076340   1.834937   0.000000
     5  H    1.121410   1.975272   1.784431   1.784869   0.000000
 This structure is nearly, but not quite of a higher symmetry.
 Consider Symm=Loose if the higher symmetry is desired.
 Framework group  C1[X(CH3O)]
 Deg. of freedom     9
                         Standard orientation:                         
 ---------------------------------------------------------------------
 Center     Atomic      Atomic             Coordinates (Angstroms)
 Number     Number       Type             X           Y           Z
 ---------------------------------------------------------------------
      1          6           0        0.168177   -0.473994    0.261465
      2          8           0       -0.207237    0.666060   -0.367746
      3          1           0        0.722146   -0.305973    1.214861
      4          1           0        0.714749   -1.194210   -0.390747
      5          1           0       -0.788067   -0.984330    0.549067
 ---------------------------------------------------------------------
 Rotational constants (GHZ):         154.7277476          28.1448142          27.9469968
   102 basis functions,   155 primitive gaussians,   115 cartesian basis functions
     9 alpha electrons        8 beta electrons
       nuclear repulsion energy        34.3708785609 Hartrees.
 NAtoms=    5 NActive=    5 NUniq=    5 SFac= 1.00D+00 NAtFMM=   60 NAOKFM=F Big=F
 ExpMin= 1.03D-01 ExpMax= 1.53D+04 ExpMxC= 5.22D+02 IAcc=3 IRadAn=         5 AccDes= 0.00D+00
 Harris functional with IExCor=  205 and IRadAn=       5 diagonalized for initial guess.
 HarFok:  IExCor=  205 AccDes= 0.00D+00 IRadAn=         5 IDoV= 1 UseB2=F ITyADJ=14
 ICtDFT=  3500011 ScaDFX=  1.000000  1.000000  1.000000  1.000000
 FoFCou: FMM=F IPFlag=           0 FMFlag=      100000 FMFlg1=           0
         NFxFlg=           0 DoJE=T BraDBF=F KetDBF=T FulRan=T
         wScrn=  0.000000 ICntrl=       500 IOpCl=  0 I1Cent=   200000004 NGrid=           0
         NMat0=    1 NMatS0=      1 NMatT0=    0 NMatD0=    1 NMtDS0=    0 NMtDT0=    0
 Petite list used in FoFCou.
 Initial guess <Sx>= 0.0000 <Sy>= 0.0000 <Sz>= 0.5000 <S**2>= 0.7500 S= 0.5000
 SCF Done:  E(UHF) =  -114.464229845     A.U. after   21 cycles
            NFock= 21  Conv=0.12D-08     -V/T= 2.0011
 <Sx>= 0.0000 <Sy>= 0.0000 <Sz>= 0.5000 <S**2>= 0.7599 S= 0.5049
 <L.S>=  0.00000000000    
 Annihilation of the first spin contaminant:
 S**2 before annihilation     0.7599,   after     0.7501
 ExpMin= 1.03D-01 ExpMax= 1.53D+04 ExpMxC= 5.22D+02 IAcc=3 IRadAn=         5 AccDes= 0.00D+00
 HarFok:  IExCor=  205 AccDes= 0.00D+00 IRadAn=         5 IDoV=-2 UseB2=F ITyADJ=14
 ICtDFT= 12500011 ScaDFX=  1.000000  1.000000  1.000000  1.000000
 NROrb=    100 NOA=     7 NOB=     6 NVA=    93 NVB=    94

 **** Warning!!: The largest alpha MO coefficient is  0.11401411D+02


 **** Warning!!: The largest beta MO coefficient is  0.11398946D+02

 Semi-Direct transformation.
 ModeAB=           2 MOrb=             7 LenV=    1048094717
 LASXX=      3312519 LTotXX=     3312519 LenRXX=     3312519
 LTotAB=     3428950 MaxLAS=     4669000 LenRXY=     4669000
 NonZer=     6625038 LenScr=    10485760 LnRSAI=           0
 LnScr1=           0 LExtra=           0 Total=     18467279
 MaxDsk=          -1 SrtSym=           F ITran=            4
 JobTyp=1 Pass  1:  I=   1 to   7.
 (rs|ai) integrals will be sorted in core.
 ModeAB=           2 MOrb=             6 LenV=    1048094717
 LASXX=      2857485 LTotXX=     2857485 LenRXX=     4002000
 LTotAB=     2557035 MaxLAS=     4002000 LenRXY=     2557035
 NonZer=     5714970 LenScr=     9175040 LnRSAI=           0
 LnScr1=           0 LExtra=           0 Total=     15734075
 MaxDsk=          -1 SrtSym=           F ITran=            4
 JobTyp=2 Pass  1:  I=   1 to   6.
 (rs|ai) integrals will be sorted in core.
 SymMOI:  orbitals are not symmetric.
 ANorm=    0.1046493698D+01
 E2 =    -0.3690956758D+00 EUMP2 =    -0.11483332552074D+03
 (S**2,0)=  0.75989D+00           (S**2,1)=  0.75200D+00
 E(PUHF)=      -0.11446824430D+03        E(PMP2)=      -0.11483574624D+03
 CIDS: In Core Option IDoMem=           1.
 Produce multiple copies of IABC intergrals
 E(PMP3)=      -0.11485779560D+03
 MP4(R+Q)=  0.70010787D-02
 E3=       -0.23060339D-01        EUMP3=      -0.11485638586D+03
 E4(DQ)=   -0.38960760D-03        UMP4(DQ)=   -0.11485677547D+03
 E4(SDQ)=  -0.38116746D-02        UMP4(SDQ)=  -0.11486019753D+03
 DE(Corr)= -0.38508377     E(Corr)=     -114.84931362    
 NORM(A)=   0.10533751D+01
 DE(Corr)= -0.39394893     E(CORR)=     -114.85817877     Delta=-8.87D-03
 NORM(A)=   0.10579330D+01
 DE(Corr)= -0.39544848     E(CORR)=     -114.85967832     Delta=-1.50D-03
 NORM(A)=   0.10599980D+01
 DE(Corr)= -0.39661834     E(CORR)=     -114.86084818     Delta=-1.17D-03
 NORM(A)=   0.10612250D+01
 DE(Corr)= -0.39691138     E(CORR)=     -114.86114123     Delta=-2.93D-04
 NORM(A)=   0.10617413D+01
 DE(Corr)= -0.39698096     E(CORR)=     -114.86121080     Delta=-6.96D-05
 NORM(A)=   0.10617916D+01
 DE(Corr)= -0.39698351     E(CORR)=     -114.86121336     Delta=-2.55D-06
 NORM(A)=   0.10618121D+01
 DE(Corr)= -0.39698077     E(CORR)=     -114.86121061     Delta= 2.74D-06
 NORM(A)=   0.10618195D+01
 DE(Corr)= -0.39698410     E(CORR)=     -114.86121394     Delta=-3.33D-06
 NORM(A)=   0.10618202D+01
 DE(Corr)= -0.39698375     E(CORR)=     -114.86121359     Delta= 3.51D-07
 NORM(A)=   0.10618214D+01
 DE(Corr)= -0.39698451     E(CORR)=     -114.86121435     Delta=-7.60D-07
 NORM(A)=   0.10618221D+01
 DE(Corr)= -0.39698463     E(CORR)=     -114.86121448     Delta=-1.25D-07
 NORM(A)=   0.10618231D+01
 DE(Corr)= -0.39698491     E(CORR)=     -114.86121476     Delta=-2.78D-07
 NORM(A)=   0.10618236D+01
 DE(Corr)= -0.39698502     E(CORR)=     -114.86121486     Delta=-1.08D-07
 NORM(A)=   0.10618240D+01
 DE(Corr)= -0.39698506     E(CORR)=     -114.86121490     Delta=-3.85D-08
 NORM(A)=   0.10618242D+01
 Wavefunction amplitudes converged. E(Corr)=     -114.86121490    
 Largest amplitude= 7.25D-02
 Time for triples=       82.80 seconds.
 T4(CCSD)= -0.13585835D-01
 T5(CCSD)=  0.74685278D-03
 CCSD(T)= -0.11487405388D+03

 S**2, projected HF & approx projected MPn energies after annihilation of
 unwanted spin states (see manual for definitions):

 spins       (S**2,0) (S**2,1)    PUHF        PMP2        PMP3        PMP4
 annihilated
 s+1         0.74996  0.75002 -114.468244 -114.835746 -114.857796
 s+1,s+2     0.75000  0.75000 -114.468231 -114.835734 -114.857785
 s+1 to s+3  0.75000  0.75000 -114.468231 -114.835734 -114.857785
 s+1 to s+4  0.75000  0.75000 -114.468231 -114.835734 -114.857785
 s+1 to s+5  0.75000  0.75000 -114.468231
 s+1 to s+6  0.75000  0.75000 -114.468231

 Discarding MO integrals.

 **********************************************************************

            Population analysis using the SCF Density.

 **********************************************************************

 Orbital symmetries:
 Alpha Orbitals:
       Occupied  (A) (A) (A) (A) (A) (A) (A) (A) (A)
       Virtual   (A) (A) (A) (A) (A) (A) (A) (A) (A) (A) (A) (A)
                 (A) (A) (A) (A) (A) (A) (A) (A) (A) (A) (A) (A)
                 (A) (A) (A) (A) (A) (A) (A) (A) (A) (A) (A) (A)
                 (A) (A) (A) (A) (A) (A) (A) (A) (A) (A) (A) (A)
                 (A) (A) (A) (A) (A) (A) (A) (A) (A) (A) (A) (A)
                 (A) (A) (A) (A) (A) (A) (A) (A) (A) (A) (A) (A)
                 (A) (A) (A) (A) (A) (A) (A) (A) (A) (A) (A) (A)
                 (A) (A) (A) (A) (A) (A) (A) (A) (A)
 Beta  Orbitals:
       Occupied  (A) (A) (A) (A) (A) (A) (A) (A)
       Virtual   (A) (A) (A) (A) (A) (A) (A) (A) (A) (A) (A) (A)
                 (A) (A) (A) (A) (A) (A) (A) (A) (A) (A) (A) (A)
                 (A) (A) (A) (A) (A) (A) (A) (A) (A) (A) (A) (A)
                 (A) (A) (A) (A) (A) (A) (A) (A) (A) (A) (A) (A)
                 (A) (A) (A) (A) (A) (A) (A) (A) (A) (A) (A) (A)
                 (A) (A) (A) (A) (A) (A) (A) (A) (A) (A) (A) (A)
                 (A) (A) (A) (A) (A) (A) (A) (A) (A) (A) (A) (A)
                 (A) (A) (A) (A) (A) (A) (A) (A) (A) (A)
 The electronic state is 2-A.
 Alpha  occ. eigenvalues --  -20.61796 -11.28614  -1.41103  -0.91569  -0.70604
 Alpha  occ. eigenvalues --   -0.65250  -0.63112  -0.51056  -0.47461
 Alpha virt. eigenvalues --    0.14201   0.21141   0.21569   0.24855   0.36866
 Alpha virt. eigenvalues --    0.39906   0.57387   0.59644   0.60396   0.61434
 Alpha virt. eigenvalues --    0.63225   0.70069   0.70795   0.75827   0.86572
 Alpha virt. eigenvalues --    0.88563   1.04336   1.11499   1.13691   1.17412
 Alpha virt. eigenvalues --    1.20214   1.27778   1.31043   1.42548   1.42713
 Alpha virt. eigenvalues --    1.49026   1.49358   1.55825   1.70635   1.85657
 Alpha virt. eigenvalues --    1.87417   2.13071   2.23868   2.35355   2.47649
 Alpha virt. eigenvalues --    2.51564   2.54504   2.79715   3.04312   3.04577
 Alpha virt. eigenvalues --    3.07328   3.15464   3.17866   3.24437   3.25487
 Alpha virt. eigenvalues --    3.30916   3.38960   3.39732   3.59218   3.59323
 Alpha virt. eigenvalues --    3.65070   3.67060   3.67905   3.70685   3.80653
 Alpha virt. eigenvalues --    3.91952   3.97404   4.08839   4.10214   4.14798
 Alpha virt. eigenvalues --    4.27141   4.28362   4.35314   4.45531   4.56183
 Alpha virt. eigenvalues --    4.58033   4.61071   4.88009   4.98936   5.09332
 Alpha virt. eigenvalues --    5.17787   5.18270   5.19720   5.27100   5.42028
 Alpha virt. eigenvalues --    5.45088   5.48053   5.62283   5.64040   5.88999
 Alpha virt. eigenvalues --    5.95871   6.17063   6.18574   6.40012   6.50160
 Alpha virt. eigenvalues --    6.52921   6.79654   6.80673   7.25316   7.33707
 Alpha virt. eigenvalues --    7.43241  10.15116  13.43272
  Beta  occ. eigenvalues --  -20.57871 -11.28924  -1.28109  -0.88464  -0.63666
  Beta  occ. eigenvalues --   -0.59720  -0.57473  -0.44304
  Beta virt. eigenvalues --    0.11060   0.14294   0.21543   0.22294   0.25657
  Beta virt. eigenvalues --    0.38188   0.40219   0.58378   0.59928   0.60385
  Beta virt. eigenvalues --    0.61984   0.64571   0.71320   0.75665   0.78712
  Beta virt. eigenvalues --    0.89170   0.92834   1.04679   1.13462   1.14388
  Beta virt. eigenvalues --    1.17822   1.20801   1.28559   1.31582   1.43758
  Beta virt. eigenvalues --    1.45588   1.49168   1.49345   1.59238   1.71838
  Beta virt. eigenvalues --    1.90956   1.93184   2.18147   2.24530   2.37730
  Beta virt. eigenvalues --    2.48281   2.51835   2.56460   2.79701   3.04349
  Beta virt. eigenvalues --    3.04943   3.07405   3.15431   3.18239   3.24541
  Beta virt. eigenvalues --    3.25273   3.32277   3.39129   3.40924   3.59588
  Beta virt. eigenvalues --    3.59979   3.65215   3.67413   3.68426   3.73132
  Beta virt. eigenvalues --    3.81501   3.92344   3.98018   4.09318   4.14176
  Beta virt. eigenvalues --    4.15583   4.27941   4.29642   4.35690   4.46043
  Beta virt. eigenvalues --    4.58638   4.62171   4.62956   4.88857   4.99399
  Beta virt. eigenvalues --    5.09790   5.18866   5.19414   5.20626   5.28927
  Beta virt. eigenvalues --    5.42725   5.45446   5.50051   5.66965   5.68349
  Beta virt. eigenvalues --    5.91528   5.98339   6.18986   6.19428   6.44649
  Beta virt. eigenvalues --    6.52175   6.54412   6.88749   6.89557   7.32879
  Beta virt. eigenvalues --    7.35257   7.46282  10.18959  13.43267
          Condensed to atoms (all electrons):
          Atomic-Atomic Spin Densities.
 Mulliken charges and spin densities:
               1          2
     1  C    0.016656  -0.135885
     2  O   -0.213410   0.993133
     3  H    0.055348   0.021004
     4  H    0.055558   0.020816
     5  H    0.085847   0.100932
 Sum of Mulliken charges =  -0.00000   1.00000
 Mulliken charges and spin densities with hydrogens summed into heavy atoms:
               1          2
     1  C    0.213410   0.006867
     2  O   -0.213410   0.993133
 Electronic spatial extent (au):  <R**2>=             74.5152
 Charge=             -0.0000 electrons
 Dipole moment (field-independent basis, Debye):
    X=              0.3821    Y=             -1.5775    Z=              0.8713  Tot=              1.8422
 Unable to Open any file for archive entry.
 1\1\GINC-NODE06\SP\UCCSD(T)-FC\CC-pVTZ\C1H3O1(2)\XUHJ\20-Dec-2023\0\\#
 T CCSD(T)/cc-pVTZ symm=veryloose geom=allcheck\\C[O]\\0,2\C,0,-0.28652
 7,-0.22959,0.431867\O,0,0.422355,0.312336,-0.588118\H,0,-0.144924,0.28
 8167,1.409595\H,0,-0.150974,-1.330336,0.545068\H,0,-1.363776,-0.078985
 ,0.159078\\Version=ES64L-G16RevC.01\State=2-A\HF=-114.4642298\MP2=-114
 .8333255\MP3=-114.8563859\MP4D=-114.8637765\MP4DQ=-114.8567755\PUHF=-1
 14.4682443\PMP2-0=-114.8357462\PMP3-0=-114.8577956\MP4SDQ=-114.8601975
 \CCSD=-114.8612149\CCSD(T)=-114.8740539\S2=0.759893\S2-1=0.752003\S2A=
 0.750074\RMSD=1.185e-09\PG=C01 [X(C1H3O1)]\\@
 The archive entry for this job was punched.


 KNOWLEDGE IS OF TWO KINDS:  WE KNOW A SUBJECT OURSELVES OR WE KNOW 
 WHERE WE CAN FIND INFORMATION UPON IT.

                                    -- SAMUEL JOHNSON
 Job cpu time:       0 days  0 hours  7 minutes 18.6 seconds.
 Elapsed time:       0 days  0 hours  0 minutes 28.5 seconds.
 File lengths (MBytes):  RWF=    615 Int=      0 D2E=      0 Chk=      3 Scr=      2
 Normal termination of Gaussian 16 at Wed Dec 20 02:07:10 2023.
