%nprocshared=8
%mem=64000MB
%chk=GVEPBJHOBDJJJI-UHFFFAOYSA-N.chk
#T CCSD(T)/cc-pVDZ symm=veryloose

c1ccc2c(c1)-c1cccc3cccc-2c13

0 1
C        -0.000000       0.700173      -3.708324
C        -0.000000      -0.700173      -3.708324
C        -0.000000      -1.417011      -2.502313
C        -0.000000      -0.715392      -1.299173
C         0.000000       0.715392      -1.299173
C         0.000000       1.417011      -2.502313
C         0.000000       1.173607       0.105153
C         0.000000       2.401029       0.741182
C         0.000000       2.434192       2.166303
C         0.000000       1.281034       2.937948
C         0.000000      -0.000000       2.310812
C        -0.000000      -1.281034       2.937948
C        -0.000000      -2.434192       2.166303
C        -0.000000      -2.401029       0.741182
C        -0.000000      -1.173607       0.105153
C         0.000000      -0.000000       0.905908
H        -0.000000       1.241580      -4.659030
H        -0.000000      -1.241580      -4.659030
H        -0.000000      -2.511002      -2.510572
H         0.000000       2.511002      -2.510572
H         0.000000       3.339521       0.179063
H         0.000000       3.407815       2.665758
H         0.000000       1.351926       4.029992
H        -0.000000      -1.351926       4.029992
H        -0.000000      -3.407815       2.665758
H        -0.000000      -3.339521       0.179063


--link1--
%nprocshared=8
%mem=64000MB
%chk=GVEPBJHOBDJJJI-UHFFFAOYSA-N.chk
#T CCSD(T)/cc-pVTZ symm=veryloose geom=allcheck

