%nprocshared=12
%mem=15600MB
%chk=GWBFCDHVRQBXAV-UHFFFAOYSA-N-1.chk
#T CCSD(T)/cc-pVDZ symm=veryloose 

c1ccc2c(c1)ccc1cc3c4ccccc4c4ccccc4c3cc12

0 1
C        -4.594799      -4.028484       0.000000
C        -4.740232      -2.628007       0.000000
C        -3.621509      -1.808440       0.000000
C        -2.312964      -2.344767       0.000000
C        -2.171356      -3.765322       0.000000
C        -3.325854      -4.582720       0.000000
C        -0.856847      -4.351863       0.000000
C         0.262799      -3.577740       0.000000
C         0.171409      -2.142825       0.000000
C         1.324220      -1.344093       0.000000
C         1.282202       0.053514      -0.000000
C         2.504920       0.865853      -0.000000
C         3.786373       0.269303      -0.000000
C         4.947091       1.027280      -0.000000
C         4.859181       2.426965      -0.000000
C         3.613077       3.034969      -0.000000
C         2.415001       2.284386      -0.000000
C         1.099346       2.938766      -0.000000
C         0.977674       4.347231      -0.000000
C        -0.257368       4.977207      -0.000000
C        -1.427814       4.204854      -0.000000
C        -1.334548       2.821786      -0.000000
C        -0.087580       2.155478      -0.000000
C         0.000000       0.689174      -0.000000
C        -1.148400      -0.113027       0.000000
C        -1.112021      -1.514339       0.000000
H        -5.478791      -4.672821       0.000000
H        -5.739142      -2.181979       0.000000
H        -3.766794      -0.726594       0.000000
H        -3.198013      -5.669679       0.000000
H        -0.777846      -5.443233       0.000000
H         1.256891      -4.035124       0.000000
H         2.283135      -1.863190       0.000000
H         3.879630      -0.816858      -0.000000
H         5.922663       0.532599      -0.000000
H         5.765346       3.039613      -0.000000
H         3.572517       4.124173      -0.000000
H         1.872280       4.969852      -0.000000
H        -0.313253       6.069592      -0.000000
H        -2.410193       4.685879      -0.000000
H        -2.259450       2.244822      -0.000000
H        -2.120981       0.372124       0.000000


--link1--
%nprocshared=12
%mem=15600MB
%chk=GWBFCDHVRQBXAV-UHFFFAOYSA-N-1.chk
#T CCSD(T)/cc-pVTZ symm=veryloose geom=allcheck 

