%nprocshared=16
%mem=352000MB
%chk=GYFAGKUZYNFMBN-UHFFFAOYSA-N-1.chk
#T CCSD(T)/cc-pVDZ symm=veryloose 

c1cc2ccc3ccc4ccc5cccc6c(c1)c2c3c4c56

0 1
C         0.000000       2.888812      -2.749414
C         0.000000       3.572491      -1.540853
C         0.000000       2.863358      -0.323762
C        -0.000000       3.544684       0.939374
C        -0.000000       2.853012       2.116374
C        -0.000000       1.420022       2.131199
C        -0.000000       0.688760       3.347438
C         0.000000      -0.688760       3.347438
C        -0.000000      -1.420022       2.131199
C        -0.000000      -2.853012       2.116374
C        -0.000000      -3.544684       0.939374
C        -0.000000      -2.863358      -0.323762
C        -0.000000      -3.572491      -1.540853
C        -0.000000      -2.888812      -2.749414
C         0.000000      -1.489253      -2.773279
C         0.000000      -0.734735      -1.591519
C         0.000000       0.734735      -1.591519
C         0.000000       1.489253      -2.773279
C         0.000000       1.432339      -0.343736
C        -0.000000       0.714379       0.896809
C        -0.000000      -0.714379       0.896809
C        -0.000000      -1.432339      -0.343736
H         0.000000       3.442627      -3.692794
H         0.000000       4.666355      -1.519992
H        -0.000000       4.638862       0.937952
H        -0.000000       3.384185       3.073042
H        -0.000000       1.240575       4.292310
H         0.000000      -1.240575       4.292310
H        -0.000000      -3.384185       3.073042
H        -0.000000      -4.638862       0.937952
H        -0.000000      -4.666355      -1.519992
H        -0.000000      -3.442627      -3.692794
H         0.000000      -0.988525      -3.742296
H        -0.000000       0.988525      -3.742296


--link1--
%nprocshared=16
%mem=352000MB
%chk=GYFAGKUZYNFMBN-UHFFFAOYSA-N-1.chk
#T CCSD(T)/cc-pVTZ symm=veryloose geom=allcheck 

