%nprocshared=16
%mem=48000MB
%chk=HXGDTGSAIMULJN-UHFFFAOYSA-N.chk
#T CCSD(T)/cc-pVDZ symm=veryloose

C1=Cc2cccc3cccc1c23

0 1
C         0.000000       0.684269      -2.348208
C        -0.000000      -0.684269      -2.348208
C         0.000000      -1.163657      -0.953859
C        -0.000000      -2.394368      -0.321274
C        -0.000000      -2.433472       1.105719
C        -0.000000      -1.283921       1.882907
C        -0.000000      -0.000000       1.257609
C         0.000000       1.283921       1.882907
C         0.000000       2.433472       1.105719
C         0.000000       2.394368      -0.321274
C         0.000000       1.163657      -0.953859
C         0.000000       0.000000      -0.141147
H         0.000000       1.326026      -3.231063
H        -0.000000      -1.326026      -3.231063
H         0.000000      -3.332398      -0.885153
H        -0.000000      -3.409547       1.600291
H        -0.000000      -1.359908       2.974681
H         0.000000       1.359908       2.974681
H         0.000000       3.409547       1.600291
H         0.000000       3.332398      -0.885153


--link1--
%nprocshared=16
%mem=48000MB
%chk=HXGDTGSAIMULJN-UHFFFAOYSA-N.chk
#T CCSD(T)/cc-pVTZ symm=veryloose geom=allcheck

