 Entering Gaussian System, Link 0=g16
 Initial command:
 /home/software/g16/l1.exe "/home/software/g16tmp/Gau-124833.inp" -scrdir="/home/software/g16tmp/"
 Default is to use a total of   8 processors:
                                8 via shared-memory
                                1 via Linda
 Entering Link 1 = /home/software/g16/l1.exe PID=    124834.
  
 Copyright (c) 1988-2019, Gaussian, Inc.  All Rights Reserved.
  
 This is part of the Gaussian(R) 16 program.  It is based on
 the Gaussian(R) 09 system (copyright 2009, Gaussian, Inc.),
 the Gaussian(R) 03 system (copyright 2003, Gaussian, Inc.),
 the Gaussian(R) 98 system (copyright 1998, Gaussian, Inc.),
 the Gaussian(R) 94 system (copyright 1995, Gaussian, Inc.),
 the Gaussian 92(TM) system (copyright 1992, Gaussian, Inc.),
 the Gaussian 90(TM) system (copyright 1990, Gaussian, Inc.),
 the Gaussian 88(TM) system (copyright 1988, Gaussian, Inc.),
 the Gaussian 86(TM) system (copyright 1986, Carnegie Mellon
 University), and the Gaussian 82(TM) system (copyright 1983,
 Carnegie Mellon University). Gaussian is a federally registered
 trademark of Gaussian, Inc.
  
 This software contains proprietary and confidential information,
 including trade secrets, belonging to Gaussian, Inc.
  
 This software is provided under written license and may be
 used, copied, transmitted, or stored only in accord with that
 written license.
  
 The following legend is applicable only to US Government
 contracts under FAR:
  
                    RESTRICTED RIGHTS LEGEND
  
 Use, reproduction and disclosure by the US Government is
 subject to restrictions as set forth in subparagraphs (a)
 and (c) of the Commercial Computer Software - Restricted
 Rights clause in FAR 52.227-19.
  
 Gaussian, Inc.
 340 Quinnipiac St., Bldg. 40, Wallingford CT 06492
  
  
 ---------------------------------------------------------------
 Warning -- This program may not be used in any manner that
 competes with the business of Gaussian, Inc. or will provide
 assistance to any competitor of Gaussian, Inc.  The licensee
 of this program is prohibited from giving any competitor of
 Gaussian, Inc. access to this program.  By using this program,
 the user acknowledges that Gaussian, Inc. is engaged in the
 business of creating and licensing software in the field of
 computational chemistry and represents and warrants to the
 licensee that it is not a competitor of Gaussian, Inc. and that
 it will not use this program in any manner prohibited above.
 ---------------------------------------------------------------
  

 Cite this work as:
 Gaussian 16, Revision C.01,
 M. J. Frisch, G. W. Trucks, H. B. Schlegel, G. E. Scuseria, 
 M. A. Robb, J. R. Cheeseman, G. Scalmani, V. Barone, 
 G. A. Petersson, H. Nakatsuji, X. Li, M. Caricato, A. V. Marenich, 
 J. Bloino, B. G. Janesko, R. Gomperts, B. Mennucci, H. P. Hratchian, 
 J. V. Ortiz, A. F. Izmaylov, J. L. Sonnenberg, D. Williams-Young, 
 F. Ding, F. Lipparini, F. Egidi, J. Goings, B. Peng, A. Petrone, 
 T. Henderson, D. Ranasinghe, V. G. Zakrzewski, J. Gao, N. Rega, 
 G. Zheng, W. Liang, M. Hada, M. Ehara, K. Toyota, R. Fukuda, 
 J. Hasegawa, M. Ishida, T. Nakajima, Y. Honda, O. Kitao, H. Nakai, 
 T. Vreven, K. Throssell, J. A. Montgomery, Jr., J. E. Peralta, 
 F. Ogliaro, M. J. Bearpark, J. J. Heyd, E. N. Brothers, K. N. Kudin, 
 V. N. Staroverov, T. A. Keith, R. Kobayashi, J. Normand, 
 K. Raghavachari, A. P. Rendell, J. C. Burant, S. S. Iyengar, 
 J. Tomasi, M. Cossi, J. M. Millam, M. Klene, C. Adamo, R. Cammi, 
 J. W. Ochterski, R. L. Martin, K. Morokuma, O. Farkas, 
 J. B. Foresman, and D. J. Fox, Gaussian, Inc., Wallingford CT, 2019.
 
 ******************************************
 Gaussian 16:  ES64L-G16RevC.01  3-Jul-2019
                20-Dec-2023 
 ******************************************
 %nprocshared=16
 Will use up to   16 processors via shared memory.
 %mem=16000MB
 %chk=IAQRGUVFOMOMEM-UHFFFAOYSA-N.chk
 ---------------------------------
 #T CCSD(T)/cc-pVDZ symm=veryloose
 ---------------------------------
 -----
 CC=CC
 -----
 Symbolic Z-matrix:
 Charge =  0 Multiplicity = 1
 C                     0.       -1.96625   0. 
 C                     0.41666  -0.52404   0. 
 C                    -0.41666   0.52404   0. 
 C                     0.        1.96625   0. 
 H                     0.39412  -2.49958  -0.88689 
 H                    -1.0992   -2.07133   0. 
 H                     0.39412  -2.49958   0.88689 
 H                     1.50035  -0.33189   0. 
 H                    -1.50035   0.33189   0. 
 H                     1.0992    2.07133   0. 
 H                    -0.39412   2.49958   0.88689 
 H                    -0.39412   2.49958  -0.88689 
 
                    Distance matrix (angstroms):
                    1          2          3          4          5
     1  C    0.000000
     2  C    1.501188   0.000000
     3  C    2.524910   1.338999   0.000000
     4  C    3.932500   2.524910   1.501188   0.000000
     5  H    1.107400   2.165596   3.253646   4.570066   0.000000
     6  H    1.104215   2.166092   2.683627   4.184536   1.788844
     7  H    1.107400   2.165596   3.253646   4.570066   1.773774
     8  H    2.218593   1.100586   2.099416   2.744540   2.590204
     9  H    2.744540   2.099416   1.100586   2.218593   3.520338
    10  H    4.184536   2.683627   2.166092   1.104215   4.709241
    11  H    4.570066   3.253646   2.165596   1.107400   5.362754
    12  H    4.570066   3.253646   2.165596   1.107400   5.060914
                    6          7          8          9         10
     6  H    0.000000
     7  H    1.788844   0.000000
     8  H    3.127827   2.590204   0.000000
     9  H    2.436478   3.520338   3.073232   0.000000
    10  H    4.689851   4.709241   2.436478   3.127827   0.000000
    11  H    4.709241   5.060914   3.520338   2.590204   1.788844
    12  H    4.709241   5.362754   3.520338   2.590204   1.788844
                   11         12
    11  H    0.000000
    12  H    1.773774   0.000000
 Framework group  C2H[SGH(C4H4),X(H4)]
 Deg. of freedom    10
                         Standard orientation:                         
 ---------------------------------------------------------------------
 Center     Atomic      Atomic             Coordinates (Angstroms)
 Number     Number       Type             X           Y           Z
 ---------------------------------------------------------------------
      1          6           0        0.545742    1.888996    0.000000
      2          6           0        0.545742    0.387808    0.000000
      3          6           0       -0.545742   -0.387808    0.000000
      4          6           0       -0.545742   -1.888996    0.000000
      5          1           0        1.072402    2.291979    0.886887
      6          1           0       -0.481106    2.295041    0.000000
      7          1           0        1.072402    2.291979   -0.886887
      8          1           0        1.533515   -0.097574    0.000000
      9          1           0       -1.533515    0.097574    0.000000
     10          1           0        0.481106   -2.295041    0.000000
     11          1           0       -1.072402   -2.291979   -0.886887
     12          1           0       -1.072402   -2.291979    0.886887
 ---------------------------------------------------------------------
 Rotational constants (GHZ):          34.4340127           3.6925122           3.4805512
    96 basis functions,   188 primitive gaussians,   100 cartesian basis functions
    16 alpha electrons       16 beta electrons
       nuclear repulsion energy       115.2062898524 Hartrees.
 NAtoms=   12 NActive=   12 NUniq=    5 SFac= 4.00D+00 NAtFMM=   60 NAOKFM=F Big=F
 ExpMin= 1.22D-01 ExpMax= 6.67D+03 ExpMxC= 2.28D+02 IAcc=3 IRadAn=         5 AccDes= 0.00D+00
 Harris functional with IExCor=  205 and IRadAn=       5 diagonalized for initial guess.
 HarFok:  IExCor=  205 AccDes= 0.00D+00 IRadAn=         5 IDoV= 1 UseB2=F ITyADJ=14
 ICtDFT=  3500011 ScaDFX=  1.000000  1.000000  1.000000  1.000000
 FoFCou: FMM=F IPFlag=           0 FMFlag=      100000 FMFlg1=           0
         NFxFlg=           0 DoJE=T BraDBF=F KetDBF=T FulRan=T
         wScrn=  0.000000 ICntrl=       500 IOpCl=  0 I1Cent=   200000004 NGrid=           0
         NMat0=    1 NMatS0=      1 NMatT0=    0 NMatD0=    1 NMtDS0=    0 NMtDT0=    0
 Petite list used in FoFCou.
 Initial guess orbital symmetries:
       Occupied  (BU) (AG) (AG) (BU) (AG) (BU) (AG) (BU) (BU) (AG)
                 (AU) (BG) (AG) (BU) (AG) (AU)
       Virtual   (BG) (AG) (BU) (BU) (BG) (AG) (AU) (BU) (AG) (BU)
                 (AG) (BU) (AG) (BU) (AU) (BG) (AG) (BU) (BG) (BU)
                 (AG) (AU) (AG) (BU) (AG) (AU) (BU) (BG) (BU) (AG)
                 (BU) (AG) (BG) (AU) (AU) (AG) (BU) (AG) (BU) (AG)
                 (BG) (BU) (AU) (AG) (AU) (BG) (BU) (BG) (AG) (BG)
                 (BU) (AU) (AG) (BU) (AG) (BU) (AU) (BU) (AG) (BG)
                 (BG) (AG) (BU) (AG) (AU) (BU) (BU) (AG) (AU) (BU)
                 (BG) (AG) (AG) (BU) (BG) (AU) (AG) (BU) (BU) (AG)
 The electronic state of the initial guess is 1-AG.
 SCF Done:  E(RHF) =  -156.122554964     A.U. after   10 cycles
            NFock= 10  Conv=0.38D-08     -V/T= 2.0024
 ExpMin= 1.22D-01 ExpMax= 6.67D+03 ExpMxC= 2.28D+02 IAcc=3 IRadAn=         5 AccDes= 0.00D+00
 HarFok:  IExCor=  205 AccDes= 0.00D+00 IRadAn=         5 IDoV=-2 UseB2=F ITyADJ=14
 ICtDFT= 12500011 ScaDFX=  1.000000  1.000000  1.000000  1.000000
 NROrb=     92 NOA=    12 NOB=    12 NVA=    80 NVB=    80
 Semi-Direct transformation.
 ModeAB=           4 MOrb=            12 LenV=    2096759612
 LASXX=      1076594 LTotXX=     1076594 LenRXX=     2192312
 LTotAB=     1115718 MaxLAS=     2408928 LenRXY=           0
 NonZer=     3268906 LenScr=     5242880 LnRSAI=     2408928
 LnScr1=     3932160 LExtra=           0 Total=     13776280
 MaxDsk=          -1 SrtSym=           T ITran=            4
 JobTyp=0 Pass  1:  I=   1 to  12.
 (rs|ai) integrals will be sorted in core.
 ANorm=    0.1096110100D+01
 E2 =    -0.5623523958D+00 EUMP2 =    -0.15668490735995D+03
 CIDS: In Core Option IDoMem=           1.
 Produce multiple copies of IABC intergrals
 MP4(R+Q)=  0.12067248D-01
 E3=       -0.47254533D-01        EUMP3=      -0.15673216189D+03
 E4(DQ)=   -0.33058765D-02        UMP4(DQ)=   -0.15673546777D+03
 E4(SDQ)=  -0.66500536D-02        UMP4(SDQ)=  -0.15673881195D+03
 DE(Corr)= -0.59747819     E(Corr)=     -156.72003316    
 NORM(A)=   0.11108186D+01
 DE(Corr)= -0.61271528     E(CORR)=     -156.73527024     Delta=-1.52D-02
 NORM(A)=   0.11192598D+01
 DE(Corr)= -0.61593914     E(CORR)=     -156.73849410     Delta=-3.22D-03
 NORM(A)=   0.11208855D+01
 DE(Corr)= -0.61708750     E(CORR)=     -156.73964247     Delta=-1.15D-03
 NORM(A)=   0.11213332D+01
 DE(Corr)= -0.61721152     E(CORR)=     -156.73976648     Delta=-1.24D-04
 NORM(A)=   0.11214137D+01
 DE(Corr)= -0.61722421     E(CORR)=     -156.73977917     Delta=-1.27D-05
 NORM(A)=   0.11214123D+01
 DE(Corr)= -0.61722283     E(CORR)=     -156.73977779     Delta= 1.38D-06
 NORM(A)=   0.11214168D+01
 DE(Corr)= -0.61722244     E(CORR)=     -156.73977740     Delta= 3.93D-07
 NORM(A)=   0.11214171D+01
 DE(Corr)= -0.61722281     E(CORR)=     -156.73977777     Delta=-3.74D-07
 NORM(A)=   0.11214176D+01
 DE(Corr)= -0.61722295     E(CORR)=     -156.73977792     Delta=-1.45D-07
 NORM(A)=   0.11214178D+01
 DE(Corr)= -0.61722306     E(CORR)=     -156.73977803     Delta=-1.07D-07
 NORM(A)=   0.11214179D+01
 DE(Corr)= -0.61722310     E(CORR)=     -156.73977807     Delta=-4.21D-08
 NORM(A)=   0.11214179D+01
 Wavefunction amplitudes converged. E(Corr)=     -156.73977807    
 Dominant configurations:
 ***********************
 Spin Case        I    J    A    B          Value
   ABAB          16   16   17   17      -0.114767D+00
 Largest amplitude= 1.15D-01
 Time for triples=       26.19 seconds.
 T4(CCSD)= -0.20362140D-01
 T5(CCSD)=  0.45830321D-03
 CCSD(T)= -0.15675968191D+03
 Discarding MO integrals.

 **********************************************************************

            Population analysis using the SCF Density.

 **********************************************************************

 Orbital symmetries:
       Occupied  (AG) (BU) (AG) (BU) (AG) (BU) (AG) (BU) (BU) (AG)
                 (AU) (BG) (BU) (AG) (AG) (AU)
       Virtual   (BG) (AG) (BU) (BU) (AG) (BG) (AU) (AG) (BU) (BU)
                 (AG) (BU) (AG) (BU) (BG) (AU) (AG) (BU) (BU) (AG)
                 (AU) (BG) (AG) (BU) (AU) (BG) (BU) (AG) (BU) (AG)
                 (BU) (AG) (BG) (AU) (AU) (AG) (BU) (AG) (BU) (AG)
                 (BG) (BU) (AU) (AU) (BG) (AG) (BU) (BG) (AG) (BG)
                 (BU) (AU) (AG) (BU) (AG) (AU) (BU) (BU) (AG) (BG)
                 (BG) (AG) (BU) (AG) (AU) (BU) (BU) (AU) (AG) (BG)
                 (BU) (AG) (AG) (BU) (BG) (AU) (AG) (BU) (BU) (AG)
 The electronic state is 1-AG.
 Alpha  occ. eigenvalues --  -11.23043 -11.22940 -11.22915 -11.22856  -1.07344
 Alpha  occ. eigenvalues --   -0.97960  -0.87386  -0.73826  -0.60242  -0.60043
 Alpha  occ. eigenvalues --   -0.56473  -0.54762  -0.51676  -0.50520  -0.47717
 Alpha  occ. eigenvalues --   -0.33955
 Alpha virt. eigenvalues --    0.18469   0.19823   0.20253   0.21258   0.26532
 Alpha virt. eigenvalues --    0.26637   0.27152   0.28621   0.29285   0.40015
 Alpha virt. eigenvalues --    0.42296   0.54080   0.58254   0.60804   0.61229
 Alpha virt. eigenvalues --    0.64915   0.71262   0.76014   0.77715   0.78214
 Alpha virt. eigenvalues --    0.78274   0.82936   0.86618   0.86713   0.87166
 Alpha virt. eigenvalues --    0.89367   0.89588   0.92016   0.92119   0.93625
 Alpha virt. eigenvalues --    0.99984   1.01472   1.12745   1.14284   1.29672
 Alpha virt. eigenvalues --    1.29974   1.30207   1.34253   1.42635   1.44784
 Alpha virt. eigenvalues --    1.51172   1.59058   1.66950   1.68278   1.68343
 Alpha virt. eigenvalues --    1.70277   1.80703   1.84459   1.86757   1.88494
 Alpha virt. eigenvalues --    1.90759   1.92081   1.92933   1.95213   1.99354
 Alpha virt. eigenvalues --    1.99408   2.01045   2.04922   2.08301   2.11419
 Alpha virt. eigenvalues --    2.15471   2.28648   2.32312   2.35185   2.35403
 Alpha virt. eigenvalues --    2.39577   2.46045   2.50823   2.51617   2.58537
 Alpha virt. eigenvalues --    2.58556   2.63055   2.73057   2.73353   2.80039
 Alpha virt. eigenvalues --    2.84872   2.90427   2.90640   3.10493   3.25633
          Condensed to atoms (all electrons):
 Mulliken charges:
               1
     1  C    0.000453
     2  C   -0.134858
     3  C   -0.134858
     4  C    0.000453
     5  H    0.042620
     6  H    0.031946
     7  H    0.042620
     8  H    0.017219
     9  H    0.017219
    10  H    0.031946
    11  H    0.042620
    12  H    0.042620
 Sum of Mulliken charges =   0.00000
 Mulliken charges with hydrogens summed into heavy atoms:
               1
     1  C    0.117639
     2  C   -0.117639
     3  C   -0.117639
     4  C    0.117639
 Electronic spatial extent (au):  <R**2>=            403.1803
 Charge=              0.0000 electrons
 Dipole moment (field-independent basis, Debye):
    X=             -0.0000    Y=             -0.0000    Z=              0.0000  Tot=              0.0000
 Unable to Open any file for archive entry.
 1\1\GINC-NODE06\SP\RCCSD(T)-FC\CC-pVDZ\C4H8\XUHJ\20-Dec-2023\0\\#T CCS
 D(T)/cc-pVDZ symm=veryloose\\CC=CC\\0,1\C,0,0.,-1.96625,0.\C,0,0.41666
 2,-0.524044,0.\C,0,-0.416662,0.524044,0.\C,0,0.,1.96625,0.\H,0,0.39411
 7,-2.499577,-0.886887\H,0,-1.099203,-2.071335,0.\H,0,0.394117,-2.49957
 7,0.886887\H,0,1.500345,-0.331894,0.\H,0,-1.500345,0.331894,0.\H,0,1.0
 99203,2.071335,0.\H,0,-0.394117,2.499577,0.886887\H,0,-0.394117,2.4995
 77,-0.886887\\Version=ES64L-G16RevC.01\State=1-AG\HF=-156.122555\MP2=-
 156.6849074\MP3=-156.7321619\MP4D=-156.747535\MP4DQ=-156.7354678\MP4SD
 Q=-156.7388119\CCSD=-156.7397781\CCSD(T)=-156.7596819\RMSD=3.804e-09\P
 G=C02H [SGH(C4H4),X(H4)]\\@
 The archive entry for this job was punched.


 THE ONLY TROUBLE WITH A SURE THING IS THE UNCERTAINTY.
     -- FROM A TEABAG (BELONGING TO W.H.?)
 Job cpu time:       0 days  0 hours  1 minutes 19.3 seconds.
 Elapsed time:       0 days  0 hours  0 minutes  5.2 seconds.
 File lengths (MBytes):  RWF=    133 Int=      0 D2E=      0 Chk=      2 Scr=      2
 Normal termination of Gaussian 16 at Wed Dec 20 02:35:02 2023.
 Initial command:
 /home/software/g16/l1.exe "/home/software/g16tmp/Gau-124833.inp" -scrdir="/home/software/g16tmp/"
 Default is to use a total of   8 processors:
                                8 via shared-memory
                                1 via Linda
 Entering Link 1 = /home/software/g16/l1.exe PID=    125031.
  
 Copyright (c) 1988-2019, Gaussian, Inc.  All Rights Reserved.
  
 This is part of the Gaussian(R) 16 program.  It is based on
 the Gaussian(R) 09 system (copyright 2009, Gaussian, Inc.),
 the Gaussian(R) 03 system (copyright 2003, Gaussian, Inc.),
 the Gaussian(R) 98 system (copyright 1998, Gaussian, Inc.),
 the Gaussian(R) 94 system (copyright 1995, Gaussian, Inc.),
 the Gaussian 92(TM) system (copyright 1992, Gaussian, Inc.),
 the Gaussian 90(TM) system (copyright 1990, Gaussian, Inc.),
 the Gaussian 88(TM) system (copyright 1988, Gaussian, Inc.),
 the Gaussian 86(TM) system (copyright 1986, Carnegie Mellon
 University), and the Gaussian 82(TM) system (copyright 1983,
 Carnegie Mellon University). Gaussian is a federally registered
 trademark of Gaussian, Inc.
  
 This software contains proprietary and confidential information,
 including trade secrets, belonging to Gaussian, Inc.
  
 This software is provided under written license and may be
 used, copied, transmitted, or stored only in accord with that
 written license.
  
 The following legend is applicable only to US Government
 contracts under FAR:
  
                    RESTRICTED RIGHTS LEGEND
  
 Use, reproduction and disclosure by the US Government is
 subject to restrictions as set forth in subparagraphs (a)
 and (c) of the Commercial Computer Software - Restricted
 Rights clause in FAR 52.227-19.
  
 Gaussian, Inc.
 340 Quinnipiac St., Bldg. 40, Wallingford CT 06492
  
  
 ---------------------------------------------------------------
 Warning -- This program may not be used in any manner that
 competes with the business of Gaussian, Inc. or will provide
 assistance to any competitor of Gaussian, Inc.  The licensee
 of this program is prohibited from giving any competitor of
 Gaussian, Inc. access to this program.  By using this program,
 the user acknowledges that Gaussian, Inc. is engaged in the
 business of creating and licensing software in the field of
 computational chemistry and represents and warrants to the
 licensee that it is not a competitor of Gaussian, Inc. and that
 it will not use this program in any manner prohibited above.
 ---------------------------------------------------------------
  

 Cite this work as:
 Gaussian 16, Revision C.01,
 M. J. Frisch, G. W. Trucks, H. B. Schlegel, G. E. Scuseria, 
 M. A. Robb, J. R. Cheeseman, G. Scalmani, V. Barone, 
 G. A. Petersson, H. Nakatsuji, X. Li, M. Caricato, A. V. Marenich, 
 J. Bloino, B. G. Janesko, R. Gomperts, B. Mennucci, H. P. Hratchian, 
 J. V. Ortiz, A. F. Izmaylov, J. L. Sonnenberg, D. Williams-Young, 
 F. Ding, F. Lipparini, F. Egidi, J. Goings, B. Peng, A. Petrone, 
 T. Henderson, D. Ranasinghe, V. G. Zakrzewski, J. Gao, N. Rega, 
 G. Zheng, W. Liang, M. Hada, M. Ehara, K. Toyota, R. Fukuda, 
 J. Hasegawa, M. Ishida, T. Nakajima, Y. Honda, O. Kitao, H. Nakai, 
 T. Vreven, K. Throssell, J. A. Montgomery, Jr., J. E. Peralta, 
 F. Ogliaro, M. J. Bearpark, J. J. Heyd, E. N. Brothers, K. N. Kudin, 
 V. N. Staroverov, T. A. Keith, R. Kobayashi, J. Normand, 
 K. Raghavachari, A. P. Rendell, J. C. Burant, S. S. Iyengar, 
 J. Tomasi, M. Cossi, J. M. Millam, M. Klene, C. Adamo, R. Cammi, 
 J. W. Ochterski, R. L. Martin, K. Morokuma, O. Farkas, 
 J. B. Foresman, and D. J. Fox, Gaussian, Inc., Wallingford CT, 2019.
 
 ******************************************
 Gaussian 16:  ES64L-G16RevC.01  3-Jul-2019
                20-Dec-2023 
 ******************************************
 %nprocshared=16
 Will use up to   16 processors via shared memory.
 %mem=16000MB
 %chk=IAQRGUVFOMOMEM-UHFFFAOYSA-N.chk
 -----------------------------------------------
 #T CCSD(T)/cc-pVTZ symm=veryloose geom=allcheck
 -----------------------------------------------
 Structure from the checkpoint file:  "IAQRGUVFOMOMEM-UHFFFAOYSA-N.chk"
 -----
 CC=CC
 -----
 Charge =  0 Multiplicity = 1
 Z-Matrix found in chk file.
 C,0,0.,-1.96625,0.
 C,0,0.416662,-0.524044,0.
 C,0,-0.416662,0.524044,0.
 C,0,0.,1.96625,0.
 H,0,0.394117,-2.499577,-0.886887
 H,0,-1.099203,-2.071335,0.
 H,0,0.394117,-2.499577,0.886887
 H,0,1.500345,-0.331894,0.
 H,0,-1.500345,0.331894,0.
 H,0,1.099203,2.071335,0.
 H,0,-0.394117,2.499577,0.886887
 H,0,-0.394117,2.499577,-0.886887
 Recover connectivity data from disk.
                    Distance matrix (angstroms):
                    1          2          3          4          5
     1  C    0.000000
     2  C    1.501188   0.000000
     3  C    2.524910   1.338999   0.000000
     4  C    3.932500   2.524910   1.501188   0.000000
     5  H    1.107400   2.165596   3.253646   4.570066   0.000000
     6  H    1.104215   2.166092   2.683627   4.184536   1.788844
     7  H    1.107400   2.165596   3.253646   4.570066   1.773774
     8  H    2.218593   1.100586   2.099416   2.744540   2.590204
     9  H    2.744540   2.099416   1.100586   2.218593   3.520338
    10  H    4.184536   2.683627   2.166092   1.104215   4.709241
    11  H    4.570066   3.253646   2.165596   1.107400   5.362754
    12  H    4.570066   3.253646   2.165596   1.107400   5.060914
                    6          7          8          9         10
     6  H    0.000000
     7  H    1.788844   0.000000
     8  H    3.127827   2.590204   0.000000
     9  H    2.436478   3.520338   3.073232   0.000000
    10  H    4.689851   4.709241   2.436478   3.127827   0.000000
    11  H    4.709241   5.060914   3.520338   2.590204   1.788844
    12  H    4.709241   5.362754   3.520338   2.590204   1.788844
                   11         12
    11  H    0.000000
    12  H    1.773774   0.000000
 Framework group  C2H[SGH(C4H4),X(H4)]
 Deg. of freedom    10
                         Standard orientation:                         
 ---------------------------------------------------------------------
 Center     Atomic      Atomic             Coordinates (Angstroms)
 Number     Number       Type             X           Y           Z
 ---------------------------------------------------------------------
      1          6           0        0.545742    1.888996    0.000000
      2          6           0        0.545742    0.387808    0.000000
      3          6           0       -0.545742   -0.387808    0.000000
      4          6           0       -0.545742   -1.888996    0.000000
      5          1           0        1.072402    2.291979    0.886887
      6          1           0       -0.481106    2.295041    0.000000
      7          1           0        1.072402    2.291979   -0.886887
      8          1           0        1.533515   -0.097574    0.000000
      9          1           0       -1.533515    0.097574    0.000000
     10          1           0        0.481106   -2.295041    0.000000
     11          1           0       -1.072402   -2.291979   -0.886887
     12          1           0       -1.072402   -2.291979    0.886887
 ---------------------------------------------------------------------
 Rotational constants (GHZ):          34.4340127           3.6925122           3.4805512
   232 basis functions,   344 primitive gaussians,   260 cartesian basis functions
    16 alpha electrons       16 beta electrons
       nuclear repulsion energy       115.2062898524 Hartrees.
 NAtoms=   12 NActive=   12 NUniq=    5 SFac= 4.00D+00 NAtFMM=   60 NAOKFM=F Big=F
 ExpMin= 1.03D-01 ExpMax= 8.24D+03 ExpMxC= 2.81D+02 IAcc=3 IRadAn=         5 AccDes= 0.00D+00
 Harris functional with IExCor=  205 and IRadAn=       5 diagonalized for initial guess.
 HarFok:  IExCor=  205 AccDes= 0.00D+00 IRadAn=         5 IDoV= 1 UseB2=F ITyADJ=14
 ICtDFT=  3500011 ScaDFX=  1.000000  1.000000  1.000000  1.000000
 FoFCou: FMM=F IPFlag=           0 FMFlag=      100000 FMFlg1=           0
         NFxFlg=           0 DoJE=T BraDBF=F KetDBF=T FulRan=T
         wScrn=  0.000000 ICntrl=       500 IOpCl=  0 I1Cent=   200000004 NGrid=           0
         NMat0=    1 NMatS0=      1 NMatT0=    0 NMatD0=    1 NMtDS0=    0 NMtDT0=    0
 Petite list used in FoFCou.
 Initial guess orbital symmetries:
       Occupied  (BU) (AG) (AG) (BU) (AG) (BU) (AG) (BU) (BU) (AG)
                 (AU) (BG) (AG) (BU) (AG) (AU)
       Virtual   (BG) (AG) (BU) (BU) (BG) (AG) (AU) (BU) (AG) (BU)
                 (AG) (BG) (AG) (BU) (AU) (AG) (BU) (BU) (AG) (AU)
                 (BU) (BG) (AU) (AG) (BU) (BU) (AG) (BG) (BU) (AG)
                 (AG) (BG) (BU) (AU) (BU) (AU) (AG) (BU) (AG) (BG)
                 (AG) (BU) (AG) (AU) (BG) (BU) (AU) (BG) (AG) (AU)
                 (BU) (BG) (AG) (BU) (AG) (AU) (BU) (AG) (BG) (BU)
                 (BG) (BU) (AG) (BU) (AU) (AG) (BG) (AG) (AU) (BU)
                 (AG) (BU) (BG) (AG) (BU) (AU) (BU) (AG) (BU) (AG)
                 (AU) (AG) (BU) (BG) (AG) (AU) (BU) (BG) (BU) (AG)
                 (AG) (BU) (AU) (AG) (BG) (AG) (BU) (BU) (AU) (BU)
                 (AU) (AG) (BG) (AG) (AU) (BG) (BU) (BG) (BG) (AG)
                 (AU) (BU) (BG) (AG) (BU) (AU) (AG) (AU) (BG) (BU)
                 (AG) (BU) (BG) (AG) (BU) (AG) (BU) (AU) (AU) (AU)
                 (BG) (AU) (AG) (BU) (BG) (AG) (BU) (AU) (BG) (BU)
                 (AG) (AG) (BU) (BG) (AG) (AU) (BU) (BG) (AG) (BU)
                 (AU) (BU) (BG) (AG) (AU) (BU) (AG) (BG) (AG) (BU)
                 (BG) (AG) (BU) (AU) (BG) (AU) (AG) (AU) (BU) (AG)
                 (BU) (AG) (BG) (BU) (BU) (AU) (AG) (BU) (BG) (AG)
                 (AG) (AU) (BG) (AU) (AG) (BU) (BG) (BU) (AG) (BU)
                 (AG) (AU) (BG) (AU) (AG) (BU) (BG) (AU) (BG) (BU)
                 (AG) (BU) (AG) (BU) (BU) (AG) (AG) (BU) (BG) (AU)
                 (BU) (AG) (AG) (BU) (AG) (BU)
 The electronic state of the initial guess is 1-AG.
 SCF Done:  E(RHF) =  -156.165294025     A.U. after   10 cycles
            NFock= 10  Conv=0.29D-08     -V/T= 2.0025
 ExpMin= 1.03D-01 ExpMax= 8.24D+03 ExpMxC= 2.81D+02 IAcc=3 IRadAn=         5 AccDes= 0.00D+00
 HarFok:  IExCor=  205 AccDes= 0.00D+00 IRadAn=         5 IDoV=-2 UseB2=F ITyADJ=14
 ICtDFT= 12500011 ScaDFX=  1.000000  1.000000  1.000000  1.000000
 NROrb=    228 NOA=    12 NOB=    12 NVA=   216 NVB=   216

 **** Warning!!: The largest alpha MO coefficient is  0.16092187D+02

 Semi-Direct transformation.
 ModeAB=           4 MOrb=            12 LenV=    2095710802
 LASXX=     17293674 LTotXX=    17293674 LenRXX=    34833752
 LTotAB=    17540078 MaxLAS=    36706176 LenRXY=           0
 NonZer=    52127426 LenScr=    78643200 LnRSAI=    36706176
 LnScr1=    55705600 LExtra=           0 Total=    205888728
 MaxDsk=          -1 SrtSym=           T ITran=            4
 JobTyp=0 Pass  1:  I=   1 to  12.
 (rs|ai) integrals will be sorted in core.
 ANorm=    0.1106160462D+01
 E2 =    -0.6851419777D+00 EUMP2 =    -0.15685043600274D+03
 CIDS: In Core Option IDoMem=           1.
 Produce multiple copies of IABC intergrals
 MP4(R+Q)=  0.17701713D-01
 E3=       -0.40927162D-01        EUMP3=      -0.15689136317D+03
 E4(DQ)=    0.17820456D-02        UMP4(DQ)=   -0.15688958112D+03
 E4(SDQ)=  -0.30925592D-02        UMP4(SDQ)=  -0.15689445572D+03
 DE(Corr)= -0.70814560     E(Corr)=     -156.87343962    
 NORM(A)=   0.11165586D+01
 DE(Corr)= -0.72510988     E(CORR)=     -156.89040391     Delta=-1.70D-02
 NORM(A)=   0.11252555D+01
 DE(Corr)= -0.72740858     E(CORR)=     -156.89270260     Delta=-2.30D-03
 NORM(A)=   0.11270008D+01
 DE(Corr)= -0.72876218     E(CORR)=     -156.89405621     Delta=-1.35D-03
 NORM(A)=   0.11274588D+01
 DE(Corr)= -0.72888529     E(CORR)=     -156.89417931     Delta=-1.23D-04
 NORM(A)=   0.11275511D+01
 DE(Corr)= -0.72889980     E(CORR)=     -156.89419383     Delta=-1.45D-05
 NORM(A)=   0.11275517D+01
 DE(Corr)= -0.72889973     E(CORR)=     -156.89419376     Delta= 7.07D-08
 NORM(A)=   0.11275548D+01
 DE(Corr)= -0.72889866     E(CORR)=     -156.89419269     Delta= 1.07D-06
 NORM(A)=   0.11275554D+01
 DE(Corr)= -0.72889923     E(CORR)=     -156.89419326     Delta=-5.70D-07
 NORM(A)=   0.11275559D+01
 DE(Corr)= -0.72889937     E(CORR)=     -156.89419339     Delta=-1.37D-07
 NORM(A)=   0.11275561D+01
 DE(Corr)= -0.72889948     E(CORR)=     -156.89419351     Delta=-1.16D-07
 NORM(A)=   0.11275562D+01
 DE(Corr)= -0.72889953     E(CORR)=     -156.89419356     Delta=-4.63D-08
 NORM(A)=   0.11275563D+01
 Wavefunction amplitudes converged. E(Corr)=     -156.89419356    
 Dominant configurations:
 ***********************
 Spin Case        I    J    A    B          Value
   ABAB          16   16   20   20      -0.102167D+00
 Largest amplitude= 1.02D-01
 Time for triples=      872.56 seconds.
 T4(CCSD)= -0.31240336D-01
 T5(CCSD)=  0.74489172D-03
 CCSD(T)= -0.15692468900D+03
 Discarding MO integrals.

 **********************************************************************

            Population analysis using the SCF Density.

 **********************************************************************

 Orbital symmetries:
       Occupied  (AG) (BU) (AG) (BU) (AG) (BU) (AG) (BU) (BU) (AG)
                 (AU) (BG) (BU) (AG) (AG) (AU)
       Virtual   (AG) (BU) (BU) (BG) (AG) (BG) (AU) (AG) (BU) (BU)
                 (AG) (BG) (AG) (BU) (AU) (AG) (BU) (AU) (BU) (AG)
                 (BU) (BG) (BU) (AG) (AU) (AG) (BU) (BG) (BU) (AG)
                 (BG) (BU) (AG) (AU) (BU) (AG) (BU) (AU) (AG) (AG)
                 (BG) (BU) (AU) (BG) (AG) (AU) (BU) (BG) (AG) (BG)
                 (BU) (AU) (AG) (AG) (AU) (BU) (BU) (AG) (BG) (BU)
                 (BU) (AG) (BU) (BG) (AU) (AG) (BG) (AG) (AU) (BU)
                 (AG) (BG) (BU) (AG) (AU) (BU) (BU) (AG) (BU) (AG)
                 (AU) (AG) (BU) (BG) (AG) (AU) (BU) (BU) (BG) (AG)
                 (AG) (BU) (AU) (AG) (BG) (BU) (AG) (AU) (BU) (BU)
                 (AU) (BG) (AG) (AU) (BG) (AG) (BU) (BG) (BG) (AG)
                 (AU) (BG) (BU) (AG) (AU) (BU) (AU) (BG) (BU) (AG)
                 (AG) (BU) (BG) (AG) (BU) (BU) (AU) (AG) (BG) (AU)
                 (AU) (AU) (AG) (BU) (BG) (AU) (BU) (AG) (BG) (BU)
                 (AG) (AG) (BG) (BU) (AG) (AU) (BG) (BU) (AG) (BU)
                 (AU) (BG) (BU) (AG) (AU) (BG) (BU) (AG) (AG) (BG)
                 (BU) (AU) (BG) (BU) (AU) (AG) (AU) (AG) (AG) (BU)
                 (BU) (BG) (AG) (BU) (BU) (AU) (AG) (BU) (BG) (AG)
                 (AU) (AG) (BG) (AU) (BU) (AG) (BG) (BU) (AG) (BU)
                 (AG) (AU) (BG) (AU) (BU) (AG) (AU) (BG) (BG) (AG)
                 (BU) (BU) (AG) (BU) (BU) (AG) (AG) (BU) (BG) (AU)
                 (BU) (AG) (AG) (BU) (AG) (BU)
 The electronic state is 1-AG.
 Alpha  occ. eigenvalues --  -11.22593 -11.22430 -11.22266 -11.22261  -1.07295
 Alpha  occ. eigenvalues --   -0.97941  -0.87373  -0.73925  -0.60371  -0.60194
 Alpha  occ. eigenvalues --   -0.56601  -0.54898  -0.51801  -0.50680  -0.47898
 Alpha  occ. eigenvalues --   -0.34109
 Alpha virt. eigenvalues --    0.14739   0.15815   0.17254   0.17373   0.21515
 Alpha virt. eigenvalues --    0.21913   0.22330   0.23741   0.24982   0.30894
 Alpha virt. eigenvalues --    0.33839   0.36579   0.39666   0.41136   0.42115
 Alpha virt. eigenvalues --    0.45681   0.45895   0.51638   0.51900   0.53233
 Alpha virt. eigenvalues --    0.58423   0.60785   0.61803   0.62030   0.62132
 Alpha virt. eigenvalues --    0.63342   0.64178   0.64342   0.65995   0.66684
 Alpha virt. eigenvalues --    0.73507   0.74559   0.75661   0.78452   0.84243
 Alpha virt. eigenvalues --    0.84544   0.86627   0.86654   0.91527   1.00093
 Alpha virt. eigenvalues --    1.00169   1.00188   1.06932   1.07036   1.08350
 Alpha virt. eigenvalues --    1.17605   1.18974   1.19533   1.20816   1.21758
 Alpha virt. eigenvalues --    1.22858   1.24893   1.24971   1.29508   1.29589
 Alpha virt. eigenvalues --    1.33154   1.35851   1.36901   1.37793   1.39437
 Alpha virt. eigenvalues --    1.45880   1.47278   1.49629   1.50459   1.52832
 Alpha virt. eigenvalues --    1.54366   1.56427   1.56854   1.60312   1.62333
 Alpha virt. eigenvalues --    1.66447   1.68947   1.69032   1.71616   1.74666
 Alpha virt. eigenvalues --    1.76398   1.79719   1.92408   2.00614   2.17815
 Alpha virt. eigenvalues --    2.37120   2.45175   2.47561   2.52173   2.54586
 Alpha virt. eigenvalues --    2.57600   2.64538   2.66266   2.67638   2.69693
 Alpha virt. eigenvalues --    2.75026   2.80025   2.82446   2.83130   2.83547
 Alpha virt. eigenvalues --    2.98167   2.98685   2.99172   3.00321   3.01302
 Alpha virt. eigenvalues --    3.08077   3.08761   3.11392   3.13252   3.14074
 Alpha virt. eigenvalues --    3.14600   3.19851   3.21620   3.23664   3.25478
 Alpha virt. eigenvalues --    3.27793   3.28108   3.28464   3.30269   3.34684
 Alpha virt. eigenvalues --    3.34739   3.35804   3.37921   3.38070   3.38719
 Alpha virt. eigenvalues --    3.43614   3.46266   3.51386   3.55305   3.56906
 Alpha virt. eigenvalues --    3.57730   3.58828   3.59758   3.63476   3.64061
 Alpha virt. eigenvalues --    3.68878   3.70639   3.72876   3.74477   3.74970
 Alpha virt. eigenvalues --    3.78936   3.79021   3.79156   3.80681   3.87338
 Alpha virt. eigenvalues --    3.87539   3.93366   3.99596   4.00795   4.02760
 Alpha virt. eigenvalues --    4.03020   4.07278   4.09395   4.10836   4.11901
 Alpha virt. eigenvalues --    4.14987   4.19303   4.19812   4.20847   4.24208
 Alpha virt. eigenvalues --    4.26623   4.26825   4.28257   4.33758   4.36068
 Alpha virt. eigenvalues --    4.37552   4.38836   4.40277   4.40623   4.43444
 Alpha virt. eigenvalues --    4.44574   4.49746   4.52449   4.56201   4.57223
 Alpha virt. eigenvalues --    4.63507   4.66344   4.67082   4.68430   4.74292
 Alpha virt. eigenvalues --    4.75239   4.81562   4.86004   4.91033   4.98523
 Alpha virt. eigenvalues --    5.07529   5.08582   5.11359   5.15633   5.16320
 Alpha virt. eigenvalues --    5.17362   5.22498   5.25639   5.25806   5.31521
 Alpha virt. eigenvalues --    5.40975   5.44910   5.48718   5.50857   5.52168
 Alpha virt. eigenvalues --    5.52596   5.61865   5.62404   5.64456   5.67887
 Alpha virt. eigenvalues --    5.68118   5.74727   5.76394   5.82781   5.89204
 Alpha virt. eigenvalues --    6.07797   6.12231   6.22833   6.23120   6.24188
 Alpha virt. eigenvalues --    6.35137   6.37694  11.13964  13.91046  13.91491
 Alpha virt. eigenvalues --   14.32593
          Condensed to atoms (all electrons):
 Mulliken charges:
               1
     1  C   -0.238378
     2  C   -0.158467
     3  C   -0.158467
     4  C   -0.238378
     5  H    0.087593
     6  H    0.088539
     7  H    0.087593
     8  H    0.133120
     9  H    0.133120
    10  H    0.088539
    11  H    0.087593
    12  H    0.087593
 Sum of Mulliken charges =  -0.00000
 Mulliken charges with hydrogens summed into heavy atoms:
               1
     1  C    0.025348
     2  C   -0.025348
     3  C   -0.025348
     4  C    0.025348
 Electronic spatial extent (au):  <R**2>=            403.3781
 Charge=             -0.0000 electrons
 Dipole moment (field-independent basis, Debye):
    X=              0.0000    Y=             -0.0000    Z=              0.0000  Tot=              0.0000
 Unable to Open any file for archive entry.
 1\1\GINC-NODE06\SP\RCCSD(T)-FC\CC-pVTZ\C4H8\XUHJ\20-Dec-2023\0\\#T CCS
 D(T)/cc-pVTZ symm=veryloose geom=allcheck\\CC=CC\\0,1\C,0,0.,-1.96625,
 0.\C,0,0.416662,-0.524044,0.\C,0,-0.416662,0.524044,0.\C,0,0.,1.96625,
 0.\H,0,0.394117,-2.499577,-0.886887\H,0,-1.099203,-2.071335,0.\H,0,0.3
 94117,-2.499577,0.886887\H,0,1.500345,-0.331894,0.\H,0,-1.500345,0.331
 894,0.\H,0,1.099203,2.071335,0.\H,0,-0.394117,2.499577,0.886887\H,0,-0
 .394117,2.499577,-0.886887\\Version=ES64L-G16RevC.01\State=1-AG\HF=-15
 6.165294\MP2=-156.850436\MP3=-156.8913632\MP4D=-156.9072828\MP4DQ=-156
 .8895811\MP4SDQ=-156.8944557\CCSD=-156.8941936\CCSD(T)=-156.924689\RMS
 D=2.891e-09\PG=C02H [SGH(C4H4),X(H4)]\\@
 The archive entry for this job was punched.


 I DO NOT DEFINE TIME, SPACE, PLACE, AND MOTION, AS BEING WELL KNOWN TO ALL.
                                            -- NEWTON (1642-1726), PRINCIPIA
 Job cpu time:       0 days  0 hours 23 minutes 50.5 seconds.
 Elapsed time:       0 days  0 hours  1 minutes 30.5 seconds.
 File lengths (MBytes):  RWF=   1659 Int=      0 D2E=      0 Chk=      6 Scr=      2
 Normal termination of Gaussian 16 at Wed Dec 20 02:36:35 2023.
