%nprocshared=16
%mem=16000MB
%chk=IAQRGUVFOMOMEM-UHFFFAOYSA-N.chk
#T CCSD(T)/cc-pVDZ symm=veryloose

CC=CC

0 1
C        -0.000000      -1.966250       0.000000
C         0.416662      -0.524044       0.000000
C        -0.416662       0.524044       0.000000
C         0.000000       1.966250       0.000000
H         0.394117      -2.499577      -0.886887
H        -1.099203      -2.071335       0.000000
H         0.394117      -2.499577       0.886887
H         1.500345      -0.331894      -0.000000
H        -1.500345       0.331894      -0.000000
H         1.099203       2.071335       0.000000
H        -0.394117       2.499577       0.886887
H        -0.394117       2.499577      -0.886887


--link1--
%nprocshared=16
%mem=16000MB
%chk=IAQRGUVFOMOMEM-UHFFFAOYSA-N.chk
#T CCSD(T)/cc-pVTZ symm=veryloose geom=allcheck

