%nprocshared=16
%mem=16000MB
%chk=IJDNQMDRQITEOD-UHFFFAOYSA-N.chk
#T CCSD(T)/cc-pVDZ symm=veryloose

CCCC

0 1
C         0.703174       1.833642      -0.000000
C         0.703174       0.303938      -0.000000
C        -0.703174      -0.303938       0.000000
C        -0.703174      -1.833642      -0.000000
H         1.730557       2.239636      -0.000000
H         0.184457       2.232833       0.891322
H         0.184457       2.232833      -0.891322
H         1.258175      -0.066652       0.883831
H         1.258175      -0.066652      -0.883831
H        -1.258175       0.066652      -0.883831
H        -1.258175       0.066652       0.883831
H        -0.184457      -2.232833      -0.891322
H        -1.730557      -2.239636      -0.000000
H        -0.184457      -2.232833       0.891322


--link1--
%nprocshared=16
%mem=16000MB
%chk=IJDNQMDRQITEOD-UHFFFAOYSA-N.chk
#T CCSD(T)/cc-pVTZ symm=veryloose geom=allcheck

