 Entering Gaussian System, Link 0=g16
 Initial command:
 /home/software/g16/l1.exe "/home/software/g16tmp/Gau-125650.inp" -scrdir="/home/software/g16tmp/"
 Default is to use a total of   8 processors:
                                8 via shared-memory
                                1 via Linda
 Entering Link 1 = /home/software/g16/l1.exe PID=    125651.
  
 Copyright (c) 1988-2019, Gaussian, Inc.  All Rights Reserved.
  
 This is part of the Gaussian(R) 16 program.  It is based on
 the Gaussian(R) 09 system (copyright 2009, Gaussian, Inc.),
 the Gaussian(R) 03 system (copyright 2003, Gaussian, Inc.),
 the Gaussian(R) 98 system (copyright 1998, Gaussian, Inc.),
 the Gaussian(R) 94 system (copyright 1995, Gaussian, Inc.),
 the Gaussian 92(TM) system (copyright 1992, Gaussian, Inc.),
 the Gaussian 90(TM) system (copyright 1990, Gaussian, Inc.),
 the Gaussian 88(TM) system (copyright 1988, Gaussian, Inc.),
 the Gaussian 86(TM) system (copyright 1986, Carnegie Mellon
 University), and the Gaussian 82(TM) system (copyright 1983,
 Carnegie Mellon University). Gaussian is a federally registered
 trademark of Gaussian, Inc.
  
 This software contains proprietary and confidential information,
 including trade secrets, belonging to Gaussian, Inc.
  
 This software is provided under written license and may be
 used, copied, transmitted, or stored only in accord with that
 written license.
  
 The following legend is applicable only to US Government
 contracts under FAR:
  
                    RESTRICTED RIGHTS LEGEND
  
 Use, reproduction and disclosure by the US Government is
 subject to restrictions as set forth in subparagraphs (a)
 and (c) of the Commercial Computer Software - Restricted
 Rights clause in FAR 52.227-19.
  
 Gaussian, Inc.
 340 Quinnipiac St., Bldg. 40, Wallingford CT 06492
  
  
 ---------------------------------------------------------------
 Warning -- This program may not be used in any manner that
 competes with the business of Gaussian, Inc. or will provide
 assistance to any competitor of Gaussian, Inc.  The licensee
 of this program is prohibited from giving any competitor of
 Gaussian, Inc. access to this program.  By using this program,
 the user acknowledges that Gaussian, Inc. is engaged in the
 business of creating and licensing software in the field of
 computational chemistry and represents and warrants to the
 licensee that it is not a competitor of Gaussian, Inc. and that
 it will not use this program in any manner prohibited above.
 ---------------------------------------------------------------
  

 Cite this work as:
 Gaussian 16, Revision C.01,
 M. J. Frisch, G. W. Trucks, H. B. Schlegel, G. E. Scuseria, 
 M. A. Robb, J. R. Cheeseman, G. Scalmani, V. Barone, 
 G. A. Petersson, H. Nakatsuji, X. Li, M. Caricato, A. V. Marenich, 
 J. Bloino, B. G. Janesko, R. Gomperts, B. Mennucci, H. P. Hratchian, 
 J. V. Ortiz, A. F. Izmaylov, J. L. Sonnenberg, D. Williams-Young, 
 F. Ding, F. Lipparini, F. Egidi, J. Goings, B. Peng, A. Petrone, 
 T. Henderson, D. Ranasinghe, V. G. Zakrzewski, J. Gao, N. Rega, 
 G. Zheng, W. Liang, M. Hada, M. Ehara, K. Toyota, R. Fukuda, 
 J. Hasegawa, M. Ishida, T. Nakajima, Y. Honda, O. Kitao, H. Nakai, 
 T. Vreven, K. Throssell, J. A. Montgomery, Jr., J. E. Peralta, 
 F. Ogliaro, M. J. Bearpark, J. J. Heyd, E. N. Brothers, K. N. Kudin, 
 V. N. Staroverov, T. A. Keith, R. Kobayashi, J. Normand, 
 K. Raghavachari, A. P. Rendell, J. C. Burant, S. S. Iyengar, 
 J. Tomasi, M. Cossi, J. M. Millam, M. Klene, C. Adamo, R. Cammi, 
 J. W. Ochterski, R. L. Martin, K. Morokuma, O. Farkas, 
 J. B. Foresman, and D. J. Fox, Gaussian, Inc., Wallingford CT, 2019.
 
 ******************************************
 Gaussian 16:  ES64L-G16RevC.01  3-Jul-2019
                20-Dec-2023 
 ******************************************
 %nprocshared=16
 Will use up to   16 processors via shared memory.
 %mem=16000MB
 %chk=IJDNQMDRQITEOD-UHFFFAOYSA-N.chk
 ---------------------------------
 #T CCSD(T)/cc-pVDZ symm=veryloose
 ---------------------------------
 ----
 CCCC
 ----
 Symbolic Z-matrix:
 Charge =  0 Multiplicity = 1
 C                     0.70317   1.83364   0. 
 C                     0.70317   0.30394   0. 
 C                    -0.70317  -0.30394   0. 
 C                    -0.70317  -1.83364   0. 
 H                     1.73056   2.23964   0. 
 H                     0.18446   2.23283   0.89132 
 H                     0.18446   2.23283  -0.89132 
 H                     1.25818  -0.06665   0.88383 
 H                     1.25818  -0.06665  -0.88383 
 H                    -1.25818   0.06665  -0.88383 
 H                    -1.25818   0.06665   0.88383 
 H                    -0.18446  -2.23283  -0.89132 
 H                    -1.73056  -2.23964   0. 
 H                    -0.18446  -2.23283   0.89132 
 
                    Distance matrix (angstroms):
                    1          2          3          4          5
     1  C    0.000000
     2  C    1.529704   0.000000
     3  C    2.558723   1.532099   0.000000
     4  C    3.927695   2.558723   1.529704   0.000000
     5  H    1.104693   2.191448   3.520343   4.744959   0.000000
     6  H    1.105837   2.187272   2.831528   4.256590   1.784636
     7  H    1.105837   2.187272   2.831528   4.256590   1.784636
     8  H    2.168018   1.107484   2.164336   2.783936   2.514611
     9  H    2.168018   1.107484   2.164336   2.783936   2.514611
    10  H    2.783936   2.164336   1.107484   2.168018   3.799413
    11  H    2.783936   2.164336   1.107484   2.168018   3.799413
    12  H    4.256590   2.831528   2.187272   1.105837   4.946182
    13  H    4.744959   3.520343   2.191448   1.104693   5.660670
    14  H    4.256590   2.831528   2.187272   1.105837   4.946182
                    6          7          8          9         10
     6  H    0.000000
     7  H    1.782644   0.000000
     8  H    2.537825   3.097042   0.000000
     9  H    3.097042   2.537825   1.767662   0.000000
    10  H    3.150348   2.602611   3.078054   2.519878   0.000000
    11  H    2.602611   3.150348   2.519878   3.078054   1.767662
    12  H    4.822457   4.480878   3.150348   2.602611   2.537825
    13  H    4.946182   4.946182   3.799413   3.799413   2.514611
    14  H    4.480878   4.822457   2.602611   3.150348   3.097042
                   11         12         13         14
    11  H    0.000000
    12  H    3.097042   0.000000
    13  H    2.514611   1.784636   0.000000
    14  H    2.537825   1.782644   1.784636   0.000000
 Framework group  C2H[SGH(C4H2),X(H8)]
 Deg. of freedom    11
                         Standard orientation:                         
 ---------------------------------------------------------------------
 Center     Atomic      Atomic             Coordinates (Angstroms)
 Number     Number       Type             X           Y           Z
 ---------------------------------------------------------------------
      1          6           0        0.703174    1.833642    0.000000
      2          6           0        0.703174    0.303938    0.000000
      3          6           0       -0.703174   -0.303938    0.000000
      4          6           0       -0.703174   -1.833642    0.000000
      5          1           0        1.730557    2.239636    0.000000
      6          1           0        0.184457    2.232833    0.891322
      7          1           0        0.184457    2.232833   -0.891322
      8          1           0        1.258175   -0.066652    0.883831
      9          1           0        1.258175   -0.066652   -0.883831
     10          1           0       -1.258175    0.066652   -0.883831
     11          1           0       -1.258175    0.066652    0.883831
     12          1           0       -0.184457   -2.232833   -0.891322
     13          1           0       -1.730557   -2.239636    0.000000
     14          1           0       -0.184457   -2.232833    0.891322
 ---------------------------------------------------------------------
 Rotational constants (GHZ):          23.2536576           3.5996495           3.3821242
   106 basis functions,   202 primitive gaussians,   110 cartesian basis functions
    17 alpha electrons       17 beta electrons
       nuclear repulsion energy       129.9071730645 Hartrees.
 NAtoms=   14 NActive=   14 NUniq=    5 SFac= 4.00D+00 NAtFMM=   60 NAOKFM=F Big=F
 ExpMin= 1.22D-01 ExpMax= 6.67D+03 ExpMxC= 2.28D+02 IAcc=3 IRadAn=         5 AccDes= 0.00D+00
 Harris functional with IExCor=  205 and IRadAn=       5 diagonalized for initial guess.
 HarFok:  IExCor=  205 AccDes= 0.00D+00 IRadAn=         5 IDoV= 1 UseB2=F ITyADJ=14
 ICtDFT=  3500011 ScaDFX=  1.000000  1.000000  1.000000  1.000000
 FoFCou: FMM=F IPFlag=           0 FMFlag=      100000 FMFlg1=           0
         NFxFlg=           0 DoJE=T BraDBF=F KetDBF=T FulRan=T
         wScrn=  0.000000 ICntrl=       500 IOpCl=  0 I1Cent=   200000004 NGrid=           0
         NMat0=    1 NMatS0=      1 NMatT0=    0 NMatD0=    1 NMtDS0=    0 NMtDT0=    0
 Petite list used in FoFCou.
 Initial guess orbital symmetries:
       Occupied  (BU) (AG) (AG) (BU) (AG) (BU) (AG) (BU) (AU) (AG)
                 (BU) (BG) (BU) (AG) (AU) (AG) (BG)
       Virtual   (AG) (BU) (AU) (BU) (AG) (BU) (AG) (BG) (BG) (BU)
                 (AU) (BU) (AG) (BU) (AG) (BG) (AU) (AG) (BU) (AU)
                 (AG) (BU) (BG) (BU) (AU) (AG) (AG) (BU) (AU) (BG)
                 (AG) (BU) (BG) (AG) (BU) (BU) (AU) (AG) (AG) (BG)
                 (AU) (BU) (BG) (BU) (AG) (AG) (BG) (AU) (BU) (AG)
                 (BG) (AG) (BU) (BG) (AU) (BU) (AU) (AU) (BU) (AG)
                 (AU) (BG) (AG) (BG) (BU) (AG) (AU) (BU) (BU) (AG)
                 (BU) (BG) (AG) (BU) (AU) (AG) (AG) (BG) (BU) (BU)
                 (BG) (AG) (BU) (AG) (AU) (BU) (AG) (BG) (AU)
 The electronic state of the initial guess is 1-AG.
 SCF Done:  E(RHF) =  -157.309053190     A.U. after   10 cycles
            NFock= 10  Conv=0.77D-08     -V/T= 2.0025
 ExpMin= 1.22D-01 ExpMax= 6.67D+03 ExpMxC= 2.28D+02 IAcc=3 IRadAn=         5 AccDes= 0.00D+00
 HarFok:  IExCor=  205 AccDes= 0.00D+00 IRadAn=         5 IDoV=-2 UseB2=F ITyADJ=14
 ICtDFT= 12500011 ScaDFX=  1.000000  1.000000  1.000000  1.000000
 NROrb=    102 NOA=    13 NOB=    13 NVA=    89 NVB=    89
 Semi-Direct transformation.
 ModeAB=           4 MOrb=            13 LenV=    2096702636
 LASXX=      1575057 LTotXX=     1575057 LenRXX=     3199388
 LTotAB=     1624331 MaxLAS=     3002064 LenRXY=           0
 NonZer=     4774445 LenScr=     7471104 LnRSAI=     3002064
 LnScr1=     4718592 LExtra=           0 Total=     18391148
 MaxDsk=          -1 SrtSym=           T ITran=            4
 JobTyp=0 Pass  1:  I=   1 to  13.
 (rs|ai) integrals will be sorted in core.
 ANorm=    0.1096683387D+01
 E2 =    -0.5898737430D+00 EUMP2 =    -0.15789892693317D+03
 CIDS: In Core Option IDoMem=           1.
 Produce multiple copies of IABC intergrals
 MP4(R+Q)=  0.11323715D-01
 E3=       -0.55215449D-01        EUMP3=      -0.15795414238D+03
 E4(DQ)=   -0.44009130D-02        UMP4(DQ)=   -0.15795854329D+03
 E4(SDQ)=  -0.70281789D-02        UMP4(SDQ)=  -0.15796117056D+03
 DE(Corr)= -0.63372407     E(Corr)=     -157.94277726    
 NORM(A)=   0.11137307D+01
 DE(Corr)= -0.64873903     E(CORR)=     -157.95779222     Delta=-1.50D-02
 NORM(A)=   0.11206201D+01
 DE(Corr)= -0.65202176     E(CORR)=     -157.96107495     Delta=-3.28D-03
 NORM(A)=   0.11215431D+01
 DE(Corr)= -0.65283564     E(CORR)=     -157.96188883     Delta=-8.14D-04
 NORM(A)=   0.11217088D+01
 DE(Corr)= -0.65290540     E(CORR)=     -157.96195859     Delta=-6.98D-05
 NORM(A)=   0.11217207D+01
 DE(Corr)= -0.65291106     E(CORR)=     -157.96196425     Delta=-5.66D-06
 NORM(A)=   0.11217156D+01
 DE(Corr)= -0.65291030     E(CORR)=     -157.96196349     Delta= 7.53D-07
 NORM(A)=   0.11217164D+01
 DE(Corr)= -0.65291022     E(CORR)=     -157.96196341     Delta= 7.93D-08
 NORM(A)=   0.11217165D+01
 Wavefunction amplitudes converged. E(Corr)=     -157.96196341    
 Largest amplitude= 1.87D-02
 Time for triples=       40.64 seconds.
 T4(CCSD)= -0.18670765D-01
 T5(CCSD)=  0.34907500D-03
 CCSD(T)= -0.15798028510D+03
 Discarding MO integrals.

 **********************************************************************

            Population analysis using the SCF Density.

 **********************************************************************

 Orbital symmetries:
       Occupied  (AG) (BU) (AG) (BU) (AG) (BU) (AG) (BU) (AU) (AG)
                 (BU) (BG) (BU) (AU) (AG) (BG) (AG)
       Virtual   (AG) (BU) (AU) (BU) (AG) (AG) (BG) (BU) (BG) (AU)
                 (AG) (BU) (BU) (BU) (BG) (AG) (AU) (AG) (AU) (BU)
                 (AG) (BU) (BG) (AU) (BU) (AG) (AU) (BU) (BG) (AG)
                 (BU) (AG) (BG) (BU) (AG) (BU) (AU) (AG) (AG) (BG)
                 (BU) (AU) (BG) (BU) (AG) (BG) (AU) (AG) (BU) (AG)
                 (BG) (AG) (AU) (BG) (BU) (BU) (AU) (AU) (AU) (BG)
                 (AG) (BU) (BG) (AG) (BU) (AG) (BU) (AU) (BU) (AG)
                 (BU) (AG) (BG) (BU) (AG) (AU) (AG) (BG) (BU) (BU)
                 (BG) (AG) (BU) (AG) (AU) (BU) (AG) (BG) (AU)
 The electronic state is 1-AG.
 Alpha  occ. eigenvalues --  -11.22429 -11.22371 -11.22144 -11.22143  -1.06696
 Alpha  occ. eigenvalues --   -0.97709  -0.85697  -0.78284  -0.63245  -0.58016
 Alpha  occ. eigenvalues --   -0.57199  -0.56210  -0.51104  -0.49009  -0.46799
 Alpha  occ. eigenvalues --   -0.45692  -0.45498
 Alpha virt. eigenvalues --    0.18301   0.20264   0.22077   0.22497   0.26506
 Alpha virt. eigenvalues --    0.27299   0.27872   0.28753   0.29584   0.30584
 Alpha virt. eigenvalues --    0.38817   0.39023   0.42363   0.58657   0.58757
 Alpha virt. eigenvalues --    0.58845   0.60608   0.63806   0.69313   0.71282
 Alpha virt. eigenvalues --    0.82881   0.86410   0.87835   0.88047   0.88407
 Alpha virt. eigenvalues --    0.88923   0.89712   0.90614   0.90686   0.91104
 Alpha virt. eigenvalues --    0.92999   0.93113   0.93652   0.96095   0.96977
 Alpha virt. eigenvalues --    1.12677   1.12809   1.17541   1.31394   1.45432
 Alpha virt. eigenvalues --    1.46759   1.47242   1.47338   1.53747   1.56346
 Alpha virt. eigenvalues --    1.68799   1.68813   1.70215   1.73577   1.85206
 Alpha virt. eigenvalues --    1.88489   1.88762   1.89431   1.90080   1.90157
 Alpha virt. eigenvalues --    1.92344   1.93186   1.96579   1.97789   1.98131
 Alpha virt. eigenvalues --    1.99400   2.00014   2.01902   2.02318   2.06327
 Alpha virt. eigenvalues --    2.15764   2.20212   2.21171   2.24383   2.28604
 Alpha virt. eigenvalues --    2.38521   2.39509   2.43794   2.48572   2.51278
 Alpha virt. eigenvalues --    2.52635   2.58754   2.60520   2.62943   2.73302
 Alpha virt. eigenvalues --    2.73994   2.74168   2.78514   2.82675   2.84780
 Alpha virt. eigenvalues --    2.92786   2.96115   3.04270   3.05688
          Condensed to atoms (all electrons):
 Mulliken charges:
               1
     1  C   -0.043467
     2  C   -0.101329
     3  C   -0.101329
     4  C   -0.043467
     5  H    0.032787
     6  H    0.030277
     7  H    0.030277
     8  H    0.025727
     9  H    0.025727
    10  H    0.025727
    11  H    0.025727
    12  H    0.030277
    13  H    0.032787
    14  H    0.030277
 Sum of Mulliken charges =   0.00000
 Mulliken charges with hydrogens summed into heavy atoms:
               1
     1  C    0.049875
     2  C   -0.049875
     3  C   -0.049875
     4  C    0.049875
 Electronic spatial extent (au):  <R**2>=            428.9786
 Charge=             -0.0000 electrons
 Dipole moment (field-independent basis, Debye):
    X=              0.0000    Y=              0.0000    Z=              0.0000  Tot=              0.0000
 Unable to Open any file for archive entry.
 1\1\GINC-NODE06\SP\RCCSD(T)-FC\CC-pVDZ\C4H10\XUHJ\20-Dec-2023\0\\#T CC
 SD(T)/cc-pVDZ symm=veryloose\\CCCC\\0,1\C,0,0.703174,1.833642,0.\C,0,0
 .703174,0.303938,0.\C,0,-0.703174,-0.303938,0.\C,0,-0.703174,-1.833642
 ,0.\H,0,1.730557,2.239636,0.\H,0,0.184457,2.232833,0.891322\H,0,0.1844
 57,2.232833,-0.891322\H,0,1.258175,-0.066652,0.883831\H,0,1.258175,-0.
 066652,-0.883831\H,0,-1.258175,0.066652,-0.883831\H,0,-1.258175,0.0666
 52,0.883831\H,0,-0.184457,-2.232833,-0.891322\H,0,-1.730557,-2.239636,
 0.\H,0,-0.184457,-2.232833,0.891322\\Version=ES64L-G16RevC.01\State=1-
 AG\HF=-157.3090532\MP2=-157.8989269\MP3=-157.9541424\MP4D=-157.969867\
 MP4DQ=-157.9585433\MP4SDQ=-157.9611706\CCSD=-157.9619634\CCSD(T)=-157.
 9802851\RMSD=7.664e-09\PG=C02H [SGH(C4H2),X(H8)]\\@
 The archive entry for this job was punched.


 THOSE WHO ARE UNABLE TO LEARN FROM PAST MEETINGS
 ARE CONDEMNED TO REPEAT THEM.
 Job cpu time:       0 days  0 hours  1 minutes 33.9 seconds.
 Elapsed time:       0 days  0 hours  0 minutes  6.1 seconds.
 File lengths (MBytes):  RWF=    242 Int=      0 D2E=      0 Chk=      3 Scr=      2
 Normal termination of Gaussian 16 at Wed Dec 20 02:36:54 2023.
 Initial command:
 /home/software/g16/l1.exe "/home/software/g16tmp/Gau-125650.inp" -scrdir="/home/software/g16tmp/"
 Default is to use a total of   8 processors:
                                8 via shared-memory
                                1 via Linda
 Entering Link 1 = /home/software/g16/l1.exe PID=    125848.
  
 Copyright (c) 1988-2019, Gaussian, Inc.  All Rights Reserved.
  
 This is part of the Gaussian(R) 16 program.  It is based on
 the Gaussian(R) 09 system (copyright 2009, Gaussian, Inc.),
 the Gaussian(R) 03 system (copyright 2003, Gaussian, Inc.),
 the Gaussian(R) 98 system (copyright 1998, Gaussian, Inc.),
 the Gaussian(R) 94 system (copyright 1995, Gaussian, Inc.),
 the Gaussian 92(TM) system (copyright 1992, Gaussian, Inc.),
 the Gaussian 90(TM) system (copyright 1990, Gaussian, Inc.),
 the Gaussian 88(TM) system (copyright 1988, Gaussian, Inc.),
 the Gaussian 86(TM) system (copyright 1986, Carnegie Mellon
 University), and the Gaussian 82(TM) system (copyright 1983,
 Carnegie Mellon University). Gaussian is a federally registered
 trademark of Gaussian, Inc.
  
 This software contains proprietary and confidential information,
 including trade secrets, belonging to Gaussian, Inc.
  
 This software is provided under written license and may be
 used, copied, transmitted, or stored only in accord with that
 written license.
  
 The following legend is applicable only to US Government
 contracts under FAR:
  
                    RESTRICTED RIGHTS LEGEND
  
 Use, reproduction and disclosure by the US Government is
 subject to restrictions as set forth in subparagraphs (a)
 and (c) of the Commercial Computer Software - Restricted
 Rights clause in FAR 52.227-19.
  
 Gaussian, Inc.
 340 Quinnipiac St., Bldg. 40, Wallingford CT 06492
  
  
 ---------------------------------------------------------------
 Warning -- This program may not be used in any manner that
 competes with the business of Gaussian, Inc. or will provide
 assistance to any competitor of Gaussian, Inc.  The licensee
 of this program is prohibited from giving any competitor of
 Gaussian, Inc. access to this program.  By using this program,
 the user acknowledges that Gaussian, Inc. is engaged in the
 business of creating and licensing software in the field of
 computational chemistry and represents and warrants to the
 licensee that it is not a competitor of Gaussian, Inc. and that
 it will not use this program in any manner prohibited above.
 ---------------------------------------------------------------
  

 Cite this work as:
 Gaussian 16, Revision C.01,
 M. J. Frisch, G. W. Trucks, H. B. Schlegel, G. E. Scuseria, 
 M. A. Robb, J. R. Cheeseman, G. Scalmani, V. Barone, 
 G. A. Petersson, H. Nakatsuji, X. Li, M. Caricato, A. V. Marenich, 
 J. Bloino, B. G. Janesko, R. Gomperts, B. Mennucci, H. P. Hratchian, 
 J. V. Ortiz, A. F. Izmaylov, J. L. Sonnenberg, D. Williams-Young, 
 F. Ding, F. Lipparini, F. Egidi, J. Goings, B. Peng, A. Petrone, 
 T. Henderson, D. Ranasinghe, V. G. Zakrzewski, J. Gao, N. Rega, 
 G. Zheng, W. Liang, M. Hada, M. Ehara, K. Toyota, R. Fukuda, 
 J. Hasegawa, M. Ishida, T. Nakajima, Y. Honda, O. Kitao, H. Nakai, 
 T. Vreven, K. Throssell, J. A. Montgomery, Jr., J. E. Peralta, 
 F. Ogliaro, M. J. Bearpark, J. J. Heyd, E. N. Brothers, K. N. Kudin, 
 V. N. Staroverov, T. A. Keith, R. Kobayashi, J. Normand, 
 K. Raghavachari, A. P. Rendell, J. C. Burant, S. S. Iyengar, 
 J. Tomasi, M. Cossi, J. M. Millam, M. Klene, C. Adamo, R. Cammi, 
 J. W. Ochterski, R. L. Martin, K. Morokuma, O. Farkas, 
 J. B. Foresman, and D. J. Fox, Gaussian, Inc., Wallingford CT, 2019.
 
 ******************************************
 Gaussian 16:  ES64L-G16RevC.01  3-Jul-2019
                20-Dec-2023 
 ******************************************
 %nprocshared=16
 Will use up to   16 processors via shared memory.
 %mem=16000MB
 %chk=IJDNQMDRQITEOD-UHFFFAOYSA-N.chk
 -----------------------------------------------
 #T CCSD(T)/cc-pVTZ symm=veryloose geom=allcheck
 -----------------------------------------------
 Structure from the checkpoint file:  "IJDNQMDRQITEOD-UHFFFAOYSA-N.chk"
 ----
 CCCC
 ----
 Charge =  0 Multiplicity = 1
 Z-Matrix found in chk file.
 C,0,0.703174,1.833642,0.
 C,0,0.703174,0.303938,0.
 C,0,-0.703174,-0.303938,0.
 C,0,-0.703174,-1.833642,0.
 H,0,1.730557,2.239636,0.
 H,0,0.184457,2.232833,0.891322
 H,0,0.184457,2.232833,-0.891322
 H,0,1.258175,-0.066652,0.883831
 H,0,1.258175,-0.066652,-0.883831
 H,0,-1.258175,0.066652,-0.883831
 H,0,-1.258175,0.066652,0.883831
 H,0,-0.184457,-2.232833,-0.891322
 H,0,-1.730557,-2.239636,0.
 H,0,-0.184457,-2.232833,0.891322
 Recover connectivity data from disk.
                    Distance matrix (angstroms):
                    1          2          3          4          5
     1  C    0.000000
     2  C    1.529704   0.000000
     3  C    2.558723   1.532099   0.000000
     4  C    3.927695   2.558723   1.529704   0.000000
     5  H    1.104693   2.191448   3.520343   4.744959   0.000000
     6  H    1.105837   2.187272   2.831528   4.256590   1.784636
     7  H    1.105837   2.187272   2.831528   4.256590   1.784636
     8  H    2.168018   1.107484   2.164336   2.783936   2.514611
     9  H    2.168018   1.107484   2.164336   2.783936   2.514611
    10  H    2.783936   2.164336   1.107484   2.168018   3.799413
    11  H    2.783936   2.164336   1.107484   2.168018   3.799413
    12  H    4.256590   2.831528   2.187272   1.105837   4.946182
    13  H    4.744959   3.520343   2.191448   1.104693   5.660670
    14  H    4.256590   2.831528   2.187272   1.105837   4.946182
                    6          7          8          9         10
     6  H    0.000000
     7  H    1.782644   0.000000
     8  H    2.537825   3.097042   0.000000
     9  H    3.097042   2.537825   1.767662   0.000000
    10  H    3.150348   2.602611   3.078054   2.519878   0.000000
    11  H    2.602611   3.150348   2.519878   3.078054   1.767662
    12  H    4.822457   4.480878   3.150348   2.602611   2.537825
    13  H    4.946182   4.946182   3.799413   3.799413   2.514611
    14  H    4.480878   4.822457   2.602611   3.150348   3.097042
                   11         12         13         14
    11  H    0.000000
    12  H    3.097042   0.000000
    13  H    2.514611   1.784636   0.000000
    14  H    2.537825   1.782644   1.784636   0.000000
 Framework group  C2H[SGH(C4H2),X(H8)]
 Deg. of freedom    11
                         Standard orientation:                         
 ---------------------------------------------------------------------
 Center     Atomic      Atomic             Coordinates (Angstroms)
 Number     Number       Type             X           Y           Z
 ---------------------------------------------------------------------
      1          6           0        0.703174    1.833642    0.000000
      2          6           0        0.703174    0.303938    0.000000
      3          6           0       -0.703174   -0.303938    0.000000
      4          6           0       -0.703174   -1.833642    0.000000
      5          1           0        1.730557    2.239636    0.000000
      6          1           0        0.184457    2.232833    0.891322
      7          1           0        0.184457    2.232833   -0.891322
      8          1           0        1.258175   -0.066652    0.883831
      9          1           0        1.258175   -0.066652   -0.883831
     10          1           0       -1.258175    0.066652   -0.883831
     11          1           0       -1.258175    0.066652    0.883831
     12          1           0       -0.184457   -2.232833   -0.891322
     13          1           0       -1.730557   -2.239636    0.000000
     14          1           0       -0.184457   -2.232833    0.891322
 ---------------------------------------------------------------------
 Rotational constants (GHZ):          23.2536576           3.5996495           3.3821242
   260 basis functions,   378 primitive gaussians,   290 cartesian basis functions
    17 alpha electrons       17 beta electrons
       nuclear repulsion energy       129.9071730645 Hartrees.
 NAtoms=   14 NActive=   14 NUniq=    5 SFac= 4.00D+00 NAtFMM=   60 NAOKFM=F Big=F
 ExpMin= 1.03D-01 ExpMax= 8.24D+03 ExpMxC= 2.81D+02 IAcc=3 IRadAn=         5 AccDes= 0.00D+00
 Harris functional with IExCor=  205 and IRadAn=       5 diagonalized for initial guess.
 HarFok:  IExCor=  205 AccDes= 0.00D+00 IRadAn=         5 IDoV= 1 UseB2=F ITyADJ=14
 ICtDFT=  3500011 ScaDFX=  1.000000  1.000000  1.000000  1.000000
 FoFCou: FMM=F IPFlag=           0 FMFlag=      100000 FMFlg1=           0
         NFxFlg=           0 DoJE=T BraDBF=F KetDBF=T FulRan=T
         wScrn=  0.000000 ICntrl=       500 IOpCl=  0 I1Cent=   200000004 NGrid=           0
         NMat0=    1 NMatS0=      1 NMatT0=    0 NMatD0=    1 NMtDS0=    0 NMtDT0=    0
 Petite list used in FoFCou.
 Initial guess orbital symmetries:
       Occupied  (AG) (BU) (AG) (BU) (AG) (BU) (AG) (BU) (AU) (AG)
                 (BU) (BG) (BU) (AG) (AU) (AG) (BG)
       Virtual   (AG) (BU) (AU) (BU) (AG) (BU) (AG) (BG) (BG) (AU)
                 (BU) (BU) (AG) (AG) (BG) (BU) (AG) (AU) (AU) (BU)
                 (AG) (BG) (BU) (AU) (BU) (AG) (AG) (BU) (BG) (AG)
                 (AU) (BG) (BU) (BU) (AG) (BU) (AU) (AG) (AG) (AU)
                 (BG) (BU) (BU) (AG) (BG) (BU) (AG) (AU) (BG) (BG)
                 (AG) (AU) (BU) (BG) (AG) (BU) (BG) (AU) (AG) (BU)
                 (BU) (AG) (BU) (BG) (AG) (AU) (AU) (AU) (AG) (AU)
                 (BU) (BG) (AG) (BU) (AG) (AU) (BU) (AG) (BG) (BU)
                 (BU) (BG) (AG) (AG) (AU) (BU) (BU) (AG) (BG) (AU)
                 (AG) (BU) (AG) (BG) (BU) (BG) (AG) (AG) (BU) (AU)
                 (BU) (AG) (BU) (BG) (AU) (AG) (BU) (AG) (AU) (BU)
                 (AG) (BG) (BU) (AU) (BG) (AG) (BG) (AU) (BU) (AU)
                 (AG) (AU) (AG) (BG) (BU) (AU) (BU) (AG) (BG) (BU)
                 (AU) (BG) (AG) (BU) (AU) (BG) (BG) (AU) (AG) (BU)
                 (BG) (AU) (BG) (AG) (AU) (AG) (BU) (BG) (BU) (AU)
                 (AG) (BG) (BU) (BU) (AG) (AU) (BU) (BG) (AG) (AG)
                 (AU) (BU) (BU) (AG) (BU) (AU) (BG) (BG) (AG) (BG)
                 (AG) (BU) (AU) (AG) (BU) (BG) (AG) (AU) (BU) (AG)
                 (BU) (AU) (BG) (AG) (BU) (AG) (AU) (BG) (BU) (AG)
                 (BG) (AU) (BU) (AU) (AG) (BU) (BU) (AG) (AG) (BG)
                 (BG) (AU) (AG) (BU) (AU) (BU) (BG) (AG) (AG) (BU)
                 (AU) (BG) (BG) (BU) (AU) (AG) (BU) (AG) (BG) (BU)
                 (AU) (AG) (BG) (BU) (AG) (BU) (BU) (AG) (AU) (BG)
                 (AU) (AG) (BU) (AU) (BU) (AG) (BG) (AU) (BG) (AG)
                 (BU) (BU) (AG)
 The electronic state of the initial guess is 1-AG.
 SCF Done:  E(RHF) =  -157.353129251     A.U. after   10 cycles
            NFock= 10  Conv=0.62D-08     -V/T= 2.0025
 ExpMin= 1.03D-01 ExpMax= 8.24D+03 ExpMxC= 2.81D+02 IAcc=3 IRadAn=         5 AccDes= 0.00D+00
 HarFok:  IExCor=  205 AccDes= 0.00D+00 IRadAn=         5 IDoV=-2 UseB2=F ITyADJ=14
 ICtDFT= 12500011 ScaDFX=  1.000000  1.000000  1.000000  1.000000
 NROrb=    256 NOA=    13 NOB=    13 NVA=   243 NVB=   243

 **** Warning!!: The largest alpha MO coefficient is  0.11283218D+02

 Semi-Direct transformation.
 ModeAB=           4 MOrb=            13 LenV=    2095391002
 LASXX=     26408283 LTotXX=    26408283 LenRXX=    53138662
 LTotAB=    26730379 MaxLAS=    46914816 LenRXY=           0
 NonZer=    79546945 LenScr=   119930880 LnRSAI=    46914816
 LnScr1=    70778880 LExtra=           0 Total=    290763238
 MaxDsk=          -1 SrtSym=           T ITran=            4
 JobTyp=0 Pass  1:  I=   1 to  13.
 (rs|ai) integrals will be sorted in core.
 ANorm=    0.1106882517D+01
 E2 =    -0.7191337842D+00 EUMP2 =    -0.15807226303546D+03
 CIDS: In Core Option IDoMem=           1.
 Produce multiple copies of IABC intergrals
 MP4(R+Q)=  0.16735055D-01
 E3=       -0.48515929D-01        EUMP3=      -0.15812077896D+03
 E4(DQ)=    0.73053171D-03        UMP4(DQ)=   -0.15812004843D+03
 E4(SDQ)=  -0.35000577D-02        UMP4(SDQ)=  -0.15812427902D+03
 DE(Corr)= -0.75072143     E(Corr)=     -158.10385068    
 NORM(A)=   0.11197582D+01
 DE(Corr)= -0.76703705     E(CORR)=     -158.12016630     Delta=-1.63D-02
 NORM(A)=   0.11273810D+01
 DE(Corr)= -0.76970307     E(CORR)=     -158.12283232     Delta=-2.67D-03
 NORM(A)=   0.11285290D+01
 DE(Corr)= -0.77074059     E(CORR)=     -158.12386984     Delta=-1.04D-03
 NORM(A)=   0.11287321D+01
 DE(Corr)= -0.77081527     E(CORR)=     -158.12394452     Delta=-7.47D-05
 NORM(A)=   0.11287517D+01
 DE(Corr)= -0.77082156     E(CORR)=     -158.12395081     Delta=-6.29D-06
 NORM(A)=   0.11287470D+01
 DE(Corr)= -0.77082132     E(CORR)=     -158.12395057     Delta= 2.47D-07
 NORM(A)=   0.11287471D+01
 DE(Corr)= -0.77082088     E(CORR)=     -158.12395013     Delta= 4.38D-07
 NORM(A)=   0.11287472D+01
 DE(Corr)= -0.77082115     E(CORR)=     -158.12395040     Delta=-2.70D-07
 NORM(A)=   0.11287474D+01
 DE(Corr)= -0.77082124     E(CORR)=     -158.12395050     Delta=-9.55D-08
 NORM(A)=   0.11287475D+01
 Wavefunction amplitudes converged. E(Corr)=     -158.12395050    
 Largest amplitude= 1.74D-02
 Time for triples=     1647.21 seconds.
 T4(CCSD)= -0.29556646D-01
 T5(CCSD)=  0.67113129D-03
 CCSD(T)= -0.15815283601D+03
 Discarding MO integrals.

 **********************************************************************

            Population analysis using the SCF Density.

 **********************************************************************

 Orbital symmetries:
       Occupied  (AG) (BU) (AG) (BU) (AG) (BU) (AG) (BU) (AU) (AG)
                 (BU) (BG) (BU) (AU) (AG) (BG) (AG)
       Virtual   (AG) (BU) (BU) (AU) (AG) (AG) (BG) (BU) (BG) (AU)
                 (BU) (AG) (BU) (AG) (BG) (AU) (AG) (BU) (AU) (BU)
                 (AG) (BG) (BU) (AU) (AG) (BU) (BG) (BU) (AG) (AU)
                 (BG) (AG) (BU) (AG) (BU) (BU) (AU) (AG) (AG) (AU)
                 (BU) (BG) (BU) (AG) (BG) (BU) (AG) (AU) (BG) (BG)
                 (AG) (AU) (BU) (BG) (AG) (BG) (BU) (AG) (AU) (BU)
                 (BU) (AU) (BG) (AG) (AU) (AG) (BU) (AU) (AG) (AU)
                 (BU) (BG) (AG) (BU) (AU) (AG) (BG) (AG) (BU) (BU)
                 (BU) (BG) (AG) (AU) (AG) (BU) (BU) (BG) (AG) (AU)
                 (AG) (BU) (BG) (BG) (AG) (BU) (AG) (AG) (BU) (AU)
                 (BU) (BU) (AG) (AU) (BG) (AG) (BU) (AU) (AG) (BU)
                 (AG) (BG) (BU) (AU) (BG) (BG) (AG) (AU) (BU) (AU)
                 (AG) (AU) (AG) (BG) (BU) (AU) (AG) (BU) (BG) (BU)
                 (AU) (BG) (AG) (BU) (BG) (AU) (AU) (BG) (BU) (AG)
                 (AU) (BG) (BG) (AU) (AG) (AG) (BU) (BG) (BU) (AU)
                 (BG) (AG) (BU) (BU) (AG) (AU) (BG) (BU) (AG) (AU)
                 (AG) (BU) (BU) (AG) (AU) (BU) (BG) (BG) (AG) (BG)
                 (AG) (BU) (AU) (BU) (AG) (BG) (BU) (AG) (AU) (AU)
                 (BG) (AG) (BU) (AG) (BU) (AU) (AG) (BG) (BG) (BU)
                 (AU) (AG) (AU) (BU) (AG) (BU) (BU) (AG) (AG) (BG)
                 (BG) (AU) (AG) (BU) (AU) (BG) (BU) (AG) (BU) (AG)
                 (BG) (AU) (BG) (AU) (AG) (BU) (BU) (AG) (BG) (BU)
                 (AU) (AG) (BG) (BU) (AG) (BU) (AU) (AG) (BU) (BG)
                 (AU) (AG) (BU) (AU) (BU) (BG) (AG) (AU) (BG) (AG)
                 (BU) (BU) (AG)
 The electronic state is 1-AG.
 Alpha  occ. eigenvalues --  -11.21971 -11.21911 -11.21463 -11.21462  -1.06607
 Alpha  occ. eigenvalues --   -0.97635  -0.85642  -0.78267  -0.63309  -0.58081
 Alpha  occ. eigenvalues --   -0.57253  -0.56287  -0.51190  -0.49091  -0.46883
 Alpha  occ. eigenvalues --   -0.45791  -0.45584
 Alpha virt. eigenvalues --    0.14174   0.15844   0.17782   0.17965   0.21237
 Alpha virt. eigenvalues --    0.22313   0.22965   0.24429   0.24872   0.26197
 Alpha virt. eigenvalues --    0.31132   0.31776   0.35994   0.38127   0.40207
 Alpha virt. eigenvalues --    0.41141   0.42943   0.44850   0.46030   0.51319
 Alpha virt. eigenvalues --    0.55639   0.56132   0.57030   0.57234   0.61851
 Alpha virt. eigenvalues --    0.63460   0.63680   0.64164   0.64363   0.65692
 Alpha virt. eigenvalues --    0.67524   0.67543   0.67919   0.70515   0.70938
 Alpha virt. eigenvalues --    0.75223   0.80582   0.81622   0.87868   0.90994
 Alpha virt. eigenvalues --    0.92577   0.93277   0.95160   0.96344   1.01173
 Alpha virt. eigenvalues --    1.04938   1.07767   1.07961   1.10826   1.16947
 Alpha virt. eigenvalues --    1.18354   1.19040   1.22957   1.24252   1.26775
 Alpha virt. eigenvalues --    1.27159   1.29045   1.31151   1.31217   1.32693
 Alpha virt. eigenvalues --    1.36665   1.37698   1.37985   1.38045   1.39427
 Alpha virt. eigenvalues --    1.40035   1.41786   1.46861   1.48720   1.48884
 Alpha virt. eigenvalues --    1.51497   1.54266   1.54584   1.56480   1.59386
 Alpha virt. eigenvalues --    1.59391   1.61885   1.63333   1.64299   1.68375
 Alpha virt. eigenvalues --    1.72703   1.74514   1.78770   1.79024   1.80062
 Alpha virt. eigenvalues --    1.81849   1.87590   1.92385   1.93227   2.49699
 Alpha virt. eigenvalues --    2.57764   2.58160   2.59518   2.63447   2.63830
 Alpha virt. eigenvalues --    2.68174   2.70280   2.75513   2.76772   2.81008
 Alpha virt. eigenvalues --    2.81411   2.85224   2.88251   2.89425   2.89858
 Alpha virt. eigenvalues --    2.89951   2.97472   2.99523   3.00887   3.03673
 Alpha virt. eigenvalues --    3.07310   3.09103   3.12112   3.12437   3.13259
 Alpha virt. eigenvalues --    3.15794   3.18405   3.21248   3.23451   3.26971
 Alpha virt. eigenvalues --    3.27787   3.31638   3.32356   3.35123   3.35296
 Alpha virt. eigenvalues --    3.39263   3.39916   3.40649   3.40917   3.42200
 Alpha virt. eigenvalues --    3.43308   3.44254   3.48894   3.50883   3.51365
 Alpha virt. eigenvalues --    3.52448   3.56681   3.57201   3.59374   3.60793
 Alpha virt. eigenvalues --    3.64324   3.65126   3.70010   3.73350   3.74077
 Alpha virt. eigenvalues --    3.75533   3.76414   3.78603   3.82736   3.84294
 Alpha virt. eigenvalues --    3.86259   3.87055   3.89049   3.92361   3.95595
 Alpha virt. eigenvalues --    3.96244   3.99905   4.05703   4.06424   4.06673
 Alpha virt. eigenvalues --    4.10388   4.11947   4.13575   4.14073   4.15651
 Alpha virt. eigenvalues --    4.16088   4.19088   4.21903   4.23245   4.26443
 Alpha virt. eigenvalues --    4.27096   4.28351   4.29095   4.34083   4.34837
 Alpha virt. eigenvalues --    4.36294   4.40827   4.41246   4.41319   4.43192
 Alpha virt. eigenvalues --    4.43486   4.45229   4.46188   4.51005   4.53825
 Alpha virt. eigenvalues --    4.55091   4.57803   4.59352   4.61067   4.61559
 Alpha virt. eigenvalues --    4.64666   4.65513   4.69990   4.72474   4.74636
 Alpha virt. eigenvalues --    4.79935   4.88098   4.94518   4.97144   4.97200
 Alpha virt. eigenvalues --    5.01294   5.04589   5.14166   5.16057   5.16528
 Alpha virt. eigenvalues --    5.17618   5.20038   5.20391   5.25410   5.25588
 Alpha virt. eigenvalues --    5.29913   5.30348   5.31936   5.38940   5.42365
 Alpha virt. eigenvalues --    5.43159   5.53210   5.56400   5.58716   5.64623
 Alpha virt. eigenvalues --    5.64752   5.67078   5.68989   5.70607   5.73718
 Alpha virt. eigenvalues --    5.77109   5.82098   5.82299   5.85295   5.85525
 Alpha virt. eigenvalues --    5.87788   5.95485   6.00609   6.25083   6.28883
 Alpha virt. eigenvalues --    6.30054   6.30093   6.32522   6.40905  12.79454
 Alpha virt. eigenvalues --   13.25170  13.79402  13.92425
          Condensed to atoms (all electrons):
 Mulliken charges:
               1
     1  C   -0.282761
     2  C   -0.147441
     3  C   -0.147441
     4  C   -0.282761
     5  H    0.097157
     6  H    0.084242
     7  H    0.084242
     8  H    0.082280
     9  H    0.082280
    10  H    0.082280
    11  H    0.082280
    12  H    0.084242
    13  H    0.097157
    14  H    0.084242
 Sum of Mulliken charges =  -0.00000
 Mulliken charges with hydrogens summed into heavy atoms:
               1
     1  C   -0.017119
     2  C    0.017119
     3  C    0.017119
     4  C   -0.017119
 Electronic spatial extent (au):  <R**2>=            429.1197
 Charge=             -0.0000 electrons
 Dipole moment (field-independent basis, Debye):
    X=             -0.0000    Y=             -0.0000    Z=             -0.0000  Tot=              0.0000
 Unable to Open any file for archive entry.
 1\1\GINC-NODE06\SP\RCCSD(T)-FC\CC-pVTZ\C4H10\XUHJ\20-Dec-2023\0\\#T CC
 SD(T)/cc-pVTZ symm=veryloose geom=allcheck\\CCCC\\0,1\C,0,0.703174,1.8
 33642,0.\C,0,0.703174,0.303938,0.\C,0,-0.703174,-0.303938,0.\C,0,-0.70
 3174,-1.833642,0.\H,0,1.730557,2.239636,0.\H,0,0.184457,2.232833,0.891
 322\H,0,0.184457,2.232833,-0.891322\H,0,1.258175,-0.066652,0.883831\H,
 0,1.258175,-0.066652,-0.883831\H,0,-1.258175,0.066652,-0.883831\H,0,-1
 .258175,0.066652,0.883831\H,0,-0.184457,-2.232833,-0.891322\H,0,-1.730
 557,-2.239636,0.\H,0,-0.184457,-2.232833,0.891322\\Version=ES64L-G16Re
 vC.01\State=1-AG\HF=-157.3531293\MP2=-158.072263\MP3=-158.120779\MP4D=
 -158.1367835\MP4DQ=-158.1200484\MP4SDQ=-158.124279\CCSD=-158.1239505\C
 CSD(T)=-158.152836\RMSD=6.152e-09\PG=C02H [SGH(C4H2),X(H8)]\\@
 The archive entry for this job was punched.


 TOM, TOM, THE BURGLAR'S SON
 STOLE A MACHINE AND AWAY HE RUN
 THE JOB WAS NEAT, BUT TOM GOT BEAT
 BY THE TIME HE GOT HOME IT WAS OBSOLETE.
 Job cpu time:       0 days  0 hours 38 minutes  8.7 seconds.
 Elapsed time:       0 days  0 hours  2 minutes 24.2 seconds.
 File lengths (MBytes):  RWF=   2423 Int=      0 D2E=      0 Chk=      7 Scr=      2
 Normal termination of Gaussian 16 at Wed Dec 20 02:39:22 2023.
