%nprocshared=16
%mem=12000MB
%chk=IPZJQDSFZGZEOY-UHFFFAOYSA-N.chk
#T CCSD(T)/cc-pVDZ symm=veryloose

C[C]C

0 3
C        -0.000000       1.351148      -0.103492
C        -0.000000       0.000000       0.474395
C        -0.000000      -1.351148      -0.103492
H        -0.000000       2.130008       0.682252
H        -0.894647       1.536335      -0.742117
H         0.894647       1.536335      -0.742117
H        -0.000000      -2.130008       0.682252
H         0.894647      -1.536335      -0.742117
H        -0.894647      -1.536335      -0.742117


--link1--
%nprocshared=16
%mem=12000MB
%chk=IPZJQDSFZGZEOY-UHFFFAOYSA-N.chk
#T CCSD(T)/cc-pVTZ symm=veryloose geom=allcheck

