%nprocshared=12
%mem=15600MB
%chk=IQHSIXFTHHMAIW-UHFFFAOYSA-N-1.chk
#T CCSD(T)/cc-pVDZ symm=veryloose 

c1ccc2cc3cc4c(ccc5ccc6ccccc6c54)cc3cc2c1

0 1
C         6.565560      -0.506018      -0.007169
C         6.059990      -1.800816      -0.344489
C         4.710004      -2.011700      -0.456713
C         3.775521      -0.946626      -0.240512
C         2.394387      -1.133614      -0.345888
C         1.484682      -0.082210      -0.122050
C         0.082567      -0.275927      -0.200720
C        -0.835844       0.744189       0.034843
C        -0.302414       2.085318       0.234117
C        -1.202497       3.207060       0.216196
C        -2.521807       3.029826      -0.053533
C        -3.092973       1.712554      -0.186303
C        -4.483976       1.586386      -0.477830
C        -5.080187       0.358279      -0.562146
C        -4.348393      -0.820119      -0.233224
C        -5.003368      -2.078205      -0.179147
C        -4.349588      -3.206465       0.271676
C        -3.016570      -3.095583       0.723966
C        -2.344352      -1.889771       0.646293
C        -2.956608      -0.720408       0.111150
C        -2.289810       0.561715      -0.010796
C         1.068437       2.286064       0.346460
C         1.998139       1.230813       0.202773
C         3.389693       1.416735       0.309560
C         4.288274       0.366745       0.101315
C         5.707071       0.540981       0.207951
H         7.646094      -0.357198       0.077962
H         6.760939      -2.623775      -0.512728
H         4.320627      -3.001486      -0.714535
H         2.007098      -2.125617      -0.599481
H        -0.261306      -1.264676      -0.499880
H        -0.788753       4.208894       0.364492
H        -3.192682       3.889843      -0.139601
H        -5.062327       2.498320      -0.653940
H        -6.137584       0.265733      -0.827338
H        -6.055388      -2.128749      -0.476669
H        -4.869103      -4.167986       0.317872
H        -2.514259      -3.964974       1.158631
H        -1.340066      -1.828611       1.061517
H         1.443626       3.301720       0.506618
H         3.775603       2.410834       0.556538
H         6.091857       1.532521       0.465860


--link1--
%nprocshared=12
%mem=15600MB
%chk=IQHSIXFTHHMAIW-UHFFFAOYSA-N-1.chk
#T CCSD(T)/cc-pVTZ symm=veryloose geom=allcheck 

