%nprocshared=16
%mem=12000MB
%chk=IYABWNGZIDDRAK-UHFFFAOYSA-N.chk
#T CCSD(T)/cc-pVDZ symm=veryloose

C=C=C

0 1
C        -0.000000       0.000000      -1.310287
C         0.000000       0.000000       0.000000
C        -0.000000       0.000000       1.310287
H        -0.000000       0.938139      -1.882114
H         0.000000      -0.938139      -1.882114
H        -0.938139      -0.000000       1.882114
H         0.938139       0.000000       1.882114


--link1--
%nprocshared=16
%mem=12000MB
%chk=IYABWNGZIDDRAK-UHFFFAOYSA-N.chk
#T CCSD(T)/cc-pVTZ symm=veryloose geom=allcheck

