%nprocshared=12
%mem=15600MB
%chk=JBHIIKGZANVCJJ-UHFFFAOYSA-N-1.chk
#T CCSD(T)/cc-pVDZ symm=veryloose 

c1ccc2cc3c(cc2c1)c1ccccc1c1ccc2ccccc2c13

0 1
C        -5.330261      -1.314055      -0.143506
C        -4.636556      -2.519629      -0.444039
C        -3.261028      -2.535638      -0.496911
C        -2.509127      -1.350589      -0.244211
C        -1.100220      -1.331090      -0.272174
C        -0.353896      -0.179563      -0.011356
C        -1.063740       1.063464       0.172055
C        -2.455806       1.045152       0.221021
C        -3.208675      -0.133156       0.045288
C        -4.633455      -0.150109       0.091466
C        -0.310177       2.320325       0.209229
C        -0.928499       3.552097       0.514830
C        -0.234974       4.751735       0.449575
C         1.115809       4.750357       0.072050
C         1.750510       3.548817      -0.207591
C         1.069196       2.312143      -0.133649
C         1.775435       1.036540      -0.304717
C         3.152770       1.006179      -0.682730
C         3.861907      -0.163880      -0.724614
C         3.280333      -1.378231      -0.264111
C         4.057685      -2.559361      -0.141174
C         3.532674      -3.700959       0.428668
C         2.211420      -3.679445       0.928312
C         1.422097      -2.553543       0.783872
C         1.903299      -1.380495       0.134865
C         1.112320      -0.178913      -0.047386
H        -6.423618      -1.316570      -0.104661
H        -5.204172      -3.435520      -0.633410
H        -2.723124      -3.460791      -0.726343
H        -0.592771      -2.253513      -0.551765
H        -3.010298       1.975641       0.351873
H        -5.164319       0.780873       0.313809
H        -1.976666       3.571030       0.816429
H        -0.741315       5.690111       0.693561
H         1.675092       5.688545       0.012778
H         2.809570       3.573289      -0.464577
H         3.651848       1.930017      -0.975029
H         4.903911      -0.168060      -1.058044
H         5.097418      -2.536006      -0.482067
H         4.144174      -4.602372       0.529437
H         1.812363      -4.553879       1.450950
H         0.427649      -2.551712       1.228699


--link1--
%nprocshared=12
%mem=15600MB
%chk=JBHIIKGZANVCJJ-UHFFFAOYSA-N-1.chk
#T CCSD(T)/cc-pVTZ symm=veryloose geom=allcheck 

