%nprocshared=16
%mem=70400MB
%chk=JTRPLRMCBJSBJV-UHFFFAOYSA-N-1.chk
#T CCSD(T)/cc-pVDZ symm=veryloose 

c1ccc2cc3cc4c(ccc5ccccc54)cc3cc2c1

0 1
C         5.302022       2.785037       0.000000
C         5.699548       1.411436       0.000000
C         4.756977       0.415522       0.000000
C         3.357465       0.723179       0.000000
C         2.374581      -0.271265       0.000000
C         1.002594       0.041756       0.000000
C         0.000000      -0.961736       0.000000
C        -1.355238      -0.664416      -0.000000
C        -1.751235       0.732666      -0.000000
C        -3.154932       1.066954      -0.000000
C        -4.111366       0.103843      -0.000000
C        -3.769155      -1.299953      -0.000000
C        -4.781216      -2.284067      -0.000000
C        -4.467704      -3.635506       0.000000
C        -3.119648      -4.031430       0.000000
C        -2.110113      -3.076696       0.000000
C        -2.400068      -1.695571       0.000000
C        -0.783203       1.728259      -0.000000
C         0.601052       1.432645      -0.000000
C         1.592287       2.431724      -0.000000
C         2.954226       2.116342      -0.000000
C         3.973356       3.123870      -0.000000
H         6.068225       3.565943       0.000000
H         6.764353       1.160353       0.000000
H         5.058737      -0.636511       0.000000
H         2.679304      -1.322783       0.000000
H         0.337362      -2.000027       0.000000
H        -3.430807       2.125809      -0.000000
H        -5.171668       0.374390      -0.000000
H        -5.826816      -1.960623      -0.000000
H        -5.262865      -4.386672       0.000000
H        -2.860196      -5.094153       0.000000
H        -1.072431      -3.415211       0.000000
H        -1.097934       2.776607      -0.000000
H         1.286649       3.482858      -0.000000
H         3.666705       4.174470      -0.000000


--link1--
%nprocshared=16
%mem=70400MB
%chk=JTRPLRMCBJSBJV-UHFFFAOYSA-N-1.chk
#T CCSD(T)/cc-pVTZ symm=veryloose geom=allcheck 

