%nprocshared=12
%mem=15600MB
%chk=JVVYVDMBJGSYKH-UHFFFAOYSA-N-1.chk
#T CCSD(T)/cc-pVDZ symm=veryloose 

c1ccc2cc3c(ccc4c3ccc3c5ccccc5ccc34)cc2c1

0 1
C         1.785626       6.687336       0.000000
C         0.363237       6.602594       0.000000
C        -0.260252       5.377130       0.000000
C         0.499368       4.167693       0.000000
C        -0.113821       2.900179       0.000000
C         0.621462       1.711951       0.000000
C         2.060246       1.808642       0.000000
C         2.832373       0.598864      -0.000000
C         2.237880      -0.625713      -0.000000
C         0.804322      -0.779494      -0.000000
C         0.000000       0.388514       0.000000
C        -1.411147       0.231262       0.000000
C        -2.001737      -1.008670       0.000000
C        -1.232540      -2.202685      -0.000000
C        -1.858541      -3.515903      -0.000000
C        -3.264275      -3.702542      -0.000000
C        -3.825312      -4.968354      -0.000000
C        -3.003350      -6.114778      -0.000000
C        -1.629109      -5.966958      -0.000000
C        -1.034149      -4.681128      -0.000000
C         0.387477      -4.524742      -0.000000
C         0.968107      -3.289396      -0.000000
C         0.186061      -2.085247      -0.000000
C         2.678431       3.061335       0.000000
C         1.936834       4.254750       0.000000
C         2.549869       5.544501       0.000000
H         2.266656       7.669955       0.000000
H        -0.231102       7.521073       0.000000
H        -1.352709       5.309680       0.000000
H        -1.204788       2.874902       0.000000
H         3.923498       0.680096      -0.000000
H         2.874536      -1.509997      -0.000000
H        -2.055831       1.110780       0.000000
H        -3.090794      -1.063084       0.000000
H        -3.930370      -2.838629      -0.000000
H        -4.913801      -5.077992      -0.000000
H        -3.452647      -7.112159      -0.000000
H        -0.976659      -6.845643      -0.000000
H         1.011164      -5.423839      -0.000000
H         2.056083      -3.228635      -0.000000
H         3.771829       3.113290       0.000000
H         3.642585       5.605357       0.000000


--link1--
%nprocshared=12
%mem=15600MB
%chk=JVVYVDMBJGSYKH-UHFFFAOYSA-N-1.chk
#T CCSD(T)/cc-pVTZ symm=veryloose geom=allcheck 

