%nprocshared=16
%mem=16000MB
%chk=KAKZBPTYRLMSJV-UHFFFAOYSA-N.chk
#T CCSD(T)/cc-pVDZ symm=veryloose

C=CC=C

0 1
C         0.601905       1.755756       0.000000
C         0.601905       0.411760       0.000000
C        -0.601905      -0.411760       0.000000
C        -0.601905      -1.755756       0.000000
H         1.534782       2.329884       0.000000
H        -0.336636       2.324729       0.000000
H         1.559528      -0.126923       0.000000
H        -1.559528       0.126923       0.000000
H         0.336636      -2.324729       0.000000
H        -1.534782      -2.329884       0.000000


--link1--
%nprocshared=16
%mem=16000MB
%chk=KAKZBPTYRLMSJV-UHFFFAOYSA-N.chk
#T CCSD(T)/cc-pVTZ symm=veryloose geom=allcheck

