 Entering Gaussian System, Link 0=g16
 Initial command:
 /home/software/g16/l1.exe "/home/software/g16tmp/Gau-59710.inp" -scrdir="/home/software/g16tmp/"
 Default is to use a total of   8 processors:
                                8 via shared-memory
                                1 via Linda
 Entering Link 1 = /home/software/g16/l1.exe PID=     59712.
  
 Copyright (c) 1988-2019, Gaussian, Inc.  All Rights Reserved.
  
 This is part of the Gaussian(R) 16 program.  It is based on
 the Gaussian(R) 09 system (copyright 2009, Gaussian, Inc.),
 the Gaussian(R) 03 system (copyright 2003, Gaussian, Inc.),
 the Gaussian(R) 98 system (copyright 1998, Gaussian, Inc.),
 the Gaussian(R) 94 system (copyright 1995, Gaussian, Inc.),
 the Gaussian 92(TM) system (copyright 1992, Gaussian, Inc.),
 the Gaussian 90(TM) system (copyright 1990, Gaussian, Inc.),
 the Gaussian 88(TM) system (copyright 1988, Gaussian, Inc.),
 the Gaussian 86(TM) system (copyright 1986, Carnegie Mellon
 University), and the Gaussian 82(TM) system (copyright 1983,
 Carnegie Mellon University). Gaussian is a federally registered
 trademark of Gaussian, Inc.
  
 This software contains proprietary and confidential information,
 including trade secrets, belonging to Gaussian, Inc.
  
 This software is provided under written license and may be
 used, copied, transmitted, or stored only in accord with that
 written license.
  
 The following legend is applicable only to US Government
 contracts under FAR:
  
                    RESTRICTED RIGHTS LEGEND
  
 Use, reproduction and disclosure by the US Government is
 subject to restrictions as set forth in subparagraphs (a)
 and (c) of the Commercial Computer Software - Restricted
 Rights clause in FAR 52.227-19.
  
 Gaussian, Inc.
 340 Quinnipiac St., Bldg. 40, Wallingford CT 06492
  
  
 ---------------------------------------------------------------
 Warning -- This program may not be used in any manner that
 competes with the business of Gaussian, Inc. or will provide
 assistance to any competitor of Gaussian, Inc.  The licensee
 of this program is prohibited from giving any competitor of
 Gaussian, Inc. access to this program.  By using this program,
 the user acknowledges that Gaussian, Inc. is engaged in the
 business of creating and licensing software in the field of
 computational chemistry and represents and warrants to the
 licensee that it is not a competitor of Gaussian, Inc. and that
 it will not use this program in any manner prohibited above.
 ---------------------------------------------------------------
  

 Cite this work as:
 Gaussian 16, Revision C.01,
 M. J. Frisch, G. W. Trucks, H. B. Schlegel, G. E. Scuseria, 
 M. A. Robb, J. R. Cheeseman, G. Scalmani, V. Barone, 
 G. A. Petersson, H. Nakatsuji, X. Li, M. Caricato, A. V. Marenich, 
 J. Bloino, B. G. Janesko, R. Gomperts, B. Mennucci, H. P. Hratchian, 
 J. V. Ortiz, A. F. Izmaylov, J. L. Sonnenberg, D. Williams-Young, 
 F. Ding, F. Lipparini, F. Egidi, J. Goings, B. Peng, A. Petrone, 
 T. Henderson, D. Ranasinghe, V. G. Zakrzewski, J. Gao, N. Rega, 
 G. Zheng, W. Liang, M. Hada, M. Ehara, K. Toyota, R. Fukuda, 
 J. Hasegawa, M. Ishida, T. Nakajima, Y. Honda, O. Kitao, H. Nakai, 
 T. Vreven, K. Throssell, J. A. Montgomery, Jr., J. E. Peralta, 
 F. Ogliaro, M. J. Bearpark, J. J. Heyd, E. N. Brothers, K. N. Kudin, 
 V. N. Staroverov, T. A. Keith, R. Kobayashi, J. Normand, 
 K. Raghavachari, A. P. Rendell, J. C. Burant, S. S. Iyengar, 
 J. Tomasi, M. Cossi, J. M. Millam, M. Klene, C. Adamo, R. Cammi, 
 J. W. Ochterski, R. L. Martin, K. Morokuma, O. Farkas, 
 J. B. Foresman, and D. J. Fox, Gaussian, Inc., Wallingford CT, 2019.
 
 ******************************************
 Gaussian 16:  ES64L-G16RevC.01  3-Jul-2019
                20-Dec-2023 
 ******************************************
 %nprocshared=16
 Will use up to   16 processors via shared memory.
 %mem=16000MB
 %chk=KFZMGEQAYNKOFK-UHFFFAOYSA-N.chk
 ---------------------------------
 #T CCSD(T)/cc-pVDZ symm=veryloose
 ---------------------------------
 ------
 CC(C)O
 ------
 Symbolic Z-matrix:
 Charge =  0 Multiplicity = 1
 C                     1.33441  -0.53987   0.08887 
 C                     0.0033    0.04483  -0.3618 
 C                    -1.19057  -0.79009   0.10219 
 O                    -0.06052   1.36517   0.16345 
 H                     1.48085  -1.55263  -0.32558 
 H                     1.36995  -0.59901   1.19157 
 H                     2.16577   0.10344  -0.2462 
 H                    -0.00436   0.08368  -1.4734 
 H                    -1.20873  -0.84832   1.20542 
 H                    -1.14827  -1.81631  -0.30537 
 H                    -2.14316  -0.33731  -0.23325 
 H                    -0.91077   1.75582  -0.09639 
 
                    Distance matrix (angstroms):
                    1          2          3          4          5
     1  C    0.000000
     2  C    1.522119   0.000000
     3  C    2.537383   1.528943   0.000000
     4  O    2.362324   1.422416   2.434317   0.000000
     5  H    1.104035   2.176313   2.810859   3.335943   0.000000
     6  H    1.104852   2.166839   2.789172   2.638417   1.795389
     7  H    1.103298   2.166352   3.490665   2.591549   1.793869
     8  H    2.149843   1.112308   2.157089   2.079578   2.490153
     9  H    2.794533   2.173220   1.104917   2.702522   3.173936
    10  H    2.819293   2.189313   1.105000   3.394818   2.642382
    11  H    3.498325   2.183987   1.106775   2.719041   3.823473
    12  H    3.216414   1.957916   2.568918   0.971103   4.088784
                    6          7          8          9         10
     6  H    0.000000
     7  H    1.787160   0.000000
     8  H    3.075196   2.493163   0.000000
     9  H    2.590739   3.794772   3.081430   0.000000
    10  H    3.172385   3.830369   2.506545   1.795314   0.000000
    11  H    3.800061   4.331424   2.507916   1.789985   1.783942
    12  H    3.522167   3.495404   2.348140   2.926601   3.586104
                   11         12
    11  H    0.000000
    12  H    2.432834   0.000000
 Framework group  C1[X(C3H8O)]
 Deg. of freedom    30
                         Standard orientation:                         
 ---------------------------------------------------------------------
 Center     Atomic      Atomic             Coordinates (Angstroms)
 Number     Number       Type             X           Y           Z
 ---------------------------------------------------------------------
      1          6           0       -1.334414   -0.539868   -0.088870
      2          6           0       -0.003295    0.044827    0.361796
      3          6           0        1.190567   -0.790085   -0.102190
      4          8           0        0.060517    1.365172   -0.163452
      5          1           0       -1.480850   -1.552627    0.325580
      6          1           0       -1.369947   -0.599007   -1.191566
      7          1           0       -2.165767    0.103439    0.246204
      8          1           0        0.004363    0.083684    1.473399
      9          1           0        1.208731   -0.848316   -1.205422
     10          1           0        1.148265   -1.816306    0.305370
     11          1           0        2.143155   -0.337306    0.233246
     12          1           0        0.910765    1.755817    0.096385
 ---------------------------------------------------------------------
 Rotational constants (GHZ):           8.6718848           7.9941185           4.7550835
    96 basis functions,   188 primitive gaussians,   100 cartesian basis functions
    17 alpha electrons       17 beta electrons
       nuclear repulsion energy       134.3748800181 Hartrees.
 NAtoms=   12 NActive=   12 NUniq=   12 SFac= 1.00D+00 NAtFMM=   60 NAOKFM=F Big=F
 ExpMin= 1.22D-01 ExpMax= 1.17D+04 ExpMxC= 4.01D+02 IAcc=3 IRadAn=         5 AccDes= 0.00D+00
 Harris functional with IExCor=  205 and IRadAn=       5 diagonalized for initial guess.
 HarFok:  IExCor=  205 AccDes= 0.00D+00 IRadAn=         5 IDoV= 1 UseB2=F ITyADJ=14
 ICtDFT=  3500011 ScaDFX=  1.000000  1.000000  1.000000  1.000000
 FoFCou: FMM=F IPFlag=           0 FMFlag=      100000 FMFlg1=           0
         NFxFlg=           0 DoJE=T BraDBF=F KetDBF=T FulRan=T
         wScrn=  0.000000 ICntrl=       500 IOpCl=  0 I1Cent=   200000004 NGrid=           0
         NMat0=    1 NMatS0=      1 NMatT0=    0 NMatD0=    1 NMtDS0=    0 NMtDT0=    0
 Petite list used in FoFCou.
 SCF Done:  E(RHF) =  -193.133465722     A.U. after   12 cycles
            NFock= 12  Conv=0.37D-08     -V/T= 2.0017
 ExpMin= 1.22D-01 ExpMax= 1.17D+04 ExpMxC= 4.01D+02 IAcc=3 IRadAn=         5 AccDes= 0.00D+00
 HarFok:  IExCor=  205 AccDes= 0.00D+00 IRadAn=         5 IDoV=-2 UseB2=F ITyADJ=14
 ICtDFT= 12500011 ScaDFX=  1.000000  1.000000  1.000000  1.000000
 NROrb=     92 NOA=    13 NOB=    13 NVA=    79 NVB=    79
 Semi-Direct transformation.
 ModeAB=           2 MOrb=            13 LenV=    2096755401
 LASXX=      4542421 LTotXX=     4542421 LenRXX=     4542421
 LTotAB=     4689347 MaxLAS=     6039800 LenRXY=     6039800
 NonZer=     9084842 LenScr=    13762560 LnRSAI=           0
 LnScr1=           0 LExtra=           0 Total=     24344781
 MaxDsk=          -1 SrtSym=           F ITran=            4
 JobTyp=0 Pass  1:  I=   1 to  13.
 (rs|ai) integrals will be sorted in core.
 SymMOI:  orbitals are not symmetric.
 ANorm=    0.1093906450D+01
 E2 =    -0.6268795929D+00 EUMP2 =    -0.19376034531495D+03
 CIDS: In Core Option IDoMem=           1.
 Produce multiple copies of IABC intergrals
 MP4(R+Q)=  0.10595140D-01
 E3=       -0.41866183D-01        EUMP3=      -0.19380221150D+03
 E4(DQ)=   -0.44141458D-02        UMP4(DQ)=   -0.19380662564D+03
 E4(SDQ)=  -0.80776871D-02        UMP4(SDQ)=  -0.19381028919D+03
 DE(Corr)= -0.65805156     E(Corr)=     -193.79151728    
 NORM(A)=   0.11062033D+01
 DE(Corr)= -0.67331917     E(CORR)=     -193.80678489     Delta=-1.53D-02
 NORM(A)=   0.11131868D+01
 DE(Corr)= -0.67607946     E(CORR)=     -193.80954518     Delta=-2.76D-03
 NORM(A)=   0.11142871D+01
 DE(Corr)= -0.67711347     E(CORR)=     -193.81057919     Delta=-1.03D-03
 NORM(A)=   0.11145088D+01
 DE(Corr)= -0.67721363     E(CORR)=     -193.81067936     Delta=-1.00D-04
 NORM(A)=   0.11145524D+01
 DE(Corr)= -0.67722504     E(CORR)=     -193.81069076     Delta=-1.14D-05
 NORM(A)=   0.11145524D+01
 DE(Corr)= -0.67722498     E(CORR)=     -193.81069070     Delta= 6.12D-08
 NORM(A)=   0.11145528D+01
 DE(Corr)= -0.67722406     E(CORR)=     -193.81068978     Delta= 9.13D-07
 NORM(A)=   0.11145542D+01
 DE(Corr)= -0.67722432     E(CORR)=     -193.81069004     Delta=-2.56D-07
 NORM(A)=   0.11145547D+01
 DE(Corr)= -0.67722451     E(CORR)=     -193.81069024     Delta=-1.96D-07
 NORM(A)=   0.11145550D+01
 DE(Corr)= -0.67722464     E(CORR)=     -193.81069036     Delta=-1.22D-07
 NORM(A)=   0.11145551D+01
 DE(Corr)= -0.67722470     E(CORR)=     -193.81069042     Delta=-6.21D-08
 NORM(A)=   0.11145551D+01
 Wavefunction amplitudes converged. E(Corr)=     -193.81069042    
 Largest amplitude= 1.43D-02
 T4(AAA)= -0.46214450D-03
 T4(AAB)= -0.87832706D-02
 T5(AAA)=  0.20809393D-04
 T5(AAB)=  0.26130574D-03
 Time for triples=      140.05 seconds.
 T4(CCSD)= -0.18490830D-01
 T5(CCSD)=  0.56423027D-03
 CCSD(T)= -0.19382861702D+03
 Discarding MO integrals.

 **********************************************************************

            Population analysis using the SCF Density.

 **********************************************************************

 Orbital symmetries:
       Occupied  (A) (A) (A) (A) (A) (A) (A) (A) (A) (A) (A) (A)
                 (A) (A) (A) (A) (A)
       Virtual   (A) (A) (A) (A) (A) (A) (A) (A) (A) (A) (A) (A)
                 (A) (A) (A) (A) (A) (A) (A) (A) (A) (A) (A) (A)
                 (A) (A) (A) (A) (A) (A) (A) (A) (A) (A) (A) (A)
                 (A) (A) (A) (A) (A) (A) (A) (A) (A) (A) (A) (A)
                 (A) (A) (A) (A) (A) (A) (A) (A) (A) (A) (A) (A)
                 (A) (A) (A) (A) (A) (A) (A) (A) (A) (A) (A) (A)
                 (A) (A) (A) (A) (A) (A) (A)
 The electronic state is 1-A.
 Alpha  occ. eigenvalues --  -20.54859 -11.28152 -11.22718 -11.22032  -1.35230
 Alpha  occ. eigenvalues --   -1.03714  -0.93411  -0.79288  -0.68817  -0.62228
 Alpha  occ. eigenvalues --   -0.59939  -0.53998  -0.52832  -0.52323  -0.50515
 Alpha  occ. eigenvalues --   -0.46674  -0.42892
 Alpha virt. eigenvalues --    0.17278   0.21818   0.22935   0.24396   0.24672
 Alpha virt. eigenvalues --    0.26722   0.29087   0.30267   0.37020   0.40436
 Alpha virt. eigenvalues --    0.42662   0.56883   0.59826   0.66181   0.66817
 Alpha virt. eigenvalues --    0.72594   0.77787   0.79032   0.81962   0.84749
 Alpha virt. eigenvalues --    0.87469   0.88098   0.88425   0.90024   0.90882
 Alpha virt. eigenvalues --    0.91147   0.92912   0.95835   1.12939   1.14598
 Alpha virt. eigenvalues --    1.15387   1.26088   1.32737   1.36422   1.40903
 Alpha virt. eigenvalues --    1.46895   1.53069   1.57445   1.60187   1.67470
 Alpha virt. eigenvalues --    1.67833   1.68429   1.70156   1.80942   1.84445
 Alpha virt. eigenvalues --    1.86455   1.87653   1.91735   1.93884   1.97645
 Alpha virt. eigenvalues --    1.98077   1.99316   2.00512   2.02484   2.09303
 Alpha virt. eigenvalues --    2.14590   2.20442   2.23234   2.27821   2.28845
 Alpha virt. eigenvalues --    2.36162   2.43311   2.49708   2.51921   2.53131
 Alpha virt. eigenvalues --    2.57764   2.64579   2.71477   2.74655   2.75305
 Alpha virt. eigenvalues --    2.79797   2.85964   2.89963   2.95018   3.32167
 Alpha virt. eigenvalues --    3.41524   3.46967   3.65202   4.11986
          Condensed to atoms (all electrons):
 Mulliken charges:
               1
     1  C   -0.021407
     2  C    0.064387
     3  C   -0.040280
     4  O   -0.381839
     5  H    0.027346
     6  H    0.038298
     7  H    0.044044
     8  H    0.009730
     9  H    0.041115
    10  H    0.032206
    11  H    0.021933
    12  H    0.164466
 Sum of Mulliken charges =   0.00000
 Mulliken charges with hydrogens summed into heavy atoms:
               1
     1  C    0.088281
     2  C    0.074117
     3  C    0.054975
     4  O   -0.217373
 Electronic spatial extent (au):  <R**2>=            319.9936
 Charge=              0.0000 electrons
 Dipole moment (field-independent basis, Debye):
    X=              1.1937    Y=             -0.7453    Z=              0.8739  Tot=              1.6566
 Unable to Open any file for archive entry.
 1\1\GINC-NODE07\SP\RCCSD(T)-FC\CC-pVDZ\C3H8O1\XUHJ\20-Dec-2023\0\\#T C
 CSD(T)/cc-pVDZ symm=veryloose\\CC(C)O\\0,1\C,0,1.334414,-0.539868,0.08
 887\C,0,0.003295,0.044827,-0.361796\C,0,-1.190567,-0.790085,0.10219\O,
 0,-0.060517,1.365172,0.163452\H,0,1.48085,-1.552627,-0.32558\H,0,1.369
 947,-0.599007,1.191566\H,0,2.165767,0.103439,-0.246204\H,0,-0.004363,0
 .083684,-1.473399\H,0,-1.208731,-0.848316,1.205422\H,0,-1.148265,-1.81
 6306,-0.30537\H,0,-2.143155,-0.337306,-0.233246\H,0,-0.910765,1.755817
 ,-0.096385\\Version=ES64L-G16RevC.01\State=1-A\HF=-193.1334657\MP2=-19
 3.7603453\MP3=-193.8022115\MP4D=-193.8172208\MP4DQ=-193.8066256\MP4SDQ
 =-193.8102892\CCSD=-193.8106904\CCSD(T)=-193.828617\RMSD=3.706e-09\PG=
 C01 [X(C3H8O1)]\\@
 The archive entry for this job was punched.


 CHRISTMAS IS ON TOP OF A STEEP HILL.
 THE CLOSER YOU GET, THE STEEPER THE HILL IS.
          -- LINUS, OF PEANUTS
 Job cpu time:       0 days  0 hours 12 minutes 25.9 seconds.
 Elapsed time:       0 days  0 hours  0 minutes 52.3 seconds.
 File lengths (MBytes):  RWF=   1120 Int=      0 D2E=      0 Chk=      2 Scr=      2
 Normal termination of Gaussian 16 at Wed Dec 20 01:40:51 2023.
 Initial command:
 /home/software/g16/l1.exe "/home/software/g16tmp/Gau-59710.inp" -scrdir="/home/software/g16tmp/"
 Default is to use a total of   8 processors:
                                8 via shared-memory
                                1 via Linda
 Entering Link 1 = /home/software/g16/l1.exe PID=     60326.
  
 Copyright (c) 1988-2019, Gaussian, Inc.  All Rights Reserved.
  
 This is part of the Gaussian(R) 16 program.  It is based on
 the Gaussian(R) 09 system (copyright 2009, Gaussian, Inc.),
 the Gaussian(R) 03 system (copyright 2003, Gaussian, Inc.),
 the Gaussian(R) 98 system (copyright 1998, Gaussian, Inc.),
 the Gaussian(R) 94 system (copyright 1995, Gaussian, Inc.),
 the Gaussian 92(TM) system (copyright 1992, Gaussian, Inc.),
 the Gaussian 90(TM) system (copyright 1990, Gaussian, Inc.),
 the Gaussian 88(TM) system (copyright 1988, Gaussian, Inc.),
 the Gaussian 86(TM) system (copyright 1986, Carnegie Mellon
 University), and the Gaussian 82(TM) system (copyright 1983,
 Carnegie Mellon University). Gaussian is a federally registered
 trademark of Gaussian, Inc.
  
 This software contains proprietary and confidential information,
 including trade secrets, belonging to Gaussian, Inc.
  
 This software is provided under written license and may be
 used, copied, transmitted, or stored only in accord with that
 written license.
  
 The following legend is applicable only to US Government
 contracts under FAR:
  
                    RESTRICTED RIGHTS LEGEND
  
 Use, reproduction and disclosure by the US Government is
 subject to restrictions as set forth in subparagraphs (a)
 and (c) of the Commercial Computer Software - Restricted
 Rights clause in FAR 52.227-19.
  
 Gaussian, Inc.
 340 Quinnipiac St., Bldg. 40, Wallingford CT 06492
  
  
 ---------------------------------------------------------------
 Warning -- This program may not be used in any manner that
 competes with the business of Gaussian, Inc. or will provide
 assistance to any competitor of Gaussian, Inc.  The licensee
 of this program is prohibited from giving any competitor of
 Gaussian, Inc. access to this program.  By using this program,
 the user acknowledges that Gaussian, Inc. is engaged in the
 business of creating and licensing software in the field of
 computational chemistry and represents and warrants to the
 licensee that it is not a competitor of Gaussian, Inc. and that
 it will not use this program in any manner prohibited above.
 ---------------------------------------------------------------
  

 Cite this work as:
 Gaussian 16, Revision C.01,
 M. J. Frisch, G. W. Trucks, H. B. Schlegel, G. E. Scuseria, 
 M. A. Robb, J. R. Cheeseman, G. Scalmani, V. Barone, 
 G. A. Petersson, H. Nakatsuji, X. Li, M. Caricato, A. V. Marenich, 
 J. Bloino, B. G. Janesko, R. Gomperts, B. Mennucci, H. P. Hratchian, 
 J. V. Ortiz, A. F. Izmaylov, J. L. Sonnenberg, D. Williams-Young, 
 F. Ding, F. Lipparini, F. Egidi, J. Goings, B. Peng, A. Petrone, 
 T. Henderson, D. Ranasinghe, V. G. Zakrzewski, J. Gao, N. Rega, 
 G. Zheng, W. Liang, M. Hada, M. Ehara, K. Toyota, R. Fukuda, 
 J. Hasegawa, M. Ishida, T. Nakajima, Y. Honda, O. Kitao, H. Nakai, 
 T. Vreven, K. Throssell, J. A. Montgomery, Jr., J. E. Peralta, 
 F. Ogliaro, M. J. Bearpark, J. J. Heyd, E. N. Brothers, K. N. Kudin, 
 V. N. Staroverov, T. A. Keith, R. Kobayashi, J. Normand, 
 K. Raghavachari, A. P. Rendell, J. C. Burant, S. S. Iyengar, 
 J. Tomasi, M. Cossi, J. M. Millam, M. Klene, C. Adamo, R. Cammi, 
 J. W. Ochterski, R. L. Martin, K. Morokuma, O. Farkas, 
 J. B. Foresman, and D. J. Fox, Gaussian, Inc., Wallingford CT, 2019.
 
 ******************************************
 Gaussian 16:  ES64L-G16RevC.01  3-Jul-2019
                20-Dec-2023 
 ******************************************
 %nprocshared=16
 Will use up to   16 processors via shared memory.
 %mem=16000MB
 %chk=KFZMGEQAYNKOFK-UHFFFAOYSA-N.chk
 -----------------------------------------------
 #T CCSD(T)/cc-pVTZ symm=veryloose geom=allcheck
 -----------------------------------------------
 Structure from the checkpoint file:  "KFZMGEQAYNKOFK-UHFFFAOYSA-N.chk"
 ------
 CC(C)O
 ------
 Charge =  0 Multiplicity = 1
 Z-Matrix found in chk file.
 C,0,1.334414,-0.539868,0.08887
 C,0,0.003295,0.044827,-0.361796
 C,0,-1.190567,-0.790085,0.10219
 O,0,-0.060517,1.365172,0.163452
 H,0,1.48085,-1.552627,-0.32558
 H,0,1.369947,-0.599007,1.191566
 H,0,2.165767,0.103439,-0.246204
 H,0,-0.004363,0.083684,-1.473399
 H,0,-1.208731,-0.848316,1.205422
 H,0,-1.148265,-1.816306,-0.30537
 H,0,-2.143155,-0.337306,-0.233246
 H,0,-0.910765,1.755817,-0.096385
 Recover connectivity data from disk.
                    Distance matrix (angstroms):
                    1          2          3          4          5
     1  C    0.000000
     2  C    1.522119   0.000000
     3  C    2.537383   1.528943   0.000000
     4  O    2.362324   1.422416   2.434317   0.000000
     5  H    1.104035   2.176313   2.810859   3.335943   0.000000
     6  H    1.104852   2.166839   2.789172   2.638417   1.795389
     7  H    1.103298   2.166352   3.490665   2.591549   1.793869
     8  H    2.149843   1.112308   2.157089   2.079578   2.490153
     9  H    2.794533   2.173220   1.104917   2.702522   3.173936
    10  H    2.819293   2.189313   1.105000   3.394818   2.642382
    11  H    3.498325   2.183987   1.106775   2.719041   3.823473
    12  H    3.216414   1.957916   2.568918   0.971103   4.088784
                    6          7          8          9         10
     6  H    0.000000
     7  H    1.787160   0.000000
     8  H    3.075196   2.493163   0.000000
     9  H    2.590739   3.794772   3.081430   0.000000
    10  H    3.172385   3.830369   2.506545   1.795314   0.000000
    11  H    3.800061   4.331424   2.507916   1.789985   1.783942
    12  H    3.522167   3.495404   2.348140   2.926601   3.586104
                   11         12
    11  H    0.000000
    12  H    2.432834   0.000000
 Framework group  C1[X(C3H8O)]
 Deg. of freedom    30
                         Standard orientation:                         
 ---------------------------------------------------------------------
 Center     Atomic      Atomic             Coordinates (Angstroms)
 Number     Number       Type             X           Y           Z
 ---------------------------------------------------------------------
      1          6           0       -1.334414   -0.539868   -0.088870
      2          6           0       -0.003295    0.044827    0.361796
      3          6           0        1.190567   -0.790085   -0.102190
      4          8           0        0.060517    1.365172   -0.163452
      5          1           0       -1.480850   -1.552627    0.325580
      6          1           0       -1.369947   -0.599007   -1.191566
      7          1           0       -2.165767    0.103439    0.246204
      8          1           0        0.004363    0.083684    1.473399
      9          1           0        1.208731   -0.848316   -1.205422
     10          1           0        1.148265   -1.816306    0.305370
     11          1           0        2.143155   -0.337306    0.233246
     12          1           0        0.910765    1.755817    0.096385
 ---------------------------------------------------------------------
 Rotational constants (GHZ):           8.6718848           7.9941185           4.7550835
   232 basis functions,   344 primitive gaussians,   260 cartesian basis functions
    17 alpha electrons       17 beta electrons
       nuclear repulsion energy       134.3748800181 Hartrees.
 NAtoms=   12 NActive=   12 NUniq=   12 SFac= 1.00D+00 NAtFMM=   60 NAOKFM=F Big=F
 ExpMin= 1.03D-01 ExpMax= 1.53D+04 ExpMxC= 5.22D+02 IAcc=3 IRadAn=         5 AccDes= 0.00D+00
 Harris functional with IExCor=  205 and IRadAn=       5 diagonalized for initial guess.
 HarFok:  IExCor=  205 AccDes= 0.00D+00 IRadAn=         5 IDoV= 1 UseB2=F ITyADJ=14
 ICtDFT=  3500011 ScaDFX=  1.000000  1.000000  1.000000  1.000000
 FoFCou: FMM=F IPFlag=           0 FMFlag=      100000 FMFlg1=           0
         NFxFlg=           0 DoJE=T BraDBF=F KetDBF=T FulRan=T
         wScrn=  0.000000 ICntrl=       500 IOpCl=  0 I1Cent=   200000004 NGrid=           0
         NMat0=    1 NMatS0=      1 NMatT0=    0 NMatD0=    1 NMtDS0=    0 NMtDT0=    0
 Petite list used in FoFCou.
 SCF Done:  E(RHF) =  -193.192765082     A.U. after   11 cycles
            NFock= 11  Conv=0.78D-08     -V/T= 2.0020
 ExpMin= 1.03D-01 ExpMax= 1.53D+04 ExpMxC= 5.22D+02 IAcc=3 IRadAn=         5 AccDes= 0.00D+00
 HarFok:  IExCor=  205 AccDes= 0.00D+00 IRadAn=         5 IDoV=-2 UseB2=F ITyADJ=14
 ICtDFT= 12500011 ScaDFX=  1.000000  1.000000  1.000000  1.000000
 NROrb=    228 NOA=    13 NOB=    13 NVA=   215 NVB=   215

 **** Warning!!: The largest alpha MO coefficient is  0.11681687D+02

 Semi-Direct transformation.
 ModeAB=           2 MOrb=            13 LenV=    2095676727
 LASXX=     74126481 LTotXX=    74126481 LenRXX=    74126481
 LTotAB=    75087571 MaxLAS=   100568520 LenRXY=   100568520
 NonZer=   148252962 LenScr=   222822400 LnRSAI=           0
 LnScr1=           0 LExtra=           0 Total=    397517401
 MaxDsk=          -1 SrtSym=           F ITran=            4
 JobTyp=0 Pass  1:  I=   1 to  13.
 (rs|ai) integrals will be sorted in core.
 SymMOI:  orbitals are not symmetric.
 ANorm=    0.1105413955D+01
 E2 =    -0.7783908553D+00 EUMP2 =    -0.19397115593727D+03
 CIDS: In Core Option IDoMem=           1.
 Produce multiple copies of IABC intergrals
 MP4(R+Q)=  0.16650290D-01
 E3=       -0.34383363D-01        EUMP3=      -0.19400553930D+03
 E4(DQ)=    0.37711409D-03        UMP4(DQ)=   -0.19400516219D+03
 E4(SDQ)=  -0.51807818D-02        UMP4(SDQ)=  -0.19401072008D+03
 DE(Corr)= -0.79590848     E(Corr)=     -193.98867356    
 NORM(A)=   0.11135394D+01
 DE(Corr)= -0.81378725     E(CORR)=     -194.00655234     Delta=-1.79D-02
 NORM(A)=   0.11211360D+01
 DE(Corr)= -0.81566082     E(CORR)=     -194.00842590     Delta=-1.87D-03
 NORM(A)=   0.11224270D+01
 DE(Corr)= -0.81689539     E(CORR)=     -194.00966048     Delta=-1.23D-03
 NORM(A)=   0.11226811D+01
 DE(Corr)= -0.81700035     E(CORR)=     -194.00976543     Delta=-1.05D-04
 NORM(A)=   0.11227383D+01
 DE(Corr)= -0.81701237     E(CORR)=     -194.00977745     Delta=-1.20D-05
 NORM(A)=   0.11227393D+01
 DE(Corr)= -0.81701282     E(CORR)=     -194.00977790     Delta=-4.51D-07
 NORM(A)=   0.11227383D+01
 DE(Corr)= -0.81701221     E(CORR)=     -194.00977729     Delta= 6.17D-07
 NORM(A)=   0.11227396D+01
 DE(Corr)= -0.81701203     E(CORR)=     -194.00977711     Delta= 1.76D-07
 NORM(A)=   0.11227400D+01
 DE(Corr)= -0.81701232     E(CORR)=     -194.00977740     Delta=-2.86D-07
 NORM(A)=   0.11227403D+01
 DE(Corr)= -0.81701239     E(CORR)=     -194.00977747     Delta=-7.29D-08
 NORM(A)=   0.11227405D+01
 Wavefunction amplitudes converged. E(Corr)=     -194.00977747    
 Largest amplitude= 1.38D-02
 T4(AAA)= -0.83909331D-03
 T4(AAB)= -0.14809669D-01
 T5(AAA)=  0.33096308D-04
 T5(AAB)=  0.40854087D-03
 Time for triples=     4395.73 seconds.
 T4(CCSD)= -0.31297524D-01
 T5(CCSD)=  0.88327435D-03
 CCSD(T)= -0.19404019172D+03
 Discarding MO integrals.

 **********************************************************************

            Population analysis using the SCF Density.

 **********************************************************************

 Orbital symmetries:
       Occupied  (A) (A) (A) (A) (A) (A) (A) (A) (A) (A) (A) (A)
                 (A) (A) (A) (A) (A)
       Virtual   (A) (A) (A) (A) (A) (A) (A) (A) (A) (A) (A) (A)
                 (A) (A) (A) (A) (A) (A) (A) (A) (A) (A) (A) (A)
                 (A) (A) (A) (A) (A) (A) (A) (A) (A) (A) (A) (A)
                 (A) (A) (A) (A) (A) (A) (A) (A) (A) (A) (A) (A)
                 (A) (A) (A) (A) (A) (A) (A) (A) (A) (A) (A) (A)
                 (A) (A) (A) (A) (A) (A) (A) (A) (A) (A) (A) (A)
                 (A) (A) (A) (A) (A) (A) (A) (A) (A) (A) (A) (A)
                 (A) (A) (A) (A) (A) (A) (A) (A) (A) (A) (A) (A)
                 (A) (A) (A) (A) (A) (A) (A) (A) (A) (A) (A) (A)
                 (A) (A) (A) (A) (A) (A) (A) (A) (A) (A) (A) (A)
                 (A) (A) (A) (A) (A) (A) (A) (A) (A) (A) (A) (A)
                 (A) (A) (A) (A) (A) (A) (A) (A) (A) (A) (A) (A)
                 (A) (A) (A) (A) (A) (A) (A) (A) (A) (A) (A) (A)
                 (A) (A) (A) (A) (A) (A) (A) (A) (A) (A) (A) (A)
                 (A) (A) (A) (A) (A) (A) (A) (A) (A) (A) (A) (A)
                 (A) (A) (A) (A) (A) (A) (A) (A) (A) (A) (A) (A)
                 (A) (A) (A) (A) (A) (A) (A) (A) (A) (A) (A) (A)
                 (A) (A) (A) (A) (A) (A) (A) (A) (A) (A) (A)
 The electronic state is 1-A.
 Alpha  occ. eigenvalues --  -20.54960 -11.28084 -11.22140 -11.21435  -1.35454
 Alpha  occ. eigenvalues --   -1.03725  -0.93404  -0.79421  -0.69103  -0.62444
 Alpha  occ. eigenvalues --   -0.60151  -0.54174  -0.53020  -0.52625  -0.50765
 Alpha  occ. eigenvalues --   -0.46940  -0.43305
 Alpha virt. eigenvalues --    0.13297   0.17210   0.18151   0.19206   0.20780
 Alpha virt. eigenvalues --    0.22169   0.24215   0.26090   0.29590   0.33644
 Alpha virt. eigenvalues --    0.36117   0.37591   0.39347   0.44884   0.46012
 Alpha virt. eigenvalues --    0.49675   0.52200   0.54544   0.56091   0.59400
 Alpha virt. eigenvalues --    0.61962   0.62863   0.63731   0.64798   0.65454
 Alpha virt. eigenvalues --    0.66272   0.66684   0.68714   0.74337   0.74751
 Alpha virt. eigenvalues --    0.79235   0.82461   0.83205   0.88921   0.92137
 Alpha virt. eigenvalues --    0.92640   0.97207   0.99858   1.02673   1.05780
 Alpha virt. eigenvalues --    1.07910   1.12041   1.13016   1.16622   1.19934
 Alpha virt. eigenvalues --    1.20839   1.22055   1.25713   1.28010   1.29437
 Alpha virt. eigenvalues --    1.33762   1.34296   1.35219   1.36770   1.40500
 Alpha virt. eigenvalues --    1.42915   1.44844   1.46408   1.49148   1.50678
 Alpha virt. eigenvalues --    1.53640   1.54954   1.56924   1.58180   1.60516
 Alpha virt. eigenvalues --    1.63194   1.64425   1.69487   1.71342   1.76745
 Alpha virt. eigenvalues --    1.79678   1.82223   1.84514   1.92000   2.12488
 Alpha virt. eigenvalues --    2.25167   2.25897   2.38842   2.41738   2.51741
 Alpha virt. eigenvalues --    2.58900   2.63996   2.65427   2.67299   2.74441
 Alpha virt. eigenvalues --    2.75558   2.80059   2.82117   2.85609   2.87994
 Alpha virt. eigenvalues --    2.93196   2.96848   2.98160   3.01166   3.04578
 Alpha virt. eigenvalues --    3.09854   3.11892   3.13516   3.14790   3.17398
 Alpha virt. eigenvalues --    3.22060   3.23789   3.24796   3.26982   3.31391
 Alpha virt. eigenvalues --    3.34825   3.36449   3.37047   3.38344   3.39498
 Alpha virt. eigenvalues --    3.42697   3.43770   3.45027   3.46462   3.49181
 Alpha virt. eigenvalues --    3.55390   3.57052   3.61595   3.62882   3.66036
 Alpha virt. eigenvalues --    3.66657   3.70156   3.72580   3.72972   3.77324
 Alpha virt. eigenvalues --    3.78962   3.80266   3.80913   3.83125   3.89805
 Alpha virt. eigenvalues --    3.90072   3.92181   3.98389   4.01244   4.05415
 Alpha virt. eigenvalues --    4.07216   4.09702   4.11486   4.13056   4.13839
 Alpha virt. eigenvalues --    4.15744   4.19716   4.20225   4.23156   4.25972
 Alpha virt. eigenvalues --    4.26718   4.28890   4.30259   4.32132   4.34194
 Alpha virt. eigenvalues --    4.37077   4.38955   4.40271   4.44694   4.45361
 Alpha virt. eigenvalues --    4.46679   4.48341   4.51273   4.58996   4.60113
 Alpha virt. eigenvalues --    4.61748   4.63455   4.69509   4.71696   4.74821
 Alpha virt. eigenvalues --    4.77642   4.84973   4.88261   4.90283   5.03437
 Alpha virt. eigenvalues --    5.07085   5.09239   5.12289   5.14190   5.16283
 Alpha virt. eigenvalues --    5.18335   5.25052   5.26868   5.34959   5.40362
 Alpha virt. eigenvalues --    5.44814   5.47294   5.48915   5.51329   5.56558
 Alpha virt. eigenvalues --    5.61531   5.64572   5.66170   5.66601   5.67820
 Alpha virt. eigenvalues --    5.73001   5.75443   5.82184   5.86213   5.98358
 Alpha virt. eigenvalues --    6.08931   6.15478   6.22193   6.24757   6.28465
 Alpha virt. eigenvalues --    6.30457   6.42874   6.64537   6.97145   7.14332
 Alpha virt. eigenvalues --    7.15452   7.27346   7.42449   7.49771   7.74109
 Alpha virt. eigenvalues --    7.95236  11.83651  12.78487  13.93561  14.03876
          Condensed to atoms (all electrons):
 Mulliken charges:
               1
     1  C   -0.270195
     2  C    0.163010
     3  C   -0.277409
     4  O   -0.422276
     5  H    0.078846
     6  H    0.088939
     7  H    0.102879
     8  H    0.059925
     9  H    0.094057
    10  H    0.085029
    11  H    0.078075
    12  H    0.219119
 Sum of Mulliken charges =  -0.00000
 Mulliken charges with hydrogens summed into heavy atoms:
               1
     1  C    0.000469
     2  C    0.222935
     3  C   -0.020248
     4  O   -0.203157
 Electronic spatial extent (au):  <R**2>=            320.2243
 Charge=             -0.0000 electrons
 Dipole moment (field-independent basis, Debye):
    X=              1.1843    Y=             -0.7811    Z=              0.8841  Tot=              1.6716
 Unable to Open any file for archive entry.
 1\1\GINC-NODE07\SP\RCCSD(T)-FC\CC-pVTZ\C3H8O1\XUHJ\20-Dec-2023\0\\#T C
 CSD(T)/cc-pVTZ symm=veryloose geom=allcheck\\CC(C)O\\0,1\C,0,1.334414,
 -0.539868,0.08887\C,0,0.003295,0.044827,-0.361796\C,0,-1.190567,-0.790
 085,0.10219\O,0,-0.060517,1.365172,0.163452\H,0,1.48085,-1.552627,-0.3
 2558\H,0,1.369947,-0.599007,1.191566\H,0,2.165767,0.103439,-0.246204\H
 ,0,-0.004363,0.083684,-1.473399\H,0,-1.208731,-0.848316,1.205422\H,0,-
 1.148265,-1.816306,-0.30537\H,0,-2.143155,-0.337306,-0.233246\H,0,-0.9
 10765,1.755817,-0.096385\\Version=ES64L-G16RevC.01\State=1-A\HF=-193.1
 927651\MP2=-193.9711559\MP3=-194.0055393\MP4D=-194.0218125\MP4DQ=-194.
 0051622\MP4SDQ=-194.0107201\CCSD=-194.0097775\CCSD(T)=-194.0401917\RMS
 D=7.827e-09\PG=C01 [X(C3H8O1)]\\@
 The archive entry for this job was punched.


 THE WORLD IS NOT A HAMBURGER - YOU CAN'T HAVE IT YOUR WAY.
 Job cpu time:       0 days  2 hours 10 minutes 39.7 seconds.
 Elapsed time:       0 days  0 hours  8 minutes 29.4 seconds.
 File lengths (MBytes):  RWF=  10738 Int=      0 D2E=      0 Chk=      6 Scr=      2
 Normal termination of Gaussian 16 at Wed Dec 20 01:49:37 2023.
