 Entering Gaussian System, Link 0=g16
 Initial command:
 /home/software/g16/l1.exe "/home/software/g16tmp/Gau-67918.inp" -scrdir="/home/software/g16tmp/"
 Default is to use a total of   8 processors:
                                8 via shared-memory
                                1 via Linda
 Entering Link 1 = /home/software/g16/l1.exe PID=     67919.
  
 Copyright (c) 1988-2019, Gaussian, Inc.  All Rights Reserved.
  
 This is part of the Gaussian(R) 16 program.  It is based on
 the Gaussian(R) 09 system (copyright 2009, Gaussian, Inc.),
 the Gaussian(R) 03 system (copyright 2003, Gaussian, Inc.),
 the Gaussian(R) 98 system (copyright 1998, Gaussian, Inc.),
 the Gaussian(R) 94 system (copyright 1995, Gaussian, Inc.),
 the Gaussian 92(TM) system (copyright 1992, Gaussian, Inc.),
 the Gaussian 90(TM) system (copyright 1990, Gaussian, Inc.),
 the Gaussian 88(TM) system (copyright 1988, Gaussian, Inc.),
 the Gaussian 86(TM) system (copyright 1986, Carnegie Mellon
 University), and the Gaussian 82(TM) system (copyright 1983,
 Carnegie Mellon University). Gaussian is a federally registered
 trademark of Gaussian, Inc.
  
 This software contains proprietary and confidential information,
 including trade secrets, belonging to Gaussian, Inc.
  
 This software is provided under written license and may be
 used, copied, transmitted, or stored only in accord with that
 written license.
  
 The following legend is applicable only to US Government
 contracts under FAR:
  
                    RESTRICTED RIGHTS LEGEND
  
 Use, reproduction and disclosure by the US Government is
 subject to restrictions as set forth in subparagraphs (a)
 and (c) of the Commercial Computer Software - Restricted
 Rights clause in FAR 52.227-19.
  
 Gaussian, Inc.
 340 Quinnipiac St., Bldg. 40, Wallingford CT 06492
  
  
 ---------------------------------------------------------------
 Warning -- This program may not be used in any manner that
 competes with the business of Gaussian, Inc. or will provide
 assistance to any competitor of Gaussian, Inc.  The licensee
 of this program is prohibited from giving any competitor of
 Gaussian, Inc. access to this program.  By using this program,
 the user acknowledges that Gaussian, Inc. is engaged in the
 business of creating and licensing software in the field of
 computational chemistry and represents and warrants to the
 licensee that it is not a competitor of Gaussian, Inc. and that
 it will not use this program in any manner prohibited above.
 ---------------------------------------------------------------
  

 Cite this work as:
 Gaussian 16, Revision C.01,
 M. J. Frisch, G. W. Trucks, H. B. Schlegel, G. E. Scuseria, 
 M. A. Robb, J. R. Cheeseman, G. Scalmani, V. Barone, 
 G. A. Petersson, H. Nakatsuji, X. Li, M. Caricato, A. V. Marenich, 
 J. Bloino, B. G. Janesko, R. Gomperts, B. Mennucci, H. P. Hratchian, 
 J. V. Ortiz, A. F. Izmaylov, J. L. Sonnenberg, D. Williams-Young, 
 F. Ding, F. Lipparini, F. Egidi, J. Goings, B. Peng, A. Petrone, 
 T. Henderson, D. Ranasinghe, V. G. Zakrzewski, J. Gao, N. Rega, 
 G. Zheng, W. Liang, M. Hada, M. Ehara, K. Toyota, R. Fukuda, 
 J. Hasegawa, M. Ishida, T. Nakajima, Y. Honda, O. Kitao, H. Nakai, 
 T. Vreven, K. Throssell, J. A. Montgomery, Jr., J. E. Peralta, 
 F. Ogliaro, M. J. Bearpark, J. J. Heyd, E. N. Brothers, K. N. Kudin, 
 V. N. Staroverov, T. A. Keith, R. Kobayashi, J. Normand, 
 K. Raghavachari, A. P. Rendell, J. C. Burant, S. S. Iyengar, 
 J. Tomasi, M. Cossi, J. M. Millam, M. Klene, C. Adamo, R. Cammi, 
 J. W. Ochterski, R. L. Martin, K. Morokuma, O. Farkas, 
 J. B. Foresman, and D. J. Fox, Gaussian, Inc., Wallingford CT, 2019.
 
 ******************************************
 Gaussian 16:  ES64L-G16RevC.01  3-Jul-2019
                20-Dec-2023 
 ******************************************
 %nprocshared=16
 Will use up to   16 processors via shared memory.
 %mem=12000MB
 %chk=KURVGVOUITVZSK-UHFFFAOYSA-N.chk
 ---------------------------------
 #T CCSD(T)/cc-pVDZ symm=veryloose
 ---------------------------------
 -----
 [C]CC
 -----
 Symbolic Z-matrix:
 Charge =  0 Multiplicity = 4
 C                     1.48043   0.28021   0. 
 C                     0.        0.55733   0. 
 C                    -0.85973  -0.71386   0. 
 H                    -0.23679   1.17717  -0.88984 
 H                    -0.23679   1.17717   0.88984 
 H                    -0.6598   -1.32902  -0.89376 
 H                    -1.931    -0.43837   0. 
 H                    -0.6598   -1.32902   0.89376 
 
                    Distance matrix (angstroms):
                    1          2          3          4          5
     1  C    0.000000
     2  C    1.506141   0.000000
     3  C    2.542540   1.534620   0.000000
     4  H    2.131942   1.109992   2.180793   0.000000
     5  H    2.131942   1.109992   2.180793   1.779678   0.000000
     6  H    2.822941   2.189171   1.103273   2.541643   3.105023
     7  H    3.486285   2.172597   1.106122   2.504423   2.504423
     8  H    2.822941   2.189171   1.103273   3.105023   2.541643
                    6          7          8
     6  H    0.000000
     7  H    1.791095   0.000000
     8  H    1.787524   1.791095   0.000000
 Framework group  CS[SG(C3H),X(H4)]
 Deg. of freedom    11
                         Standard orientation:                         
 ---------------------------------------------------------------------
 Center     Atomic      Atomic             Coordinates (Angstroms)
 Number     Number       Type             X           Y           Z
 ---------------------------------------------------------------------
      1          6           0       -1.480427    0.280207    0.000000
      2          6           0        0.000000    0.557330    0.000000
      3          6           0        0.859732   -0.713858    0.000000
      4          1           0        0.236787    1.177169    0.889839
      5          1           0        0.236787    1.177169   -0.889839
      6          1           0        0.659799   -1.329022    0.893762
      7          1           0        1.930999   -0.438370    0.000000
      8          1           0        0.659799   -1.329022   -0.893762
 ---------------------------------------------------------------------
 Rotational constants (GHZ):          37.4149824          10.1463751           8.8812660
    67 basis functions,   134 primitive gaussians,    70 cartesian basis functions
    13 alpha electrons       10 beta electrons
       nuclear repulsion energy        62.6787670161 Hartrees.
 NAtoms=    8 NActive=    8 NUniq=    6 SFac= 1.78D+00 NAtFMM=   60 NAOKFM=F Big=F
 ExpMin= 1.22D-01 ExpMax= 6.67D+03 ExpMxC= 2.28D+02 IAcc=3 IRadAn=         5 AccDes= 0.00D+00
 Harris functional with IExCor=  205 and IRadAn=       5 diagonalized for initial guess.
 HarFok:  IExCor=  205 AccDes= 0.00D+00 IRadAn=         5 IDoV= 1 UseB2=F ITyADJ=14
 ICtDFT=  3500011 ScaDFX=  1.000000  1.000000  1.000000  1.000000
 FoFCou: FMM=F IPFlag=           0 FMFlag=      100000 FMFlg1=           0
         NFxFlg=           0 DoJE=T BraDBF=F KetDBF=T FulRan=T
         wScrn=  0.000000 ICntrl=       500 IOpCl=  0 I1Cent=   200000004 NGrid=           0
         NMat0=    1 NMatS0=      1 NMatT0=    0 NMatD0=    1 NMtDS0=    0 NMtDT0=    0
 Petite list used in FoFCou.
 Initial guess orbital symmetries:
 Alpha Orbitals:
       Occupied  (A') (A') (A') (A') (A') (A') (A") (A') (A') (A")
                 (A') (A') (A")
       Virtual   (A') (A") (A') (A') (A") (A') (A') (A") (A') (A')
                 (A') (A') (A") (A') (A') (A") (A") (A') (A') (A")
                 (A') (A') (A') (A") (A') (A") (A') (A') (A") (A")
                 (A') (A") (A') (A') (A') (A") (A") (A') (A") (A')
                 (A') (A") (A') (A') (A') (A") (A') (A") (A') (A')
                 (A') (A") (A') (A")
 Beta  Orbitals:
       Occupied  (A') (A') (A') (A') (A') (A') (A") (A') (A') (A")
       Virtual   (A') (A') (A") (A') (A") (A') (A') (A") (A') (A')
                 (A") (A') (A') (A') (A') (A") (A') (A') (A") (A")
                 (A') (A') (A") (A') (A') (A') (A") (A') (A") (A')
                 (A') (A") (A") (A') (A") (A') (A') (A') (A") (A")
                 (A') (A") (A') (A') (A") (A') (A') (A') (A") (A')
                 (A") (A') (A') (A') (A") (A') (A")
 The electronic state of the initial guess is 4-A".
 Initial guess <Sx>= 0.0000 <Sy>= 0.0000 <Sz>= 1.5000 <S**2>= 3.7500 S= 1.5000
 SCF Done:  E(UHF) =  -116.360855388     A.U. after   16 cycles
            NFock= 16  Conv=0.40D-08     -V/T= 2.0015
 <Sx>= 0.0000 <Sy>= 0.0000 <Sz>= 1.5000 <S**2>= 3.7571 S= 1.5018
 <L.S>=  0.00000000000    
 Annihilation of the first spin contaminant:
 S**2 before annihilation     3.7571,   after     3.7500
 ExpMin= 1.22D-01 ExpMax= 6.67D+03 ExpMxC= 2.28D+02 IAcc=3 IRadAn=         5 AccDes= 0.00D+00
 HarFok:  IExCor=  205 AccDes= 0.00D+00 IRadAn=         5 IDoV=-2 UseB2=F ITyADJ=14
 ICtDFT= 12500011 ScaDFX=  1.000000  1.000000  1.000000  1.000000
 NROrb=     64 NOA=    10 NOB=     7 NVA=    54 NVB=    57
 Semi-Direct transformation.
 ModeAB=           4 MOrb=            10 LenV=    1572576239
 LASXX=       580795 LTotXX=      580795 LenRXX=     1206288
 LTotAB=      625493 MaxLAS=     1255680 LenRXY=           0
 NonZer=     1787083 LenScr=     3276800 LnRSAI=     1255680
 LnScr1=     2097152 LExtra=           0 Total=      7835920
 MaxDsk=          -1 SrtSym=           T ITran=            4
 JobTyp=1 Pass  1:  I=   1 to  10.
 (rs|ai) integrals will be sorted in core.
 ModeAB=           4 MOrb=             7 LenV=    1572576239
 LASXX=       422038 LTotXX=      422038 LenRXX=      742398
 LTotAB=      320360 MaxLAS=      878976 LenRXY=           0
 NonZer=     1164436 LenScr=     2097152 LnRSAI=      878976
 LnScr1=     1966080 LExtra=           0 Total=      5684606
 MaxDsk=          -1 SrtSym=           T ITran=            4
 JobTyp=2 Pass  1:  I=   1 to   7.
 (rs|ai) integrals will be sorted in core.
 ANorm=    0.1058226493D+01
 E2 =    -0.3437975094D+00 EUMP2 =    -0.11670465289756D+03
 (S**2,0)=  0.37571D+01           (S**2,1)=  0.37520D+01
 E(PUHF)=      -0.11636190254D+03        E(PMP2)=      -0.11670532682D+03
 CIDS: In Core Option IDoMem=           1.
 Produce multiple copies of IABC intergrals
 E(PMP3)=      -0.11674243106D+03
 MP4(R+Q)=  0.65129148D-02
 E3=       -0.37349130D-01        EUMP3=      -0.11674200203D+03
 E4(DQ)=   -0.34558650D-02        UMP4(DQ)=   -0.11674545789D+03
 E4(SDQ)=  -0.54536693D-02        UMP4(SDQ)=  -0.11674745570D+03
 DE(Corr)= -0.37462360     E(Corr)=     -116.73547899    
 NORM(A)=   0.10716745D+01
 DE(Corr)= -0.38455698     E(CORR)=     -116.74541237     Delta=-9.93D-03
 NORM(A)=   0.10772171D+01
 DE(Corr)= -0.38713479     E(CORR)=     -116.74799018     Delta=-2.58D-03
 NORM(A)=   0.10792329D+01
 DE(Corr)= -0.38815100     E(CORR)=     -116.74900639     Delta=-1.02D-03
 NORM(A)=   0.10801270D+01
 DE(Corr)= -0.38835647     E(CORR)=     -116.74921186     Delta=-2.05D-04
 NORM(A)=   0.10803821D+01
 DE(Corr)= -0.38838573     E(CORR)=     -116.74924112     Delta=-2.93D-05
 NORM(A)=   0.10804097D+01
 DE(Corr)= -0.38838510     E(CORR)=     -116.74924049     Delta= 6.26D-07
 NORM(A)=   0.10804283D+01
 DE(Corr)= -0.38838656     E(CORR)=     -116.74924194     Delta=-1.45D-06
 NORM(A)=   0.10804280D+01
 DE(Corr)= -0.38838716     E(CORR)=     -116.74924254     Delta=-6.00D-07
 NORM(A)=   0.10804288D+01
 DE(Corr)= -0.38838723     E(CORR)=     -116.74924262     Delta=-7.17D-08
 NORM(A)=   0.10804290D+01
 Wavefunction amplitudes converged. E(Corr)=     -116.74924262    
 Largest amplitude= 3.76D-02
 Time for triples=       12.88 seconds.
 T4(CCSD)= -0.10988968D-01
 T5(CCSD)=  0.30807086D-03
 CCSD(T)= -0.11675992351D+03

 S**2, projected HF & approx projected MPn energies after annihilation of
 unwanted spin states (see manual for definitions):

 spins       (S**2,0) (S**2,1)    PUHF        PMP2        PMP3        PMP4
 annihilated
 s+1         3.74999  3.75001 -116.361903 -116.705327 -116.742431
 s+1,s+2     3.75000  3.75000 -116.361901 -116.705326 -116.742430
 s+1 to s+3  3.75000  3.75000 -116.361901 -116.705326 -116.742430
 s+1 to s+4  3.75000  3.75000 -116.361901 -116.705326 -116.742430
 s+1 to s+5  3.75000  3.75000 -116.361901
 s+1 to s+6  3.75000  3.75000 -116.361901

 Discarding MO integrals.

 **********************************************************************

            Population analysis using the SCF Density.

 **********************************************************************

 Orbital symmetries:
 Alpha Orbitals:
       Occupied  (A') (A') (A') (A') (A') (A') (A") (A') (A') (A")
                 (A') (A') (A")
       Virtual   (A') (A') (A") (A') (A") (A') (A') (A") (A') (A')
                 (A') (A") (A') (A') (A") (A') (A") (A') (A") (A')
                 (A') (A') (A") (A') (A') (A") (A') (A') (A") (A')
                 (A") (A") (A') (A') (A") (A') (A") (A') (A") (A')
                 (A') (A") (A') (A') (A') (A") (A') (A") (A') (A')
                 (A') (A") (A') (A")
 Beta  Orbitals:
       Occupied  (A') (A') (A') (A') (A') (A') (A") (A') (A') (A")
       Virtual   (A') (A') (A") (A') (A') (A") (A') (A") (A') (A')
                 (A") (A') (A') (A') (A") (A') (A") (A') (A') (A")
                 (A') (A") (A') (A') (A') (A') (A") (A') (A") (A')
                 (A') (A") (A") (A') (A") (A') (A") (A') (A') (A")
                 (A') (A") (A') (A') (A") (A') (A') (A') (A") (A')
                 (A") (A') (A') (A') (A") (A') (A")
 The electronic state is 4-A".
 Alpha  occ. eigenvalues --  -11.27478 -11.26272 -11.23459  -1.07552  -0.92470
 Alpha  occ. eigenvalues --   -0.78353  -0.62822  -0.59136  -0.54221  -0.51431
 Alpha  occ. eigenvalues --   -0.49077  -0.38488  -0.38262
 Alpha virt. eigenvalues --    0.18815   0.23152   0.23876   0.26241   0.28255
 Alpha virt. eigenvalues --    0.35786   0.38353   0.59074   0.59664   0.62539
 Alpha virt. eigenvalues --    0.64498   0.67518   0.69845   0.74231   0.77348
 Alpha virt. eigenvalues --    0.82749   0.86437   0.87889   0.88528   0.88546
 Alpha virt. eigenvalues --    0.92133   1.02189   1.10249   1.10274   1.28082
 Alpha virt. eigenvalues --    1.33808   1.36672   1.44052   1.44977   1.64368
 Alpha virt. eigenvalues --    1.64577   1.67868   1.80355   1.86690   1.88808
 Alpha virt. eigenvalues --    1.89234   1.91480   1.94222   1.94959   1.97177
 Alpha virt. eigenvalues --    2.00273   2.03764   2.17562   2.30376   2.31393
 Alpha virt. eigenvalues --    2.34939   2.44001   2.51265   2.55785   2.72684
 Alpha virt. eigenvalues --    2.79412   2.82233   2.85684   2.92180
  Beta  occ. eigenvalues --  -11.26166 -11.23255 -11.20051  -1.03358  -0.85863
  Beta  occ. eigenvalues --   -0.62680  -0.60718  -0.52956  -0.50954  -0.49594
  Beta virt. eigenvalues --    0.07904   0.16737   0.19134   0.21887   0.24203
  Beta virt. eigenvalues --    0.24282   0.27004   0.29843   0.38468   0.42849
  Beta virt. eigenvalues --    0.59837   0.61451   0.67033   0.72904   0.79486
  Beta virt. eigenvalues --    0.81550   0.84718   0.84896   0.87279   0.87386
  Beta virt. eigenvalues --    0.89229   0.89637   0.91528   0.93257   1.07930
  Beta virt. eigenvalues --    1.13447   1.14860   1.33070   1.44694   1.48096
  Beta virt. eigenvalues --    1.49100   1.51814   1.67450   1.68396   1.72644
  Beta virt. eigenvalues --    1.84315   1.89149   1.90643   1.90866   1.92289
  Beta virt. eigenvalues --    1.96390   1.96547   1.99110   2.03879   2.06484
  Beta virt. eigenvalues --    2.21968   2.30683   2.33922   2.36633   2.44884
  Beta virt. eigenvalues --    2.51908   2.56426   2.72749   2.80249   2.82685
  Beta virt. eigenvalues --    2.85979   2.92633
          Condensed to atoms (all electrons):
          Atomic-Atomic Spin Densities.
 Mulliken charges and spin densities:
               1          2
     1  C   -0.126917   2.952605
     2  C   -0.052917  -0.093780
     3  C   -0.057324   0.040554
     4  H    0.056696   0.047461
     5  H    0.056696   0.047461
     6  H    0.043690  -0.001240
     7  H    0.036385   0.008179
     8  H    0.043690  -0.001240
 Sum of Mulliken charges =  -0.00000   3.00000
 Mulliken charges and spin densities with hydrogens summed into heavy atoms:
               1          2
     1  C   -0.126917   2.952605
     2  C    0.060475   0.001141
     3  C    0.066442   0.046254
 Electronic spatial extent (au):  <R**2>=            178.9934
 Charge=             -0.0000 electrons
 Dipole moment (field-independent basis, Debye):
    X=              0.9379    Y=              0.0980    Z=              0.0000  Tot=              0.9430
 Unable to Open any file for archive entry.
 1\1\GINC-NODE07\SP\UCCSD(T)-FC\CC-pVDZ\C3H5(4)\XUHJ\20-Dec-2023\0\\#T 
 CCSD(T)/cc-pVDZ symm=veryloose\\[C]CC\\0,4\C,0,1.480427,0.280207,0.\C,
 0,0.,0.55733,0.\C,0,-0.859732,-0.713858,0.\H,0,-0.236787,1.177169,-0.8
 89839\H,0,-0.236787,1.177169,0.889839\H,0,-0.659799,-1.329022,-0.89376
 2\H,0,-1.930999,-0.43837,0.\H,0,-0.659799,-1.329022,0.893762\\Version=
 ES64L-G16RevC.01\State=4-A"\HF=-116.3608554\MP2=-116.7046529\MP3=-116.
 742002\MP4D=-116.7519708\MP4DQ=-116.7454579\PUHF=-116.3619025\PMP2-0=-
 116.7053268\PMP3-0=-116.7424311\MP4SDQ=-116.7474557\CCSD=-116.7492426\
 CCSD(T)=-116.7599235\S2=3.757102\S2-1=3.752032\S2A=3.750015\RMSD=4.008
 e-09\PG=CS [SG(C3H1),X(H4)]\\@
 The archive entry for this job was punched.


 BETTER TO HUNT IN FIELDS, FOR HEALTH UNBOUGHT
 THAN FEE THE DOCTOR FOR A NAUSEOUS DRAUGHT.
 THE WISE, FOR CURE, ON EXERCISE DEPEND;
 GOD NEVER MADE HIS WORK FOR MAN TO MEND.
     -- JOHN DRYDEN (1631-1700)
 Job cpu time:       0 days  0 hours  1 minutes  0.7 seconds.
 Elapsed time:       0 days  0 hours  0 minutes  4.0 seconds.
 File lengths (MBytes):  RWF=    160 Int=      0 D2E=      0 Chk=      2 Scr=      2
 Normal termination of Gaussian 16 at Wed Dec 20 02:11:37 2023.
 Initial command:
 /home/software/g16/l1.exe "/home/software/g16tmp/Gau-67918.inp" -scrdir="/home/software/g16tmp/"
 Default is to use a total of   8 processors:
                                8 via shared-memory
                                1 via Linda
 Entering Link 1 = /home/software/g16/l1.exe PID=     68115.
  
 Copyright (c) 1988-2019, Gaussian, Inc.  All Rights Reserved.
  
 This is part of the Gaussian(R) 16 program.  It is based on
 the Gaussian(R) 09 system (copyright 2009, Gaussian, Inc.),
 the Gaussian(R) 03 system (copyright 2003, Gaussian, Inc.),
 the Gaussian(R) 98 system (copyright 1998, Gaussian, Inc.),
 the Gaussian(R) 94 system (copyright 1995, Gaussian, Inc.),
 the Gaussian 92(TM) system (copyright 1992, Gaussian, Inc.),
 the Gaussian 90(TM) system (copyright 1990, Gaussian, Inc.),
 the Gaussian 88(TM) system (copyright 1988, Gaussian, Inc.),
 the Gaussian 86(TM) system (copyright 1986, Carnegie Mellon
 University), and the Gaussian 82(TM) system (copyright 1983,
 Carnegie Mellon University). Gaussian is a federally registered
 trademark of Gaussian, Inc.
  
 This software contains proprietary and confidential information,
 including trade secrets, belonging to Gaussian, Inc.
  
 This software is provided under written license and may be
 used, copied, transmitted, or stored only in accord with that
 written license.
  
 The following legend is applicable only to US Government
 contracts under FAR:
  
                    RESTRICTED RIGHTS LEGEND
  
 Use, reproduction and disclosure by the US Government is
 subject to restrictions as set forth in subparagraphs (a)
 and (c) of the Commercial Computer Software - Restricted
 Rights clause in FAR 52.227-19.
  
 Gaussian, Inc.
 340 Quinnipiac St., Bldg. 40, Wallingford CT 06492
  
  
 ---------------------------------------------------------------
 Warning -- This program may not be used in any manner that
 competes with the business of Gaussian, Inc. or will provide
 assistance to any competitor of Gaussian, Inc.  The licensee
 of this program is prohibited from giving any competitor of
 Gaussian, Inc. access to this program.  By using this program,
 the user acknowledges that Gaussian, Inc. is engaged in the
 business of creating and licensing software in the field of
 computational chemistry and represents and warrants to the
 licensee that it is not a competitor of Gaussian, Inc. and that
 it will not use this program in any manner prohibited above.
 ---------------------------------------------------------------
  

 Cite this work as:
 Gaussian 16, Revision C.01,
 M. J. Frisch, G. W. Trucks, H. B. Schlegel, G. E. Scuseria, 
 M. A. Robb, J. R. Cheeseman, G. Scalmani, V. Barone, 
 G. A. Petersson, H. Nakatsuji, X. Li, M. Caricato, A. V. Marenich, 
 J. Bloino, B. G. Janesko, R. Gomperts, B. Mennucci, H. P. Hratchian, 
 J. V. Ortiz, A. F. Izmaylov, J. L. Sonnenberg, D. Williams-Young, 
 F. Ding, F. Lipparini, F. Egidi, J. Goings, B. Peng, A. Petrone, 
 T. Henderson, D. Ranasinghe, V. G. Zakrzewski, J. Gao, N. Rega, 
 G. Zheng, W. Liang, M. Hada, M. Ehara, K. Toyota, R. Fukuda, 
 J. Hasegawa, M. Ishida, T. Nakajima, Y. Honda, O. Kitao, H. Nakai, 
 T. Vreven, K. Throssell, J. A. Montgomery, Jr., J. E. Peralta, 
 F. Ogliaro, M. J. Bearpark, J. J. Heyd, E. N. Brothers, K. N. Kudin, 
 V. N. Staroverov, T. A. Keith, R. Kobayashi, J. Normand, 
 K. Raghavachari, A. P. Rendell, J. C. Burant, S. S. Iyengar, 
 J. Tomasi, M. Cossi, J. M. Millam, M. Klene, C. Adamo, R. Cammi, 
 J. W. Ochterski, R. L. Martin, K. Morokuma, O. Farkas, 
 J. B. Foresman, and D. J. Fox, Gaussian, Inc., Wallingford CT, 2019.
 
 ******************************************
 Gaussian 16:  ES64L-G16RevC.01  3-Jul-2019
                20-Dec-2023 
 ******************************************
 %nprocshared=16
 Will use up to   16 processors via shared memory.
 %mem=12000MB
 %chk=KURVGVOUITVZSK-UHFFFAOYSA-N.chk
 -----------------------------------------------
 #T CCSD(T)/cc-pVTZ symm=veryloose geom=allcheck
 -----------------------------------------------
 Structure from the checkpoint file:  "KURVGVOUITVZSK-UHFFFAOYSA-N.chk"
 -----
 [C]CC
 -----
 Charge =  0 Multiplicity = 4
 Z-Matrix found in chk file.
 C,0,1.480427,0.280207,0.
 C,0,0.,0.55733,0.
 C,0,-0.859732,-0.713858,0.
 H,0,-0.236787,1.177169,-0.889839
 H,0,-0.236787,1.177169,0.889839
 H,0,-0.659799,-1.329022,-0.893762
 H,0,-1.930999,-0.43837,0.
 H,0,-0.659799,-1.329022,0.893762
 Recover connectivity data from disk.
                    Distance matrix (angstroms):
                    1          2          3          4          5
     1  C    0.000000
     2  C    1.506141   0.000000
     3  C    2.542540   1.534620   0.000000
     4  H    2.131942   1.109992   2.180793   0.000000
     5  H    2.131942   1.109992   2.180793   1.779678   0.000000
     6  H    2.822941   2.189171   1.103273   2.541643   3.105023
     7  H    3.486285   2.172597   1.106122   2.504423   2.504423
     8  H    2.822941   2.189171   1.103273   3.105023   2.541643
                    6          7          8
     6  H    0.000000
     7  H    1.791095   0.000000
     8  H    1.787524   1.791095   0.000000
 Framework group  CS[SG(C3H),X(H4)]
 Deg. of freedom    11
                         Standard orientation:                         
 ---------------------------------------------------------------------
 Center     Atomic      Atomic             Coordinates (Angstroms)
 Number     Number       Type             X           Y           Z
 ---------------------------------------------------------------------
      1          6           0       -1.480427    0.280207    0.000000
      2          6           0        0.000000    0.557330    0.000000
      3          6           0        0.859732   -0.713858    0.000000
      4          1           0        0.236787    1.177169    0.889839
      5          1           0        0.236787    1.177169   -0.889839
      6          1           0        0.659799   -1.329022    0.893762
      7          1           0        1.930999   -0.438370    0.000000
      8          1           0        0.659799   -1.329022   -0.893762
 ---------------------------------------------------------------------
 Rotational constants (GHZ):          37.4149824          10.1463751           8.8812660
   160 basis functions,   241 primitive gaussians,   180 cartesian basis functions
    13 alpha electrons       10 beta electrons
       nuclear repulsion energy        62.6787670161 Hartrees.
 NAtoms=    8 NActive=    8 NUniq=    6 SFac= 1.78D+00 NAtFMM=   60 NAOKFM=F Big=F
 ExpMin= 1.03D-01 ExpMax= 8.24D+03 ExpMxC= 2.81D+02 IAcc=3 IRadAn=         5 AccDes= 0.00D+00
 Harris functional with IExCor=  205 and IRadAn=       5 diagonalized for initial guess.
 HarFok:  IExCor=  205 AccDes= 0.00D+00 IRadAn=         5 IDoV= 1 UseB2=F ITyADJ=14
 ICtDFT=  3500011 ScaDFX=  1.000000  1.000000  1.000000  1.000000
 FoFCou: FMM=F IPFlag=           0 FMFlag=      100000 FMFlg1=           0
         NFxFlg=           0 DoJE=T BraDBF=F KetDBF=T FulRan=T
         wScrn=  0.000000 ICntrl=       500 IOpCl=  0 I1Cent=   200000004 NGrid=           0
         NMat0=    1 NMatS0=      1 NMatT0=    0 NMatD0=    1 NMtDS0=    0 NMtDT0=    0
 Petite list used in FoFCou.
 Initial guess orbital symmetries:
 Alpha Orbitals:
       Occupied  (A') (A') (A') (A') (A') (A') (A") (A') (A') (A")
                 (A') (A') (A")
       Virtual   (A') (A') (A") (A') (A") (A') (A') (A') (A") (A')
                 (A') (A") (A') (A') (A") (A') (A") (A') (A') (A")
                 (A') (A") (A') (A') (A') (A") (A') (A") (A') (A')
                 (A") (A") (A') (A") (A') (A") (A') (A') (A") (A')
                 (A') (A") (A') (A') (A") (A') (A') (A") (A") (A')
                 (A') (A") (A') (A') (A') (A") (A') (A") (A') (A')
                 (A") (A') (A') (A') (A") (A') (A') (A") (A') (A")
                 (A') (A") (A') (A") (A') (A") (A') (A') (A") (A")
                 (A') (A') (A") (A') (A") (A") (A') (A") (A') (A")
                 (A') (A") (A") (A') (A") (A') (A') (A") (A') (A")
                 (A') (A") (A') (A') (A") (A') (A') (A') (A') (A")
                 (A') (A") (A') (A") (A') (A") (A') (A') (A") (A')
                 (A") (A') (A') (A") (A') (A") (A') (A") (A') (A')
                 (A") (A") (A') (A') (A") (A') (A") (A') (A') (A')
                 (A") (A") (A') (A") (A') (A') (A')
 Beta  Orbitals:
       Occupied  (A') (A') (A') (A') (A') (A') (A") (A') (A') (A")
       Virtual   (A') (A') (A") (A') (A') (A") (A') (A") (A') (A')
                 (A') (A") (A') (A') (A") (A') (A') (A") (A') (A")
                 (A') (A') (A") (A') (A") (A') (A') (A') (A") (A')
                 (A") (A') (A') (A") (A") (A') (A") (A') (A") (A')
                 (A') (A") (A') (A') (A") (A') (A') (A") (A') (A')
                 (A") (A") (A') (A') (A") (A') (A') (A') (A") (A')
                 (A") (A') (A') (A") (A') (A') (A') (A") (A') (A')
                 (A") (A') (A") (A') (A") (A') (A") (A') (A") (A')
                 (A') (A") (A") (A') (A') (A") (A') (A") (A") (A')
                 (A") (A') (A") (A') (A") (A") (A') (A") (A') (A')
                 (A") (A') (A") (A') (A") (A') (A') (A") (A') (A')
                 (A') (A') (A") (A') (A") (A') (A") (A') (A") (A')
                 (A') (A") (A') (A") (A') (A') (A") (A') (A") (A')
                 (A") (A') (A') (A") (A") (A') (A') (A") (A') (A")
                 (A') (A') (A') (A") (A") (A') (A") (A') (A') (A')
 The electronic state of the initial guess is 4-A".
 Initial guess <Sx>= 0.0000 <Sy>= 0.0000 <Sz>= 1.5000 <S**2>= 3.7500 S= 1.5000
 SCF Done:  E(UHF) =  -116.389151543     A.U. after   15 cycles
            NFock= 15  Conv=0.56D-08     -V/T= 2.0019
 <Sx>= 0.0000 <Sy>= 0.0000 <Sz>= 1.5000 <S**2>= 3.7579 S= 1.5020
 <L.S>=  0.00000000000    
 Annihilation of the first spin contaminant:
 S**2 before annihilation     3.7579,   after     3.7500
 ExpMin= 1.03D-01 ExpMax= 8.24D+03 ExpMxC= 2.81D+02 IAcc=3 IRadAn=         5 AccDes= 0.00D+00
 HarFok:  IExCor=  205 AccDes= 0.00D+00 IRadAn=         5 IDoV=-2 UseB2=F ITyADJ=14
 ICtDFT= 12500011 ScaDFX=  1.000000  1.000000  1.000000  1.000000
 NROrb=    157 NOA=    10 NOB=     7 NVA=   147 NVB=   150

 **** Warning!!: The largest alpha MO coefficient is  0.11649896D+02


 **** Warning!!: The largest beta MO coefficient is  0.11648759D+02

 Semi-Direct transformation.
 ModeAB=           4 MOrb=            10 LenV=    1571961394
 LASXX=      9270337 LTotXX=     9270337 LenRXX=    18767808
 LTotAB=     9497471 MaxLAS=    19053520 LenRXY=           0
 NonZer=    28038145 LenScr=    42598400 LnRSAI=    19053520
 LnScr1=    28835840 LExtra=           0 Total=    109255568
 MaxDsk=          -1 SrtSym=           T ITran=            4
 JobTyp=1 Pass  1:  I=   1 to  10.
 (rs|ai) integrals will be sorted in core.
 ModeAB=           4 MOrb=             7 LenV=    1571961394
 LASXX=      6567766 LTotXX=     6567766 LenRXX=    12455214
 LTotAB=     5887448 MaxLAS=    13337464 LenRXY=           0
 NonZer=    19022980 LenScr=    28835840 LnRSAI=    13337464
 LnScr1=    20447232 LExtra=           0 Total=     75075750
 MaxDsk=          -1 SrtSym=           T ITran=            4
 JobTyp=2 Pass  1:  I=   1 to   7.
 (rs|ai) integrals will be sorted in core.
 ANorm=    0.1064920309D+01
 E2 =    -0.4233159311D+00 EUMP2 =    -0.11681246747399D+03
 (S**2,0)=  0.37579D+01           (S**2,1)=  0.37524D+01
 E(PUHF)=      -0.11639025937D+03        E(PMP2)=      -0.11681318718D+03
 CIDS: In Core Option IDoMem=           1.
 Produce multiple copies of IABC intergrals
 E(PMP3)=      -0.11684724280D+03
 MP4(R+Q)=  0.97012488D-02
 E3=       -0.34320480D-01        EUMP3=      -0.11684678795D+03
 E4(DQ)=   -0.37779967D-03        UMP4(DQ)=   -0.11684716575D+03
 E4(SDQ)=  -0.34074379D-02        UMP4(SDQ)=  -0.11685019539D+03
 DE(Corr)= -0.44785578     E(Corr)=     -116.83700733    
 NORM(A)=   0.10759415D+01
 DE(Corr)= -0.45841135     E(CORR)=     -116.84756290     Delta=-1.06D-02
 NORM(A)=   0.10821858D+01
 DE(Corr)= -0.46074024     E(CORR)=     -116.84989179     Delta=-2.33D-03
 NORM(A)=   0.10845815D+01
 DE(Corr)= -0.46199992     E(CORR)=     -116.85115147     Delta=-1.26D-03
 NORM(A)=   0.10858244D+01
 DE(Corr)= -0.46228275     E(CORR)=     -116.85143429     Delta=-2.83D-04
 NORM(A)=   0.10861727D+01
 DE(Corr)= -0.46232862     E(CORR)=     -116.85148016     Delta=-4.59D-05
 NORM(A)=   0.10862022D+01
 DE(Corr)= -0.46232991     E(CORR)=     -116.85148145     Delta=-1.29D-06
 NORM(A)=   0.10862292D+01
 DE(Corr)= -0.46232960     E(CORR)=     -116.85148115     Delta= 3.08D-07
 NORM(A)=   0.10862298D+01
 DE(Corr)= -0.46233181     E(CORR)=     -116.85148335     Delta=-2.20D-06
 NORM(A)=   0.10862317D+01
 DE(Corr)= -0.46233180     E(CORR)=     -116.85148334     Delta= 6.63D-09
 NORM(A)=   0.10862323D+01
 Wavefunction amplitudes converged. E(Corr)=     -116.85148334    
 Largest amplitude= 3.92D-02
 Time for triples=      441.40 seconds.
 T4(CCSD)= -0.17813956D-01
 T5(CCSD)=  0.48872475D-03
 CCSD(T)= -0.11686880858D+03

 S**2, projected HF & approx projected MPn energies after annihilation of
 unwanted spin states (see manual for definitions):

 spins       (S**2,0) (S**2,1)    PUHF        PMP2        PMP3        PMP4
 annihilated
 s+1         3.74999  3.75001 -116.390259 -116.813187 -116.847242
 s+1,s+2     3.75000  3.75000 -116.390258 -116.813186 -116.847242
 s+1 to s+3  3.75000  3.75000 -116.390258 -116.813186 -116.847242
 s+1 to s+4  3.75000  3.75000 -116.390258 -116.813186 -116.847242
 s+1 to s+5  3.75000  3.75000 -116.390258
 s+1 to s+6  3.75000  3.75000 -116.390258

 Discarding MO integrals.

 **********************************************************************

            Population analysis using the SCF Density.

 **********************************************************************

 Orbital symmetries:
 Alpha Orbitals:
       Occupied  (A') (A') (A') (A') (A') (A') (A") (A') (A') (A")
                 (A') (A') (A")
       Virtual   (A') (A') (A") (A') (A") (A') (A') (A') (A") (A')
                 (A') (A") (A') (A") (A') (A") (A') (A') (A') (A")
                 (A') (A") (A') (A') (A') (A") (A') (A") (A') (A')
                 (A") (A") (A') (A") (A') (A") (A') (A') (A") (A')
                 (A") (A') (A') (A') (A') (A") (A') (A") (A") (A')
                 (A') (A") (A') (A') (A') (A") (A') (A") (A') (A")
                 (A') (A') (A') (A') (A") (A') (A") (A') (A") (A')
                 (A') (A') (A") (A") (A') (A") (A') (A') (A") (A")
                 (A') (A') (A") (A") (A') (A") (A') (A") (A') (A')
                 (A") (A") (A") (A') (A") (A') (A') (A") (A') (A")
                 (A') (A") (A') (A') (A") (A') (A') (A') (A") (A')
                 (A") (A') (A") (A') (A") (A') (A') (A') (A") (A")
                 (A') (A') (A") (A') (A') (A") (A') (A") (A') (A')
                 (A") (A") (A') (A') (A") (A') (A") (A') (A') (A")
                 (A') (A') (A") (A") (A') (A') (A')
 Beta  Orbitals:
       Occupied  (A') (A') (A') (A') (A') (A') (A") (A') (A') (A")
       Virtual   (A') (A') (A") (A') (A") (A') (A') (A") (A') (A')
                 (A') (A") (A') (A') (A") (A') (A") (A') (A") (A')
                 (A') (A') (A") (A') (A") (A') (A') (A') (A') (A")
                 (A") (A') (A') (A") (A") (A') (A") (A') (A") (A')
                 (A') (A") (A") (A') (A') (A') (A') (A") (A') (A')
                 (A") (A") (A') (A') (A") (A') (A') (A') (A") (A')
                 (A") (A') (A") (A') (A') (A') (A') (A") (A') (A")
                 (A') (A") (A') (A') (A') (A") (A") (A') (A") (A')
                 (A") (A') (A") (A') (A") (A') (A') (A") (A") (A")
                 (A') (A') (A") (A') (A") (A") (A') (A") (A') (A")
                 (A') (A') (A") (A') (A") (A') (A') (A") (A') (A')
                 (A') (A") (A') (A") (A') (A") (A') (A") (A') (A')
                 (A') (A") (A") (A') (A') (A") (A') (A') (A") (A')
                 (A") (A') (A') (A") (A") (A') (A') (A") (A') (A")
                 (A') (A') (A") (A') (A') (A") (A") (A') (A') (A')
 The electronic state is 4-A".
 Alpha  occ. eigenvalues --  -11.27575 -11.25829 -11.22808  -1.07486  -0.92438
 Alpha  occ. eigenvalues --   -0.78361  -0.62900  -0.59203  -0.54321  -0.51537
 Alpha  occ. eigenvalues --   -0.49191  -0.38584  -0.38364
 Alpha virt. eigenvalues --    0.14418   0.18205   0.19429   0.21665   0.23655
 Alpha virt. eigenvalues --    0.28418   0.31052   0.37477   0.39709   0.41137
 Alpha virt. eigenvalues --    0.45561   0.45566   0.47072   0.49508   0.54507
 Alpha virt. eigenvalues --    0.58723   0.60318   0.62770   0.64213   0.65048
 Alpha virt. eigenvalues --    0.65524   0.70875   0.72545   0.74763   0.76718
 Alpha virt. eigenvalues --    0.86815   0.89051   0.96350   0.96632   1.01848
 Alpha virt. eigenvalues --    1.05766   1.15982   1.16912   1.18449   1.24657
 Alpha virt. eigenvalues --    1.27916   1.28589   1.29268   1.31833   1.32173
 Alpha virt. eigenvalues --    1.34905   1.38172   1.40123   1.41942   1.48362
 Alpha virt. eigenvalues --    1.48862   1.54491   1.55301   1.58489   1.61218
 Alpha virt. eigenvalues --    1.68970   1.73364   1.77086   1.81742   2.36785
 Alpha virt. eigenvalues --    2.41049   2.50133   2.50164   2.55422   2.59565
 Alpha virt. eigenvalues --    2.61239   2.69704   2.76431   2.77685   2.83956
 Alpha virt. eigenvalues --    2.89981   2.90833   2.90989   2.94303   2.97816
 Alpha virt. eigenvalues --    3.01547   3.03136   3.05362   3.11878   3.13884
 Alpha virt. eigenvalues --    3.16070   3.20212   3.22315   3.23378   3.29671
 Alpha virt. eigenvalues --    3.31333   3.33197   3.34401   3.36235   3.39183
 Alpha virt. eigenvalues --    3.40818   3.41689   3.44609   3.50652   3.53865
 Alpha virt. eigenvalues --    3.54880   3.59433   3.63152   3.67100   3.72724
 Alpha virt. eigenvalues --    3.76697   3.79717   3.79876   3.83587   3.87379
 Alpha virt. eigenvalues --    3.95350   4.02191   4.05719   4.08006   4.10948
 Alpha virt. eigenvalues --    4.15043   4.17315   4.20793   4.22691   4.23086
 Alpha virt. eigenvalues --    4.29336   4.29735   4.34131   4.35661   4.39808
 Alpha virt. eigenvalues --    4.40576   4.46939   4.53934   4.57539   4.58417
 Alpha virt. eigenvalues --    4.61019   4.67546   4.80112   4.83614   4.87686
 Alpha virt. eigenvalues --    5.08335   5.12163   5.14512   5.17840   5.19499
 Alpha virt. eigenvalues --    5.24730   5.34380   5.41297   5.57272   5.58262
 Alpha virt. eigenvalues --    5.61844   5.63581   5.65529   5.70301   5.78483
 Alpha virt. eigenvalues --    5.82010   6.24603   6.24663   6.28118   7.44074
 Alpha virt. eigenvalues --   12.70340  13.71995
  Beta  occ. eigenvalues --  -11.25723 -11.22601 -11.20325  -1.03289  -0.85833
  Beta  occ. eigenvalues --   -0.62722  -0.60803  -0.53036  -0.51054  -0.49705
  Beta virt. eigenvalues --    0.06519   0.13709   0.17044   0.17607   0.19778
  Beta virt. eigenvalues --    0.20388   0.22281   0.25032   0.31166   0.33994
  Beta virt. eigenvalues --    0.38131   0.40132   0.45666   0.48368   0.50843
  Beta virt. eigenvalues --    0.57498   0.58750   0.58990   0.59306   0.63179
  Beta virt. eigenvalues --    0.65760   0.67096   0.67603   0.70933   0.75348
  Beta virt. eigenvalues --    0.76497   0.78054   0.81437   0.92180   0.93804
  Beta virt. eigenvalues --    0.99208   1.04114   1.05981   1.06745   1.17096
  Beta virt. eigenvalues --    1.18993   1.22994   1.25947   1.28998   1.30419
  Beta virt. eigenvalues --    1.30566   1.33971   1.36830   1.36961   1.40332
  Beta virt. eigenvalues --    1.42579   1.45744   1.49216   1.49751   1.55251
  Beta virt. eigenvalues --    1.56971   1.60064   1.61934   1.69772   1.74334
  Beta virt. eigenvalues --    1.77600   1.82875   2.46511   2.47536   2.54380
  Beta virt. eigenvalues --    2.55963   2.58002   2.61614   2.62807   2.70998
  Beta virt. eigenvalues --    2.78627   2.80259   2.85071   2.92060   2.94356
  Beta virt. eigenvalues --    2.94717   3.02304   3.02869   3.07076   3.07885
  Beta virt. eigenvalues --    3.07907   3.12399   3.17064   3.18302   3.25054
  Beta virt. eigenvalues --    3.25544   3.26046   3.33788   3.34260   3.36517
  Beta virt. eigenvalues --    3.36596   3.41788   3.43171   3.45169   3.47231
  Beta virt. eigenvalues --    3.49474   3.54895   3.56478   3.58775   3.62128
  Beta virt. eigenvalues --    3.66519   3.70030   3.73044   3.78490   3.80509
  Beta virt. eigenvalues --    3.80948   3.85081   3.88707   3.97924   4.04224
  Beta virt. eigenvalues --    4.06562   4.08797   4.11185   4.17370   4.18120
  Beta virt. eigenvalues --    4.21569   4.23214   4.24655   4.30530   4.31120
  Beta virt. eigenvalues --    4.34539   4.36338   4.40055   4.41219   4.48146
  Beta virt. eigenvalues --    4.54966   4.57824   4.59251   4.61807   4.67991
  Beta virt. eigenvalues --    4.81645   4.84046   4.88834   5.08712   5.12443
  Beta virt. eigenvalues --    5.14640   5.18124   5.19876   5.24979   5.34938
  Beta virt. eigenvalues --    5.41737   5.57586   5.58571   5.62045   5.63650
  Beta virt. eigenvalues --    5.65696   5.70584   5.78686   5.82263   6.24719
  Beta virt. eigenvalues --    6.24734   6.28411   7.48462  12.70840  13.72161
          Condensed to atoms (all electrons):
          Atomic-Atomic Spin Densities.
 Mulliken charges and spin densities:
               1          2
     1  C   -0.125960   2.919809
     2  C   -0.096649  -0.064611
     3  C   -0.258083   0.046887
     4  H    0.101588   0.047110
     5  H    0.101588   0.047110
     6  H    0.093504  -0.001949
     7  H    0.090508   0.007592
     8  H    0.093504  -0.001949
 Sum of Mulliken charges =  -0.00000   3.00000
 Mulliken charges and spin densities with hydrogens summed into heavy atoms:
               1          2
     1  C   -0.125960   2.919809
     2  C    0.106526   0.029609
     3  C    0.019433   0.050582
 Electronic spatial extent (au):  <R**2>=            179.0794
 Charge=             -0.0000 electrons
 Dipole moment (field-independent basis, Debye):
    X=              0.9610    Y=              0.1120    Z=              0.0000  Tot=              0.9675
 Unable to Open any file for archive entry.
 1\1\GINC-NODE07\SP\UCCSD(T)-FC\CC-pVTZ\C3H5(4)\XUHJ\20-Dec-2023\0\\#T 
 CCSD(T)/cc-pVTZ symm=veryloose geom=allcheck\\[C]CC\\0,4\C,0,1.480427,
 0.280207,0.\C,0,0.,0.55733,0.\C,0,-0.859732,-0.713858,0.\H,0,-0.236787
 ,1.177169,-0.889839\H,0,-0.236787,1.177169,0.889839\H,0,-0.659799,-1.3
 29022,-0.893762\H,0,-1.930999,-0.43837,0.\H,0,-0.659799,-1.329022,0.89
 3762\\Version=ES64L-G16RevC.01\State=4-A"\HF=-116.3891515\MP2=-116.812
 4675\MP3=-116.846788\MP4D=-116.856867\MP4DQ=-116.8471658\PUHF=-116.390
 2594\PMP2-0=-116.8131872\PMP3-0=-116.8472428\MP4SDQ=-116.8501954\CCSD=
 -116.8514833\CCSD(T)=-116.8688086\S2=3.757895\S2-1=3.752353\S2A=3.7500
 19\RMSD=5.606e-09\PG=CS [SG(C3H1),X(H4)]\\@
 The archive entry for this job was punched.


 It is also a good rule not to put too much confidence in
 experimental results until they have been confirmed by
 Theory.
                             -- Sir Arthur Eddington
 Job cpu time:       0 days  0 hours 15 minutes 39.8 seconds.
 Elapsed time:       0 days  0 hours  0 minutes 59.8 seconds.
 File lengths (MBytes):  RWF=   1503 Int=      0 D2E=      0 Chk=      4 Scr=      2
 Normal termination of Gaussian 16 at Wed Dec 20 02:12:39 2023.
