 Entering Gaussian System, Link 0=g16
 Initial command:
 /home/software/g16/l1.exe "/home/software/g16tmp/Gau-70493.inp" -scrdir="/home/software/g16tmp/"
 Default is to use a total of   8 processors:
                                8 via shared-memory
                                1 via Linda
 Entering Link 1 = /home/software/g16/l1.exe PID=     70494.
  
 Copyright (c) 1988-2019, Gaussian, Inc.  All Rights Reserved.
  
 This is part of the Gaussian(R) 16 program.  It is based on
 the Gaussian(R) 09 system (copyright 2009, Gaussian, Inc.),
 the Gaussian(R) 03 system (copyright 2003, Gaussian, Inc.),
 the Gaussian(R) 98 system (copyright 1998, Gaussian, Inc.),
 the Gaussian(R) 94 system (copyright 1995, Gaussian, Inc.),
 the Gaussian 92(TM) system (copyright 1992, Gaussian, Inc.),
 the Gaussian 90(TM) system (copyright 1990, Gaussian, Inc.),
 the Gaussian 88(TM) system (copyright 1988, Gaussian, Inc.),
 the Gaussian 86(TM) system (copyright 1986, Carnegie Mellon
 University), and the Gaussian 82(TM) system (copyright 1983,
 Carnegie Mellon University). Gaussian is a federally registered
 trademark of Gaussian, Inc.
  
 This software contains proprietary and confidential information,
 including trade secrets, belonging to Gaussian, Inc.
  
 This software is provided under written license and may be
 used, copied, transmitted, or stored only in accord with that
 written license.
  
 The following legend is applicable only to US Government
 contracts under FAR:
  
                    RESTRICTED RIGHTS LEGEND
  
 Use, reproduction and disclosure by the US Government is
 subject to restrictions as set forth in subparagraphs (a)
 and (c) of the Commercial Computer Software - Restricted
 Rights clause in FAR 52.227-19.
  
 Gaussian, Inc.
 340 Quinnipiac St., Bldg. 40, Wallingford CT 06492
  
  
 ---------------------------------------------------------------
 Warning -- This program may not be used in any manner that
 competes with the business of Gaussian, Inc. or will provide
 assistance to any competitor of Gaussian, Inc.  The licensee
 of this program is prohibited from giving any competitor of
 Gaussian, Inc. access to this program.  By using this program,
 the user acknowledges that Gaussian, Inc. is engaged in the
 business of creating and licensing software in the field of
 computational chemistry and represents and warrants to the
 licensee that it is not a competitor of Gaussian, Inc. and that
 it will not use this program in any manner prohibited above.
 ---------------------------------------------------------------
  

 Cite this work as:
 Gaussian 16, Revision C.01,
 M. J. Frisch, G. W. Trucks, H. B. Schlegel, G. E. Scuseria, 
 M. A. Robb, J. R. Cheeseman, G. Scalmani, V. Barone, 
 G. A. Petersson, H. Nakatsuji, X. Li, M. Caricato, A. V. Marenich, 
 J. Bloino, B. G. Janesko, R. Gomperts, B. Mennucci, H. P. Hratchian, 
 J. V. Ortiz, A. F. Izmaylov, J. L. Sonnenberg, D. Williams-Young, 
 F. Ding, F. Lipparini, F. Egidi, J. Goings, B. Peng, A. Petrone, 
 T. Henderson, D. Ranasinghe, V. G. Zakrzewski, J. Gao, N. Rega, 
 G. Zheng, W. Liang, M. Hada, M. Ehara, K. Toyota, R. Fukuda, 
 J. Hasegawa, M. Ishida, T. Nakajima, Y. Honda, O. Kitao, H. Nakai, 
 T. Vreven, K. Throssell, J. A. Montgomery, Jr., J. E. Peralta, 
 F. Ogliaro, M. J. Bearpark, J. J. Heyd, E. N. Brothers, K. N. Kudin, 
 V. N. Staroverov, T. A. Keith, R. Kobayashi, J. Normand, 
 K. Raghavachari, A. P. Rendell, J. C. Burant, S. S. Iyengar, 
 J. Tomasi, M. Cossi, J. M. Millam, M. Klene, C. Adamo, R. Cammi, 
 J. W. Ochterski, R. L. Martin, K. Morokuma, O. Farkas, 
 J. B. Foresman, and D. J. Fox, Gaussian, Inc., Wallingford CT, 2019.
 
 ******************************************
 Gaussian 16:  ES64L-G16RevC.01  3-Jul-2019
                20-Dec-2023 
 ******************************************
 %nprocshared=16
 Will use up to   16 processors via shared memory.
 %mem=12000MB
 %chk=LFQSCWFLJHTTHZ-UHFFFAOYSA-N.chk
 ---------------------------------
 #T CCSD(T)/cc-pVDZ symm=veryloose
 ---------------------------------
 ---
 CCO
 ---
 Symbolic Z-matrix:
 Charge =  0 Multiplicity = 1
 C                    -1.1701   -0.41662   0. 
 C                     0.        0.55074   0. 
 O                     1.19778  -0.20402   0. 
 H                    -2.13075   0.12846   0. 
 H                    -1.13186  -1.06354   0.89409 
 H                    -1.13186  -1.06354  -0.89409 
 H                    -0.05933   1.20982   0.89347 
 H                    -0.05933   1.20982  -0.89347 
 H                     1.95063   0.40807   0. 
 
                    Distance matrix (angstroms):
                    1          2          3          4          5
     1  C    0.000000
     2  C    1.518192   0.000000
     3  O    2.377405   1.415747   0.000000
     4  H    1.104515   2.172189   3.345093   0.000000
     5  H    1.104254   2.164812   2.639206   1.793892   0.000000
     6  H    1.104254   2.164812   2.639206   1.793892   1.788186
     7  H    2.162727   1.111845   2.092262   2.501679   2.513660
     8  H    2.162727   1.111845   2.092262   2.501679   3.084457
     9  H    3.227851   1.955836   0.970270   4.090940   3.530829
                    6          7          8          9
     6  H    0.000000
     7  H    3.084457   0.000000
     8  H    2.513660   1.786944   0.000000
     9  H    3.530829   2.341158   2.341158   0.000000
 Framework group  CS[SG(C2H2O),X(H4)]
 Deg. of freedom    13
                         Standard orientation:                         
 ---------------------------------------------------------------------
 Center     Atomic      Atomic             Coordinates (Angstroms)
 Number     Number       Type             X           Y           Z
 ---------------------------------------------------------------------
      1          6           0       -1.170042   -0.416750    0.000000
      2          6           0        0.000000    0.550675    0.000000
      3          8           0        1.197826   -0.204012    0.000000
      4          1           0       -2.130723    0.128269    0.000000
      5          1           0       -1.131764   -1.063673    0.894093
      6          1           0       -1.131764   -1.063673   -0.894093
      7          1           0       -0.059370    1.209751    0.893472
      8          1           0       -0.059370    1.209751   -0.893472
      9          1           0        1.950633    0.408120    0.000000
 ---------------------------------------------------------------------
 Rotational constants (GHZ):          35.0469479           9.3508228           8.1478908
    72 basis functions,   141 primitive gaussians,    75 cartesian basis functions
    13 alpha electrons       13 beta electrons
       nuclear repulsion energy        81.5823621038 Hartrees.
 NAtoms=    9 NActive=    9 NUniq=    7 SFac= 1.65D+00 NAtFMM=   60 NAOKFM=F Big=F
 ExpMin= 1.22D-01 ExpMax= 1.17D+04 ExpMxC= 4.01D+02 IAcc=3 IRadAn=         5 AccDes= 0.00D+00
 Harris functional with IExCor=  205 and IRadAn=       5 diagonalized for initial guess.
 HarFok:  IExCor=  205 AccDes= 0.00D+00 IRadAn=         5 IDoV= 1 UseB2=F ITyADJ=14
 ICtDFT=  3500011 ScaDFX=  1.000000  1.000000  1.000000  1.000000
 FoFCou: FMM=F IPFlag=           0 FMFlag=      100000 FMFlg1=           0
         NFxFlg=           0 DoJE=T BraDBF=F KetDBF=T FulRan=T
         wScrn=  0.000000 ICntrl=       500 IOpCl=  0 I1Cent=   200000004 NGrid=           0
         NMat0=    1 NMatS0=      1 NMatT0=    0 NMatD0=    1 NMtDS0=    0 NMtDT0=    0
 Petite list used in FoFCou.
 Initial guess orbital symmetries:
       Occupied  (A') (A') (A') (A') (A') (A') (A') (A") (A') (A')
                 (A") (A') (A")
       Virtual   (A') (A') (A") (A') (A') (A') (A") (A') (A") (A')
                 (A') (A') (A") (A') (A') (A") (A') (A") (A') (A')
                 (A') (A") (A') (A') (A") (A') (A") (A') (A') (A")
                 (A") (A') (A') (A") (A") (A') (A") (A') (A') (A")
                 (A') (A') (A") (A') (A') (A') (A") (A') (A') (A')
                 (A') (A") (A') (A") (A") (A") (A') (A') (A')
 The electronic state of the initial guess is 1-A'.
 SCF Done:  E(RHF) =  -154.091324610     A.U. after   11 cycles
            NFock= 11  Conv=0.86D-08     -V/T= 2.0016
 ExpMin= 1.22D-01 ExpMax= 1.17D+04 ExpMxC= 4.01D+02 IAcc=3 IRadAn=         5 AccDes= 0.00D+00
 HarFok:  IExCor=  205 AccDes= 0.00D+00 IRadAn=         5 IDoV=-2 UseB2=F ITyADJ=14
 ICtDFT= 12500011 ScaDFX=  1.000000  1.000000  1.000000  1.000000
 NROrb=     69 NOA=    10 NOB=    10 NVA=    59 NVB=    59
 Semi-Direct transformation.
 ModeAB=           4 MOrb=            10 LenV=    1572578986
 LASXX=       737595 LTotXX=      737595 LenRXX=     1510093
 LTotAB=      772498 MaxLAS=     1573200 LenRXY=           0
 NonZer=     2247688 LenScr=     3932160 LnRSAI=     1573200
 LnScr1=     2752512 LExtra=           0 Total=      9767965
 MaxDsk=          -1 SrtSym=           T ITran=            4
 JobTyp=0 Pass  1:  I=   1 to  10.
 (rs|ai) integrals will be sorted in core.
 ANorm=    0.1070683894D+01
 E2 =    -0.4817867005D+00 EUMP2 =    -0.15457311131003D+03
 CIDS: In Core Option IDoMem=           1.
 Produce multiple copies of IABC intergrals
 MP4(R+Q)=  0.74949533D-02
 E3=       -0.31017977D-01        EUMP3=      -0.15460412929D+03
 E4(DQ)=   -0.38398470D-02        UMP4(DQ)=   -0.15460796913D+03
 E4(SDQ)=  -0.64968588D-02        UMP4(SDQ)=  -0.15461062615D+03
 DE(Corr)= -0.50523134     E(Corr)=     -154.59655595    
 NORM(A)=   0.10800208D+01
 DE(Corr)= -0.51668251     E(CORR)=     -154.60800712     Delta=-1.15D-02
 NORM(A)=   0.10854283D+01
 DE(Corr)= -0.51892454     E(CORR)=     -154.61024915     Delta=-2.24D-03
 NORM(A)=   0.10862599D+01
 DE(Corr)= -0.51968120     E(CORR)=     -154.61100581     Delta=-7.57D-04
 NORM(A)=   0.10864232D+01
 DE(Corr)= -0.51975077     E(CORR)=     -154.61107538     Delta=-6.96D-05
 NORM(A)=   0.10864517D+01
 DE(Corr)= -0.51975834     E(CORR)=     -154.61108295     Delta=-7.57D-06
 NORM(A)=   0.10864509D+01
 DE(Corr)= -0.51975798     E(CORR)=     -154.61108259     Delta= 3.52D-07
 NORM(A)=   0.10864518D+01
 DE(Corr)= -0.51975738     E(CORR)=     -154.61108199     Delta= 6.08D-07
 NORM(A)=   0.10864526D+01
 DE(Corr)= -0.51975765     E(CORR)=     -154.61108226     Delta=-2.71D-07
 NORM(A)=   0.10864530D+01
 DE(Corr)= -0.51975777     E(CORR)=     -154.61108238     Delta=-1.20D-07
 NORM(A)=   0.10864532D+01
 DE(Corr)= -0.51975786     E(CORR)=     -154.61108247     Delta=-9.71D-08
 NORM(A)=   0.10864533D+01
 Wavefunction amplitudes converged. E(Corr)=     -154.61108247    
 Largest amplitude= 2.68D-02
 Time for triples=       10.81 seconds.
 T4(CCSD)= -0.13060179D-01
 T5(CCSD)=  0.41031134D-03
 CCSD(T)= -0.15462373234D+03
 Discarding MO integrals.

 **********************************************************************

            Population analysis using the SCF Density.

 **********************************************************************

 Orbital symmetries:
       Occupied  (A') (A') (A') (A') (A') (A') (A') (A") (A') (A')
                 (A") (A') (A")
       Virtual   (A') (A') (A") (A') (A') (A") (A') (A') (A") (A')
                 (A') (A") (A') (A') (A') (A") (A') (A") (A') (A')
                 (A') (A") (A') (A') (A") (A') (A") (A') (A') (A")
                 (A") (A') (A") (A") (A') (A') (A") (A') (A") (A')
                 (A') (A') (A") (A') (A') (A') (A") (A') (A') (A')
                 (A') (A") (A') (A") (A") (A") (A') (A') (A')
 The electronic state is 1-A'.
 Alpha  occ. eigenvalues --  -20.55011 -11.27976 -11.22210  -1.35180  -1.00574
 Alpha  occ. eigenvalues --   -0.82654  -0.69194  -0.63676  -0.56561  -0.52778
 Alpha  occ. eigenvalues --   -0.51836  -0.48059  -0.43289
 Alpha virt. eigenvalues --    0.18088   0.21429   0.24557   0.24747   0.26755
 Alpha virt. eigenvalues --    0.29295   0.38133   0.39846   0.60560   0.61542
 Alpha virt. eigenvalues --    0.66072   0.75039   0.75255   0.80300   0.85845
 Alpha virt. eigenvalues --    0.86449   0.88457   0.89399   0.90145   0.93188
 Alpha virt. eigenvalues --    1.13011   1.15167   1.17372   1.25581   1.32470
 Alpha virt. eigenvalues --    1.42750   1.46973   1.51940   1.56995   1.59609
 Alpha virt. eigenvalues --    1.68372   1.77090   1.86555   1.87623   1.88650
 Alpha virt. eigenvalues --    1.91485   1.93117   1.96090   1.96795   1.99358
 Alpha virt. eigenvalues --    2.09258   2.18004   2.22391   2.27340   2.30705
 Alpha virt. eigenvalues --    2.46864   2.49847   2.52160   2.56659   2.73024
 Alpha virt. eigenvalues --    2.74112   2.77521   2.87017   2.88733   3.31978
 Alpha virt. eigenvalues --    3.41053   3.46046   3.61214   4.10707
          Condensed to atoms (all electrons):
 Mulliken charges:
               1
     1  C   -0.073830
     2  C    0.147423
     3  O   -0.384112
     4  H    0.027939
     5  H    0.043803
     6  H    0.043803
     7  H    0.014089
     8  H    0.014089
     9  H    0.166796
 Sum of Mulliken charges =  -0.00000
 Mulliken charges with hydrogens summed into heavy atoms:
               1
     1  C    0.041714
     2  C    0.175601
     3  O   -0.217316
 Electronic spatial extent (au):  <R**2>=            194.1878
 Charge=             -0.0000 electrons
 Dipole moment (field-independent basis, Debye):
    X=             -0.0351    Y=              1.6618    Z=              0.0000  Tot=              1.6622
 Unable to Open any file for archive entry.
 1\1\GINC-NODE07\SP\RCCSD(T)-FC\CC-pVDZ\C2H6O1\XUHJ\20-Dec-2023\0\\#T C
 CSD(T)/cc-pVDZ symm=veryloose\\CCO\\0,1\C,0,-1.170099,-0.416615,0.\C,0
 ,0.,0.55074,0.\O,0,1.197781,-0.204018,0.\H,0,-2.130748,0.128461,0.\H,0
 ,-1.13186,-1.063541,0.894093\H,0,-1.13186,-1.063541,-0.894093\H,0,-0.0
 59331,1.20982,0.893472\H,0,-0.059331,1.20982,-0.893472\H,0,1.950625,0.
 408069,0.\\Version=ES64L-G16RevC.01\State=1-A'\HF=-154.0913246\MP2=-15
 4.5731113\MP3=-154.6041293\MP4D=-154.6154641\MP4DQ=-154.6079691\MP4SDQ
 =-154.6106261\CCSD=-154.6110825\CCSD(T)=-154.6237323\RMSD=8.583e-09\PG
 =CS [SG(C2H2O1),X(H4)]\\@
 The archive entry for this job was punched.


 YOU KNOW YOU'VE SPOKEN TOO LONG WHEN THE AUDIENCE STOPS LOOKING AT
 THEIR WATCHES AND STARTS SHAKING THEM.
 Job cpu time:       0 days  0 hours  0 minutes 53.4 seconds.
 Elapsed time:       0 days  0 hours  0 minutes  3.5 seconds.
 File lengths (MBytes):  RWF=     97 Int=      0 D2E=      0 Chk=      2 Scr=      2
 Normal termination of Gaussian 16 at Wed Dec 20 03:23:53 2023.
 Initial command:
 /home/software/g16/l1.exe "/home/software/g16tmp/Gau-70493.inp" -scrdir="/home/software/g16tmp/"
 Default is to use a total of   8 processors:
                                8 via shared-memory
                                1 via Linda
 Entering Link 1 = /home/software/g16/l1.exe PID=     70698.
  
 Copyright (c) 1988-2019, Gaussian, Inc.  All Rights Reserved.
  
 This is part of the Gaussian(R) 16 program.  It is based on
 the Gaussian(R) 09 system (copyright 2009, Gaussian, Inc.),
 the Gaussian(R) 03 system (copyright 2003, Gaussian, Inc.),
 the Gaussian(R) 98 system (copyright 1998, Gaussian, Inc.),
 the Gaussian(R) 94 system (copyright 1995, Gaussian, Inc.),
 the Gaussian 92(TM) system (copyright 1992, Gaussian, Inc.),
 the Gaussian 90(TM) system (copyright 1990, Gaussian, Inc.),
 the Gaussian 88(TM) system (copyright 1988, Gaussian, Inc.),
 the Gaussian 86(TM) system (copyright 1986, Carnegie Mellon
 University), and the Gaussian 82(TM) system (copyright 1983,
 Carnegie Mellon University). Gaussian is a federally registered
 trademark of Gaussian, Inc.
  
 This software contains proprietary and confidential information,
 including trade secrets, belonging to Gaussian, Inc.
  
 This software is provided under written license and may be
 used, copied, transmitted, or stored only in accord with that
 written license.
  
 The following legend is applicable only to US Government
 contracts under FAR:
  
                    RESTRICTED RIGHTS LEGEND
  
 Use, reproduction and disclosure by the US Government is
 subject to restrictions as set forth in subparagraphs (a)
 and (c) of the Commercial Computer Software - Restricted
 Rights clause in FAR 52.227-19.
  
 Gaussian, Inc.
 340 Quinnipiac St., Bldg. 40, Wallingford CT 06492
  
  
 ---------------------------------------------------------------
 Warning -- This program may not be used in any manner that
 competes with the business of Gaussian, Inc. or will provide
 assistance to any competitor of Gaussian, Inc.  The licensee
 of this program is prohibited from giving any competitor of
 Gaussian, Inc. access to this program.  By using this program,
 the user acknowledges that Gaussian, Inc. is engaged in the
 business of creating and licensing software in the field of
 computational chemistry and represents and warrants to the
 licensee that it is not a competitor of Gaussian, Inc. and that
 it will not use this program in any manner prohibited above.
 ---------------------------------------------------------------
  

 Cite this work as:
 Gaussian 16, Revision C.01,
 M. J. Frisch, G. W. Trucks, H. B. Schlegel, G. E. Scuseria, 
 M. A. Robb, J. R. Cheeseman, G. Scalmani, V. Barone, 
 G. A. Petersson, H. Nakatsuji, X. Li, M. Caricato, A. V. Marenich, 
 J. Bloino, B. G. Janesko, R. Gomperts, B. Mennucci, H. P. Hratchian, 
 J. V. Ortiz, A. F. Izmaylov, J. L. Sonnenberg, D. Williams-Young, 
 F. Ding, F. Lipparini, F. Egidi, J. Goings, B. Peng, A. Petrone, 
 T. Henderson, D. Ranasinghe, V. G. Zakrzewski, J. Gao, N. Rega, 
 G. Zheng, W. Liang, M. Hada, M. Ehara, K. Toyota, R. Fukuda, 
 J. Hasegawa, M. Ishida, T. Nakajima, Y. Honda, O. Kitao, H. Nakai, 
 T. Vreven, K. Throssell, J. A. Montgomery, Jr., J. E. Peralta, 
 F. Ogliaro, M. J. Bearpark, J. J. Heyd, E. N. Brothers, K. N. Kudin, 
 V. N. Staroverov, T. A. Keith, R. Kobayashi, J. Normand, 
 K. Raghavachari, A. P. Rendell, J. C. Burant, S. S. Iyengar, 
 J. Tomasi, M. Cossi, J. M. Millam, M. Klene, C. Adamo, R. Cammi, 
 J. W. Ochterski, R. L. Martin, K. Morokuma, O. Farkas, 
 J. B. Foresman, and D. J. Fox, Gaussian, Inc., Wallingford CT, 2019.
 
 ******************************************
 Gaussian 16:  ES64L-G16RevC.01  3-Jul-2019
                20-Dec-2023 
 ******************************************
 %nprocshared=16
 Will use up to   16 processors via shared memory.
 %mem=12000MB
 %chk=LFQSCWFLJHTTHZ-UHFFFAOYSA-N.chk
 -----------------------------------------------
 #T CCSD(T)/cc-pVTZ symm=veryloose geom=allcheck
 -----------------------------------------------
 Structure from the checkpoint file:  "LFQSCWFLJHTTHZ-UHFFFAOYSA-N.chk"
 ---
 CCO
 ---
 Charge =  0 Multiplicity = 1
 Z-Matrix found in chk file.
 C,0,-1.170099,-0.416615,0.
 C,0,0.,0.55074,0.
 O,0,1.197781,-0.204018,0.
 H,0,-2.130748,0.128461,0.
 H,0,-1.13186,-1.063541,0.894093
 H,0,-1.13186,-1.063541,-0.894093
 H,0,-0.059331,1.20982,0.893472
 H,0,-0.059331,1.20982,-0.893472
 H,0,1.950625,0.408069,0.
 Recover connectivity data from disk.
                    Distance matrix (angstroms):
                    1          2          3          4          5
     1  C    0.000000
     2  C    1.518192   0.000000
     3  O    2.377405   1.415747   0.000000
     4  H    1.104515   2.172189   3.345093   0.000000
     5  H    1.104254   2.164812   2.639206   1.793892   0.000000
     6  H    1.104254   2.164812   2.639206   1.793892   1.788186
     7  H    2.162727   1.111845   2.092262   2.501679   2.513660
     8  H    2.162727   1.111845   2.092262   2.501679   3.084457
     9  H    3.227851   1.955836   0.970270   4.090940   3.530829
                    6          7          8          9
     6  H    0.000000
     7  H    3.084457   0.000000
     8  H    2.513660   1.786944   0.000000
     9  H    3.530829   2.341158   2.341158   0.000000
 Framework group  CS[SG(C2H2O),X(H4)]
 Deg. of freedom    13
                         Standard orientation:                         
 ---------------------------------------------------------------------
 Center     Atomic      Atomic             Coordinates (Angstroms)
 Number     Number       Type             X           Y           Z
 ---------------------------------------------------------------------
      1          6           0       -1.170042   -0.416750    0.000000
      2          6           0        0.000000    0.550675    0.000000
      3          8           0        1.197826   -0.204012    0.000000
      4          1           0       -2.130723    0.128269    0.000000
      5          1           0       -1.131764   -1.063673    0.894093
      6          1           0       -1.131764   -1.063673   -0.894093
      7          1           0       -0.059370    1.209751    0.893472
      8          1           0       -0.059370    1.209751   -0.893472
      9          1           0        1.950633    0.408120    0.000000
 ---------------------------------------------------------------------
 Rotational constants (GHZ):          35.0469479           9.3508228           8.1478908
   174 basis functions,   258 primitive gaussians,   195 cartesian basis functions
    13 alpha electrons       13 beta electrons
       nuclear repulsion energy        81.5823621038 Hartrees.
 NAtoms=    9 NActive=    9 NUniq=    7 SFac= 1.65D+00 NAtFMM=   60 NAOKFM=F Big=F
 ExpMin= 1.03D-01 ExpMax= 1.53D+04 ExpMxC= 5.22D+02 IAcc=3 IRadAn=         5 AccDes= 0.00D+00
 Harris functional with IExCor=  205 and IRadAn=       5 diagonalized for initial guess.
 HarFok:  IExCor=  205 AccDes= 0.00D+00 IRadAn=         5 IDoV= 1 UseB2=F ITyADJ=14
 ICtDFT=  3500011 ScaDFX=  1.000000  1.000000  1.000000  1.000000
 FoFCou: FMM=F IPFlag=           0 FMFlag=      100000 FMFlg1=           0
         NFxFlg=           0 DoJE=T BraDBF=F KetDBF=T FulRan=T
         wScrn=  0.000000 ICntrl=       500 IOpCl=  0 I1Cent=   200000004 NGrid=           0
         NMat0=    1 NMatS0=      1 NMatT0=    0 NMatD0=    1 NMtDS0=    0 NMtDT0=    0
 Petite list used in FoFCou.
 Initial guess orbital symmetries:
       Occupied  (A') (A') (A') (A') (A') (A') (A') (A") (A') (A')
                 (A") (A') (A")
       Virtual   (A') (A') (A") (A') (A') (A') (A") (A') (A') (A")
                 (A') (A") (A') (A') (A') (A") (A') (A") (A') (A')
                 (A") (A') (A') (A') (A') (A") (A") (A') (A") (A')
                 (A") (A') (A") (A') (A') (A") (A') (A") (A') (A")
                 (A') (A') (A') (A") (A") (A') (A') (A') (A") (A')
                 (A") (A') (A') (A') (A") (A') (A") (A') (A') (A")
                 (A') (A') (A") (A') (A') (A') (A') (A") (A') (A')
                 (A") (A") (A') (A") (A') (A") (A") (A') (A") (A')
                 (A') (A") (A") (A') (A') (A") (A') (A") (A") (A')
                 (A") (A") (A') (A') (A') (A") (A') (A") (A') (A")
                 (A') (A') (A') (A") (A") (A') (A') (A") (A') (A')
                 (A') (A") (A') (A") (A') (A") (A') (A") (A") (A')
                 (A') (A') (A") (A') (A') (A') (A") (A') (A") (A')
                 (A") (A') (A") (A') (A") (A') (A') (A') (A") (A')
                 (A') (A") (A') (A") (A') (A") (A') (A") (A") (A')
                 (A") (A") (A') (A') (A") (A') (A') (A') (A') (A')
                 (A')
 The electronic state of the initial guess is 1-A'.
 SCF Done:  E(RHF) =  -154.140816277     A.U. after   11 cycles
            NFock= 11  Conv=0.52D-08     -V/T= 2.0020
 ExpMin= 1.03D-01 ExpMax= 1.53D+04 ExpMxC= 5.22D+02 IAcc=3 IRadAn=         5 AccDes= 0.00D+00
 HarFok:  IExCor=  205 AccDes= 0.00D+00 IRadAn=         5 IDoV=-2 UseB2=F ITyADJ=14
 ICtDFT= 12500011 ScaDFX=  1.000000  1.000000  1.000000  1.000000
 NROrb=    171 NOA=    10 NOB=    10 NVA=   161 NVB=   161

 **** Warning!!: The largest alpha MO coefficient is  0.11680945D+02

 Semi-Direct transformation.
 ModeAB=           4 MOrb=            10 LenV=    1571955086
 LASXX=     12039054 LTotXX=    12039054 LenRXX=    24301333
 LTotAB=    12262279 MaxLAS=    24747120 LenRXY=           0
 NonZer=    36340387 LenScr=    55050240 LnRSAI=    24747120
 LnScr1=    37355520 LExtra=           0 Total=    141454213
 MaxDsk=          -1 SrtSym=           T ITran=            4
 JobTyp=0 Pass  1:  I=   1 to  10.
 (rs|ai) integrals will be sorted in core.
 ANorm=    0.1080008261D+01
 E2 =    -0.6023850608D+00 EUMP2 =    -0.15474320133730D+03
 CIDS: In Core Option IDoMem=           1.
 Produce multiple copies of IABC intergrals
 MP4(R+Q)=  0.12130508D-01
 E3=       -0.25071393D-01        EUMP3=      -0.15476827273D+03
 E4(DQ)=   -0.34508143D-03        UMP4(DQ)=   -0.15476861781D+03
 E4(SDQ)=  -0.45602533D-02        UMP4(SDQ)=  -0.15477283298D+03
 DE(Corr)= -0.61515788     E(Corr)=     -154.75597415    
 NORM(A)=   0.10861104D+01
 DE(Corr)= -0.62881433     E(CORR)=     -154.76963061     Delta=-1.37D-02
 NORM(A)=   0.10920019D+01
 DE(Corr)= -0.63031644     E(CORR)=     -154.77113272     Delta=-1.50D-03
 NORM(A)=   0.10929995D+01
 DE(Corr)= -0.63124914     E(CORR)=     -154.77206541     Delta=-9.33D-04
 NORM(A)=   0.10931907D+01
 DE(Corr)= -0.63132391     E(CORR)=     -154.77214018     Delta=-7.48D-05
 NORM(A)=   0.10932283D+01
 DE(Corr)= -0.63133220     E(CORR)=     -154.77214848     Delta=-8.29D-06
 NORM(A)=   0.10932275D+01
 DE(Corr)= -0.63133243     E(CORR)=     -154.77214870     Delta=-2.24D-07
 NORM(A)=   0.10932275D+01
 DE(Corr)= -0.63133180     E(CORR)=     -154.77214808     Delta= 6.23D-07
 NORM(A)=   0.10932281D+01
 DE(Corr)= -0.63133187     E(CORR)=     -154.77214815     Delta=-7.21D-08
 NORM(A)=   0.10932285D+01
 Wavefunction amplitudes converged. E(Corr)=     -154.77214815    
 Largest amplitude= 1.87D-02
 Time for triples=      459.85 seconds.
 T4(CCSD)= -0.23100408D-01
 T5(CCSD)=  0.66679901D-03
 CCSD(T)= -0.15479458176D+03
 Discarding MO integrals.

 **********************************************************************

            Population analysis using the SCF Density.

 **********************************************************************

 Orbital symmetries:
       Occupied  (A') (A') (A') (A') (A') (A') (A') (A") (A') (A')
                 (A") (A') (A")
       Virtual   (A') (A') (A') (A") (A') (A") (A') (A') (A') (A")
                 (A') (A") (A') (A') (A") (A') (A') (A') (A") (A')
                 (A') (A") (A') (A') (A') (A") (A") (A') (A") (A')
                 (A") (A') (A") (A') (A") (A') (A') (A") (A') (A")
                 (A') (A') (A') (A") (A") (A') (A') (A") (A') (A')
                 (A") (A') (A') (A') (A") (A') (A") (A') (A') (A")
                 (A') (A') (A') (A") (A') (A') (A") (A') (A') (A')
                 (A") (A") (A') (A") (A") (A") (A') (A") (A') (A')
                 (A') (A") (A") (A') (A') (A") (A') (A") (A") (A')
                 (A") (A") (A') (A') (A") (A') (A') (A") (A') (A")
                 (A') (A') (A") (A') (A") (A') (A') (A") (A') (A')
                 (A") (A') (A") (A') (A") (A') (A') (A") (A") (A')
                 (A') (A') (A") (A') (A') (A") (A') (A") (A') (A')
                 (A") (A") (A') (A') (A") (A') (A') (A') (A") (A')
                 (A") (A') (A') (A") (A') (A") (A") (A') (A") (A')
                 (A") (A") (A') (A') (A") (A') (A') (A') (A') (A')
                 (A')
 The electronic state is 1-A'.
 Alpha  occ. eigenvalues --  -20.55224 -11.27710 -11.21630  -1.35504  -1.00635
 Alpha  occ. eigenvalues --   -0.82768  -0.69599  -0.63947  -0.56988  -0.52995
 Alpha  occ. eigenvalues --   -0.52126  -0.48426  -0.43742
 Alpha virt. eigenvalues --    0.13771   0.16768   0.19738   0.20018   0.22172
 Alpha virt. eigenvalues --    0.24636   0.32081   0.32826   0.38278   0.40271
 Alpha virt. eigenvalues --    0.45429   0.47794   0.54506   0.56454   0.58570
 Alpha virt. eigenvalues --    0.62986   0.64454   0.65947   0.66359   0.67130
 Alpha virt. eigenvalues --    0.72325   0.73867   0.75465   0.79297   0.84307
 Alpha virt. eigenvalues --    0.87493   0.92518   0.94287   0.98358   1.03195
 Alpha virt. eigenvalues --    1.08332   1.14365   1.16174   1.23253   1.24817
 Alpha virt. eigenvalues --    1.27322   1.28535   1.28862   1.31296   1.34506
 Alpha virt. eigenvalues --    1.37385   1.38541   1.42662   1.45186   1.49158
 Alpha virt. eigenvalues --    1.50858   1.54824   1.58293   1.60147   1.66770
 Alpha virt. eigenvalues --    1.70110   1.75172   1.79663   1.88302   2.10759
 Alpha virt. eigenvalues --    2.22523   2.26983   2.34502   2.39724   2.51351
 Alpha virt. eigenvalues --    2.59384   2.61691   2.70226   2.70311   2.72364
 Alpha virt. eigenvalues --    2.78530   2.88624   2.89872   2.98295   3.05456
 Alpha virt. eigenvalues --    3.09175   3.11130   3.17149   3.18008   3.24100
 Alpha virt. eigenvalues --    3.26131   3.26406   3.32024   3.32368   3.35512
 Alpha virt. eigenvalues --    3.37396   3.40325   3.41953   3.43643   3.44521
 Alpha virt. eigenvalues --    3.52825   3.55307   3.61975   3.70304   3.70714
 Alpha virt. eigenvalues --    3.72053   3.73845   3.75427   3.78513   3.80208
 Alpha virt. eigenvalues --    3.82739   3.86990   3.93188   3.98721   4.02413
 Alpha virt. eigenvalues --    4.09650   4.10597   4.13352   4.14927   4.16349
 Alpha virt. eigenvalues --    4.18657   4.21395   4.22463   4.29151   4.33434
 Alpha virt. eigenvalues --    4.34219   4.35462   4.38149   4.41723   4.42937
 Alpha virt. eigenvalues --    4.42968   4.53991   4.57348   4.63397   4.64945
 Alpha virt. eigenvalues --    4.68371   4.69121   4.80118   4.85659   5.00663
 Alpha virt. eigenvalues --    5.02579   5.04666   5.13871   5.16933   5.18532
 Alpha virt. eigenvalues --    5.19044   5.30106   5.31242   5.35659   5.50640
 Alpha virt. eigenvalues --    5.54456   5.62214   5.63505   5.63895   5.68536
 Alpha virt. eigenvalues --    5.77703   5.78730   5.86764   5.97136   6.15584
 Alpha virt. eigenvalues --    6.25339   6.29111   6.29293   6.43990   6.61780
 Alpha virt. eigenvalues --    6.97195   7.13082   7.14852   7.24339   7.39643
 Alpha virt. eigenvalues --    7.47378   7.67201   7.93082  12.31381  12.97751
 Alpha virt. eigenvalues --   13.85878
          Condensed to atoms (all electrons):
 Mulliken charges:
               1
     1  C   -0.259433
     2  C    0.094790
     3  O   -0.408260
     4  H    0.077418
     5  H    0.092527
     6  H    0.092527
     7  H    0.045084
     8  H    0.045084
     9  H    0.220264
 Sum of Mulliken charges =  -0.00000
 Mulliken charges with hydrogens summed into heavy atoms:
               1
     1  C    0.003038
     2  C    0.184958
     3  O   -0.187996
 Electronic spatial extent (au):  <R**2>=            194.4379
 Charge=             -0.0000 electrons
 Dipole moment (field-independent basis, Debye):
    X=             -0.0585    Y=              1.6525    Z=              0.0000  Tot=              1.6535
 Unable to Open any file for archive entry.
 1\1\GINC-NODE07\SP\RCCSD(T)-FC\CC-pVTZ\C2H6O1\XUHJ\20-Dec-2023\0\\#T C
 CSD(T)/cc-pVTZ symm=veryloose geom=allcheck\\CCO\\0,1\C,0,-1.170099,-0
 .416615,0.\C,0,0.,0.55074,0.\O,0,1.197781,-0.204018,0.\H,0,-2.130748,0
 .128461,0.\H,0,-1.13186,-1.063541,0.894093\H,0,-1.13186,-1.063541,-0.8
 94093\H,0,-0.059331,1.20982,0.893472\H,0,-0.059331,1.20982,-0.893472\H
 ,0,1.950625,0.408069,0.\\Version=ES64L-G16RevC.01\State=1-A'\HF=-154.1
 408163\MP2=-154.7432013\MP3=-154.7682727\MP4D=-154.7807483\MP4DQ=-154.
 7686178\MP4SDQ=-154.772833\CCSD=-154.7721482\CCSD(T)=-154.7945818\RMSD
 =5.187e-09\PG=CS [SG(C2H2O1),X(H4)]\\@
 The archive entry for this job was punched.


 Any fool can criticize, condemn, and complain -- and most do.
 -- Dale Carnegie
 Job cpu time:       0 days  0 hours 12 minutes 48.7 seconds.
 Elapsed time:       0 days  0 hours  0 minutes 48.8 seconds.
 File lengths (MBytes):  RWF=   1125 Int=      0 D2E=      0 Chk=      4 Scr=      2
 Normal termination of Gaussian 16 at Wed Dec 20 03:24:45 2023.
