%nprocshared=16
%mem=70400MB
%chk=LHRCREOYAASXPZ-UHFFFAOYSA-N-1.chk
#T CCSD(T)/cc-pVDZ symm=veryloose 

c1ccc2c(c1)ccc1cc3c(ccc4ccccc43)cc12

0 1
C        -0.627541       5.696086      -0.000000
C        -1.774165       4.879577      -0.000000
C        -1.649088       3.497973      -0.000000
C        -0.381715       2.871767      -0.000000
C         0.777350       3.704073      -0.000000
C         0.627541       5.110239      -0.000000
C         2.086526       3.104409      -0.000000
C         2.245675       1.753128      -0.000000
C         1.110956       0.868382      -0.000000
C         1.288323      -0.523151      -0.000000
C         0.214247      -1.420209       0.000000
C        -1.110956      -0.868382      -0.000000
C        -2.245675      -1.753128      -0.000000
C        -2.086526      -3.104409      -0.000000
C        -0.777350      -3.704073      -0.000000
C        -0.627541      -5.110239      -0.000000
C         0.627541      -5.696086      -0.000000
C         1.774165      -4.879577      -0.000000
C         1.649088      -3.497973       0.000000
C         0.381715      -2.871767      -0.000000
C        -1.288323       0.523151      -0.000000
C        -0.214247       1.420209       0.000000
H        -0.728243       6.785342      -0.000000
H        -2.769315       5.333921      -0.000000
H        -2.555871       2.890397       0.000000
H         1.527674       5.732859      -0.000000
H         2.957921       3.766272      -0.000000
H         3.246631       1.310880      -0.000000
H         2.314225      -0.896547      -0.000000
H        -3.246631      -1.310880      -0.000000
H        -2.957921      -3.766272      -0.000000
H        -1.527674      -5.732859      -0.000000
H         0.728243      -6.785342      -0.000000
H         2.769315      -5.333921       0.000000
H         2.555871      -2.890397       0.000000
H        -2.314225       0.896547      -0.000000


--link1--
%nprocshared=16
%mem=70400MB
%chk=LHRCREOYAASXPZ-UHFFFAOYSA-N-1.chk
#T CCSD(T)/cc-pVTZ symm=veryloose geom=allcheck 

