 Entering Gaussian System, Link 0=g16
 Initial command:
 /home/software/g16/l1.exe "/home/software/g16/scr/Gau-165844.inp" -scrdir="/home/software/g16/scr/"
 Default is to use a total of   8 processors:
                                8 via shared-memory
                                1 via Linda
 Entering Link 1 = /home/software/g16/l1.exe PID=    165845.
  
 Copyright (c) 1988-2019, Gaussian, Inc.  All Rights Reserved.
  
 This is part of the Gaussian(R) 16 program.  It is based on
 the Gaussian(R) 09 system (copyright 2009, Gaussian, Inc.),
 the Gaussian(R) 03 system (copyright 2003, Gaussian, Inc.),
 the Gaussian(R) 98 system (copyright 1998, Gaussian, Inc.),
 the Gaussian(R) 94 system (copyright 1995, Gaussian, Inc.),
 the Gaussian 92(TM) system (copyright 1992, Gaussian, Inc.),
 the Gaussian 90(TM) system (copyright 1990, Gaussian, Inc.),
 the Gaussian 88(TM) system (copyright 1988, Gaussian, Inc.),
 the Gaussian 86(TM) system (copyright 1986, Carnegie Mellon
 University), and the Gaussian 82(TM) system (copyright 1983,
 Carnegie Mellon University). Gaussian is a federally registered
 trademark of Gaussian, Inc.
  
 This software contains proprietary and confidential information,
 including trade secrets, belonging to Gaussian, Inc.
  
 This software is provided under written license and may be
 used, copied, transmitted, or stored only in accord with that
 written license.
  
 The following legend is applicable only to US Government
 contracts under FAR:
  
                    RESTRICTED RIGHTS LEGEND
  
 Use, reproduction and disclosure by the US Government is
 subject to restrictions as set forth in subparagraphs (a)
 and (c) of the Commercial Computer Software - Restricted
 Rights clause in FAR 52.227-19.
  
 Gaussian, Inc.
 340 Quinnipiac St., Bldg. 40, Wallingford CT 06492
  
  
 ---------------------------------------------------------------
 Warning -- This program may not be used in any manner that
 competes with the business of Gaussian, Inc. or will provide
 assistance to any competitor of Gaussian, Inc.  The licensee
 of this program is prohibited from giving any competitor of
 Gaussian, Inc. access to this program.  By using this program,
 the user acknowledges that Gaussian, Inc. is engaged in the
 business of creating and licensing software in the field of
 computational chemistry and represents and warrants to the
 licensee that it is not a competitor of Gaussian, Inc. and that
 it will not use this program in any manner prohibited above.
 ---------------------------------------------------------------
  

 Cite this work as:
 Gaussian 16, Revision C.01,
 M. J. Frisch, G. W. Trucks, H. B. Schlegel, G. E. Scuseria, 
 M. A. Robb, J. R. Cheeseman, G. Scalmani, V. Barone, 
 G. A. Petersson, H. Nakatsuji, X. Li, M. Caricato, A. V. Marenich, 
 J. Bloino, B. G. Janesko, R. Gomperts, B. Mennucci, H. P. Hratchian, 
 J. V. Ortiz, A. F. Izmaylov, J. L. Sonnenberg, D. Williams-Young, 
 F. Ding, F. Lipparini, F. Egidi, J. Goings, B. Peng, A. Petrone, 
 T. Henderson, D. Ranasinghe, V. G. Zakrzewski, J. Gao, N. Rega, 
 G. Zheng, W. Liang, M. Hada, M. Ehara, K. Toyota, R. Fukuda, 
 J. Hasegawa, M. Ishida, T. Nakajima, Y. Honda, O. Kitao, H. Nakai, 
 T. Vreven, K. Throssell, J. A. Montgomery, Jr., J. E. Peralta, 
 F. Ogliaro, M. J. Bearpark, J. J. Heyd, E. N. Brothers, K. N. Kudin, 
 V. N. Staroverov, T. A. Keith, R. Kobayashi, J. Normand, 
 K. Raghavachari, A. P. Rendell, J. C. Burant, S. S. Iyengar, 
 J. Tomasi, M. Cossi, J. M. Millam, M. Klene, C. Adamo, R. Cammi, 
 J. W. Ochterski, R. L. Martin, K. Morokuma, O. Farkas, 
 J. B. Foresman, and D. J. Fox, Gaussian, Inc., Wallingford CT, 2019.
 
 ******************************************
 Gaussian 16:  ES64L-G16RevC.01  3-Jul-2019
                22-Dec-2023 
 ******************************************
 %nprocshared=16
 Will use up to   16 processors via shared memory.
 %mem=20000MB
 %chk=LPIQUOYDBNQMRZ-UHFFFAOYSA-N.chk
 ---------------------------------
 #T CCSD(T)/cc-pVDZ symm=veryloose
 ---------------------------------
 --------
 C1=CCCC1
 --------
 Symbolic Z-matrix:
 Charge =  0 Multiplicity = 1
 C                    -0.17187   1.06236  -0.66969 
 C                    -0.17187   1.06236   0.66969 
 C                     0.14165  -0.30497   1.23384 
 C                     0.       -1.23264   0. 
 C                     0.14165  -0.30497  -1.23384 
 H                    -0.3337    1.94411  -1.29824 
 H                    -0.3337    1.94411   1.29824 
 H                    -0.52684  -0.59818   2.06378 
 H                     1.1713   -0.32223   1.64645 
 H                    -1.00961  -1.67937   0. 
 H                     0.72421  -2.06386   0. 
 H                    -0.52684  -0.59818  -2.06378 
 H                     1.1713   -0.32223  -1.64645 
 
                    Distance matrix (angstroms):
                    1          2          3          4          5
     1  C    0.000000
     2  C    1.339378   0.000000
     3  C    2.364589   1.511996   0.000000
     4  C    2.396883   2.396883   1.550164   0.000000
     5  C    1.511996   2.364589   2.467676   1.550164   0.000000
     6  H    1.094879   2.162504   3.419903   3.447980   2.299667
     7  H    2.162504   1.094879   2.299667   3.447980   3.419903
     8  H    3.217952   2.197011   1.105288   2.222452   3.377445
     9  H    3.014247   2.162231   1.109375   2.216212   3.058845
    10  H    2.944032   2.944032   2.176404   1.104023   2.176404
    11  H    3.320347   3.320347   2.226085   1.102456   2.226085
    12  H    2.197011   3.217952   3.377445   2.222452   1.105288
    13  H    2.162231   3.014247   3.058845   2.216212   1.109375
                    6          7          8          9         10
     6  H    0.000000
     7  H    2.596478   0.000000
     8  H    4.219443   2.662065   0.000000
     9  H    4.009057   2.742733   1.770307   0.000000
    10  H    3.907925   3.907925   2.379330   3.051060   0.000000
    11  H    4.343788   4.343788   2.823571   2.438029   1.775938
    12  H    2.662065   4.219443   4.127556   4.089698   2.379330
    13  H    2.742733   4.009057   4.089698   3.292904   3.051060
                   11         12         13
    11  H    0.000000
    12  H    2.823571   0.000000
    13  H    2.438029   1.770307   0.000000
 This structure is nearly, but not quite of a higher symmetry.
 Consider Symm=Loose if the higher symmetry is desired.
 Framework group  CS[SG(CH2),X(C4H6)]
 Deg. of freedom    18
                         Standard orientation:                         
 ---------------------------------------------------------------------
 Center     Atomic      Atomic             Coordinates (Angstroms)
 Number     Number       Type             X           Y           Z
 ---------------------------------------------------------------------
      1          6           0       -0.070609    1.073817    0.669689
      2          6           0       -0.070609    1.073817   -0.669689
      3          6           0       -0.070609   -0.328990   -1.233838
      4          6           0        0.274797   -1.201542   -0.000000
      5          6           0       -0.070609   -0.328990    1.233838
      6          1           0       -0.109942    1.969439    1.298239
      7          1           0       -0.109942    1.969439   -1.298239
      8          1           0        0.646510   -0.465376   -2.063778
      9          1           0       -1.070348   -0.575941   -1.646452
     10          1           0        1.358706   -1.411319   -0.000000
     11          1           0       -0.245316   -2.173597   -0.000000
     12          1           0        0.646510   -0.465376    2.063778
     13          1           0       -1.070348   -0.575941    1.646452
 ---------------------------------------------------------------------
 Rotational constants (GHZ):           7.2729314           7.1914193           3.9266392
   110 basis functions,   221 primitive gaussians,   115 cartesian basis functions
    19 alpha electrons       19 beta electrons
       nuclear repulsion energy       170.6374882849 Hartrees.
 NAtoms=   13 NActive=   13 NUniq=    8 SFac= 2.64D+00 NAtFMM=   60 NAOKFM=F Big=F
 ExpMin= 1.22D-01 ExpMax= 6.67D+03 ExpMxC= 2.28D+02 IAcc=3 IRadAn=         5 AccDes= 0.00D+00
 Harris functional with IExCor=  205 and IRadAn=       5 diagonalized for initial guess.
 HarFok:  IExCor=  205 AccDes= 0.00D+00 IRadAn=         5 IDoV= 1 UseB2=F ITyADJ=14
 ICtDFT=  3500011 ScaDFX=  1.000000  1.000000  1.000000  1.000000
 FoFCou: FMM=F IPFlag=           0 FMFlag=      100000 FMFlg1=           0
         NFxFlg=           0 DoJE=T BraDBF=F KetDBF=T FulRan=T
         wScrn=  0.000000 ICntrl=       500 IOpCl=  0 I1Cent=   200000004 NGrid=           0
         NMat0=    1 NMatS0=      1 NMatT0=    0 NMatD0=    1 NMtDS0=    0 NMtDT0=    0
 Petite list used in FoFCou.
 Initial guess orbital symmetries:
       Occupied  (A") (A') (A') (A') (A") (A') (A') (A") (A') (A")
                 (A') (A') (A') (A") (A') (A") (A") (A') (A')
       Virtual   (A") (A') (A') (A') (A") (A') (A") (A') (A") (A")
                 (A') (A') (A") (A") (A') (A') (A') (A') (A") (A")
                 (A') (A') (A') (A") (A") (A") (A') (A') (A') (A")
                 (A') (A") (A") (A') (A") (A') (A') (A") (A') (A")
                 (A') (A') (A") (A") (A') (A") (A') (A') (A") (A')
                 (A') (A") (A") (A') (A') (A') (A") (A") (A') (A")
                 (A') (A") (A') (A') (A") (A") (A') (A") (A') (A')
                 (A") (A") (A') (A") (A') (A') (A") (A") (A') (A")
                 (A') (A") (A') (A") (A') (A') (A") (A") (A') (A')
                 (A")
 The electronic state of the initial guess is 1-A'.
 Integral accuracy reduced to 1.0D-05 until final iterations.
 Initial convergence to 1.0D-05 achieved.  Increase integral accuracy.
 SCF Done:  E(RHF) =  -193.991090899     A.U. after   11 cycles
            NFock= 11  Conv=0.66D-08     -V/T= 2.0018
 ExpMin= 1.22D-01 ExpMax= 6.67D+03 ExpMxC= 2.28D+02 IAcc=3 IRadAn=         5 AccDes= 0.00D+00
 HarFok:  IExCor=  205 AccDes= 0.00D+00 IRadAn=         5 IDoV=-2 UseB2=F ITyADJ=14
 ICtDFT= 12500011 ScaDFX=  1.000000  1.000000  1.000000  1.000000
 NROrb=    105 NOA=    14 NOB=    14 NVA=    91 NVB=    91
 Semi-Direct transformation.
 ModeAB=           4 MOrb=            14 LenV=    2620967767
 LASXX=      3666560 LTotXX=     3666560 LenRXX=     7438962
 LTotAB=     3772402 MaxLAS=     5361090 LenRXY=           0
 NonZer=    11105522 LenScr=    17039360 LnRSAI=     5361090
 LnScr1=     8519680 LExtra=           0 Total=     38359092
 MaxDsk=          -1 SrtSym=           T ITran=            4
 JobTyp=0 Pass  1:  I=   1 to  14.
 (rs|ai) integrals will be sorted in core.
 ANorm=    0.1116401613D+01
 E2 =    -0.6872908651D+00 EUMP2 =    -0.19467838176372D+03
 CIDS: In Core Option IDoMem=           1.
 Produce multiple copies of IABC intergrals
 MP4(R+Q)=  0.15438883D-01
 E3=       -0.48297041D-01        EUMP3=      -0.19472667880D+03
 E4(DQ)=   -0.25535572D-02        UMP4(DQ)=   -0.19472923236D+03
 E4(SDQ)=  -0.67798719D-02        UMP4(SDQ)=  -0.19473345868D+03
 DE(Corr)= -0.72010749     E(Corr)=     -194.71119839    
 NORM(A)=   0.11297719D+01
 DE(Corr)= -0.73809941     E(CORR)=     -194.72919031     Delta=-1.80D-02
 NORM(A)=   0.11396187D+01
 DE(Corr)= -0.74167223     E(CORR)=     -194.73276313     Delta=-3.57D-03
 NORM(A)=   0.11413227D+01
 DE(Corr)= -0.74298594     E(CORR)=     -194.73407684     Delta=-1.31D-03
 NORM(A)=   0.11418082D+01
 DE(Corr)= -0.74313293     E(CORR)=     -194.73422383     Delta=-1.47D-04
 NORM(A)=   0.11419082D+01
 DE(Corr)= -0.74314983     E(CORR)=     -194.73424073     Delta=-1.69D-05
 NORM(A)=   0.11419056D+01
 DE(Corr)= -0.74314834     E(CORR)=     -194.73423923     Delta= 1.49D-06
 NORM(A)=   0.11419108D+01
 DE(Corr)= -0.74314769     E(CORR)=     -194.73423858     Delta= 6.50D-07
 NORM(A)=   0.11419114D+01
 DE(Corr)= -0.74314814     E(CORR)=     -194.73423904     Delta=-4.58D-07
 NORM(A)=   0.11419119D+01
 DE(Corr)= -0.74314830     E(CORR)=     -194.73423920     Delta=-1.59D-07
 NORM(A)=   0.11419121D+01
 DE(Corr)= -0.74314843     E(CORR)=     -194.73423933     Delta=-1.29D-07
 NORM(A)=   0.11419122D+01
 DE(Corr)= -0.74314848     E(CORR)=     -194.73423937     Delta=-4.40D-08
 NORM(A)=   0.11419123D+01
 Wavefunction amplitudes converged. E(Corr)=     -194.73423937    
 Dominant configurations:
 ***********************
 Spin Case        I    J    A    B          Value
   ABAB          19   19   20   20      -0.109467D+00
 Largest amplitude= 1.09D-01
 Time for triples=      152.56 seconds.
 T4(CCSD)= -0.26694546D-01
 T5(CCSD)=  0.54364650D-03
 CCSD(T)= -0.19476039027D+03
 Discarding MO integrals.

 **********************************************************************

            Population analysis using the SCF Density.

 **********************************************************************

 Orbital symmetries:
       Occupied  (A') (A") (A') (A') (A") (A') (A') (A") (A') (A")
                 (A') (A') (A") (A') (A") (A') (A') (A") (A')
       Virtual   (A") (A') (A') (A') (A") (A") (A') (A") (A') (A')
                 (A") (A') (A") (A") (A') (A') (A') (A") (A') (A')
                 (A") (A') (A") (A") (A') (A") (A') (A') (A') (A")
                 (A') (A') (A") (A") (A") (A') (A') (A") (A") (A')
                 (A') (A') (A") (A") (A') (A") (A') (A") (A') (A')
                 (A") (A') (A') (A') (A") (A") (A') (A') (A") (A')
                 (A") (A") (A') (A") (A') (A") (A') (A") (A') (A')
                 (A") (A") (A') (A") (A') (A') (A") (A") (A') (A")
                 (A') (A") (A') (A") (A') (A') (A") (A') (A") (A')
                 (A")
 The electronic state is 1-A'.
 Alpha  occ. eigenvalues --  -11.22902 -11.22895 -11.22731 -11.22621 -11.22570
 Alpha  occ. eigenvalues --   -1.12556  -0.95913  -0.95166  -0.78096  -0.71826
 Alpha  occ. eigenvalues --   -0.66660  -0.62804  -0.54412  -0.52804  -0.48738
 Alpha  occ. eigenvalues --   -0.48566  -0.47881  -0.47045  -0.33746
 Alpha virt. eigenvalues --    0.18085   0.18225   0.21963   0.22683   0.23053
 Alpha virt. eigenvalues --    0.25819   0.26008   0.28044   0.31193   0.34940
 Alpha virt. eigenvalues --    0.36665   0.42331   0.45780   0.56245   0.58822
 Alpha virt. eigenvalues --    0.62856   0.66105   0.67475   0.68550   0.73036
 Alpha virt. eigenvalues --    0.74974   0.75846   0.79297   0.82835   0.83339
 Alpha virt. eigenvalues --    0.85808   0.85952   0.88372   0.88983   0.90409
 Alpha virt. eigenvalues --    0.92269   0.92862   0.92885   0.94872   0.99691
 Alpha virt. eigenvalues --    1.01434   1.02353   1.15494   1.21960   1.23617
 Alpha virt. eigenvalues --    1.25481   1.34681   1.36925   1.46585   1.46819
 Alpha virt. eigenvalues --    1.50169   1.57093   1.66395   1.67317   1.76446
 Alpha virt. eigenvalues --    1.77442   1.78356   1.84000   1.85993   1.87651
 Alpha virt. eigenvalues --    1.88558   1.88716   1.91497   1.92434   1.97377
 Alpha virt. eigenvalues --    1.99154   2.00052   2.00301   2.03259   2.04416
 Alpha virt. eigenvalues --    2.07031   2.09400   2.12274   2.17034   2.19724
 Alpha virt. eigenvalues --    2.23773   2.27303   2.28095   2.36349   2.38430
 Alpha virt. eigenvalues --    2.40258   2.44828   2.48534   2.49314   2.52521
 Alpha virt. eigenvalues --    2.65628   2.68720   2.75174   2.79020   2.79954
 Alpha virt. eigenvalues --    2.86887   2.89953   2.93219   2.93248   3.05452
 Alpha virt. eigenvalues --    3.37505
          Condensed to atoms (all electrons):
 Mulliken charges:
               1
     1  C   -0.088961
     2  C   -0.088961
     3  C   -0.011712
     4  C   -0.062272
     5  C   -0.011712
     6  H    0.021559
     7  H    0.021559
     8  H    0.036016
     9  H    0.040830
    10  H    0.038294
    11  H    0.028513
    12  H    0.036016
    13  H    0.040830
 Sum of Mulliken charges =  -0.00000
 Mulliken charges with hydrogens summed into heavy atoms:
               1
     1  C   -0.067402
     2  C   -0.067402
     3  C    0.065134
     4  C    0.004534
     5  C    0.065134
 Electronic spatial extent (au):  <R**2>=            378.1492
 Charge=             -0.0000 electrons
 Dipole moment (field-independent basis, Debye):
    X=             -0.0483    Y=             -0.1244    Z=             -0.0000  Tot=              0.1335
 Unable to Open any file for archive entry.
 1\1\GINC-NODE02\SP\RCCSD(T)-FC\CC-pVDZ\C5H8\XUHJ\22-Dec-2023\0\\#T CCS
 D(T)/cc-pVDZ symm=veryloose\\C1=CCCC1\\0,1\C,0,-0.171872,1.062357,-0.6
 69689\C,0,-0.171872,1.062357,0.669689\C,0,0.141654,-0.304965,1.233838\
 C,0,0.,-1.232643,0.\C,0,0.141654,-0.304965,-1.233838\H,0,-0.333704,1.9
 44114,-1.298239\H,0,-0.333704,1.944114,1.298239\H,0,-0.526843,-0.59817
 6,2.063778\H,0,1.171297,-0.322228,1.646452\H,0,-1.009606,-1.679366,0.\
 H,0,0.72421,-2.063864,0.\H,0,-0.526843,-0.598176,-2.063778\H,0,1.17129
 7,-0.322228,-1.646452\\Version=ES64L-G16RevC.01\State=1-A'\HF=-193.991
 0909\MP2=-194.6783818\MP3=-194.7266788\MP4D=-194.7446712\MP4DQ=-194.72
 92324\MP4SDQ=-194.7334587\CCSD=-194.7342394\CCSD(T)=-194.7603903\RMSD=
 6.639e-09\PG=CS [SG(C1H2),X(C4H6)]\\@
 The archive entry for this job was punched.


 I DO NOT DEFINE TIME, SPACE, PLACE, AND MOTION, AS BEING WELL KNOWN TO ALL.
                                            -- NEWTON (1642-1726), PRINCIPIA
 Job cpu time:       0 days  0 hours  6 minutes 29.1 seconds.
 Elapsed time:       0 days  0 hours  0 minutes 25.1 seconds.
 File lengths (MBytes):  RWF=    397 Int=      0 D2E=      0 Chk=      3 Scr=      2
 Normal termination of Gaussian 16 at Fri Dec 22 16:21:29 2023.
 Initial command:
 /home/software/g16/l1.exe "/home/software/g16/scr/Gau-165844.inp" -scrdir="/home/software/g16/scr/"
 Default is to use a total of   8 processors:
                                8 via shared-memory
                                1 via Linda
 Entering Link 1 = /home/software/g16/l1.exe PID=    166052.
  
 Copyright (c) 1988-2019, Gaussian, Inc.  All Rights Reserved.
  
 This is part of the Gaussian(R) 16 program.  It is based on
 the Gaussian(R) 09 system (copyright 2009, Gaussian, Inc.),
 the Gaussian(R) 03 system (copyright 2003, Gaussian, Inc.),
 the Gaussian(R) 98 system (copyright 1998, Gaussian, Inc.),
 the Gaussian(R) 94 system (copyright 1995, Gaussian, Inc.),
 the Gaussian 92(TM) system (copyright 1992, Gaussian, Inc.),
 the Gaussian 90(TM) system (copyright 1990, Gaussian, Inc.),
 the Gaussian 88(TM) system (copyright 1988, Gaussian, Inc.),
 the Gaussian 86(TM) system (copyright 1986, Carnegie Mellon
 University), and the Gaussian 82(TM) system (copyright 1983,
 Carnegie Mellon University). Gaussian is a federally registered
 trademark of Gaussian, Inc.
  
 This software contains proprietary and confidential information,
 including trade secrets, belonging to Gaussian, Inc.
  
 This software is provided under written license and may be
 used, copied, transmitted, or stored only in accord with that
 written license.
  
 The following legend is applicable only to US Government
 contracts under FAR:
  
                    RESTRICTED RIGHTS LEGEND
  
 Use, reproduction and disclosure by the US Government is
 subject to restrictions as set forth in subparagraphs (a)
 and (c) of the Commercial Computer Software - Restricted
 Rights clause in FAR 52.227-19.
  
 Gaussian, Inc.
 340 Quinnipiac St., Bldg. 40, Wallingford CT 06492
  
  
 ---------------------------------------------------------------
 Warning -- This program may not be used in any manner that
 competes with the business of Gaussian, Inc. or will provide
 assistance to any competitor of Gaussian, Inc.  The licensee
 of this program is prohibited from giving any competitor of
 Gaussian, Inc. access to this program.  By using this program,
 the user acknowledges that Gaussian, Inc. is engaged in the
 business of creating and licensing software in the field of
 computational chemistry and represents and warrants to the
 licensee that it is not a competitor of Gaussian, Inc. and that
 it will not use this program in any manner prohibited above.
 ---------------------------------------------------------------
  

 Cite this work as:
 Gaussian 16, Revision C.01,
 M. J. Frisch, G. W. Trucks, H. B. Schlegel, G. E. Scuseria, 
 M. A. Robb, J. R. Cheeseman, G. Scalmani, V. Barone, 
 G. A. Petersson, H. Nakatsuji, X. Li, M. Caricato, A. V. Marenich, 
 J. Bloino, B. G. Janesko, R. Gomperts, B. Mennucci, H. P. Hratchian, 
 J. V. Ortiz, A. F. Izmaylov, J. L. Sonnenberg, D. Williams-Young, 
 F. Ding, F. Lipparini, F. Egidi, J. Goings, B. Peng, A. Petrone, 
 T. Henderson, D. Ranasinghe, V. G. Zakrzewski, J. Gao, N. Rega, 
 G. Zheng, W. Liang, M. Hada, M. Ehara, K. Toyota, R. Fukuda, 
 J. Hasegawa, M. Ishida, T. Nakajima, Y. Honda, O. Kitao, H. Nakai, 
 T. Vreven, K. Throssell, J. A. Montgomery, Jr., J. E. Peralta, 
 F. Ogliaro, M. J. Bearpark, J. J. Heyd, E. N. Brothers, K. N. Kudin, 
 V. N. Staroverov, T. A. Keith, R. Kobayashi, J. Normand, 
 K. Raghavachari, A. P. Rendell, J. C. Burant, S. S. Iyengar, 
 J. Tomasi, M. Cossi, J. M. Millam, M. Klene, C. Adamo, R. Cammi, 
 J. W. Ochterski, R. L. Martin, K. Morokuma, O. Farkas, 
 J. B. Foresman, and D. J. Fox, Gaussian, Inc., Wallingford CT, 2019.
 
 ******************************************
 Gaussian 16:  ES64L-G16RevC.01  3-Jul-2019
                22-Dec-2023 
 ******************************************
 %nprocshared=16
 Will use up to   16 processors via shared memory.
 %mem=20000MB
 %chk=LPIQUOYDBNQMRZ-UHFFFAOYSA-N.chk
 -----------------------------------------------
 #T CCSD(T)/cc-pVTZ symm=veryloose geom=allcheck
 -----------------------------------------------
 Structure from the checkpoint file:  "LPIQUOYDBNQMRZ-UHFFFAOYSA-N.chk"
 --------
 C1=CCCC1
 --------
 Charge =  0 Multiplicity = 1
 Z-Matrix found in chk file.
 C,0,-0.171872,1.062357,-0.669689
 C,0,-0.171872,1.062357,0.669689
 C,0,0.141654,-0.304965,1.233838
 C,0,0.,-1.232643,0.
 C,0,0.141654,-0.304965,-1.233838
 H,0,-0.333704,1.944114,-1.298239
 H,0,-0.333704,1.944114,1.298239
 H,0,-0.526843,-0.598176,2.063778
 H,0,1.171297,-0.322228,1.646452
 H,0,-1.009606,-1.679366,0.
 H,0,0.72421,-2.063864,0.
 H,0,-0.526843,-0.598176,-2.063778
 H,0,1.171297,-0.322228,-1.646452
 Recover connectivity data from disk.
                    Distance matrix (angstroms):
                    1          2          3          4          5
     1  C    0.000000
     2  C    1.339378   0.000000
     3  C    2.364589   1.511996   0.000000
     4  C    2.396883   2.396883   1.550164   0.000000
     5  C    1.511996   2.364589   2.467676   1.550164   0.000000
     6  H    1.094879   2.162504   3.419903   3.447980   2.299667
     7  H    2.162504   1.094879   2.299667   3.447980   3.419903
     8  H    3.217952   2.197011   1.105288   2.222452   3.377445
     9  H    3.014247   2.162231   1.109375   2.216212   3.058845
    10  H    2.944032   2.944032   2.176404   1.104023   2.176404
    11  H    3.320347   3.320347   2.226085   1.102456   2.226085
    12  H    2.197011   3.217952   3.377445   2.222452   1.105288
    13  H    2.162231   3.014247   3.058845   2.216212   1.109375
                    6          7          8          9         10
     6  H    0.000000
     7  H    2.596478   0.000000
     8  H    4.219443   2.662065   0.000000
     9  H    4.009057   2.742733   1.770307   0.000000
    10  H    3.907925   3.907925   2.379330   3.051060   0.000000
    11  H    4.343788   4.343788   2.823571   2.438029   1.775938
    12  H    2.662065   4.219443   4.127556   4.089698   2.379330
    13  H    2.742733   4.009057   4.089698   3.292904   3.051060
                   11         12         13
    11  H    0.000000
    12  H    2.823571   0.000000
    13  H    2.438029   1.770307   0.000000
 This structure is nearly, but not quite of a higher symmetry.
 Consider Symm=Loose if the higher symmetry is desired.
 Framework group  CS[SG(CH2),X(C4H6)]
 Deg. of freedom    18
                         Standard orientation:                         
 ---------------------------------------------------------------------
 Center     Atomic      Atomic             Coordinates (Angstroms)
 Number     Number       Type             X           Y           Z
 ---------------------------------------------------------------------
      1          6           0       -0.070609    1.073817    0.669689
      2          6           0       -0.070609    1.073817   -0.669689
      3          6           0       -0.070609   -0.328990   -1.233838
      4          6           0        0.274797   -1.201542   -0.000000
      5          6           0       -0.070609   -0.328990    1.233838
      6          1           0       -0.109942    1.969439    1.298239
      7          1           0       -0.109942    1.969439   -1.298239
      8          1           0        0.646510   -0.465376   -2.063778
      9          1           0       -1.070348   -0.575941   -1.646452
     10          1           0        1.358706   -1.411319   -0.000000
     11          1           0       -0.245316   -2.173597   -0.000000
     12          1           0        0.646510   -0.465376    2.063778
     13          1           0       -1.070348   -0.575941    1.646452
 ---------------------------------------------------------------------
 Rotational constants (GHZ):           7.2729314           7.1914193           3.9266392
   262 basis functions,   396 primitive gaussians,   295 cartesian basis functions
    19 alpha electrons       19 beta electrons
       nuclear repulsion energy       170.6374882849 Hartrees.
 NAtoms=   13 NActive=   13 NUniq=    8 SFac= 2.64D+00 NAtFMM=   60 NAOKFM=F Big=F
 ExpMin= 1.03D-01 ExpMax= 8.24D+03 ExpMxC= 2.81D+02 IAcc=3 IRadAn=         5 AccDes= 0.00D+00
 Harris functional with IExCor=  205 and IRadAn=       5 diagonalized for initial guess.
 HarFok:  IExCor=  205 AccDes= 0.00D+00 IRadAn=         5 IDoV= 1 UseB2=F ITyADJ=14
 ICtDFT=  3500011 ScaDFX=  1.000000  1.000000  1.000000  1.000000
 FoFCou: FMM=F IPFlag=           0 FMFlag=      100000 FMFlg1=           0
         NFxFlg=           0 DoJE=T BraDBF=F KetDBF=T FulRan=T
         wScrn=  0.000000 ICntrl=       500 IOpCl=  0 I1Cent=   200000004 NGrid=           0
         NMat0=    1 NMatS0=      1 NMatT0=    0 NMatD0=    1 NMtDS0=    0 NMtDT0=    0
 Petite list used in FoFCou.
 Initial guess orbital symmetries:
       Occupied  (A") (A') (A') (A') (A") (A') (A') (A") (A') (A")
                 (A') (A') (A') (A") (A') (A") (A") (A') (A')
       Virtual   (A") (A') (A') (A') (A") (A') (A") (A') (A") (A")
                 (A') (A') (A") (A') (A') (A") (A') (A') (A") (A')
                 (A') (A") (A") (A') (A") (A") (A') (A') (A') (A")
                 (A') (A") (A') (A') (A") (A') (A") (A") (A") (A')
                 (A') (A') (A") (A") (A') (A") (A') (A') (A') (A")
                 (A') (A") (A') (A") (A') (A") (A') (A") (A') (A")
                 (A') (A') (A") (A') (A") (A') (A') (A") (A") (A")
                 (A') (A') (A") (A') (A') (A") (A") (A') (A') (A")
                 (A") (A') (A') (A") (A') (A") (A") (A') (A") (A')
                 (A") (A') (A') (A') (A') (A") (A") (A') (A") (A')
                 (A") (A') (A") (A') (A') (A') (A") (A') (A") (A')
                 (A") (A') (A') (A") (A') (A") (A') (A') (A") (A")
                 (A') (A') (A") (A') (A") (A') (A') (A") (A") (A')
                 (A") (A') (A") (A") (A') (A") (A') (A') (A") (A')
                 (A") (A") (A') (A') (A') (A") (A') (A') (A") (A")
                 (A") (A') (A") (A') (A") (A') (A') (A") (A') (A")
                 (A') (A') (A") (A") (A') (A') (A") (A') (A") (A')
                 (A") (A') (A') (A') (A") (A") (A') (A") (A') (A")
                 (A") (A") (A') (A') (A") (A') (A") (A') (A") (A")
                 (A') (A') (A") (A') (A") (A') (A") (A') (A') (A")
                 (A") (A') (A") (A') (A") (A') (A") (A') (A") (A')
                 (A") (A') (A") (A') (A") (A') (A") (A') (A") (A')
                 (A') (A') (A") (A') (A") (A") (A') (A") (A") (A')
                 (A') (A") (A') (A') (A") (A") (A') (A") (A') (A')
                 (A") (A') (A")
 The electronic state of the initial guess is 1-A'.
 Integral accuracy reduced to 1.0D-05 until final iterations.
 Initial convergence to 1.0D-05 achieved.  Increase integral accuracy.
 SCF Done:  E(RHF) =  -194.041024207     A.U. after   11 cycles
            NFock= 11  Conv=0.54D-08     -V/T= 2.0023
 ExpMin= 1.03D-01 ExpMax= 8.24D+03 ExpMxC= 2.81D+02 IAcc=3 IRadAn=         5 AccDes= 0.00D+00
 HarFok:  IExCor=  205 AccDes= 0.00D+00 IRadAn=         5 IDoV=-2 UseB2=F ITyADJ=14
 ICtDFT= 12500011 ScaDFX=  1.000000  1.000000  1.000000  1.000000
 NROrb=    257 NOA=    14 NOB=    14 NVA=   243 NVB=   243

 **** Warning!!: The largest alpha MO coefficient is  0.14139867D+02

 Semi-Direct transformation.
 ModeAB=           4 MOrb=            14 LenV=    2619651382
 LASXX=     57299188 LTotXX=    57299188 LenRXX=   115268342
 LTotAB=    57969154 MaxLAS=    83228936 LenRXY=           0
 NonZer=   172567530 LenScr=   259129344 LnRSAI=    83228936
 LnScr1=   125304832 LExtra=           0 Total=    582931454
 MaxDsk=          -1 SrtSym=           T ITran=            4
 JobTyp=0 Pass  1:  I=   1 to  14.
 (rs|ai) integrals will be sorted in core.
 ANorm=    0.1127910925D+01
 E2 =    -0.8347436068D+00 EUMP2 =    -0.19487576781367D+03
 CIDS: In Core Option IDoMem=           1.
 Produce multiple copies of IABC intergrals
 MP4(R+Q)=  0.22497046D-01
 E3=       -0.40660046D-01        EUMP3=      -0.19491642786D+03
 E4(DQ)=    0.35770024D-02        UMP4(DQ)=   -0.19491285086D+03
 E4(SDQ)=  -0.25196356D-02        UMP4(SDQ)=  -0.19491894750D+03
 DE(Corr)= -0.85270102     E(Corr)=     -194.89372523    
 NORM(A)=   0.11362828D+01
 DE(Corr)= -0.87329880     E(CORR)=     -194.91432301     Delta=-2.06D-02
 NORM(A)=   0.11464299D+01
 DE(Corr)= -0.87570925     E(CORR)=     -194.91673346     Delta=-2.41D-03
 NORM(A)=   0.11482698D+01
 DE(Corr)= -0.87725458     E(CORR)=     -194.91827879     Delta=-1.55D-03
 NORM(A)=   0.11487657D+01
 DE(Corr)= -0.87740003     E(CORR)=     -194.91842423     Delta=-1.45D-04
 NORM(A)=   0.11488799D+01
 DE(Corr)= -0.87741795     E(CORR)=     -194.91844215     Delta=-1.79D-05
 NORM(A)=   0.11488795D+01
 DE(Corr)= -0.87741809     E(CORR)=     -194.91844230     Delta=-1.49D-07
 NORM(A)=   0.11488831D+01
 DE(Corr)= -0.87741670     E(CORR)=     -194.91844091     Delta= 1.39D-06
 NORM(A)=   0.11488839D+01
 DE(Corr)= -0.87741732     E(CORR)=     -194.91844153     Delta=-6.21D-07
 NORM(A)=   0.11488845D+01
 DE(Corr)= -0.87741748     E(CORR)=     -194.91844168     Delta=-1.53D-07
 NORM(A)=   0.11488848D+01
 DE(Corr)= -0.87741761     E(CORR)=     -194.91844182     Delta=-1.37D-07
 NORM(A)=   0.11488849D+01
 DE(Corr)= -0.87741766     E(CORR)=     -194.91844187     Delta=-5.00D-08
 NORM(A)=   0.11488849D+01
 Wavefunction amplitudes converged. E(Corr)=     -194.91844187    
 Largest amplitude= 9.45D-02
 Time for triples=     8158.82 seconds.
 T4(CCSD)= -0.40329535D-01
 T5(CCSD)=  0.86069627D-03
 CCSD(T)= -0.19495791071D+03
 Discarding MO integrals.

 **********************************************************************

            Population analysis using the SCF Density.

 **********************************************************************

 Orbital symmetries:
       Occupied  (A') (A") (A') (A') (A") (A') (A') (A") (A') (A")
                 (A') (A') (A") (A') (A") (A') (A') (A") (A')
       Virtual   (A') (A") (A') (A") (A') (A') (A") (A") (A') (A')
                 (A") (A') (A") (A') (A") (A') (A') (A') (A") (A')
                 (A') (A") (A") (A') (A') (A") (A") (A') (A') (A")
                 (A") (A') (A") (A') (A') (A') (A") (A") (A') (A')
                 (A") (A") (A') (A") (A") (A') (A') (A') (A") (A')
                 (A") (A') (A') (A") (A') (A") (A') (A") (A') (A')
                 (A") (A') (A") (A') (A") (A') (A') (A") (A") (A")
                 (A') (A') (A") (A') (A') (A") (A") (A') (A') (A")
                 (A') (A") (A') (A") (A") (A") (A') (A') (A") (A')
                 (A") (A') (A') (A') (A') (A") (A') (A") (A') (A")
                 (A') (A") (A") (A') (A') (A') (A") (A') (A") (A')
                 (A") (A') (A') (A") (A') (A") (A') (A') (A") (A")
                 (A') (A') (A") (A') (A") (A') (A') (A") (A") (A")
                 (A') (A') (A") (A") (A') (A') (A") (A') (A") (A')
                 (A") (A') (A") (A') (A') (A") (A') (A') (A") (A")
                 (A") (A') (A") (A') (A") (A') (A') (A") (A') (A')
                 (A") (A") (A') (A") (A') (A") (A') (A") (A') (A')
                 (A") (A') (A') (A') (A") (A") (A') (A") (A') (A")
                 (A") (A') (A") (A') (A') (A") (A') (A") (A") (A")
                 (A') (A") (A') (A') (A") (A') (A') (A") (A') (A")
                 (A") (A') (A") (A') (A') (A") (A") (A') (A") (A")
                 (A') (A') (A") (A') (A") (A') (A') (A") (A') (A")
                 (A') (A") (A') (A') (A") (A") (A") (A') (A") (A')
                 (A') (A") (A') (A') (A") (A") (A') (A") (A') (A')
                 (A") (A') (A")
 The electronic state is 1-A'.
 Alpha  occ. eigenvalues --  -11.22460 -11.22454 -11.22259 -11.22197 -11.22093
 Alpha  occ. eigenvalues --   -1.12413  -0.95809  -0.95087  -0.78079  -0.71855
 Alpha  occ. eigenvalues --   -0.66724  -0.62863  -0.54503  -0.52925  -0.48798
 Alpha  occ. eigenvalues --   -0.48611  -0.47958  -0.47119  -0.33842
 Alpha virt. eigenvalues --    0.14125   0.17005   0.17690   0.17746   0.17951
 Alpha virt. eigenvalues --    0.20880   0.20993   0.22677   0.24835   0.31477
 Alpha virt. eigenvalues --    0.32075   0.33427   0.34715   0.40781   0.42025
 Alpha virt. eigenvalues --    0.43092   0.43951   0.47321   0.48603   0.49060
 Alpha virt. eigenvalues --    0.54382   0.56822   0.58167   0.58930   0.60226
 Alpha virt. eigenvalues --    0.61482   0.61645   0.61971   0.63901   0.64458
 Alpha virt. eigenvalues --    0.65496   0.65976   0.66149   0.66801   0.69750
 Alpha virt. eigenvalues --    0.72919   0.75080   0.77037   0.80374   0.84105
 Alpha virt. eigenvalues --    0.84143   0.95043   0.96366   0.97960   1.02444
 Alpha virt. eigenvalues --    1.03769   1.04242   1.09706   1.13081   1.13951
 Alpha virt. eigenvalues --    1.16440   1.16622   1.20807   1.22930   1.24517
 Alpha virt. eigenvalues --    1.26576   1.27726   1.30069   1.31900   1.33585
 Alpha virt. eigenvalues --    1.33614   1.35855   1.37979   1.38086   1.40799
 Alpha virt. eigenvalues --    1.42111   1.43442   1.45363   1.45757   1.48437
 Alpha virt. eigenvalues --    1.48651   1.52321   1.54140   1.55440   1.55893
 Alpha virt. eigenvalues --    1.57123   1.58094   1.63617   1.64770   1.67699
 Alpha virt. eigenvalues --    1.70576   1.70676   1.75127   1.75974   1.77208
 Alpha virt. eigenvalues --    1.80643   1.81530   1.86240   1.94937   2.07594
 Alpha virt. eigenvalues --    2.19881   2.39003   2.42064   2.48448   2.62375
 Alpha virt. eigenvalues --    2.63339   2.68774   2.70612   2.70925   2.71791
 Alpha virt. eigenvalues --    2.75262   2.75322   2.80336   2.81755   2.84412
 Alpha virt. eigenvalues --    2.88158   2.89582   2.91235   2.91922   2.95096
 Alpha virt. eigenvalues --    2.97239   3.01150   3.02586   3.02997   3.03479
 Alpha virt. eigenvalues --    3.05346   3.09405   3.14344   3.14573   3.21117
 Alpha virt. eigenvalues --    3.21873   3.24786   3.26379   3.28534   3.29144
 Alpha virt. eigenvalues --    3.31765   3.33922   3.34273   3.35779   3.38104
 Alpha virt. eigenvalues --    3.38958   3.39557   3.43011   3.45793   3.46002
 Alpha virt. eigenvalues --    3.48502   3.49304   3.50986   3.52156   3.53061
 Alpha virt. eigenvalues --    3.55718   3.57695   3.59358   3.60419   3.61674
 Alpha virt. eigenvalues --    3.64752   3.66029   3.70765   3.71507   3.75810
 Alpha virt. eigenvalues --    3.77906   3.78507   3.84939   3.85931   3.86643
 Alpha virt. eigenvalues --    3.89068   3.91267   3.93040   3.94654   3.97708
 Alpha virt. eigenvalues --    3.98415   4.01558   4.04691   4.05313   4.09615
 Alpha virt. eigenvalues --    4.10024   4.12136   4.12222   4.14192   4.17496
 Alpha virt. eigenvalues --    4.18809   4.18899   4.23283   4.23860   4.27819
 Alpha virt. eigenvalues --    4.30715   4.31582   4.33336   4.34740   4.38429
 Alpha virt. eigenvalues --    4.40294   4.44263   4.44495   4.46747   4.48231
 Alpha virt. eigenvalues --    4.51122   4.51916   4.52453   4.55843   4.57501
 Alpha virt. eigenvalues --    4.59193   4.61207   4.65050   4.68909   4.69844
 Alpha virt. eigenvalues --    4.72982   4.77171   4.78635   4.83157   4.85930
 Alpha virt. eigenvalues --    4.87845   4.91929   4.98911   5.00060   5.02343
 Alpha virt. eigenvalues --    5.03613   5.04407   5.14810   5.15830   5.21810
 Alpha virt. eigenvalues --    5.21974   5.24943   5.26505   5.26785   5.31944
 Alpha virt. eigenvalues --    5.34315   5.44115   5.44393   5.47785   5.49189
 Alpha virt. eigenvalues --    5.52521   5.55292   5.55781   5.61508   5.64864
 Alpha virt. eigenvalues --    5.71766   5.77802   5.78073   5.81056   5.86742
 Alpha virt. eigenvalues --    5.96034   6.01663   6.06552   6.24872   6.32962
 Alpha virt. eigenvalues --    6.39410   6.44782   6.48478  10.57201  12.00487
 Alpha virt. eigenvalues --   13.09388  13.42990  14.30746
          Condensed to atoms (all electrons):
 Mulliken charges:
               1
     1  C   -0.203164
     2  C   -0.203164
     3  C   -0.138250
     4  C   -0.177954
     5  C   -0.138250
     6  H    0.155098
     7  H    0.155098
     8  H    0.094202
     9  H    0.087759
    10  H    0.089236
    11  H    0.097429
    12  H    0.094202
    13  H    0.087759
 Sum of Mulliken charges =  -0.00000
 Mulliken charges with hydrogens summed into heavy atoms:
               1
     1  C   -0.048066
     2  C   -0.048066
     3  C    0.043710
     4  C    0.008711
     5  C    0.043710
 Electronic spatial extent (au):  <R**2>=            378.1940
 Charge=             -0.0000 electrons
 Dipole moment (field-independent basis, Debye):
    X=             -0.0611    Y=             -0.1702    Z=              0.0000  Tot=              0.1808
 Unable to Open any file for archive entry.
 1\1\GINC-NODE02\SP\RCCSD(T)-FC\CC-pVTZ\C5H8\XUHJ\22-Dec-2023\0\\#T CCS
 D(T)/cc-pVTZ symm=veryloose geom=allcheck\\C1=CCCC1\\0,1\C,0,-0.171872
 ,1.062357,-0.669689\C,0,-0.171872,1.062357,0.669689\C,0,0.141654,-0.30
 4965,1.233838\C,0,0.,-1.232643,0.\C,0,0.141654,-0.304965,-1.233838\H,0
 ,-0.333704,1.944114,-1.298239\H,0,-0.333704,1.944114,1.298239\H,0,-0.5
 26843,-0.598176,2.063778\H,0,1.171297,-0.322228,1.646452\H,0,-1.009606
 ,-1.679366,0.\H,0,0.72421,-2.063864,0.\H,0,-0.526843,-0.598176,-2.0637
 78\H,0,1.171297,-0.322228,-1.646452\\Version=ES64L-G16RevC.01\State=1-
 A'\HF=-194.0410242\MP2=-194.8757678\MP3=-194.9164279\MP4D=-194.9353479
 \MP4DQ=-194.9128509\MP4SDQ=-194.9189475\CCSD=-194.9184419\CCSD(T)=-194
 .9579107\RMSD=5.401e-09\PG=CS [SG(C1H2),X(C4H6)]\\@
 The archive entry for this job was punched.


 THE BEST WAY TO CONVINCE A FOOL THAT HE IS WRONG 
 IS TO LET HIM HAVE HIS OWN WAY.

                                         JOSH BILLINGS
 Job cpu time:       0 days  2 hours 50 minutes  5.6 seconds.
 Elapsed time:       0 days  0 hours 10 minutes 41.0 seconds.
 File lengths (MBytes):  RWF=   4915 Int=      0 D2E=      0 Chk=      7 Scr=      2
 Normal termination of Gaussian 16 at Fri Dec 22 16:32:14 2023.
