%nprocshared=16
%mem=12000MB
%chk=LVZWSLJZHVFIQJ-UHFFFAOYSA-N.chk
#T CCSD(T)/cc-pVDZ symm=veryloose

C1CC1

0 1
C        -0.000000       0.871067      -0.000000
C         0.754366      -0.435534      -0.000000
C        -0.754366      -0.435534      -0.000000
H        -0.000000       1.468384      -0.919471
H         0.000000       1.468384       0.919471
H         1.271657      -0.734192       0.919471
H         1.271657      -0.734192      -0.919471
H        -1.271657      -0.734192       0.919471
H        -1.271657      -0.734192      -0.919471


--link1--
%nprocshared=16
%mem=12000MB
%chk=LVZWSLJZHVFIQJ-UHFFFAOYSA-N.chk
#T CCSD(T)/cc-pVTZ symm=veryloose geom=allcheck

