 Entering Gaussian System, Link 0=g16
 Initial command:
 /home/software/g16/l1.exe "/home/software/g16tmp/Gau-73690.inp" -scrdir="/home/software/g16tmp/"
 Default is to use a total of   8 processors:
                                8 via shared-memory
                                1 via Linda
 Entering Link 1 = /home/software/g16/l1.exe PID=     73691.
  
 Copyright (c) 1988-2019, Gaussian, Inc.  All Rights Reserved.
  
 This is part of the Gaussian(R) 16 program.  It is based on
 the Gaussian(R) 09 system (copyright 2009, Gaussian, Inc.),
 the Gaussian(R) 03 system (copyright 2003, Gaussian, Inc.),
 the Gaussian(R) 98 system (copyright 1998, Gaussian, Inc.),
 the Gaussian(R) 94 system (copyright 1995, Gaussian, Inc.),
 the Gaussian 92(TM) system (copyright 1992, Gaussian, Inc.),
 the Gaussian 90(TM) system (copyright 1990, Gaussian, Inc.),
 the Gaussian 88(TM) system (copyright 1988, Gaussian, Inc.),
 the Gaussian 86(TM) system (copyright 1986, Carnegie Mellon
 University), and the Gaussian 82(TM) system (copyright 1983,
 Carnegie Mellon University). Gaussian is a federally registered
 trademark of Gaussian, Inc.
  
 This software contains proprietary and confidential information,
 including trade secrets, belonging to Gaussian, Inc.
  
 This software is provided under written license and may be
 used, copied, transmitted, or stored only in accord with that
 written license.
  
 The following legend is applicable only to US Government
 contracts under FAR:
  
                    RESTRICTED RIGHTS LEGEND
  
 Use, reproduction and disclosure by the US Government is
 subject to restrictions as set forth in subparagraphs (a)
 and (c) of the Commercial Computer Software - Restricted
 Rights clause in FAR 52.227-19.
  
 Gaussian, Inc.
 340 Quinnipiac St., Bldg. 40, Wallingford CT 06492
  
  
 ---------------------------------------------------------------
 Warning -- This program may not be used in any manner that
 competes with the business of Gaussian, Inc. or will provide
 assistance to any competitor of Gaussian, Inc.  The licensee
 of this program is prohibited from giving any competitor of
 Gaussian, Inc. access to this program.  By using this program,
 the user acknowledges that Gaussian, Inc. is engaged in the
 business of creating and licensing software in the field of
 computational chemistry and represents and warrants to the
 licensee that it is not a competitor of Gaussian, Inc. and that
 it will not use this program in any manner prohibited above.
 ---------------------------------------------------------------
  

 Cite this work as:
 Gaussian 16, Revision C.01,
 M. J. Frisch, G. W. Trucks, H. B. Schlegel, G. E. Scuseria, 
 M. A. Robb, J. R. Cheeseman, G. Scalmani, V. Barone, 
 G. A. Petersson, H. Nakatsuji, X. Li, M. Caricato, A. V. Marenich, 
 J. Bloino, B. G. Janesko, R. Gomperts, B. Mennucci, H. P. Hratchian, 
 J. V. Ortiz, A. F. Izmaylov, J. L. Sonnenberg, D. Williams-Young, 
 F. Ding, F. Lipparini, F. Egidi, J. Goings, B. Peng, A. Petrone, 
 T. Henderson, D. Ranasinghe, V. G. Zakrzewski, J. Gao, N. Rega, 
 G. Zheng, W. Liang, M. Hada, M. Ehara, K. Toyota, R. Fukuda, 
 J. Hasegawa, M. Ishida, T. Nakajima, Y. Honda, O. Kitao, H. Nakai, 
 T. Vreven, K. Throssell, J. A. Montgomery, Jr., J. E. Peralta, 
 F. Ogliaro, M. J. Bearpark, J. J. Heyd, E. N. Brothers, K. N. Kudin, 
 V. N. Staroverov, T. A. Keith, R. Kobayashi, J. Normand, 
 K. Raghavachari, A. P. Rendell, J. C. Burant, S. S. Iyengar, 
 J. Tomasi, M. Cossi, J. M. Millam, M. Klene, C. Adamo, R. Cammi, 
 J. W. Ochterski, R. L. Martin, K. Morokuma, O. Farkas, 
 J. B. Foresman, and D. J. Fox, Gaussian, Inc., Wallingford CT, 2019.
 
 ******************************************
 Gaussian 16:  ES64L-G16RevC.01  3-Jul-2019
                20-Dec-2023 
 ******************************************
 %nprocshared=16
 Will use up to   16 processors via shared memory.
 %mem=12000MB
 %chk=MWWATHDPGQKSAR-UHFFFAOYSA-N.chk
 ---------------------------------
 #T CCSD(T)/cc-pVDZ symm=veryloose
 ---------------------------------
 ----
 C#CC
 ----
 Symbolic Z-matrix:
 Charge =  0 Multiplicity = 1
 C                     0.        0.        1.42874 
 C                     0.        0.        0.21776 
 C                     0.        0.       -1.24255 
 H                     0.        0.        2.50302 
 H                     0.        1.03052  -1.64224 
 H                    -0.89246  -0.51526  -1.64224 
 H                     0.89246  -0.51526  -1.64224 
 
                    Distance matrix (angstroms):
                    1          2          3          4          5
     1  C    0.000000
     2  C    1.210975   0.000000
     3  C    2.671288   1.460313   0.000000
     4  H    1.074281   2.285256   3.745569   0.000000
     5  H    3.239272   2.126402   1.105315   4.271435   0.000000
     6  H    3.239272   2.126402   1.105315   4.271435   1.784910
     7  H    3.239272   2.126402   1.105315   4.271435   1.784910
                    6          7
     6  H    0.000000
     7  H    1.784910   0.000000
 Framework group  C3V[C3(CCCH),3SGV(H)]
 Deg. of freedom     5
                         Standard orientation:                         
 ---------------------------------------------------------------------
 Center     Atomic      Atomic             Coordinates (Angstroms)
 Number     Number       Type             X           Y           Z
 ---------------------------------------------------------------------
      1          6           0        0.000000    0.000000    1.428738
      2          6           0        0.000000    0.000000    0.217763
      3          6           0        0.000000    0.000000   -1.242550
      4          1           0        0.000000    0.000000    2.503019
      5          1           0        0.000000    1.030518   -1.642242
      6          1           0       -0.892455   -0.515259   -1.642242
      7          1           0        0.892455   -0.515259   -1.642242
 ---------------------------------------------------------------------
 Rotational constants (GHZ):         157.3981552           8.4907684           8.4907684
    62 basis functions,   127 primitive gaussians,    65 cartesian basis functions
    11 alpha electrons       11 beta electrons
       nuclear repulsion energy        58.3996856586 Hartrees.
 NAtoms=    7 NActive=    7 NUniq=    5 SFac= 1.96D+00 NAtFMM=   60 NAOKFM=F Big=F
 ExpMin= 1.22D-01 ExpMax= 6.67D+03 ExpMxC= 2.28D+02 IAcc=3 IRadAn=         5 AccDes= 0.00D+00
 Harris functional with IExCor=  205 and IRadAn=       5 diagonalized for initial guess.
 HarFok:  IExCor=  205 AccDes= 0.00D+00 IRadAn=         5 IDoV= 1 UseB2=F ITyADJ=14
 ICtDFT=  3500011 ScaDFX=  1.000000  1.000000  1.000000  1.000000
 FoFCou: FMM=F IPFlag=           0 FMFlag=      100000 FMFlg1=           0
         NFxFlg=           0 DoJE=T BraDBF=F KetDBF=T FulRan=T
         wScrn=  0.000000 ICntrl=       500 IOpCl=  0 I1Cent=   200000004 NGrid=           0
         NMat0=    1 NMatS0=      1 NMatT0=    0 NMatD0=    1 NMtDS0=    0 NMtDT0=    0
 Petite list used in FoFCou.
 Initial guess orbital symmetries:
       Occupied  (A1) (A1) (A1) (A1) (A1) (A1) (A1) (E) (E) (E)
                 (E)
       Virtual   (E) (E) (A1) (A1) (E) (E) (A1) (A1) (A1) (E) (E)
                 (E) (E) (E) (E) (E) (E) (A1) (A1) (A1) (E) (E)
                 (A1) (A1) (E) (E) (E) (E) (A1) (E) (E) (A2) (A1)
                 (E) (E) (A1) (E) (E) (E) (E) (A1) (A1) (E) (E)
                 (E) (E) (A1) (A1) (E) (E) (A1)
 The electronic state of the initial guess is 1-A1.
 SCF Done:  E(RHF) =  -115.873292286     A.U. after   11 cycles
            NFock= 11  Conv=0.23D-08     -V/T= 2.0024
 ExpMin= 1.22D-01 ExpMax= 6.67D+03 ExpMxC= 2.28D+02 IAcc=3 IRadAn=         5 AccDes= 0.00D+00
 HarFok:  IExCor=  205 AccDes= 0.00D+00 IRadAn=         5 IDoV=-2 UseB2=F ITyADJ=14
 ICtDFT= 12500011 ScaDFX=  1.000000  1.000000  1.000000  1.000000
 NROrb=     59 NOA=     8 NOB=     8 NVA=    51 NVB=    51

 **** Warning!!: The largest alpha MO coefficient is  0.20435966D+02

 Semi-Direct transformation.
 ModeAB=           4 MOrb=             8 LenV=    1572606563
 LASXX=       373840 LTotXX=      373840 LenRXX=      769028
 LTotAB=      395188 MaxLAS=      905768 LenRXY=           0
 NonZer=     1142868 LenScr=     2097152 LnRSAI=      905768
 LnScr1=     1966080 LExtra=           0 Total=      5738028
 MaxDsk=          -1 SrtSym=           T ITran=            4
 JobTyp=0 Pass  1:  I=   1 to   8.
 (rs|ai) integrals will be sorted in core.
 ANorm=    0.1074718174D+01
 E2 =    -0.3980690881D+00 EUMP2 =    -0.11627136137425D+03
 CIDS: In Core Option IDoMem=           1.
 Produce multiple copies of IABC intergrals
 MP4(R+Q)=  0.89824289D-02
 E3=       -0.22611891D-01        EUMP3=      -0.11629397327D+03
 E4(DQ)=   -0.24929838D-02        UMP4(DQ)=   -0.11629646625D+03
 E4(SDQ)=  -0.60869702D-02        UMP4(SDQ)=  -0.11630006024D+03
 DE(Corr)= -0.41157115     E(Corr)=     -116.28486344    
 NORM(A)=   0.10806953D+01
 DE(Corr)= -0.42386707     E(CORR)=     -116.29715935     Delta=-1.23D-02
 NORM(A)=   0.10883044D+01
 DE(Corr)= -0.42596607     E(CORR)=     -116.29925836     Delta=-2.10D-03
 NORM(A)=   0.10900078D+01
 DE(Corr)= -0.42718834     E(CORR)=     -116.30048063     Delta=-1.22D-03
 NORM(A)=   0.10905637D+01
 DE(Corr)= -0.42733936     E(CORR)=     -116.30063165     Delta=-1.51D-04
 NORM(A)=   0.10906323D+01
 DE(Corr)= -0.42735339     E(CORR)=     -116.30064567     Delta=-1.40D-05
 NORM(A)=   0.10906279D+01
 DE(Corr)= -0.42735332     E(CORR)=     -116.30064561     Delta= 6.62D-08
 NORM(A)=   0.10906342D+01
 DE(Corr)= -0.42735275     E(CORR)=     -116.30064504     Delta= 5.71D-07
 NORM(A)=   0.10906335D+01
 DE(Corr)= -0.42735325     E(CORR)=     -116.30064553     Delta=-4.97D-07
 NORM(A)=   0.10906339D+01
 DE(Corr)= -0.42735331     E(CORR)=     -116.30064559     Delta=-5.98D-08
 NORM(A)=   0.10906341D+01
 Wavefunction amplitudes converged. E(Corr)=     -116.30064559    
 Largest amplitude= 7.14D-02
 Time for triples=        4.48 seconds.
 T4(CCSD)= -0.16598901D-01
 T5(CCSD)=  0.57675029D-03
 CCSD(T)= -0.11631666774D+03
 Discarding MO integrals.

 **********************************************************************

            Population analysis using the SCF Density.

 **********************************************************************

 Orbital symmetries:
       Occupied  (A1) (A1) (A1) (A1) (A1) (A1) (A1) (E) (E) (E)
                 (E)
       Virtual   (A1) (E) (E) (A1) (E) (E) (A1) (A1) (A1) (E) (E)
                 (E) (E) (E) (E) (A1) (E) (E) (A1) (A1) (A1) (E)
                 (E) (E) (E) (A1) (E) (E) (A1) (A1) (E) (E) (A2)
                 (E) (E) (E) (E) (A1) (E) (E) (A1) (A1) (E) (E)
                 (E) (E) (A1) (E) (E) (A1) (A1)
 The electronic state is 1-A1.
 Alpha  occ. eigenvalues --  -11.26142 -11.24106 -11.22819  -1.05338  -0.95282
 Alpha  occ. eigenvalues --   -0.71198  -0.61849  -0.58491  -0.58491  -0.37937
 Alpha  occ. eigenvalues --   -0.37937
 Alpha virt. eigenvalues --    0.18756   0.20289   0.20289   0.21078   0.27923
 Alpha virt. eigenvalues --    0.27923   0.38389   0.51470   0.57354   0.63202
 Alpha virt. eigenvalues --    0.63202   0.72823   0.72823   0.84219   0.84219
 Alpha virt. eigenvalues --    0.84478   0.86870   0.86870   0.88953   0.97594
 Alpha virt. eigenvalues --    1.11816   1.14995   1.14995   1.26575   1.26575
 Alpha virt. eigenvalues --    1.37593   1.50188   1.50188   1.53574   1.63785
 Alpha virt. eigenvalues --    1.65978   1.65978   1.66179   1.79845   1.79845
 Alpha virt. eigenvalues --    1.91830   1.91830   1.93661   2.13180   2.13180
 Alpha virt. eigenvalues --    2.28775   2.35058   2.39447   2.39447   2.69128
 Alpha virt. eigenvalues --    2.69128   2.69256   2.91323   2.91323   2.95995
 Alpha virt. eigenvalues --    3.53922
          Condensed to atoms (all electrons):
 Mulliken charges:
               1
     1  C   -0.335200
     2  C    0.025742
     3  C    0.036703
     4  H    0.050347
     5  H    0.074136
     6  H    0.074136
     7  H    0.074136
 Sum of Mulliken charges =   0.00000
 Mulliken charges with hydrogens summed into heavy atoms:
               1
     1  C   -0.284853
     2  C    0.025742
     3  C    0.259111
 Electronic spatial extent (au):  <R**2>=            180.0589
 Charge=              0.0000 electrons
 Dipole moment (field-independent basis, Debye):
    X=             -0.0000    Y=             -0.0000    Z=             -0.7153  Tot=              0.7153
 Unable to Open any file for archive entry.
 1\1\GINC-NODE07\SP\RCCSD(T)-FC\CC-pVDZ\C3H4\XUHJ\20-Dec-2023\0\\#T CCS
 D(T)/cc-pVDZ symm=veryloose\\C#CC\\0,1\C,0,0.,0.,1.428738\C,0,0.,0.,0.
 217763\C,0,0.,0.,-1.24255\H,0,0.,0.,2.503019\H,0,0.,1.030518,-1.642242
 \H,0,-0.892455,-0.515259,-1.642242\H,0,0.892455,-0.515259,-1.642242\\V
 ersion=ES64L-G16RevC.01\State=1-A1\HF=-115.8732923\MP2=-116.2713614\MP
 3=-116.2939733\MP4D=-116.3054487\MP4DQ=-116.2964662\MP4SDQ=-116.300060
 2\CCSD=-116.3006456\CCSD(T)=-116.3166677\RMSD=2.276e-09\PG=C03V [C3(C1
 C1C1H1),3SGV(H1)]\\@
 The archive entry for this job was punched.


 ACCORDING TO HEN3RY, LIFE IS MUCH LIKE A SEWER........
 YOU GET OUT OF IT JUST WHAT YOU PUT INTO IT...........
                         TOM LEHRER - (THE 3 IS SILENT)
 Job cpu time:       0 days  0 hours  0 minutes 26.4 seconds.
 Elapsed time:       0 days  0 hours  0 minutes  1.8 seconds.
 File lengths (MBytes):  RWF=     64 Int=      0 D2E=      0 Chk=      2 Scr=      2
 Normal termination of Gaussian 16 at Wed Dec 20 04:44:12 2023.
 Initial command:
 /home/software/g16/l1.exe "/home/software/g16tmp/Gau-73690.inp" -scrdir="/home/software/g16tmp/"
 Default is to use a total of   8 processors:
                                8 via shared-memory
                                1 via Linda
 Entering Link 1 = /home/software/g16/l1.exe PID=     73887.
  
 Copyright (c) 1988-2019, Gaussian, Inc.  All Rights Reserved.
  
 This is part of the Gaussian(R) 16 program.  It is based on
 the Gaussian(R) 09 system (copyright 2009, Gaussian, Inc.),
 the Gaussian(R) 03 system (copyright 2003, Gaussian, Inc.),
 the Gaussian(R) 98 system (copyright 1998, Gaussian, Inc.),
 the Gaussian(R) 94 system (copyright 1995, Gaussian, Inc.),
 the Gaussian 92(TM) system (copyright 1992, Gaussian, Inc.),
 the Gaussian 90(TM) system (copyright 1990, Gaussian, Inc.),
 the Gaussian 88(TM) system (copyright 1988, Gaussian, Inc.),
 the Gaussian 86(TM) system (copyright 1986, Carnegie Mellon
 University), and the Gaussian 82(TM) system (copyright 1983,
 Carnegie Mellon University). Gaussian is a federally registered
 trademark of Gaussian, Inc.
  
 This software contains proprietary and confidential information,
 including trade secrets, belonging to Gaussian, Inc.
  
 This software is provided under written license and may be
 used, copied, transmitted, or stored only in accord with that
 written license.
  
 The following legend is applicable only to US Government
 contracts under FAR:
  
                    RESTRICTED RIGHTS LEGEND
  
 Use, reproduction and disclosure by the US Government is
 subject to restrictions as set forth in subparagraphs (a)
 and (c) of the Commercial Computer Software - Restricted
 Rights clause in FAR 52.227-19.
  
 Gaussian, Inc.
 340 Quinnipiac St., Bldg. 40, Wallingford CT 06492
  
  
 ---------------------------------------------------------------
 Warning -- This program may not be used in any manner that
 competes with the business of Gaussian, Inc. or will provide
 assistance to any competitor of Gaussian, Inc.  The licensee
 of this program is prohibited from giving any competitor of
 Gaussian, Inc. access to this program.  By using this program,
 the user acknowledges that Gaussian, Inc. is engaged in the
 business of creating and licensing software in the field of
 computational chemistry and represents and warrants to the
 licensee that it is not a competitor of Gaussian, Inc. and that
 it will not use this program in any manner prohibited above.
 ---------------------------------------------------------------
  

 Cite this work as:
 Gaussian 16, Revision C.01,
 M. J. Frisch, G. W. Trucks, H. B. Schlegel, G. E. Scuseria, 
 M. A. Robb, J. R. Cheeseman, G. Scalmani, V. Barone, 
 G. A. Petersson, H. Nakatsuji, X. Li, M. Caricato, A. V. Marenich, 
 J. Bloino, B. G. Janesko, R. Gomperts, B. Mennucci, H. P. Hratchian, 
 J. V. Ortiz, A. F. Izmaylov, J. L. Sonnenberg, D. Williams-Young, 
 F. Ding, F. Lipparini, F. Egidi, J. Goings, B. Peng, A. Petrone, 
 T. Henderson, D. Ranasinghe, V. G. Zakrzewski, J. Gao, N. Rega, 
 G. Zheng, W. Liang, M. Hada, M. Ehara, K. Toyota, R. Fukuda, 
 J. Hasegawa, M. Ishida, T. Nakajima, Y. Honda, O. Kitao, H. Nakai, 
 T. Vreven, K. Throssell, J. A. Montgomery, Jr., J. E. Peralta, 
 F. Ogliaro, M. J. Bearpark, J. J. Heyd, E. N. Brothers, K. N. Kudin, 
 V. N. Staroverov, T. A. Keith, R. Kobayashi, J. Normand, 
 K. Raghavachari, A. P. Rendell, J. C. Burant, S. S. Iyengar, 
 J. Tomasi, M. Cossi, J. M. Millam, M. Klene, C. Adamo, R. Cammi, 
 J. W. Ochterski, R. L. Martin, K. Morokuma, O. Farkas, 
 J. B. Foresman, and D. J. Fox, Gaussian, Inc., Wallingford CT, 2019.
 
 ******************************************
 Gaussian 16:  ES64L-G16RevC.01  3-Jul-2019
                20-Dec-2023 
 ******************************************
 %nprocshared=16
 Will use up to   16 processors via shared memory.
 %mem=12000MB
 %chk=MWWATHDPGQKSAR-UHFFFAOYSA-N.chk
 -----------------------------------------------
 #T CCSD(T)/cc-pVTZ symm=veryloose geom=allcheck
 -----------------------------------------------
 Structure from the checkpoint file:  "MWWATHDPGQKSAR-UHFFFAOYSA-N.chk"
 ----
 C#CC
 ----
 Charge =  0 Multiplicity = 1
 Z-Matrix found in chk file.
 C,0,0.,0.,1.428738
 C,0,0.,0.,0.217763
 C,0,0.,0.,-1.24255
 H,0,0.,0.,2.503019
 H,0,0.,1.030518,-1.642242
 H,0,-0.892455,-0.515259,-1.642242
 H,0,0.892455,-0.515259,-1.642242
 Recover connectivity data from disk.
                    Distance matrix (angstroms):
                    1          2          3          4          5
     1  C    0.000000
     2  C    1.210975   0.000000
     3  C    2.671288   1.460313   0.000000
     4  H    1.074281   2.285256   3.745569   0.000000
     5  H    3.239272   2.126402   1.105315   4.271435   0.000000
     6  H    3.239272   2.126402   1.105315   4.271435   1.784910
     7  H    3.239272   2.126402   1.105315   4.271435   1.784910
                    6          7
     6  H    0.000000
     7  H    1.784910   0.000000
 Framework group  C3V[C3(CCCH),3SGV(H)]
 Deg. of freedom     5
                         Standard orientation:                         
 ---------------------------------------------------------------------
 Center     Atomic      Atomic             Coordinates (Angstroms)
 Number     Number       Type             X           Y           Z
 ---------------------------------------------------------------------
      1          6           0        0.000000    0.000000    1.428738
      2          6           0        0.000000    0.000000    0.217763
      3          6           0        0.000000    0.000000   -1.242550
      4          1           0        0.000000    0.000000    2.503019
      5          1           0        0.000000    1.030518   -1.642242
      6          1           0       -0.892455   -0.515259   -1.642242
      7          1           0        0.892455   -0.515259   -1.642242
 ---------------------------------------------------------------------
 Rotational constants (GHZ):         157.3981552           8.4907684           8.4907684
   146 basis functions,   224 primitive gaussians,   165 cartesian basis functions
    11 alpha electrons       11 beta electrons
       nuclear repulsion energy        58.3996856586 Hartrees.
 NAtoms=    7 NActive=    7 NUniq=    5 SFac= 1.96D+00 NAtFMM=   60 NAOKFM=F Big=F
 ExpMin= 1.03D-01 ExpMax= 8.24D+03 ExpMxC= 2.81D+02 IAcc=3 IRadAn=         5 AccDes= 0.00D+00
 Harris functional with IExCor=  205 and IRadAn=       5 diagonalized for initial guess.
 HarFok:  IExCor=  205 AccDes= 0.00D+00 IRadAn=         5 IDoV= 1 UseB2=F ITyADJ=14
 ICtDFT=  3500011 ScaDFX=  1.000000  1.000000  1.000000  1.000000
 FoFCou: FMM=F IPFlag=           0 FMFlag=      100000 FMFlg1=           0
         NFxFlg=           0 DoJE=T BraDBF=F KetDBF=T FulRan=T
         wScrn=  0.000000 ICntrl=       500 IOpCl=  0 I1Cent=   200000004 NGrid=           0
         NMat0=    1 NMatS0=      1 NMatT0=    0 NMatD0=    1 NMtDS0=    0 NMtDT0=    0
 Petite list used in FoFCou.
 Initial guess orbital symmetries:
       Occupied  (A1) (A1) (A1) (A1) (A1) (A1) (A1) (E) (E) (E)
                 (E)
       Virtual   (E) (E) (A1) (A1) (E) (E) (A1) (A1) (A1) (E) (E)
                 (E) (E) (E) (E) (A1) (E) (E) (A1) (A1) (E) (E)
                 (E) (E) (A1) (A1) (A1) (E) (E) (A2) (E) (E) (A1)
                 (E) (E) (A1) (E) (E) (A1) (E) (E) (A1) (E) (E)
                 (E) (E) (A1) (A1) (E) (E) (E) (E) (A1) (A1) (E)
                 (E) (A1) (E) (E) (A1) (A2) (A1) (E) (E) (A1) (E)
                 (E) (E) (E) (A1) (A2) (E) (E) (A1) (E) (E) (A2)
                 (A1) (E) (E) (E) (E) (E) (E) (E) (E) (E) (E) (A2)
                 (A1) (E) (E) (A1) (E) (E) (A1) (E) (E) (E) (E)
                 (A1) (A1) (E) (E) (E) (E) (A2) (A1) (E) (E) (E)
                 (E) (A1) (A1) (E) (E) (A1) (A2) (E) (E) (A1) (E)
                 (E) (E) (E) (A1) (A1) (E) (E) (E) (E) (A1) (A1)
                 (A1) (A1)
 The electronic state of the initial guess is 1-A1.
 SCF Done:  E(RHF) =  -115.906238885     A.U. after   10 cycles
            NFock= 10  Conv=0.10D-07     -V/T= 2.0027
 ExpMin= 1.03D-01 ExpMax= 8.24D+03 ExpMxC= 2.81D+02 IAcc=3 IRadAn=         5 AccDes= 0.00D+00
 HarFok:  IExCor=  205 AccDes= 0.00D+00 IRadAn=         5 IDoV=-2 UseB2=F ITyADJ=14
 ICtDFT= 12500011 ScaDFX=  1.000000  1.000000  1.000000  1.000000
 NROrb=    143 NOA=     8 NOB=     8 NVA=   135 NVB=   135

 **** Warning!!: The largest alpha MO coefficient is  0.56113851D+02

 Semi-Direct transformation.
 ModeAB=           4 MOrb=             8 LenV=    1572167422
 LASXX=      5658784 LTotXX=     5658784 LenRXX=    11446904
 LTotAB=     5788120 MaxLAS=    13226928 LenRXY=           0
 NonZer=    17105688 LenScr=    26214400 LnRSAI=    13226928
 LnScr1=    20316160 LExtra=           0 Total=     71204392
 MaxDsk=          -1 SrtSym=           T ITran=            4
 JobTyp=0 Pass  1:  I=   1 to   8.
 (rs|ai) integrals will be sorted in core.
 ANorm=    0.1082160005D+01
 E2 =    -0.4831754684D+00 EUMP2 =    -0.11638941435349D+03
 CIDS: In Core Option IDoMem=           1.
 Produce multiple copies of IABC intergrals
 MP4(R+Q)=  0.13532678D-01
 E3=       -0.18395495D-01        EUMP3=      -0.11640780985D+03
 E4(DQ)=    0.11515238D-02        UMP4(DQ)=   -0.11640665832D+03
 E4(SDQ)=  -0.36760886D-02        UMP4(SDQ)=  -0.11641148594D+03
 DE(Corr)= -0.48776128     E(Corr)=     -116.39400016    
 NORM(A)=   0.10850782D+01
 DE(Corr)= -0.50222639     E(CORR)=     -116.40846528     Delta=-1.45D-02
 NORM(A)=   0.10925554D+01
 DE(Corr)= -0.50327053     E(CORR)=     -116.40950941     Delta=-1.04D-03
 NORM(A)=   0.10942615D+01
 DE(Corr)= -0.50461327     E(CORR)=     -116.41085216     Delta=-1.34D-03
 NORM(A)=   0.10947880D+01
 DE(Corr)= -0.50475293     E(CORR)=     -116.41099181     Delta=-1.40D-04
 NORM(A)=   0.10948785D+01
 DE(Corr)= -0.50477069     E(CORR)=     -116.41100958     Delta=-1.78D-05
 NORM(A)=   0.10948747D+01
 DE(Corr)= -0.50477183     E(CORR)=     -116.41101072     Delta=-1.14D-06
 NORM(A)=   0.10948780D+01
 DE(Corr)= -0.50477054     E(CORR)=     -116.41100943     Delta= 1.29D-06
 NORM(A)=   0.10948779D+01
 DE(Corr)= -0.50477137     E(CORR)=     -116.41101026     Delta=-8.31D-07
 NORM(A)=   0.10948785D+01
 DE(Corr)= -0.50477139     E(CORR)=     -116.41101027     Delta=-1.44D-08
 NORM(A)=   0.10948787D+01
 Wavefunction amplitudes converged. E(Corr)=     -116.41101027    
 Largest amplitude= 5.17D-02
 Time for triples=      113.39 seconds.
 T4(CCSD)= -0.24733425D-01
 T5(CCSD)=  0.77907932D-03
 CCSD(T)= -0.11643496462D+03
 Discarding MO integrals.

 **********************************************************************

            Population analysis using the SCF Density.

 **********************************************************************

 Orbital symmetries:
       Occupied  (A1) (A1) (A1) (A1) (A1) (A1) (A1) (E) (E) (E)
                 (E)
       Virtual   (A1) (A1) (E) (E) (E) (E) (A1) (A1) (E) (E) (A1)
                 (E) (E) (A1) (E) (E) (A1) (E) (E) (A1) (E) (E)
                 (E) (E) (A1) (A1) (A1) (E) (E) (A2) (E) (E) (A1)
                 (E) (E) (A1) (E) (E) (A1) (A1) (E) (E) (E) (E)
                 (E) (E) (A1) (A1) (E) (E) (A1) (E) (E) (A1) (E)
                 (E) (A1) (E) (E) (A1) (A2) (A1) (E) (E) (A1) (E)
                 (E) (A1) (A2) (E) (E) (E) (E) (A1) (E) (E) (A2)
                 (E) (E) (A1) (E) (E) (E) (E) (E) (E) (A2) (E)
                 (E) (A1) (E) (E) (A1) (E) (E) (A1) (E) (E) (E)
                 (E) (A1) (E) (E) (A1) (E) (E) (A2) (A1) (E) (E)
                 (E) (E) (A1) (A1) (E) (E) (A1) (A2) (E) (E) (A1)
                 (E) (E) (E) (E) (A1) (A1) (E) (E) (E) (E) (A1)
                 (A1) (A1) (A1)
 The electronic state is 1-A1.
 Alpha  occ. eigenvalues --  -11.25549 -11.23705 -11.22144  -1.05385  -0.95352
 Alpha  occ. eigenvalues --   -0.71450  -0.62159  -0.58692  -0.58692  -0.38219
 Alpha  occ. eigenvalues --   -0.38219
 Alpha virt. eigenvalues --    0.14176   0.16489   0.18297   0.18297   0.23469
 Alpha virt. eigenvalues --    0.23469   0.28753   0.36494   0.39025   0.39025
 Alpha virt. eigenvalues --    0.45390   0.47390   0.47390   0.51433   0.59202
 Alpha virt. eigenvalues --    0.59202   0.61919   0.64149   0.64149   0.68379
 Alpha virt. eigenvalues --    0.76166   0.76166   0.81118   0.81118   0.81890
 Alpha virt. eigenvalues --    0.88188   1.01324   1.01944   1.01944   1.05462
 Alpha virt. eigenvalues --    1.09313   1.09313   1.10909   1.20916   1.20916
 Alpha virt. eigenvalues --    1.28061   1.29876   1.29876   1.43520   1.44813
 Alpha virt. eigenvalues --    1.46973   1.46973   1.51262   1.51262   1.61944
 Alpha virt. eigenvalues --    1.61944   1.68841   1.76014   1.82603   1.82603
 Alpha virt. eigenvalues --    2.27420   2.35436   2.35436   2.48661   2.53540
 Alpha virt. eigenvalues --    2.53540   2.68194   2.75330   2.75330   2.81291
 Alpha virt. eigenvalues --    2.81953   2.83861   2.87728   2.87728   2.90058
 Alpha virt. eigenvalues --    3.03115   3.03115   3.06765   3.08156   3.10025
 Alpha virt. eigenvalues --    3.10025   3.15820   3.15820   3.22628   3.25554
 Alpha virt. eigenvalues --    3.25554   3.26046   3.27734   3.27734   3.31816
 Alpha virt. eigenvalues --    3.36891   3.36891   3.41885   3.41885   3.49646
 Alpha virt. eigenvalues --    3.49646   3.60432   3.64524   3.64524   3.67951
 Alpha virt. eigenvalues --    3.72724   3.72724   3.83451   3.89506   3.89506
 Alpha virt. eigenvalues --    3.92324   4.07756   4.07756   4.14637   4.14637
 Alpha virt. eigenvalues --    4.21296   4.26094   4.26094   4.26491   4.33962
 Alpha virt. eigenvalues --    4.33962   4.37241   4.52549   4.55871   4.55871
 Alpha virt. eigenvalues --    4.67179   4.67179   4.73321   4.88603   5.07889
 Alpha virt. eigenvalues --    5.07889   5.31069   5.36052   5.43001   5.43001
 Alpha virt. eigenvalues --    5.54132   5.56215   5.56215   5.62549   5.62549
 Alpha virt. eigenvalues --    5.96442   6.14333   6.16364   6.16364   6.28579
 Alpha virt. eigenvalues --    6.28579   6.53122   8.44979  14.10515  17.22653
          Condensed to atoms (all electrons):
 Mulliken charges:
               1
     1  C   -0.197695
     2  C   -0.067448
     3  C   -0.269958
     4  H    0.193320
     5  H    0.113927
     6  H    0.113927
     7  H    0.113927
 Sum of Mulliken charges =  -0.00000
 Mulliken charges with hydrogens summed into heavy atoms:
               1
     1  C   -0.004375
     2  C   -0.067448
     3  C    0.071823
 Electronic spatial extent (au):  <R**2>=            180.3735
 Charge=             -0.0000 electrons
 Dipole moment (field-independent basis, Debye):
    X=             -0.0000    Y=             -0.0000    Z=             -0.7595  Tot=              0.7595
 Unable to Open any file for archive entry.
 1\1\GINC-NODE07\SP\RCCSD(T)-FC\CC-pVTZ\C3H4\XUHJ\20-Dec-2023\0\\#T CCS
 D(T)/cc-pVTZ symm=veryloose geom=allcheck\\C#CC\\0,1\C,0,0.,0.,1.42873
 8\C,0,0.,0.,0.217763\C,0,0.,0.,-1.24255\H,0,0.,0.,2.503019\H,0,0.,1.03
 0518,-1.642242\H,0,-0.892455,-0.515259,-1.642242\H,0,0.892455,-0.51525
 9,-1.642242\\Version=ES64L-G16RevC.01\State=1-A1\HF=-115.9062389\MP2=-
 116.3894144\MP3=-116.4078098\MP4D=-116.420191\MP4DQ=-116.4066583\MP4SD
 Q=-116.4114859\CCSD=-116.4110103\CCSD(T)=-116.4349646\RMSD=9.971e-09\P
 G=C03V [C3(C1C1C1H1),3SGV(H1)]\\@
 The archive entry for this job was punched.


 THERE ARE PEOPLE SO ADDICTED TO EXAGERATING THEY
 CAN'T TELL THE TRUTH WITHOUT LYING. -- FORTUNE COOKIE
 Job cpu time:       0 days  0 hours  4 minutes 28.0 seconds.
 Elapsed time:       0 days  0 hours  0 minutes 17.2 seconds.
 File lengths (MBytes):  RWF=    575 Int=      0 D2E=      0 Chk=      3 Scr=      2
 Normal termination of Gaussian 16 at Wed Dec 20 04:44:30 2023.
