 Entering Gaussian System, Link 0=g16
 Initial command:
 /opt/g16/l1.exe "/tmp/Gau-2275838.inp" -scrdir="/tmp/"
 Entering Link 1 = /opt/g16/l1.exe PID=   2275842.
  
 Copyright (c) 1988-2019, Gaussian, Inc.  All Rights Reserved.
  
 This is part of the Gaussian(R) 16 program.  It is based on
 the Gaussian(R) 09 system (copyright 2009, Gaussian, Inc.),
 the Gaussian(R) 03 system (copyright 2003, Gaussian, Inc.),
 the Gaussian(R) 98 system (copyright 1998, Gaussian, Inc.),
 the Gaussian(R) 94 system (copyright 1995, Gaussian, Inc.),
 the Gaussian 92(TM) system (copyright 1992, Gaussian, Inc.),
 the Gaussian 90(TM) system (copyright 1990, Gaussian, Inc.),
 the Gaussian 88(TM) system (copyright 1988, Gaussian, Inc.),
 the Gaussian 86(TM) system (copyright 1986, Carnegie Mellon
 University), and the Gaussian 82(TM) system (copyright 1983,
 Carnegie Mellon University). Gaussian is a federally registered
 trademark of Gaussian, Inc.
  
 This software contains proprietary and confidential information,
 including trade secrets, belonging to Gaussian, Inc.
  
 This software is provided under written license and may be
 used, copied, transmitted, or stored only in accord with that
 written license.
  
 The following legend is applicable only to US Government
 contracts under FAR:
  
                    RESTRICTED RIGHTS LEGEND
  
 Use, reproduction and disclosure by the US Government is
 subject to restrictions as set forth in subparagraphs (a)
 and (c) of the Commercial Computer Software - Restricted
 Rights clause in FAR 52.227-19.
  
 Gaussian, Inc.
 340 Quinnipiac St., Bldg. 40, Wallingford CT 06492
  
  
 ---------------------------------------------------------------
 Warning -- This program may not be used in any manner that
 competes with the business of Gaussian, Inc. or will provide
 assistance to any competitor of Gaussian, Inc.  The licensee
 of this program is prohibited from giving any competitor of
 Gaussian, Inc. access to this program.  By using this program,
 the user acknowledges that Gaussian, Inc. is engaged in the
 business of creating and licensing software in the field of
 computational chemistry and represents and warrants to the
 licensee that it is not a competitor of Gaussian, Inc. and that
 it will not use this program in any manner prohibited above.
 ---------------------------------------------------------------
  

 Cite this work as:
 Gaussian 16, Revision C.01,
 M. J. Frisch, G. W. Trucks, H. B. Schlegel, G. E. Scuseria, 
 M. A. Robb, J. R. Cheeseman, G. Scalmani, V. Barone, 
 G. A. Petersson, H. Nakatsuji, X. Li, M. Caricato, A. V. Marenich, 
 J. Bloino, B. G. Janesko, R. Gomperts, B. Mennucci, H. P. Hratchian, 
 J. V. Ortiz, A. F. Izmaylov, J. L. Sonnenberg, D. Williams-Young, 
 F. Ding, F. Lipparini, F. Egidi, J. Goings, B. Peng, A. Petrone, 
 T. Henderson, D. Ranasinghe, V. G. Zakrzewski, J. Gao, N. Rega, 
 G. Zheng, W. Liang, M. Hada, M. Ehara, K. Toyota, R. Fukuda, 
 J. Hasegawa, M. Ishida, T. Nakajima, Y. Honda, O. Kitao, H. Nakai, 
 T. Vreven, K. Throssell, J. A. Montgomery, Jr., J. E. Peralta, 
 F. Ogliaro, M. J. Bearpark, J. J. Heyd, E. N. Brothers, K. N. Kudin, 
 V. N. Staroverov, T. A. Keith, R. Kobayashi, J. Normand, 
 K. Raghavachari, A. P. Rendell, J. C. Burant, S. S. Iyengar, 
 J. Tomasi, M. Cossi, J. M. Millam, M. Klene, C. Adamo, R. Cammi, 
 J. W. Ochterski, R. L. Martin, K. Morokuma, O. Farkas, 
 J. B. Foresman, and D. J. Fox, Gaussian, Inc., Wallingford CT, 2019.
 
 ******************************************
 Gaussian 16:  ES64L-G16RevC.01  3-Jul-2019
                 9-Oct-2024 
 ******************************************
 %nprocshared=8
 Will use up to    8 processors via shared memory.
 %mem=104000MB
 %chk=NIHNNTQXNPWCJQ-UHFFFAOYSA-N.chk
 ---------------------------------
 #T CCSD(T)/cc-pVDZ symm=veryloose
 ---------------------------------
 ----------------------
 c1ccc2c(c1)Cc1ccccc1-2
 ----------------------
 Symbolic Z-matrix:
 Charge =  0 Multiplicity = 1
 C                     0.       -3.46543   0.11445 
 C                     0.       -3.01902  -1.21423 
 C                     0.       -1.65104  -1.50624 
 C                     0.       -0.73473  -0.45019 
 C                     0.       -1.18511   0.88924 
 C                     0.       -2.54779   1.1743 
 C                     0.        0.        1.83317 
 C                     0.        1.18511   0.88924 
 C                     0.        2.54779   1.1743 
 C                     0.        3.46543   0.11445 
 C                     0.        3.01902  -1.21423 
 C                     0.        1.65104  -1.50624 
 C                     0.        0.73473  -0.45019 
 H                     0.       -4.53891   0.32606 
 H                     0.       -3.74786  -2.03041 
 H                     0.       -1.30675  -2.54466 
 H                     0.       -2.90207   2.21002 
 H                     0.88632   0.        2.49546 
 H                    -0.88632   0.        2.49546 
 H                     0.        2.90207   2.21002 
 H                     0.        4.53891   0.32606 
 H                     0.        3.74786  -2.03041 
 H                     0.        1.30675  -2.54466 
 
                    Distance matrix (angstroms):
                    1          2          3          4          5
     1  C    0.000000
     2  C    1.401669   0.000000
     3  C    2.432823   1.398794   0.000000
     4  C    2.788469   2.408681   1.398165   0.000000
     5  C    2.408350   2.790666   2.440373   1.413130   0.000000
     6  C    1.401902   2.434564   2.826552   2.434369   1.392172
     7  C    3.868227   4.289653   3.725264   2.398662   1.515086
     8  C    4.714637   4.700989   3.712424   2.340910   2.370220
     9  C    6.105900   6.057588   4.981509   3.662493   3.743765
    10  C    6.930856   6.619173   5.367022   4.237938   4.714637
    11  C    6.619173   6.038038   4.679183   3.830712   4.700989
    12  C    5.367022   4.679183   3.302088   2.609047   3.712424
    13  C    4.237938   3.830712   2.609047   1.469452   2.340910
    14  H    1.094143   2.163925   3.420103   3.882579   3.400761
    15  H    2.163377   1.094240   2.161343   3.402362   3.884851
    16  H    3.425022   2.168389   1.094013   2.171177   3.436059
    17  H    2.169966   3.426241   3.921174   3.431342   2.166195
    18  H    4.296969   4.864343   4.418720   3.162635   2.184028
    19  H    4.296969   4.864343   4.418720   3.162635   2.184028
    20  H    6.703465   6.839940   5.877193   4.505887   4.295288
    21  H    8.007139   7.713290   6.455454   5.330464   5.751663
    22  H    7.525423   6.815925   5.424292   4.752965   5.732240
    23  H    5.463021   4.525743   3.134786   2.924795   4.242768
                    6          7          8          9         10
     6  C    0.000000
     7  C    2.631604   0.000000
     8  C    3.743765   1.515086   0.000000
     9  C    5.095574   2.631604   1.392172   0.000000
    10  C    6.105900   3.868227   2.408350   1.401902   0.000000
    11  C    6.057588   4.289653   2.790666   2.434564   1.401669
    12  C    4.981509   3.725264   2.440373   2.826552   2.432823
    13  C    3.662493   2.398662   1.413130   2.434369   2.788469
    14  H    2.164275   4.782585   5.751663   7.137285   8.007139
    15  H    3.422032   5.382724   5.732240   7.064370   7.525423
    16  H    3.920561   4.568700   4.242768   5.356128   5.463021
    17  H    1.094641   2.926437   4.295288   5.547403   6.703465
    18  H    3.003707   1.106429   2.184028   3.003707   4.296969
    19  H    3.003707   1.106429   2.184028   3.003707   4.296969
    20  H    5.547403   2.926437   2.166195   1.094641   2.169966
    21  H    7.137285   4.782585   3.400761   2.164275   1.094143
    22  H    7.064370   5.382724   3.884851   3.422032   2.163377
    23  H    5.356128   4.568700   3.436059   3.920561   3.425022
                   11         12         13         14         15
    11  C    0.000000
    12  C    1.398794   0.000000
    13  C    2.408681   1.398165   0.000000
    14  H    7.713290   6.455454   5.330464   0.000000
    15  H    6.815925   5.424292   4.752965   2.485701   0.000000
    16  H    4.525743   3.134786   2.924795   4.322952   2.494689
    17  H    6.839940   5.877193   4.505887   2.495705   4.323952
    18  H    4.864343   4.418720   3.162635   5.108189   5.942687
    19  H    4.864343   4.418720   3.162635   5.108189   5.942687
    20  H    3.426241   3.921174   3.431342   7.675778   7.886877
    21  H    2.163925   3.420103   3.882579   9.077828   8.615312
    22  H    1.094240   2.161343   3.402362   8.615312   7.495724
    23  H    2.168389   1.094013   2.171177   6.512515   5.080707
                   16         17         18         19         20
    16  H    0.000000
    17  H    5.015178   0.000000
    18  H    5.281666   3.047795   0.000000
    19  H    5.281666   3.047795   1.772632   0.000000
    20  H    6.349895   5.804144   3.047795   3.047795   0.000000
    21  H    6.512515   7.675778   5.108189   5.108189   2.495705
    22  H    5.080707   7.886877   5.942687   5.942687   4.323952
    23  H    2.613504   6.349895   5.281666   5.281666   5.015178
                   21         22         23
    21  H    0.000000
    22  H    2.485701   0.000000
    23  H    4.322952   2.494689   0.000000
 Framework group  C2V[C2(C),SGV(C12H8),SGV'(H2)]
 Deg. of freedom    22
                         Standard orientation:                         
 ---------------------------------------------------------------------
 Center     Atomic      Atomic             Coordinates (Angstroms)
 Number     Number       Type             X           Y           Z
 ---------------------------------------------------------------------
      1          6           0        0.000000    3.465428    0.114454
      2          6           0        0.000000    3.019019   -1.214228
      3          6           0        0.000000    1.651044   -1.506236
      4          6           0        0.000000    0.734726   -0.450193
      5          6           0        0.000000    1.185110    0.889244
      6          6           0        0.000000    2.547787    1.174295
      7          6           0        0.000000    0.000000    1.833172
      8          6           0       -0.000000   -1.185110    0.889244
      9          6           0       -0.000000   -2.547787    1.174295
     10          6           0       -0.000000   -3.465428    0.114454
     11          6           0       -0.000000   -3.019019   -1.214228
     12          6           0       -0.000000   -1.651044   -1.506236
     13          6           0       -0.000000   -0.734726   -0.450193
     14          1           0        0.000000    4.538914    0.326061
     15          1           0        0.000000    3.747862   -2.030408
     16          1           0        0.000000    1.306752   -2.544661
     17          1           0        0.000000    2.902072    2.210017
     18          1           0       -0.886316    0.000000    2.495462
     19          1           0        0.886316   -0.000000    2.495462
     20          1           0       -0.000000   -2.902072    2.210017
     21          1           0       -0.000000   -4.538914    0.326061
     22          1           0       -0.000000   -3.747862   -2.030408
     23          1           0       -0.000000   -1.306752   -2.544661
 ---------------------------------------------------------------------
 Rotational constants (GHZ):           2.1693464           0.5831185           0.4609103
   232 basis functions,   499 primitive gaussians,   245 cartesian basis functions
    44 alpha electrons       44 beta electrons
       nuclear repulsion energy       693.4264954175 Hartrees.
 NAtoms=   23 NActive=   23 NUniq=   12 SFac= 3.67D+00 NAtFMM=   60 NAOKFM=F Big=F
 ExpMin= 1.22D-01 ExpMax= 6.67D+03 ExpMxC= 2.28D+02 IAcc=3 IRadAn=         5 AccDes= 0.00D+00
 Harris functional with IExCor=  205 and IRadAn=       5 diagonalized for initial guess.
 HarFok:  IExCor=  205 AccDes= 0.00D+00 IRadAn=         5 IDoV= 1 UseB2=F ITyADJ=14
 ICtDFT=  3500011 ScaDFX=  1.000000  1.000000  1.000000  1.000000
 FoFCou: FMM=F IPFlag=           0 FMFlag=      100000 FMFlg1=           0
         NFxFlg=           0 DoJE=T BraDBF=F KetDBF=T FulRan=T
         wScrn=  0.000000 ICntrl=       500 IOpCl=  0 I1Cent=   200000004 NGrid=           0
         NMat0=    1 NMatS0=      1 NMatT0=    0 NMatD0=    1 NMtDS0=    0 NMtDT0=    0
 Petite list used in FoFCou.
 Initial guess orbital symmetries:
       Occupied  (A1) (B2) (A1) (B2) (A1) (B2) (A1) (B2) (A1) (B2)
                 (A1) (A1) (B2) (A1) (B2) (A1) (A1) (B2) (B2) (A1)
                 (A1) (B2) (A1) (B2) (A1) (A1) (B2) (B2) (A1) (B1)
                 (B2) (A1) (B2) (A1) (B2) (A1) (B1) (A2) (B2) (A1)
                 (B1) (A2) (B1) (A2)
       Virtual   (B1) (B1) (A2) (A2) (B1) (B2) (A1) (A1) (A1) (A2)
                 (B2) (A1) (B2) (A1) (B1) (A1) (B2) (B2) (B2) (A1)
                 (A1) (A1) (B2) (B2) (A1) (B2) (B2) (A1) (A1) (B2)
                 (B1) (A1) (B2) (A1) (A2) (B2) (B2) (B1) (A1) (A1)
                 (B2) (A1) (B1) (B2) (A1) (A2) (A1) (A2) (B2) (B1)
                 (B1) (A1) (A1) (B1) (A2) (B2) (A1) (A2) (B2) (A1)
                 (B1) (B2) (A1) (A2) (B2) (B1) (A1) (B2) (B2) (B1)
                 (B2) (A1) (A2) (B2) (A1) (B1) (A1) (A2) (A2) (B2)
                 (B1) (B2) (A1) (A1) (A2) (B1) (B2) (B1) (A1) (A2)
                 (B2) (A1) (B2) (A1) (A1) (B2) (A1) (B1) (B2) (A2)
                 (A1) (A2) (A1) (B2) (B1) (B2) (A1) (B1) (B2) (A1)
                 (A2) (B2) (A2) (B1) (A1) (B2) (A1) (B1) (B2) (A1)
                 (A1) (B2) (A2) (B1) (A1) (A2) (B2) (B1) (B1) (A1)
                 (B2) (A1) (A2) (B2) (B2) (A1) (A2) (B2) (B1) (A1)
                 (A1) (A2) (B2) (A1) (B1) (B2) (B2) (A1) (A1) (B1)
                 (B2) (B2) (A2) (A1) (B2) (A1) (A2) (B2) (B1) (B2)
                 (A1) (B1) (A2) (A1) (A1) (B2) (A2) (B2) (A1) (A1)
                 (B2) (A1) (B2) (A1) (B1) (B2) (A1) (A1) (B2) (A1)
                 (B2) (A1) (B2) (A1) (B2) (B2) (A1) (B2)
 The electronic state of the initial guess is 1-A1.
 SCF Done:  E(RHF) =  -498.168116139     A.U. after   13 cycles
            NFock= 13  Conv=0.51D-08     -V/T= 2.0014
 ExpMin= 1.22D-01 ExpMax= 6.67D+03 ExpMxC= 2.28D+02 IAcc=3 IRadAn=         5 AccDes= 0.00D+00
 HarFok:  IExCor=  205 AccDes= 0.00D+00 IRadAn=         5 IDoV=-2 UseB2=F ITyADJ=14
 ICtDFT= 12500011 ScaDFX=  1.000000  1.000000  1.000000  1.000000
 NROrb=    219 NOA=    31 NOB=    31 NVA=   188 NVB=   188

 **** Warning!!: The largest alpha MO coefficient is  0.13944955D+02

 Semi-Direct transformation.
 ModeAB=           4 MOrb=            31 LenV=   13629997306
 LASXX=     38112069 LTotXX=    38112069 LenRXX=    76837137
 LTotAB=    38725068 MaxLAS=    90436269 LenRXY=           0
 NonZer=   114949206 LenScr=   173178880 LnRSAI=    90436269
 LnScr1=   136429568 LExtra=           0 Total=    476881854
 MaxDsk=          -1 SrtSym=           T ITran=            4
 JobTyp=0 Pass  1:  I=   1 to  31.
 (rs|ai) integrals will be sorted in core.
 ANorm=    0.1284344692D+01
 E2 =    -0.1690487786D+01 EUMP2 =    -0.49985860392533D+03
 CIDS: In Core Option IDoMem=           1.
 Produce multiple copies of IABC intergrals
 MP4(R+Q)=  0.50593824D-01
 E3=       -0.49719033D-01        EUMP3=      -0.49990832296D+03
 E4(DQ)=    0.40451698D-02        UMP4(DQ)=   -0.49990427779D+03
 E4(SDQ)=  -0.90295205D-02        UMP4(SDQ)=  -0.49991735248D+03
 DE(Corr)=  -1.6894958     E(Corr)=     -499.85761196    
 NORM(A)=   0.12813226D+01
 DE(Corr)=  -1.7431110     E(CORR)=     -499.91122714     Delta=-5.36D-02
 NORM(A)=   0.13056748D+01
 DE(Corr)=  -1.7456782     E(CORR)=     -499.91379438     Delta=-2.57D-03
 NORM(A)=   0.13095806D+01
 DE(Corr)=  -1.7502226     E(CORR)=     -499.91833877     Delta=-4.54D-03
 NORM(A)=   0.13112349D+01
 DE(Corr)=  -1.7507464     E(CORR)=     -499.91886256     Delta=-5.24D-04
 NORM(A)=   0.13116940D+01
 DE(Corr)=  -1.7508160     E(CORR)=     -499.91893218     Delta=-6.96D-05
 NORM(A)=   0.13117504D+01
 DE(Corr)=  -1.7508263     E(CORR)=     -499.91894244     Delta=-1.03D-05
 NORM(A)=   0.13117490D+01
 DE(Corr)=  -1.7508252     E(CORR)=     -499.91894132     Delta= 1.12D-06
 NORM(A)=   0.13117593D+01
 DE(Corr)=  -1.7508233     E(CORR)=     -499.91893944     Delta= 1.88D-06
 NORM(A)=   0.13117583D+01
 DE(Corr)=  -1.7508250     E(CORR)=     -499.91894116     Delta=-1.72D-06
 NORM(A)=   0.13117598D+01
 DE(Corr)=  -1.7508251     E(CORR)=     -499.91894120     Delta=-3.84D-08
 NORM(A)=   0.13117603D+01
 Wavefunction amplitudes converged. E(Corr)=     -499.91894120    
 Largest amplitude= 5.50D-02
 Time for triples=     4358.02 seconds.
 T4(CCSD)= -0.84459400D-01
 T5(CCSD)=  0.16273347D-02
 CCSD(T)= -0.50000177326D+03
 Discarding MO integrals.

 **********************************************************************

            Population analysis using the SCF Density.

 **********************************************************************

 Orbital symmetries:
       Occupied  (A1) (A1) (B2) (A1) (B2) (A1) (B2) (A1) (B2) (A1)
                 (B2) (A1) (B2) (A1) (B2) (A1) (A1) (B2) (B2) (A1)
                 (A1) (B2) (A1) (B2) (A1) (B2) (A1) (A1) (B2) (B1)
                 (B2) (A1) (B2) (A1) (B2) (B1) (A1) (A2) (A1) (B2)
                 (B1) (A2) (B1) (A2)
       Virtual   (B1) (B1) (A2) (A1) (A2) (B2) (A1) (A1) (B2) (A1)
                 (B2) (B1) (A1) (B2) (B1) (B2) (A1) (A2) (A1) (B2)
                 (A1) (A1) (B2) (A1) (B2) (B2) (A1) (B2) (A1) (A1)
                 (B1) (B2) (A2) (A1) (B1) (B2) (A1) (B2) (B1) (B2)
                 (A1) (B2) (A2) (A1) (A1) (B2) (A2) (A1) (B1) (B2)
                 (B1) (A1) (B1) (A1) (A2) (A2) (B2) (B2) (A1) (B1)
                 (B2) (A1) (A2) (B1) (A1) (B2) (A1) (B2) (B2) (A1)
                 (B1) (A1) (B2) (A2) (B2) (B1) (A1) (A2) (B2) (A2)
                 (B2) (A1) (B1) (A1) (B2) (A2) (B1) (A1) (B1) (B2)
                 (A1) (B2) (A2) (A1) (A1) (B2) (B2) (A1) (B1) (A1)
                 (A2) (A2) (A1) (B2) (B1) (B2) (B1) (A2) (A1) (B2)
                 (A1) (A2) (B2) (B1) (A1) (B2) (A1) (B1) (A2) (B2)
                 (A1) (B1) (A1) (A2) (B2) (B1) (B2) (A1) (B2) (A1)
                 (B1) (A1) (B2) (A2) (B2) (B1) (A2) (A1) (B2) (A1)
                 (A2) (A1) (B2) (B1) (A1) (B2) (A1) (B2) (A1) (B1)
                 (B2) (A2) (A1) (B2) (B2) (A1) (A2) (B2) (B1) (A1)
                 (B2) (B1) (A2) (A1) (A1) (B2) (A2) (B2) (A1) (A1)
                 (B2) (A1) (B2) (A1) (B1) (B2) (A1) (A1) (B2) (B2)
                 (A1) (A1) (B2) (B2) (A1) (B2) (A1) (B2)
 The electronic state is 1-A1.
 Alpha  occ. eigenvalues --  -11.24696 -11.24351 -11.24343 -11.24262 -11.24240
 Alpha  occ. eigenvalues --  -11.24197 -11.24189 -11.24148 -11.24118 -11.24086
 Alpha  occ. eigenvalues --  -11.24085 -11.24004 -11.24003  -1.18919  -1.13598
 Alpha  occ. eigenvalues --   -1.07684  -1.03777  -1.00926  -0.97300  -0.93625
 Alpha  occ. eigenvalues --   -0.85940  -0.79776  -0.79533  -0.78391  -0.69813
 Alpha  occ. eigenvalues --   -0.66697  -0.65564  -0.62551  -0.60911  -0.60211
 Alpha  occ. eigenvalues --   -0.59226  -0.58256  -0.56641  -0.55538  -0.50268
 Alpha  occ. eigenvalues --   -0.50072  -0.49956  -0.48546  -0.47381  -0.47340
 Alpha  occ. eigenvalues --   -0.37603  -0.33554  -0.32517  -0.28392
 Alpha virt. eigenvalues --    0.09487   0.11930   0.15022   0.18709   0.18860
 Alpha virt. eigenvalues --    0.19098   0.19598   0.21843   0.22811   0.24368
 Alpha virt. eigenvalues --    0.25015   0.25686   0.26508   0.30296   0.34915
 Alpha virt. eigenvalues --    0.36791   0.37703   0.39592   0.40480   0.42007
 Alpha virt. eigenvalues --    0.44525   0.45203   0.46351   0.50392   0.51130
 Alpha virt. eigenvalues --    0.52652   0.58057   0.58618   0.62161   0.66685
 Alpha virt. eigenvalues --    0.66711   0.66900   0.68958   0.69476   0.69666
 Alpha virt. eigenvalues --    0.69906   0.71395   0.71870   0.72185   0.73057
 Alpha virt. eigenvalues --    0.73232   0.73933   0.74011   0.74638   0.75098
 Alpha virt. eigenvalues --    0.75659   0.78441   0.79359   0.79897   0.81898
 Alpha virt. eigenvalues --    0.82010   0.84729   0.85644   0.85810   0.86714
 Alpha virt. eigenvalues --    0.87752   0.88757   0.89029   0.89153   0.90662
 Alpha virt. eigenvalues --    0.91046   0.91569   0.94451   0.95054   0.95313
 Alpha virt. eigenvalues --    0.98691   0.99891   1.01812   1.07467   1.09902
 Alpha virt. eigenvalues --    1.11014   1.13512   1.14094   1.14754   1.15445
 Alpha virt. eigenvalues --    1.15985   1.16336   1.18410   1.18672   1.19237
 Alpha virt. eigenvalues --    1.19480   1.20416   1.22788   1.23733   1.26616
 Alpha virt. eigenvalues --    1.27336   1.27718   1.29398   1.29787   1.30655
 Alpha virt. eigenvalues --    1.30730   1.33208   1.34000   1.37851   1.43561
 Alpha virt. eigenvalues --    1.48859   1.53558   1.54282   1.55472   1.56955
 Alpha virt. eigenvalues --    1.57106   1.62407   1.62854   1.63805   1.68990
 Alpha virt. eigenvalues --    1.70678   1.74197   1.74991   1.75124   1.77064
 Alpha virt. eigenvalues --    1.77802   1.77863   1.79362   1.80165   1.85538
 Alpha virt. eigenvalues --    1.87740   1.88002   1.88289   1.90195   1.91219
 Alpha virt. eigenvalues --    1.91476   1.91799   1.92087   1.93843   1.94908
 Alpha virt. eigenvalues --    1.96323   1.97115   1.98392   1.99967   2.00007
 Alpha virt. eigenvalues --    2.02470   2.02634   2.04771   2.07090   2.08199
 Alpha virt. eigenvalues --    2.10021   2.10253   2.10268   2.13664   2.14237
 Alpha virt. eigenvalues --    2.14399   2.14565   2.14949   2.14968   2.16767
 Alpha virt. eigenvalues --    2.18593   2.19861   2.21647   2.26413   2.27117
 Alpha virt. eigenvalues --    2.29255   2.29981   2.31642   2.33073   2.34283
 Alpha virt. eigenvalues --    2.35430   2.38879   2.43664   2.44763   2.45683
 Alpha virt. eigenvalues --    2.46662   2.49786   2.59921   2.60417   2.63731
 Alpha virt. eigenvalues --    2.65053   2.68606   2.71944   2.72303   2.75526
 Alpha virt. eigenvalues --    2.75906   2.77079   2.82860   2.85798   2.90550
 Alpha virt. eigenvalues --    2.93625   2.97335   3.01225   3.01630   3.04265
 Alpha virt. eigenvalues --    3.05295   3.11374   3.15015   3.19625   3.21436
 Alpha virt. eigenvalues --    3.35783   3.80135   3.93550
          Condensed to atoms (all electrons):
 Mulliken charges:
               1
     1  C   -0.015120
     2  C   -0.003800
     3  C   -0.031129
     4  C    0.024885
     5  C   -0.250049
     6  C   -0.007642
     7  C    0.252070
     8  C   -0.250049
     9  C   -0.007642
    10  C   -0.015120
    11  C   -0.003800
    12  C   -0.031129
    13  C    0.024885
    14  H    0.027348
    15  H    0.027585
    16  H    0.017285
    17  H    0.013738
    18  H    0.070864
    19  H    0.070864
    20  H    0.013738
    21  H    0.027348
    22  H    0.027585
    23  H    0.017285
 Sum of Mulliken charges =  -0.00000
 Mulliken charges with hydrogens summed into heavy atoms:
               1
     1  C    0.012228
     2  C    0.023784
     3  C   -0.013844
     4  C    0.024885
     5  C   -0.250049
     6  C    0.006095
     7  C    0.393799
     8  C   -0.250049
     9  C    0.006095
    10  C    0.012228
    11  C    0.023784
    12  C   -0.013844
    13  C    0.024885
 Electronic spatial extent (au):  <R**2>=           2361.3787
 Charge=             -0.0000 electrons
 Dipole moment (field-independent basis, Debye):
    X=             -0.0000    Y=             -0.0000    Z=              0.4695  Tot=              0.4695
 Unable to Open any file for archive entry.
 1\1\GINC-NODE01\SP\RCCSD(T)-FC\CC-pVDZ\C13H10\XUHJ\09-Oct-2024\0\\#T C
 CSD(T)/cc-pVDZ symm=veryloose\\c1ccc2c(c1)Cc1ccccc1-2\\0,1\C,0,0.,-3.4
 65428,0.114454\C,0,0.,-3.019019,-1.214228\C,0,0.,-1.651044,-1.506236\C
 ,0,0.,-0.734726,-0.450193\C,0,0.,-1.18511,0.889244\C,0,0.,-2.547787,1.
 174295\C,0,0.,0.,1.833172\C,0,0.,1.18511,0.889244\C,0,0.,2.547787,1.17
 4295\C,0,0.,3.465428,0.114454\C,0,0.,3.019019,-1.214228\C,0,0.,1.65104
 4,-1.506236\C,0,0.,0.734726,-0.450193\H,0,0.,-4.538914,0.326061\H,0,0.
 ,-3.747862,-2.030408\H,0,0.,-1.306752,-2.544661\H,0,0.,-2.902072,2.210
 017\H,0,0.886316,0.,2.495462\H,0,-0.886316,0.,2.495462\H,0,0.,2.902072
 ,2.210017\H,0,0.,4.538914,0.326061\H,0,0.,3.747862,-2.030408\H,0,0.,1.
 306752,-2.544661\\Version=ES64L-G16RevC.01\State=1-A1\HF=-498.1681161\
 MP2=-499.8586039\MP3=-499.908323\MP4D=-499.9548716\MP4DQ=-499.9042778\
 MP4SDQ=-499.9173525\CCSD=-499.9189412\CCSD(T)=-500.0017733\RMSD=5.123e
 -09\PG=C02V [C2(C1),SGV(C12H8),SGV'(H2)]\\@
 The archive entry for this job was punched.


 IT IS A SIMPLE TASK TO MAKE THINGS COMPLEX,
 BUT A COMPLEX TASK TO MAKE THEM SIMPLE.
 Job cpu time:       0 days  1 hours 28 minutes 49.7 seconds.
 Elapsed time:       0 days  0 hours 11 minutes  6.5 seconds.
 File lengths (MBytes):  RWF=   3978 Int=      0 D2E=      0 Chk=      5 Scr=      1
 Normal termination of Gaussian 16 at Wed Oct  9 10:56:31 2024.
 Initial command:
 /opt/g16/l1.exe "/tmp/Gau-2275838.inp" -scrdir="/tmp/"
 Entering Link 1 = /opt/g16/l1.exe PID=   2291580.
  
 Copyright (c) 1988-2019, Gaussian, Inc.  All Rights Reserved.
  
 This is part of the Gaussian(R) 16 program.  It is based on
 the Gaussian(R) 09 system (copyright 2009, Gaussian, Inc.),
 the Gaussian(R) 03 system (copyright 2003, Gaussian, Inc.),
 the Gaussian(R) 98 system (copyright 1998, Gaussian, Inc.),
 the Gaussian(R) 94 system (copyright 1995, Gaussian, Inc.),
 the Gaussian 92(TM) system (copyright 1992, Gaussian, Inc.),
 the Gaussian 90(TM) system (copyright 1990, Gaussian, Inc.),
 the Gaussian 88(TM) system (copyright 1988, Gaussian, Inc.),
 the Gaussian 86(TM) system (copyright 1986, Carnegie Mellon
 University), and the Gaussian 82(TM) system (copyright 1983,
 Carnegie Mellon University). Gaussian is a federally registered
 trademark of Gaussian, Inc.
  
 This software contains proprietary and confidential information,
 including trade secrets, belonging to Gaussian, Inc.
  
 This software is provided under written license and may be
 used, copied, transmitted, or stored only in accord with that
 written license.
  
 The following legend is applicable only to US Government
 contracts under FAR:
  
                    RESTRICTED RIGHTS LEGEND
  
 Use, reproduction and disclosure by the US Government is
 subject to restrictions as set forth in subparagraphs (a)
 and (c) of the Commercial Computer Software - Restricted
 Rights clause in FAR 52.227-19.
  
 Gaussian, Inc.
 340 Quinnipiac St., Bldg. 40, Wallingford CT 06492
  
  
 ---------------------------------------------------------------
 Warning -- This program may not be used in any manner that
 competes with the business of Gaussian, Inc. or will provide
 assistance to any competitor of Gaussian, Inc.  The licensee
 of this program is prohibited from giving any competitor of
 Gaussian, Inc. access to this program.  By using this program,
 the user acknowledges that Gaussian, Inc. is engaged in the
 business of creating and licensing software in the field of
 computational chemistry and represents and warrants to the
 licensee that it is not a competitor of Gaussian, Inc. and that
 it will not use this program in any manner prohibited above.
 ---------------------------------------------------------------
  

 Cite this work as:
 Gaussian 16, Revision C.01,
 M. J. Frisch, G. W. Trucks, H. B. Schlegel, G. E. Scuseria, 
 M. A. Robb, J. R. Cheeseman, G. Scalmani, V. Barone, 
 G. A. Petersson, H. Nakatsuji, X. Li, M. Caricato, A. V. Marenich, 
 J. Bloino, B. G. Janesko, R. Gomperts, B. Mennucci, H. P. Hratchian, 
 J. V. Ortiz, A. F. Izmaylov, J. L. Sonnenberg, D. Williams-Young, 
 F. Ding, F. Lipparini, F. Egidi, J. Goings, B. Peng, A. Petrone, 
 T. Henderson, D. Ranasinghe, V. G. Zakrzewski, J. Gao, N. Rega, 
 G. Zheng, W. Liang, M. Hada, M. Ehara, K. Toyota, R. Fukuda, 
 J. Hasegawa, M. Ishida, T. Nakajima, Y. Honda, O. Kitao, H. Nakai, 
 T. Vreven, K. Throssell, J. A. Montgomery, Jr., J. E. Peralta, 
 F. Ogliaro, M. J. Bearpark, J. J. Heyd, E. N. Brothers, K. N. Kudin, 
 V. N. Staroverov, T. A. Keith, R. Kobayashi, J. Normand, 
 K. Raghavachari, A. P. Rendell, J. C. Burant, S. S. Iyengar, 
 J. Tomasi, M. Cossi, J. M. Millam, M. Klene, C. Adamo, R. Cammi, 
 J. W. Ochterski, R. L. Martin, K. Morokuma, O. Farkas, 
 J. B. Foresman, and D. J. Fox, Gaussian, Inc., Wallingford CT, 2019.
 
 ******************************************
 Gaussian 16:  ES64L-G16RevC.01  3-Jul-2019
                 9-Oct-2024 
 ******************************************
 %nprocshared=8
 Will use up to    8 processors via shared memory.
 %mem=104000MB
 %chk=NIHNNTQXNPWCJQ-UHFFFAOYSA-N.chk
 -----------------------------------------------
 #T CCSD(T)/cc-pVTZ symm=veryloose geom=allcheck
 -----------------------------------------------
 Structure from the checkpoint file:  "NIHNNTQXNPWCJQ-UHFFFAOYSA-N.chk"
 ----------------------
 c1ccc2c(c1)Cc1ccccc1-2
 ----------------------
 Charge =  0 Multiplicity = 1
 Z-Matrix found in chk file.
 C,0,0.,-3.465428,0.114454
 C,0,0.,-3.019019,-1.214228
 C,0,0.,-1.651044,-1.506236
 C,0,0.,-0.734726,-0.450193
 C,0,0.,-1.18511,0.889244
 C,0,0.,-2.547787,1.174295
 C,0,0.,0.,1.833172
 C,0,0.,1.18511,0.889244
 C,0,0.,2.547787,1.174295
 C,0,0.,3.465428,0.114454
 C,0,0.,3.019019,-1.214228
 C,0,0.,1.651044,-1.506236
 C,0,0.,0.734726,-0.450193
 H,0,0.,-4.538914,0.326061
 H,0,0.,-3.747862,-2.030408
 H,0,0.,-1.306752,-2.544661
 H,0,0.,-2.902072,2.210017
 H,0,0.886316,0.,2.495462
 H,0,-0.886316,0.,2.495462
 H,0,0.,2.902072,2.210017
 H,0,0.,4.538914,0.326061
 H,0,0.,3.747862,-2.030408
 H,0,0.,1.306752,-2.544661
 Recover connectivity data from disk.
                    Distance matrix (angstroms):
                    1          2          3          4          5
     1  C    0.000000
     2  C    1.401669   0.000000
     3  C    2.432823   1.398794   0.000000
     4  C    2.788469   2.408681   1.398165   0.000000
     5  C    2.408350   2.790666   2.440373   1.413130   0.000000
     6  C    1.401902   2.434564   2.826552   2.434369   1.392172
     7  C    3.868227   4.289653   3.725264   2.398662   1.515086
     8  C    4.714637   4.700989   3.712424   2.340910   2.370220
     9  C    6.105900   6.057588   4.981509   3.662493   3.743765
    10  C    6.930856   6.619173   5.367022   4.237938   4.714637
    11  C    6.619173   6.038038   4.679183   3.830712   4.700989
    12  C    5.367022   4.679183   3.302088   2.609047   3.712424
    13  C    4.237938   3.830712   2.609047   1.469452   2.340910
    14  H    1.094143   2.163925   3.420103   3.882579   3.400761
    15  H    2.163377   1.094240   2.161343   3.402362   3.884851
    16  H    3.425022   2.168389   1.094013   2.171177   3.436059
    17  H    2.169966   3.426241   3.921174   3.431342   2.166195
    18  H    4.296969   4.864343   4.418720   3.162635   2.184028
    19  H    4.296969   4.864343   4.418720   3.162635   2.184028
    20  H    6.703465   6.839940   5.877193   4.505887   4.295288
    21  H    8.007139   7.713290   6.455454   5.330464   5.751663
    22  H    7.525423   6.815925   5.424292   4.752965   5.732240
    23  H    5.463021   4.525743   3.134786   2.924795   4.242768
                    6          7          8          9         10
     6  C    0.000000
     7  C    2.631604   0.000000
     8  C    3.743765   1.515086   0.000000
     9  C    5.095574   2.631604   1.392172   0.000000
    10  C    6.105900   3.868227   2.408350   1.401902   0.000000
    11  C    6.057588   4.289653   2.790666   2.434564   1.401669
    12  C    4.981509   3.725264   2.440373   2.826552   2.432823
    13  C    3.662493   2.398662   1.413130   2.434369   2.788469
    14  H    2.164275   4.782585   5.751663   7.137285   8.007139
    15  H    3.422032   5.382724   5.732240   7.064370   7.525423
    16  H    3.920561   4.568700   4.242768   5.356128   5.463021
    17  H    1.094641   2.926437   4.295288   5.547403   6.703465
    18  H    3.003707   1.106429   2.184028   3.003707   4.296969
    19  H    3.003707   1.106429   2.184028   3.003707   4.296969
    20  H    5.547403   2.926437   2.166195   1.094641   2.169966
    21  H    7.137285   4.782585   3.400761   2.164275   1.094143
    22  H    7.064370   5.382724   3.884851   3.422032   2.163377
    23  H    5.356128   4.568700   3.436059   3.920561   3.425022
                   11         12         13         14         15
    11  C    0.000000
    12  C    1.398794   0.000000
    13  C    2.408681   1.398165   0.000000
    14  H    7.713290   6.455454   5.330464   0.000000
    15  H    6.815925   5.424292   4.752965   2.485701   0.000000
    16  H    4.525743   3.134786   2.924795   4.322952   2.494689
    17  H    6.839940   5.877193   4.505887   2.495705   4.323952
    18  H    4.864343   4.418720   3.162635   5.108189   5.942687
    19  H    4.864343   4.418720   3.162635   5.108189   5.942687
    20  H    3.426241   3.921174   3.431342   7.675778   7.886877
    21  H    2.163925   3.420103   3.882579   9.077828   8.615312
    22  H    1.094240   2.161343   3.402362   8.615312   7.495724
    23  H    2.168389   1.094013   2.171177   6.512515   5.080707
                   16         17         18         19         20
    16  H    0.000000
    17  H    5.015178   0.000000
    18  H    5.281666   3.047795   0.000000
    19  H    5.281666   3.047795   1.772632   0.000000
    20  H    6.349895   5.804144   3.047795   3.047795   0.000000
    21  H    6.512515   7.675778   5.108189   5.108189   2.495705
    22  H    5.080707   7.886877   5.942687   5.942687   4.323952
    23  H    2.613504   6.349895   5.281666   5.281666   5.015178
                   21         22         23
    21  H    0.000000
    22  H    2.485701   0.000000
    23  H    4.322952   2.494689   0.000000
 Framework group  C2V[C2(C),SGV(C12H8),SGV'(H2)]
 Deg. of freedom    22
                         Standard orientation:                         
 ---------------------------------------------------------------------
 Center     Atomic      Atomic             Coordinates (Angstroms)
 Number     Number       Type             X           Y           Z
 ---------------------------------------------------------------------
      1          6           0        0.000000    3.465428    0.114454
      2          6           0       -0.000000    3.019019   -1.214228
      3          6           0       -0.000000    1.651044   -1.506236
      4          6           0       -0.000000    0.734726   -0.450193
      5          6           0        0.000000    1.185110    0.889244
      6          6           0        0.000000    2.547787    1.174295
      7          6           0        0.000000    0.000000    1.833172
      8          6           0       -0.000000   -1.185110    0.889244
      9          6           0       -0.000000   -2.547787    1.174295
     10          6           0       -0.000000   -3.465428    0.114454
     11          6           0       -0.000000   -3.019019   -1.214228
     12          6           0       -0.000000   -1.651044   -1.506236
     13          6           0       -0.000000   -0.734726   -0.450193
     14          1           0        0.000000    4.538914    0.326061
     15          1           0       -0.000000    3.747862   -2.030408
     16          1           0       -0.000000    1.306752   -2.544661
     17          1           0        0.000000    2.902072    2.210017
     18          1           0       -0.886316    0.000000    2.495462
     19          1           0        0.886316   -0.000000    2.495462
     20          1           0       -0.000000   -2.902072    2.210017
     21          1           0       -0.000000   -4.538914    0.326061
     22          1           0       -0.000000   -3.747862   -2.030408
     23          1           0       -0.000000   -1.306752   -2.544661
 ---------------------------------------------------------------------
 Rotational constants (GHZ):           2.1693464           0.5831185           0.4609103
   530 basis functions,   846 primitive gaussians,   605 cartesian basis functions
    44 alpha electrons       44 beta electrons
       nuclear repulsion energy       693.4264954175 Hartrees.
 NAtoms=   23 NActive=   23 NUniq=   12 SFac= 3.67D+00 NAtFMM=   60 NAOKFM=F Big=F
 ExpMin= 1.03D-01 ExpMax= 8.24D+03 ExpMxC= 2.81D+02 IAcc=3 IRadAn=         5 AccDes= 0.00D+00
 Harris functional with IExCor=  205 and IRadAn=       5 diagonalized for initial guess.
 HarFok:  IExCor=  205 AccDes= 0.00D+00 IRadAn=         5 IDoV= 1 UseB2=F ITyADJ=14
 ICtDFT=  3500011 ScaDFX=  1.000000  1.000000  1.000000  1.000000
 FoFCou: FMM=F IPFlag=           0 FMFlag=      100000 FMFlg1=           0
         NFxFlg=           0 DoJE=T BraDBF=F KetDBF=T FulRan=T
         wScrn=  0.000000 ICntrl=       500 IOpCl=  0 I1Cent=   200000004 NGrid=           0
         NMat0=    1 NMatS0=      1 NMatT0=    0 NMatD0=    1 NMtDS0=    0 NMtDT0=    0
 Petite list used in FoFCou.
 Initial guess orbital symmetries:
       Occupied  (A1) (A1) (B2) (B2) (A1) (B2) (A1) (B2) (A1) (A1)
                 (B2) (B2) (A1) (A1) (B2) (A1) (A1) (B2) (B2) (A1)
                 (A1) (B2) (A1) (B2) (A1) (A1) (B2) (B2) (A1) (B1)
                 (B2) (A1) (B2) (A1) (B2) (A1) (B1) (A2) (B2) (A1)
                 (B1) (A2) (B1) (A2)
       Virtual   (B1) (B1) (A2) (A2) (B1) (B2) (A1) (A1) (A1) (A2)
                 (B2) (A1) (B2) (A1) (B1) (A1) (B2) (B2) (B2) (A1)
                 (A1) (A1) (B2) (A1) (A1) (B2) (B2) (B1) (A1) (B2)
                 (B2) (A2) (B1) (A1) (B1) (A1) (A2) (B2) (B2) (A1)
                 (B2) (A1) (B2) (B1) (A2) (A1) (A2) (B1) (B2) (A1)
                 (A1) (B1) (A1) (A2) (B1) (B2) (A1) (A1) (B2) (A1)
                 (B2) (A2) (A1) (B2) (B1) (B2) (A1) (B2) (B1) (A1)
                 (B2) (A1) (B2) (A2) (A1) (B2) (B1) (A2) (A2) (B2)
                 (B1) (A1) (A1) (B1) (B2) (A1) (A2) (B2) (B2) (B1)
                 (A1) (B2) (A1) (A2) (A1) (B2) (A1) (A2) (A1) (B2)
                 (B1) (B2) (A1) (B1) (A1) (B2) (A1) (B1) (A2) (B2)
                 (A2) (B1) (B2) (A1) (A2) (B2) (A1) (B1) (B2) (A1)
                 (B2) (A2) (B1) (A2) (A1) (B2) (B1) (A1) (A1) (B1)
                 (A1) (A1) (B2) (A2) (B2) (B2) (B2) (B1) (A1) (A1)
                 (B1) (B2) (A2) (A1) (B2) (B1) (A2) (A1) (B2) (A1)
                 (B2) (A1) (A1) (B2) (A2) (B1) (A1) (B2) (A2) (A1)
                 (B2) (B2) (A1) (B1) (B2) (A1) (B2) (A1) (B2) (A1)
                 (B1) (A2) (B2) (A1) (B2) (A2) (A1) (B2) (A1) (B1)
                 (A2) (B2) (A1) (B1) (B2) (A1) (A1) (B2) (B1) (A2)
                 (B2) (A1) (B1) (A2) (B2) (A1) (B1) (A2) (A1) (B2)
                 (B1) (A2) (A1) (B2) (A1) (B2) (A1) (B1) (A1) (B2)
                 (A1) (B2) (A2) (B2) (B1) (A1) (A2) (B1) (A1) (B2)
                 (B2) (A1) (A2) (B1) (B2) (A1) (B2) (B1) (A2) (A1)
                 (B1) (A1) (B2) (B1) (A2) (A1) (B2) (A2) (B1) (A2)
                 (B1) (A1) (A2) (B2) (A1) (B2) (A1) (B1) (B2) (A2)
                 (A1) (B2) (B1) (A1) (B1) (A1) (B1) (A2) (B1) (B2)
                 (A1) (A1) (A2) (B2) (B2) (A1) (A2) (B2) (A2) (B2)
                 (B1) (A1) (B2) (A1) (B2) (A2) (A1) (B1) (A1) (B2)
                 (A1) (B2) (B1) (A2) (B1) (A1) (B1) (A1) (A2) (B1)
                 (A1) (B2) (A2) (B2) (B2) (A1) (A2) (B1) (B2) (B2)
                 (A1) (A2) (B1) (B1) (B2) (A1) (A2) (B1) (A1) (A2)
                 (B2) (B1) (A1) (B2) (A1) (A2) (B1) (B2) (A1) (A2)
                 (A2) (B1) (B2) (A1) (B2) (A1) (A2) (B2) (A1) (A2)
                 (B1) (B2) (A1) (A1) (B1) (B2) (A1) (B2) (A2) (B1)
                 (B2) (A1) (B2) (A2) (B1) (A1) (A2) (A1) (B1) (A1)
                 (B2) (B2) (B1) (A1) (A2) (B1) (A2) (A1) (A2) (B2)
                 (B1) (B2) (A2) (B2) (A1) (A1) (A1) (B2) (A1) (B2)
                 (B1) (B1) (A1) (A2) (B2) (A1) (B2) (A1) (A2) (B2)
                 (A1) (B1) (A1) (B2) (B1) (A2) (B2) (B1) (A2) (A1)
                 (B1) (B2) (B2) (A1) (A2) (A1) (B2) (B1) (A1) (B2)
                 (A2) (A1) (B2) (B1) (A1) (A2) (A1) (B2) (A1) (B2)
                 (B2) (A2) (B1) (A1) (B1) (B2) (A2) (B1) (B2) (A2)
                 (A1) (B2) (A1) (B1) (A2) (B2) (A2) (A1) (B2) (B1)
                 (A1) (B2) (A1) (A1) (B1) (B2) (A2) (A1) (B2) (A1)
                 (B2) (A1) (B2) (A2) (B2) (B1) (B2) (A1) (B1) (A2)
                 (A1) (B2) (A1) (B2) (A1) (B2) (A1) (A1) (B2) (B2)
                 (A1) (A1) (B2) (A1) (B2) (B1) (A1) (B2) (B2) (A1)
                 (B2) (A1) (B2) (A1) (B2) (A1) (A1) (B2) (A1) (B2)
                 (A1) (B2) (B2) (A1) (B2) (A1)
 The electronic state of the initial guess is 1-A1.
 SCF Done:  E(RHF) =  -498.282936297     A.U. after   13 cycles
            NFock= 13  Conv=0.32D-08     -V/T= 2.0021
 ExpMin= 1.03D-01 ExpMax= 8.24D+03 ExpMxC= 2.81D+02 IAcc=3 IRadAn=         5 AccDes= 0.00D+00
 HarFok:  IExCor=  205 AccDes= 0.00D+00 IRadAn=         5 IDoV=-2 UseB2=F ITyADJ=14
 ICtDFT= 12500011 ScaDFX=  1.000000  1.000000  1.000000  1.000000
 NROrb=    517 NOA=    31 NOB=    31 NVA=   486 NVB=   486

 **** Warning!!: The largest alpha MO coefficient is  0.44389798D+02

 Semi-Direct transformation.
 ModeAB=           4 MOrb=            31 LenV=   13625039198
 LASXX=    524874049 LTotXX=   524874049 LenRXX=  1053144173
 LTotAB=   528270124 MaxLAS=  1178978174 LenRXY=           0
 NonZer=  1578018222 LenScr=  2376310784 LnRSAI=  1178978174
 LnScr1=  1775403008 LExtra=           0 Total=   6383836139
 MaxDsk=          -1 SrtSym=           T ITran=            4
 JobTyp=0 Pass  1:  I=   1 to  31.
 (rs|ai) integrals will be sorted in core.
 ANorm=    0.1309843432D+01
 E2 =    -0.2044129881D+01 EUMP2 =    -0.50032706617743D+03
 CIDS: In Core Option IDoMem=           1.
 Produce multiple copies of IABC intergrals
 MP4(R+Q)=  0.71278333D-01
 E3=       -0.30791968D-01        EUMP3=      -0.50035785815D+03
 E4(DQ)=    0.20008105D-01        UMP4(DQ)=   -0.50033785004D+03
 E4(SDQ)=   0.29054188D-02        UMP4(SDQ)=  -0.50035495273D+03
 DE(Corr)=  -2.0031909     E(Corr)=     -500.28612724    
 NORM(A)=   0.12954334D+01
 DE(Corr)=  -2.0679918     E(CORR)=     -500.35092808     Delta=-6.48D-02
 NORM(A)=   0.13196650D+01
 DE(Corr)=  -2.0665488     E(CORR)=     -500.34948513     Delta= 1.44D-03
 NORM(A)=   0.13232476D+01
 DE(Corr)=  -2.0713011     E(CORR)=     -500.35423744     Delta=-4.75D-03
 NORM(A)=   0.13247263D+01
 DE(Corr)=  -2.0718045     E(CORR)=     -500.35474085     Delta=-5.03D-04
 NORM(A)=   0.13251795D+01
 DE(Corr)=  -2.0718644     E(CORR)=     -500.35480066     Delta=-5.98D-05
 NORM(A)=   0.13252490D+01
 DE(Corr)=  -2.0718739     E(CORR)=     -500.35481023     Delta=-9.57D-06
 NORM(A)=   0.13252351D+01
 DE(Corr)=  -2.0718796     E(CORR)=     -500.35481591     Delta=-5.68D-06
 NORM(A)=   0.13252478D+01
 DE(Corr)=  -2.0718733     E(CORR)=     -500.35480958     Delta= 6.33D-06
 NORM(A)=   0.13252454D+01
 DE(Corr)=  -2.0718760     E(CORR)=     -500.35481233     Delta=-2.75D-06
 NORM(A)=   0.13252467D+01
 DE(Corr)=  -2.0718752     E(CORR)=     -500.35481154     Delta= 7.90D-07
 NORM(A)=   0.13252469D+01
 DE(Corr)=  -2.0718759     E(CORR)=     -500.35481217     Delta=-6.23D-07
 NORM(A)=   0.13252472D+01
 DE(Corr)=  -2.0718759     E(CORR)=     -500.35481222     Delta=-5.62D-08
 NORM(A)=   0.13252474D+01
 Wavefunction amplitudes converged. E(Corr)=     -500.35481222    
 Largest amplitude= 4.91D-02
 Time for triples=   161740.45 seconds.
 T4(CCSD)= -0.12004817D+00
 T5(CCSD)=  0.21323159D-02
 CCSD(T)= -0.50047272808D+03
 Discarding MO integrals.

 **********************************************************************

            Population analysis using the SCF Density.

 **********************************************************************

 Orbital symmetries:
       Occupied  (A1) (A1) (B2) (A1) (B2) (A1) (B2) (A1) (B2) (A1)
                 (B2) (A1) (B2) (A1) (B2) (A1) (A1) (B2) (B2) (A1)
                 (A1) (B2) (A1) (B2) (A1) (B2) (A1) (A1) (B2) (B1)
                 (B2) (A1) (B2) (A1) (B2) (B1) (A1) (A2) (A1) (B2)
                 (B1) (A2) (B1) (A2)
       Virtual   (B1) (B1) (A2) (A1) (B2) (A1) (A1) (B2) (A2) (A1)
                 (B2) (B1) (A1) (B2) (B2) (A1) (B1) (A1) (A1) (A2)
                 (B2) (A1) (B2) (A1) (A1) (B2) (B1) (A2) (B2) (B1)
                 (B2) (B1) (A2) (A1) (B2) (A1) (A1) (A1) (B1) (A2)
                 (B2) (A1) (B2) (B2) (B1) (A1) (A1) (A2) (B2) (A1)
                 (B1) (B2) (B1) (A1) (B2) (A2) (A1) (A1) (B2) (B2)
                 (A1) (B2) (B1) (A2) (A1) (B2) (A1) (A1) (B2) (B2)
                 (B2) (B1) (A1) (A2) (B1) (A2) (B2) (B1) (A1) (B2)
                 (A1) (A2) (A1) (B1) (A2) (A1) (B2) (B1) (A1) (B2)
                 (A2) (A1) (B2) (B2) (A1) (A1) (B2) (B2) (A1) (A2)
                 (A1) (B1) (B2) (B2) (A1) (B2) (B1) (A1) (A2) (B1)
                 (B2) (B1) (B2) (A2) (A2) (B1) (A1) (A1) (B2) (A1)
                 (B2) (B1) (A2) (A1) (B2) (A2) (A1) (B1) (A1) (A1)
                 (B2) (B1) (B2) (A2) (B2) (A1) (A1) (B1) (B2) (A1)
                 (B2) (B1) (B2) (B1) (A1) (A1) (A2) (B2) (A1) (B2)
                 (A2) (A1) (A1) (B2) (A2) (A1) (B1) (B2) (A1) (A2)
                 (B2) (A1) (B2) (A1) (B1) (B2) (B2) (A1) (A1) (B2)
                 (B1) (A2) (B2) (A1) (B2) (A2) (A1) (B2) (A1) (B2)
                 (B2) (A1) (A1) (A1) (B2) (B1) (A2) (B1) (B2) (A1)
                 (B1) (B2) (A2) (B1) (A2) (A1) (B1) (A1) (A2) (B2)
                 (B1) (A1) (B2) (A2) (A1) (B2) (A1) (B1) (B2) (A1)
                 (B2) (A1) (A2) (B1) (A1) (B2) (B2) (B1) (A1) (A2)
                 (B2) (A1) (A2) (B1) (B2) (A1) (B1) (B2) (A2) (A1)
                 (B1) (A1) (B1) (B2) (A2) (A2) (B1) (B1) (A1) (A2)
                 (B2) (A2) (A1) (B2) (A1) (A1) (B1) (B2) (B2) (A2)
                 (B1) (A1) (B2) (B1) (A1) (B1) (A2) (B1) (A1) (B2)
                 (A2) (A1) (A1) (B2) (A2) (B2) (A2) (B1) (A1) (B2)
                 (A1) (B2) (A2) (B2) (B1) (A1) (A1) (B2) (A2) (B1)
                 (B2) (A1) (A1) (B2) (B1) (B1) (A2) (A1) (A1) (B1)
                 (A2) (A1) (B2) (B2) (B2) (A2) (A1) (B1) (B2) (A2)
                 (B1) (B2) (A1) (B1) (A1) (A2) (B1) (B2) (A2) (A1)
                 (B2) (B1) (A1) (B2) (A2) (A1) (B1) (B2) (A2) (A1)
                 (B1) (A2) (A1) (A2) (B2) (B2) (A1) (B2) (B1) (A1)
                 (A2) (B1) (B2) (A1) (B2) (A1) (B1) (A2) (B2) (B1)
                 (A2) (A1) (A1) (B2) (A1) (A2) (B1) (B2) (B1) (A2)
                 (B1) (A1) (B2) (A1) (A2) (A1) (B2) (A2) (B1) (A2)
                 (B2) (A1) (B2) (B2) (A1) (A1) (B1) (B2) (A1) (B1)
                 (A2) (B2) (A1) (A1) (A2) (B2) (A1) (B1) (B2) (A1)
                 (A1) (A2) (B2) (A1) (B2) (B1) (B1) (B2) (B2) (A1)
                 (A2) (A1) (B1) (A1) (B2) (A2) (B2) (B1) (B2) (B1)
                 (B2) (A2) (A1) (A1) (A1) (A2) (A1) (B2) (B2) (B2)
                 (A2) (A1) (B1) (A1) (B1) (A2) (B2) (A2) (B1) (B2)
                 (A1) (B1) (A1) (B2) (A2) (B2) (A2) (B2) (A1) (B1)
                 (A1) (A1) (B2) (B1) (A1) (A2) (B2) (B2) (A1) (A1)
                 (A1) (B2) (A2) (B2) (B2) (B1) (B1) (A1) (B2) (A2)
                 (A1) (A1) (B2) (B2) (A1) (B2) (A1) (A1) (B2) (B2)
                 (A1) (A1) (B2) (B1) (A1) (B2) (A1) (B2) (B2) (A1)
                 (B2) (A1) (B2) (A1) (B2) (A1) (A1) (B2) (A1) (B2)
                 (A1) (B2) (B2) (A1) (B2) (A1)
 The electronic state is 1-A1.
 Alpha  occ. eigenvalues --  -11.24243 -11.24064 -11.24061 -11.23952 -11.23894
 Alpha  occ. eigenvalues --  -11.23727 -11.23724 -11.23693 -11.23691 -11.23604
 Alpha  occ. eigenvalues --  -11.23604 -11.23514 -11.23514  -1.18768  -1.13471
 Alpha  occ. eigenvalues --   -1.07554  -1.03650  -1.00800  -0.97171  -0.93522
 Alpha  occ. eigenvalues --   -0.85869  -0.79731  -0.79502  -0.78359  -0.69859
 Alpha  occ. eigenvalues --   -0.66740  -0.65600  -0.62598  -0.60961  -0.60323
 Alpha  occ. eigenvalues --   -0.59294  -0.58301  -0.56689  -0.55601  -0.50351
 Alpha  occ. eigenvalues --   -0.50197  -0.50037  -0.48654  -0.47492  -0.47452
 Alpha  occ. eigenvalues --   -0.37717  -0.33663  -0.32636  -0.28504
 Alpha virt. eigenvalues --    0.08928   0.11103   0.14404   0.14576   0.15113
 Alpha virt. eigenvalues --    0.15159   0.17237   0.17740   0.17836   0.19599
 Alpha virt. eigenvalues --    0.19778   0.21456   0.21671   0.25174   0.29977
 Alpha virt. eigenvalues --    0.30866   0.32154   0.33836   0.36433   0.37486
 Alpha virt. eigenvalues --    0.37507   0.38663   0.38749   0.40127   0.41519
 Alpha virt. eigenvalues --    0.42512   0.42538   0.44063   0.45115   0.46535
 Alpha virt. eigenvalues --    0.46727   0.48229   0.48276   0.48678   0.49436
 Alpha virt. eigenvalues --    0.49920   0.52100   0.53578   0.53618   0.53625
 Alpha virt. eigenvalues --    0.54460   0.54880   0.54889   0.56624   0.57210
 Alpha virt. eigenvalues --    0.58106   0.58724   0.59096   0.59885   0.60137
 Alpha virt. eigenvalues --    0.60710   0.60868   0.62183   0.62321   0.62327
 Alpha virt. eigenvalues --    0.62434   0.62987   0.64502   0.64729   0.65590
 Alpha virt. eigenvalues --    0.67003   0.68730   0.69138   0.69260   0.69658
 Alpha virt. eigenvalues --    0.70411   0.72568   0.73968   0.75663   0.77213
 Alpha virt. eigenvalues --    0.78019   0.78078   0.79691   0.80100   0.81057
 Alpha virt. eigenvalues --    0.82728   0.82997   0.87437   0.88072   0.88218
 Alpha virt. eigenvalues --    0.88407   0.88700   0.91411   0.92490   0.92922
 Alpha virt. eigenvalues --    0.93293   0.93458   0.97137   0.97253   0.98220
 Alpha virt. eigenvalues --    1.00643   1.01009   1.01652   1.02103   1.03318
 Alpha virt. eigenvalues --    1.03848   1.04589   1.05607   1.08223   1.08683
 Alpha virt. eigenvalues --    1.09923   1.11702   1.12388   1.13518   1.14309
 Alpha virt. eigenvalues --    1.14366   1.15654   1.16346   1.18267   1.18383
 Alpha virt. eigenvalues --    1.18571   1.20090   1.20150   1.21832   1.22601
 Alpha virt. eigenvalues --    1.23779   1.24518   1.26440   1.26654   1.29962
 Alpha virt. eigenvalues --    1.30597   1.31167   1.31244   1.34108   1.34212
 Alpha virt. eigenvalues --    1.35229   1.35386   1.37702   1.41120   1.43096
 Alpha virt. eigenvalues --    1.43872   1.44989   1.45189   1.45488   1.46138
 Alpha virt. eigenvalues --    1.46270   1.48386   1.50329   1.51011   1.51434
 Alpha virt. eigenvalues --    1.52366   1.52710   1.53866   1.54529   1.55833
 Alpha virt. eigenvalues --    1.56283   1.56608   1.56760   1.58337   1.60555
 Alpha virt. eigenvalues --    1.61303   1.61629   1.63880   1.65212   1.67587
 Alpha virt. eigenvalues --    1.67676   1.67887   1.68594   1.69576   1.69817
 Alpha virt. eigenvalues --    1.69955   1.73979   1.74818   1.75495   1.75642
 Alpha virt. eigenvalues --    1.78319   1.80995   1.83250   1.84261   1.85440
 Alpha virt. eigenvalues --    1.87696   1.94580   1.98021   2.00700   2.05445
 Alpha virt. eigenvalues --    2.06716   2.07956   2.11024   2.13724   2.20261
 Alpha virt. eigenvalues --    2.24057   2.24320   2.26882   2.29572   2.30843
 Alpha virt. eigenvalues --    2.33084   2.35725   2.37553   2.41274   2.42568
 Alpha virt. eigenvalues --    2.44987   2.47373   2.47741   2.50699   2.51345
 Alpha virt. eigenvalues --    2.51427   2.55666   2.56661   2.57682   2.58290
 Alpha virt. eigenvalues --    2.59902   2.63255   2.65055   2.65220   2.66599
 Alpha virt. eigenvalues --    2.71631   2.72886   2.74464   2.75096   2.75811
 Alpha virt. eigenvalues --    2.76213   2.77299   2.79020   2.79654   2.79761
 Alpha virt. eigenvalues --    2.80008   2.83322   2.83430   2.83703   2.83982
 Alpha virt. eigenvalues --    2.87959   2.89162   2.89431   2.89882   2.91828
 Alpha virt. eigenvalues --    2.92603   2.93518   2.93659   2.94922   2.96765
 Alpha virt. eigenvalues --    2.98062   2.99776   3.01006   3.01586   3.01901
 Alpha virt. eigenvalues --    3.02440   3.03215   3.04896   3.04906   3.04947
 Alpha virt. eigenvalues --    3.06339   3.07923   3.08716   3.09033   3.11996
 Alpha virt. eigenvalues --    3.13149   3.14923   3.15434   3.17655   3.18047
 Alpha virt. eigenvalues --    3.19316   3.19544   3.20008   3.22179   3.23280
 Alpha virt. eigenvalues --    3.23784   3.24500   3.26173   3.26199   3.27187
 Alpha virt. eigenvalues --    3.28392   3.29336   3.30095   3.31615   3.32897
 Alpha virt. eigenvalues --    3.33192   3.34416   3.34465   3.34808   3.35637
 Alpha virt. eigenvalues --    3.37383   3.37513   3.38911   3.39006   3.39797
 Alpha virt. eigenvalues --    3.40199   3.40771   3.41087   3.42353   3.43556
 Alpha virt. eigenvalues --    3.43890   3.44418   3.45811   3.47077   3.47226
 Alpha virt. eigenvalues --    3.47794   3.49879   3.49968   3.50534   3.52018
 Alpha virt. eigenvalues --    3.52608   3.53045   3.53182   3.57136   3.57697
 Alpha virt. eigenvalues --    3.59259   3.59916   3.60850   3.62137   3.62164
 Alpha virt. eigenvalues --    3.63463   3.63796   3.64690   3.64814   3.66463
 Alpha virt. eigenvalues --    3.67284   3.67858   3.68887   3.71214   3.71513
 Alpha virt. eigenvalues --    3.72089   3.72709   3.72907   3.74060   3.76457
 Alpha virt. eigenvalues --    3.76804   3.79498   3.81311   3.83498   3.84070
 Alpha virt. eigenvalues --    3.87099   3.87150   3.88559   3.89333   3.90957
 Alpha virt. eigenvalues --    3.92225   3.92419   3.93057   3.95421   3.95476
 Alpha virt. eigenvalues --    3.96800   3.97632   3.99036   3.99935   4.02374
 Alpha virt. eigenvalues --    4.02937   4.04837   4.05076   4.06201   4.06736
 Alpha virt. eigenvalues --    4.08331   4.08436   4.09885   4.11873   4.12326
 Alpha virt. eigenvalues --    4.12448   4.12890   4.14388   4.15614   4.16250
 Alpha virt. eigenvalues --    4.16713   4.17254   4.17308   4.17467   4.18486
 Alpha virt. eigenvalues --    4.20341   4.20510   4.23536   4.23919   4.26710
 Alpha virt. eigenvalues --    4.28200   4.29285   4.30727   4.34718   4.34730
 Alpha virt. eigenvalues --    4.35474   4.36942   4.38781   4.39217   4.39272
 Alpha virt. eigenvalues --    4.39728   4.39932   4.43358   4.44228   4.45072
 Alpha virt. eigenvalues --    4.45267   4.46291   4.46458   4.47951   4.48752
 Alpha virt. eigenvalues --    4.51895   4.52814   4.53034   4.55111   4.55162
 Alpha virt. eigenvalues --    4.56243   4.59439   4.60846   4.61976   4.62051
 Alpha virt. eigenvalues --    4.63108   4.63300   4.64097   4.64851   4.65133
 Alpha virt. eigenvalues --    4.68175   4.68499   4.69244   4.72472   4.72819
 Alpha virt. eigenvalues --    4.73708   4.74265   4.74543   4.75869   4.78219
 Alpha virt. eigenvalues --    4.79293   4.83681   4.87223   4.88276   4.91168
 Alpha virt. eigenvalues --    4.92998   4.93098   4.97369   5.00400   5.01702
 Alpha virt. eigenvalues --    5.02433   5.05718   5.06823   5.07016   5.09472
 Alpha virt. eigenvalues --    5.11878   5.13437   5.14199   5.15907   5.18170
 Alpha virt. eigenvalues --    5.18896   5.21774   5.23953   5.24215   5.25512
 Alpha virt. eigenvalues --    5.31383   5.31773   5.32180   5.32756   5.33839
 Alpha virt. eigenvalues --    5.34926   5.36109   5.39021   5.39196   5.44048
 Alpha virt. eigenvalues --    5.48059   5.49050   5.53297   5.53787   5.59250
 Alpha virt. eigenvalues --    5.60410   5.63694   5.67417   5.67720   5.72056
 Alpha virt. eigenvalues --    5.74792   5.78733   5.81121   5.86256   5.87262
 Alpha virt. eigenvalues --    5.95807   5.96905   6.02174   6.06151   6.10541
 Alpha virt. eigenvalues --    6.17727   6.21426   6.26028   6.31724   6.36809
 Alpha virt. eigenvalues --    6.38385   6.41193   6.45023   6.56107   6.69447
 Alpha virt. eigenvalues --    6.80375   7.03953   7.25042   8.71166  10.35621
 Alpha virt. eigenvalues --   12.22886  12.97637  13.14142  13.25845  13.32490
 Alpha virt. eigenvalues --   13.53691  13.57201  14.72964  14.89460  16.17218
 Alpha virt. eigenvalues --   16.24923
          Condensed to atoms (all electrons):
 Mulliken charges:
               1
     1  C   -0.155503
     2  C   -0.169096
     3  C   -0.122651
     4  C   -0.003776
     5  C    0.007830
     6  C   -0.150656
     7  C   -0.192237
     8  C    0.007830
     9  C   -0.150656
    10  C   -0.155503
    11  C   -0.169096
    12  C   -0.122651
    13  C   -0.003776
    14  H    0.148277
    15  H    0.147711
    16  H    0.139975
    17  H    0.141543
    18  H    0.112464
    19  H    0.112464
    20  H    0.141543
    21  H    0.148277
    22  H    0.147711
    23  H    0.139975
 Sum of Mulliken charges =  -0.00000
 Mulliken charges with hydrogens summed into heavy atoms:
               1
     1  C   -0.007226
     2  C   -0.021385
     3  C    0.017323
     4  C   -0.003776
     5  C    0.007830
     6  C   -0.009113
     7  C    0.032691
     8  C    0.007830
     9  C   -0.009113
    10  C   -0.007226
    11  C   -0.021385
    12  C    0.017323
    13  C   -0.003776
 Electronic spatial extent (au):  <R**2>=           2361.8584
 Charge=             -0.0000 electrons
 Dipole moment (field-independent basis, Debye):
    X=             -0.0000    Y=             -0.0000    Z=              0.4915  Tot=              0.4915
 Unable to Open any file for archive entry.
 1\1\GINC-NODE01\SP\RCCSD(T)-FC\CC-pVTZ\C13H10\XUHJ\09-Oct-2024\0\\#T C
 CSD(T)/cc-pVTZ symm=veryloose geom=allcheck\\c1ccc2c(c1)Cc1ccccc1-2\\0
 ,1\C,0,0.,-3.465428,0.114454\C,0,0.,-3.019019,-1.214228\C,0,0.,-1.6510
 44,-1.506236\C,0,0.,-0.734726,-0.450193\C,0,0.,-1.18511,0.889244\C,0,0
 .,-2.547787,1.174295\C,0,0.,0.,1.833172\C,0,0.,1.18511,0.889244\C,0,0.
 ,2.547787,1.174295\C,0,0.,3.465428,0.114454\C,0,0.,3.019019,-1.214228\
 C,0,0.,1.651044,-1.506236\C,0,0.,0.734726,-0.450193\H,0,0.,-4.538914,0
 .326061\H,0,0.,-3.747862,-2.030408\H,0,0.,-1.306752,-2.544661\H,0,0.,-
 2.902072,2.210017\H,0,0.886316,0.,2.495462\H,0,-0.886316,0.,2.495462\H
 ,0,0.,2.902072,2.210017\H,0,0.,4.538914,0.326061\H,0,0.,3.747862,-2.03
 0408\H,0,0.,1.306752,-2.544661\\Version=ES64L-G16RevC.01\State=1-A1\HF
 =-498.2829363\MP2=-500.3270662\MP3=-500.3578581\MP4D=-500.4091284\MP4D
 Q=-500.33785\MP4SDQ=-500.3549527\CCSD=-500.3548122\CCSD(T)=-500.472728
 1\RMSD=3.184e-09\PG=C02V [C2(C1),SGV(C12H8),SGV'(H2)]\\@
 The archive entry for this job was punched.


 A great many people think they are thinking when they
 are merely rearranging their prejudices.
                               -- William James
 Job cpu time:       2 days  0 hours 55 minutes 24.4 seconds.
 Elapsed time:       0 days  6 hours  7 minutes 32.9 seconds.
 File lengths (MBytes):  RWF=  50893 Int=      0 D2E=      0 Chk=     21 Scr=      1
 Normal termination of Gaussian 16 at Wed Oct  9 17:04:09 2024.
