 Entering Gaussian System, Link 0=g16
 Initial command:
 /opt/g16/l1.exe "/tmp/Gau-1797817.inp" -scrdir="/tmp/"
 Entering Link 1 = /opt/g16/l1.exe PID=   1797819.
  
 Copyright (c) 1988-2019, Gaussian, Inc.  All Rights Reserved.
  
 This is part of the Gaussian(R) 16 program.  It is based on
 the Gaussian(R) 09 system (copyright 2009, Gaussian, Inc.),
 the Gaussian(R) 03 system (copyright 2003, Gaussian, Inc.),
 the Gaussian(R) 98 system (copyright 1998, Gaussian, Inc.),
 the Gaussian(R) 94 system (copyright 1995, Gaussian, Inc.),
 the Gaussian 92(TM) system (copyright 1992, Gaussian, Inc.),
 the Gaussian 90(TM) system (copyright 1990, Gaussian, Inc.),
 the Gaussian 88(TM) system (copyright 1988, Gaussian, Inc.),
 the Gaussian 86(TM) system (copyright 1986, Carnegie Mellon
 University), and the Gaussian 82(TM) system (copyright 1983,
 Carnegie Mellon University). Gaussian is a federally registered
 trademark of Gaussian, Inc.
  
 This software contains proprietary and confidential information,
 including trade secrets, belonging to Gaussian, Inc.
  
 This software is provided under written license and may be
 used, copied, transmitted, or stored only in accord with that
 written license.
  
 The following legend is applicable only to US Government
 contracts under FAR:
  
                    RESTRICTED RIGHTS LEGEND
  
 Use, reproduction and disclosure by the US Government is
 subject to restrictions as set forth in subparagraphs (a)
 and (c) of the Commercial Computer Software - Restricted
 Rights clause in FAR 52.227-19.
  
 Gaussian, Inc.
 340 Quinnipiac St., Bldg. 40, Wallingford CT 06492
  
  
 ---------------------------------------------------------------
 Warning -- This program may not be used in any manner that
 competes with the business of Gaussian, Inc. or will provide
 assistance to any competitor of Gaussian, Inc.  The licensee
 of this program is prohibited from giving any competitor of
 Gaussian, Inc. access to this program.  By using this program,
 the user acknowledges that Gaussian, Inc. is engaged in the
 business of creating and licensing software in the field of
 computational chemistry and represents and warrants to the
 licensee that it is not a competitor of Gaussian, Inc. and that
 it will not use this program in any manner prohibited above.
 ---------------------------------------------------------------
  

 Cite this work as:
 Gaussian 16, Revision C.01,
 M. J. Frisch, G. W. Trucks, H. B. Schlegel, G. E. Scuseria, 
 M. A. Robb, J. R. Cheeseman, G. Scalmani, V. Barone, 
 G. A. Petersson, H. Nakatsuji, X. Li, M. Caricato, A. V. Marenich, 
 J. Bloino, B. G. Janesko, R. Gomperts, B. Mennucci, H. P. Hratchian, 
 J. V. Ortiz, A. F. Izmaylov, J. L. Sonnenberg, D. Williams-Young, 
 F. Ding, F. Lipparini, F. Egidi, J. Goings, B. Peng, A. Petrone, 
 T. Henderson, D. Ranasinghe, V. G. Zakrzewski, J. Gao, N. Rega, 
 G. Zheng, W. Liang, M. Hada, M. Ehara, K. Toyota, R. Fukuda, 
 J. Hasegawa, M. Ishida, T. Nakajima, Y. Honda, O. Kitao, H. Nakai, 
 T. Vreven, K. Throssell, J. A. Montgomery, Jr., J. E. Peralta, 
 F. Ogliaro, M. J. Bearpark, J. J. Heyd, E. N. Brothers, K. N. Kudin, 
 V. N. Staroverov, T. A. Keith, R. Kobayashi, J. Normand, 
 K. Raghavachari, A. P. Rendell, J. C. Burant, S. S. Iyengar, 
 J. Tomasi, M. Cossi, J. M. Millam, M. Klene, C. Adamo, R. Cammi, 
 J. W. Ochterski, R. L. Martin, K. Morokuma, O. Farkas, 
 J. B. Foresman, and D. J. Fox, Gaussian, Inc., Wallingford CT, 2019.
 
 ******************************************
 Gaussian 16:  ES64L-G16RevC.01  3-Jul-2019
                21-Nov-2024 
 ******************************************
 %nprocshared=16
 Will use up to   16 processors via shared memory.
 %mem=48000MB
 %chk=OCBFFGCSTGGPSQ-UHFFFAOYSA-N-2.chk
 ---------------------------------
 #T CCSD(T)/cc-pVDZ symm=veryloose
 ---------------------------------
 -------
 [CH2]CC
 -------
 Symbolic Z-matrix:
 Charge =  0 Multiplicity = 2
 C                     1.30526  -0.29464  -0.03241 
 C                     0.08033   0.55238   0.05031 
 C                    -1.2282   -0.24272  -0.03719 
 H                     2.27667   0.14379  -0.28707 
 H                     1.28913  -1.33437   0.3163 
 H                     0.08247   1.12972   1.00469 
 H                     0.10496   1.32626  -0.74261 
 H                    -1.28804  -0.9948    0.77106 
 H                    -2.1076    0.41932   0.05314 
 H                    -1.30194  -0.78002  -0.99971 
 
                    Distance matrix (angstroms):
                    1          2          3          4          5
     1  C    0.000000
     2  C    1.491556   0.000000
     3  C    2.533991   1.533640   0.000000
     4  H    1.095773   2.259358   3.534956   0.000000
     5  H    1.096765   2.256497   2.766516   1.877298   0.000000
     6  H    2.144661   1.115422   2.164930   2.730421   2.828716
     7  H    2.138317   1.108246   2.176370   2.514369   3.098786
     8  H    2.803744   2.187612   1.105656   3.888854   2.638929
     9  H    3.487785   2.191966   1.104447   4.406071   3.831772
    10  H    2.822897   2.188257   1.104792   3.764006   2.958520
                    6          7          8          9         10
     6  H    0.000000
     7  H    1.758455   0.000000
     8  H    2.538981   3.101437   0.000000
     9  H    2.491284   2.520147   1.785167   0.000000
    10  H    3.095363   2.545953   1.783795   1.787730   0.000000
 Framework group  C1[X(C3H7)]
 Deg. of freedom    24
                         Standard orientation:                         
 ---------------------------------------------------------------------
 Center     Atomic      Atomic             Coordinates (Angstroms)
 Number     Number       Type             X           Y           Z
 ---------------------------------------------------------------------
      1          6           0        1.305259   -0.294642   -0.032411
      2          6           0        0.080326    0.552375    0.050306
      3          6           0       -1.228195   -0.242716   -0.037193
      4          1           0        2.276671    0.143791   -0.287074
      5          1           0        1.289134   -1.334371    0.316297
      6          1           0        0.082471    1.129715    1.004685
      7          1           0        0.104962    1.326255   -0.742607
      8          1           0       -1.288040   -0.994795    0.771059
      9          1           0       -2.107596    0.419324    0.053135
     10          1           0       -1.301942   -0.780021   -0.999705
 ---------------------------------------------------------------------
 Rotational constants (GHZ):          32.6137961           8.8983200           7.7207154
    77 basis functions,   148 primitive gaussians,    80 cartesian basis functions
    13 alpha electrons       12 beta electrons
       nuclear repulsion energy        75.4319559605 Hartrees.
 NAtoms=   10 NActive=   10 NUniq=   10 SFac= 1.00D+00 NAtFMM=   60 NAOKFM=F Big=F
 ExpMin= 1.22D-01 ExpMax= 6.67D+03 ExpMxC= 2.28D+02 IAcc=3 IRadAn=         5 AccDes= 0.00D+00
 Harris functional with IExCor=  205 and IRadAn=       5 diagonalized for initial guess.
 HarFok:  IExCor=  205 AccDes= 0.00D+00 IRadAn=         5 IDoV= 1 UseB2=F ITyADJ=14
 ICtDFT=  3500011 ScaDFX=  1.000000  1.000000  1.000000  1.000000
 FoFCou: FMM=F IPFlag=           0 FMFlag=      100000 FMFlg1=           0
         NFxFlg=           0 DoJE=T BraDBF=F KetDBF=T FulRan=T
         wScrn=  0.000000 ICntrl=       500 IOpCl=  0 I1Cent=   200000004 NGrid=           0
         NMat0=    1 NMatS0=      1 NMatT0=    0 NMatD0=    1 NMtDS0=    0 NMtDT0=    0
 Petite list used in FoFCou.
 Initial guess <Sx>= 0.0000 <Sy>= 0.0000 <Sz>= 0.5000 <S**2>= 0.7500 S= 0.5000
 SCF Done:  E(UHF) =  -117.640566446     A.U. after   15 cycles
            NFock= 15  Conv=0.74D-08     -V/T= 2.0022
 <Sx>= 0.0000 <Sy>= 0.0000 <Sz>= 0.5000 <S**2>= 0.7631 S= 0.5065
 <L.S>=  0.00000000000    
 Annihilation of the first spin contaminant:
 S**2 before annihilation     0.7631,   after     0.7501
 ExpMin= 1.22D-01 ExpMax= 6.67D+03 ExpMxC= 2.28D+02 IAcc=3 IRadAn=         5 AccDes= 0.00D+00
 HarFok:  IExCor=  205 AccDes= 0.00D+00 IRadAn=         5 IDoV=-2 UseB2=F ITyADJ=14
 ICtDFT= 12500011 ScaDFX=  1.000000  1.000000  1.000000  1.000000
 NROrb=     74 NOA=    10 NOB=     9 NVA=    64 NVB=    65
 Semi-Direct transformation.
 ModeAB=           2 MOrb=            10 LenV=    6291128636
 LASXX=      1820395 LTotXX=     1820395 LenRXX=     1820395
 LTotAB=     1928625 MaxLAS=     2397600 LenRXY=     2397600
 NonZer=     3640790 LenScr=     6238208 LnRSAI=           0
 LnScr1=           0 LExtra=           0 Total=     10456203
 MaxDsk=          -1 SrtSym=           F ITran=            4
 JobTyp=1 Pass  1:  I=   1 to  10.
 (rs|ai) integrals will be sorted in core.
 ModeAB=           2 MOrb=             9 LenV=    6291128636
 LASXX=      1655631 LTotXX=     1655631 LenRXX=     2157840
 LTotAB=     1310400 MaxLAS=     2157840 LenRXY=     1310400
 NonZer=     3311262 LenScr=     5672960 LnRSAI=           0
 LnScr1=           0 LExtra=           0 Total=      9141200
 MaxDsk=          -1 SrtSym=           F ITran=            4
 JobTyp=2 Pass  1:  I=   1 to   9.
 (rs|ai) integrals will be sorted in core.
 SymMOI:  orbitals are not symmetric.
 ANorm=    0.1068270534D+01
 E2 =    -0.4116090324D+00 EUMP2 =    -0.11805217547829D+03
 (S**2,0)=  0.76309D+00           (S**2,1)=  0.75371D+00
 E(PUHF)=      -0.11764387752D+03        E(PMP2)=      -0.11805430692D+03
 CIDS: In Core Option IDoMem=           1.
 Produce multiple copies of IABC intergrals
 E(PMP3)=      -0.11809661805D+03
 MP4(R+Q)=  0.77029264D-02
 E3=       -0.43174702D-01        EUMP3=      -0.11809535018D+03
 E4(DQ)=   -0.37954562D-02        UMP4(DQ)=   -0.11809914564D+03
 E4(SDQ)=  -0.57164444D-02        UMP4(SDQ)=  -0.11810106662D+03
 DE(Corr)= -0.44706431     E(Corr)=     -118.08763075    
 NORM(A)=   0.10828240D+01
 DE(Corr)= -0.45818551     E(CORR)=     -118.09875195     Delta=-1.11D-02
 NORM(A)=   0.10881880D+01
 DE(Corr)= -0.46084679     E(CORR)=     -118.10141324     Delta=-2.66D-03
 NORM(A)=   0.10892725D+01
 DE(Corr)= -0.46160005     E(CORR)=     -118.10216650     Delta=-7.53D-04
 NORM(A)=   0.10895707D+01
 DE(Corr)= -0.46169739     E(CORR)=     -118.10226383     Delta=-9.73D-05
 NORM(A)=   0.10896341D+01
 DE(Corr)= -0.46170852     E(CORR)=     -118.10227496     Delta=-1.11D-05
 NORM(A)=   0.10896382D+01
 DE(Corr)= -0.46170724     E(CORR)=     -118.10227369     Delta= 1.27D-06
 NORM(A)=   0.10896445D+01
 DE(Corr)= -0.46170755     E(CORR)=     -118.10227399     Delta=-3.05D-07
 NORM(A)=   0.10896447D+01
 DE(Corr)= -0.46170783     E(CORR)=     -118.10227428     Delta=-2.86D-07
 NORM(A)=   0.10896452D+01
 DE(Corr)= -0.46170789     E(CORR)=     -118.10227433     Delta=-5.18D-08
 NORM(A)=   0.10896453D+01
 Wavefunction amplitudes converged. E(Corr)=     -118.10227433    
 Largest amplitude= 1.88D-02
 Time for triples=       44.65 seconds.
 T4(CCSD)= -0.12499394D-01
 T5(CCSD)=  0.26585330D-03
 CCSD(T)= -0.11811450787D+03

 S**2, projected HF & approx projected MPn energies after annihilation of
 unwanted spin states (see manual for definitions):

 spins       (S**2,0) (S**2,1)    PUHF        PMP2        PMP3        PMP4
 annihilated
 s+1         0.74993  0.75002 -117.643878 -118.054307 -118.096618
 s+1,s+2     0.75000  0.75000 -117.643866 -118.054295 -118.096607
 s+1 to s+3  0.75000  0.75000 -117.643866 -118.054295 -118.096607
 s+1 to s+4  0.75000  0.75000 -117.643866 -118.054295 -118.096607
 s+1 to s+5  0.75000  0.75000 -117.643866
 s+1 to s+6  0.75000  0.75000 -117.643866

 Discarding MO integrals.

 **********************************************************************

            Population analysis using the SCF Density.

 **********************************************************************

 Orbital symmetries:
 Alpha Orbitals:
       Occupied  (A) (A) (A) (A) (A) (A) (A) (A) (A) (A) (A) (A)
                 (A)
       Virtual   (A) (A) (A) (A) (A) (A) (A) (A) (A) (A) (A) (A)
                 (A) (A) (A) (A) (A) (A) (A) (A) (A) (A) (A) (A)
                 (A) (A) (A) (A) (A) (A) (A) (A) (A) (A) (A) (A)
                 (A) (A) (A) (A) (A) (A) (A) (A) (A) (A) (A) (A)
                 (A) (A) (A) (A) (A) (A) (A) (A) (A) (A) (A) (A)
                 (A) (A) (A) (A)
 Beta  Orbitals:
       Occupied  (A) (A) (A) (A) (A) (A) (A) (A) (A) (A) (A) (A)
       Virtual   (A) (A) (A) (A) (A) (A) (A) (A) (A) (A) (A) (A)
                 (A) (A) (A) (A) (A) (A) (A) (A) (A) (A) (A) (A)
                 (A) (A) (A) (A) (A) (A) (A) (A) (A) (A) (A) (A)
                 (A) (A) (A) (A) (A) (A) (A) (A) (A) (A) (A) (A)
                 (A) (A) (A) (A) (A) (A) (A) (A) (A) (A) (A) (A)
                 (A) (A) (A) (A) (A)
 The electronic state is 2-A.
 Alpha  occ. eigenvalues --  -11.23361 -11.23099 -11.22493  -1.05851  -0.92397
 Alpha  occ. eigenvalues --   -0.79557  -0.61778  -0.60276  -0.55997  -0.50305
 Alpha  occ. eigenvalues --   -0.49448  -0.48089  -0.34710
 Alpha virt. eigenvalues --    0.18728   0.22467   0.22713   0.24403   0.26583
 Alpha virt. eigenvalues --    0.28490   0.28921   0.37703   0.43101   0.58310
 Alpha virt. eigenvalues --    0.60112   0.61117   0.66168   0.68907   0.70750
 Alpha virt. eigenvalues --    0.77206   0.83949   0.86851   0.87939   0.89144
 Alpha virt. eigenvalues --    0.89608   0.90714   0.91482   0.92936   0.98678
 Alpha virt. eigenvalues --    1.06620   1.12135   1.19289   1.29327   1.33296
 Alpha virt. eigenvalues --    1.46194   1.54335   1.61254   1.63930   1.68638
 Alpha virt. eigenvalues --    1.73351   1.74739   1.84538   1.86096   1.89306
 Alpha virt. eigenvalues --    1.91028   1.92879   1.95409   1.95822   1.96744
 Alpha virt. eigenvalues --    1.99520   2.03058   2.12134   2.14299   2.22401
 Alpha virt. eigenvalues --    2.31815   2.36069   2.40317   2.48014   2.50721
 Alpha virt. eigenvalues --    2.53918   2.58193   2.73047   2.74246   2.80141
 Alpha virt. eigenvalues --    2.85573   2.89513   2.98902   3.06217
  Beta  occ. eigenvalues --  -11.23440 -11.22435 -11.20856  -1.03929  -0.88419
  Beta  occ. eigenvalues --   -0.76281  -0.60717  -0.58896  -0.55129  -0.48988
  Beta  occ. eigenvalues --   -0.48388  -0.47583
  Beta virt. eigenvalues --    0.14899   0.19172   0.22941   0.23807   0.24680
  Beta virt. eigenvalues --    0.26842   0.28972   0.29581   0.38097   0.43831
  Beta virt. eigenvalues --    0.58772   0.60687   0.61355   0.66929   0.74547
  Beta virt. eigenvalues --    0.77565   0.83324   0.84173   0.87428   0.88367
  Beta virt. eigenvalues --    0.89481   0.90296   0.91571   0.92148   0.93534
  Beta virt. eigenvalues --    0.99371   1.09422   1.14232   1.24718   1.29902
  Beta virt. eigenvalues --    1.34604   1.46498   1.55641   1.62863   1.64872
  Beta virt. eigenvalues --    1.68669   1.74801   1.75113   1.85128   1.86906
  Beta virt. eigenvalues --    1.90941   1.91576   1.93622   1.95904   1.96193
  Beta virt. eigenvalues --    1.97585   1.99994   2.04706   2.13351   2.16569
  Beta virt. eigenvalues --    2.23270   2.31998   2.37094   2.41012   2.48286
  Beta virt. eigenvalues --    2.51151   2.54287   2.58491   2.73107   2.74655
  Beta virt. eigenvalues --    2.80460   2.85745   2.89797   2.99294   3.06833
          Condensed to atoms (all electrons):
          Atomic-Atomic Spin Densities.
 Mulliken charges and spin densities:
               1          2
     1  C   -0.109408   1.207184
     2  C   -0.102220  -0.142432
     3  C   -0.061662   0.014662
     4  H    0.049169  -0.079916
     5  H    0.048363  -0.079794
     6  H    0.037165   0.060363
     7  H    0.035017   0.022470
     8  H    0.033753  -0.002039
     9  H    0.033024  -0.001380
    10  H    0.036800   0.000881
 Sum of Mulliken charges =  -0.00000   1.00000
 Mulliken charges and spin densities with hydrogens summed into heavy atoms:
               1          2
     1  C   -0.011877   1.047473
     2  C   -0.030038  -0.059598
     3  C    0.041915   0.012125
 Electronic spatial extent (au):  <R**2>=            214.0856
 Charge=             -0.0000 electrons
 Dipole moment (field-independent basis, Debye):
    X=             -0.0923    Y=              0.1453    Z=              0.0945  Tot=              0.1964
 Unable to Open any file for archive entry.
 1\1\GINC-NODE01\SP\UCCSD(T)-FC\CC-pVDZ\C3H7(2)\XUHJ\21-Nov-2024\0\\#T 
 CCSD(T)/cc-pVDZ symm=veryloose\\[CH2]CC\\0,2\C,0,1.305259,-0.294642,-0
 .032411\C,0,0.080326,0.552375,0.050306\C,0,-1.228195,-0.242716,-0.0371
 93\H,0,2.276671,0.143791,-0.287074\H,0,1.289134,-1.334371,0.316297\H,0
 ,0.082471,1.129715,1.004685\H,0,0.104962,1.326255,-0.742607\H,0,-1.288
 04,-0.994795,0.771059\H,0,-2.107596,0.419324,0.053135\H,0,-1.301942,-0
 .780021,-0.999705\\Version=ES64L-G16RevC.01\State=2-A\HF=-117.6405664\
 MP2=-118.0521755\MP3=-118.0953502\MP4D=-118.1068486\MP4DQ=-118.0991456
 \PUHF=-117.6438775\PMP2-0=-118.0543069\PMP3-0=-118.0966181\MP4SDQ=-118
 .1010666\CCSD=-118.1022743\CCSD(T)=-118.1145079\S2=0.76309\S2-1=0.7537
 14\S2A=0.750115\RMSD=7.416e-09\PG=C01 [X(C3H7)]\\@
 The archive entry for this job was punched.


 OUR LITTLE SYSTEMS HAVE THEIR DAY,    
   THEY HAVE THEIR DAY AND CEASE TO BE.
   THEY ARE BUT BROKEN LIGHTS OF THEE, 
 AND THOU, OH LORD, ART MORE THAN THEY.
          -------------------          
 LET KNOWLEDGE GROW FROM MORE TO MORE, 
   BUT MORE OF REVERENCE IN US DWELL.  
   THAT MIND AND SOUL, ACCORDING WELL, 
 MAY MAKE ONE MUSIC AS BEFORE.....     
          -------------------          
                    LORD TENNYSON      
 Job cpu time:       0 days  0 hours  2 minutes 49.9 seconds.
 Elapsed time:       0 days  0 hours  0 minutes 10.7 seconds.
 File lengths (MBytes):  RWF=    361 Int=      0 D2E=      0 Chk=      2 Scr=      1
 Normal termination of Gaussian 16 at Thu Nov 21 17:54:56 2024.
 Initial command:
 /opt/g16/l1.exe "/tmp/Gau-1797817.inp" -scrdir="/tmp/"
 Entering Link 1 = /opt/g16/l1.exe PID=   1798276.
  
 Copyright (c) 1988-2019, Gaussian, Inc.  All Rights Reserved.
  
 This is part of the Gaussian(R) 16 program.  It is based on
 the Gaussian(R) 09 system (copyright 2009, Gaussian, Inc.),
 the Gaussian(R) 03 system (copyright 2003, Gaussian, Inc.),
 the Gaussian(R) 98 system (copyright 1998, Gaussian, Inc.),
 the Gaussian(R) 94 system (copyright 1995, Gaussian, Inc.),
 the Gaussian 92(TM) system (copyright 1992, Gaussian, Inc.),
 the Gaussian 90(TM) system (copyright 1990, Gaussian, Inc.),
 the Gaussian 88(TM) system (copyright 1988, Gaussian, Inc.),
 the Gaussian 86(TM) system (copyright 1986, Carnegie Mellon
 University), and the Gaussian 82(TM) system (copyright 1983,
 Carnegie Mellon University). Gaussian is a federally registered
 trademark of Gaussian, Inc.
  
 This software contains proprietary and confidential information,
 including trade secrets, belonging to Gaussian, Inc.
  
 This software is provided under written license and may be
 used, copied, transmitted, or stored only in accord with that
 written license.
  
 The following legend is applicable only to US Government
 contracts under FAR:
  
                    RESTRICTED RIGHTS LEGEND
  
 Use, reproduction and disclosure by the US Government is
 subject to restrictions as set forth in subparagraphs (a)
 and (c) of the Commercial Computer Software - Restricted
 Rights clause in FAR 52.227-19.
  
 Gaussian, Inc.
 340 Quinnipiac St., Bldg. 40, Wallingford CT 06492
  
  
 ---------------------------------------------------------------
 Warning -- This program may not be used in any manner that
 competes with the business of Gaussian, Inc. or will provide
 assistance to any competitor of Gaussian, Inc.  The licensee
 of this program is prohibited from giving any competitor of
 Gaussian, Inc. access to this program.  By using this program,
 the user acknowledges that Gaussian, Inc. is engaged in the
 business of creating and licensing software in the field of
 computational chemistry and represents and warrants to the
 licensee that it is not a competitor of Gaussian, Inc. and that
 it will not use this program in any manner prohibited above.
 ---------------------------------------------------------------
  

 Cite this work as:
 Gaussian 16, Revision C.01,
 M. J. Frisch, G. W. Trucks, H. B. Schlegel, G. E. Scuseria, 
 M. A. Robb, J. R. Cheeseman, G. Scalmani, V. Barone, 
 G. A. Petersson, H. Nakatsuji, X. Li, M. Caricato, A. V. Marenich, 
 J. Bloino, B. G. Janesko, R. Gomperts, B. Mennucci, H. P. Hratchian, 
 J. V. Ortiz, A. F. Izmaylov, J. L. Sonnenberg, D. Williams-Young, 
 F. Ding, F. Lipparini, F. Egidi, J. Goings, B. Peng, A. Petrone, 
 T. Henderson, D. Ranasinghe, V. G. Zakrzewski, J. Gao, N. Rega, 
 G. Zheng, W. Liang, M. Hada, M. Ehara, K. Toyota, R. Fukuda, 
 J. Hasegawa, M. Ishida, T. Nakajima, Y. Honda, O. Kitao, H. Nakai, 
 T. Vreven, K. Throssell, J. A. Montgomery, Jr., J. E. Peralta, 
 F. Ogliaro, M. J. Bearpark, J. J. Heyd, E. N. Brothers, K. N. Kudin, 
 V. N. Staroverov, T. A. Keith, R. Kobayashi, J. Normand, 
 K. Raghavachari, A. P. Rendell, J. C. Burant, S. S. Iyengar, 
 J. Tomasi, M. Cossi, J. M. Millam, M. Klene, C. Adamo, R. Cammi, 
 J. W. Ochterski, R. L. Martin, K. Morokuma, O. Farkas, 
 J. B. Foresman, and D. J. Fox, Gaussian, Inc., Wallingford CT, 2019.
 
 ******************************************
 Gaussian 16:  ES64L-G16RevC.01  3-Jul-2019
                21-Nov-2024 
 ******************************************
 %nprocshared=16
 Will use up to   16 processors via shared memory.
 %mem=48000MB
 %chk=OCBFFGCSTGGPSQ-UHFFFAOYSA-N-2.chk
 -----------------------------------------------
 #T CCSD(T)/cc-pVTZ symm=veryloose geom=allcheck
 -----------------------------------------------
 Structure from the checkpoint file:  "OCBFFGCSTGGPSQ-UHFFFAOYSA-N-2.chk"
 -------
 [CH2]CC
 -------
 Charge =  0 Multiplicity = 2
 Z-Matrix found in chk file.
 C,0,1.305259,-0.294642,-0.032411
 C,0,0.080326,0.552375,0.050306
 C,0,-1.228195,-0.242716,-0.037193
 H,0,2.276671,0.143791,-0.287074
 H,0,1.289134,-1.334371,0.316297
 H,0,0.082471,1.129715,1.004685
 H,0,0.104962,1.326255,-0.742607
 H,0,-1.28804,-0.994795,0.771059
 H,0,-2.107596,0.419324,0.053135
 H,0,-1.301942,-0.780021,-0.999705
 Recover connectivity data from disk.
                    Distance matrix (angstroms):
                    1          2          3          4          5
     1  C    0.000000
     2  C    1.491556   0.000000
     3  C    2.533991   1.533640   0.000000
     4  H    1.095773   2.259358   3.534956   0.000000
     5  H    1.096765   2.256497   2.766516   1.877298   0.000000
     6  H    2.144661   1.115422   2.164930   2.730421   2.828716
     7  H    2.138317   1.108246   2.176370   2.514369   3.098786
     8  H    2.803744   2.187612   1.105656   3.888854   2.638929
     9  H    3.487785   2.191966   1.104447   4.406071   3.831772
    10  H    2.822897   2.188257   1.104792   3.764006   2.958520
                    6          7          8          9         10
     6  H    0.000000
     7  H    1.758455   0.000000
     8  H    2.538981   3.101437   0.000000
     9  H    2.491284   2.520147   1.785167   0.000000
    10  H    3.095363   2.545953   1.783795   1.787730   0.000000
 Framework group  C1[X(C3H7)]
 Deg. of freedom    24
                         Standard orientation:                         
 ---------------------------------------------------------------------
 Center     Atomic      Atomic             Coordinates (Angstroms)
 Number     Number       Type             X           Y           Z
 ---------------------------------------------------------------------
      1          6           0        1.305259   -0.294642   -0.032411
      2          6           0        0.080326    0.552375    0.050306
      3          6           0       -1.228195   -0.242716   -0.037193
      4          1           0        2.276671    0.143791   -0.287074
      5          1           0        1.289134   -1.334371    0.316297
      6          1           0        0.082471    1.129715    1.004685
      7          1           0        0.104962    1.326255   -0.742607
      8          1           0       -1.288040   -0.994795    0.771059
      9          1           0       -2.107596    0.419324    0.053135
     10          1           0       -1.301942   -0.780021   -0.999705
 ---------------------------------------------------------------------
 Rotational constants (GHZ):          32.6137961           8.8983200           7.7207154
   188 basis functions,   275 primitive gaussians,   210 cartesian basis functions
    13 alpha electrons       12 beta electrons
       nuclear repulsion energy        75.4319559605 Hartrees.
 NAtoms=   10 NActive=   10 NUniq=   10 SFac= 1.00D+00 NAtFMM=   60 NAOKFM=F Big=F
 ExpMin= 1.03D-01 ExpMax= 8.24D+03 ExpMxC= 2.81D+02 IAcc=3 IRadAn=         5 AccDes= 0.00D+00
 Harris functional with IExCor=  205 and IRadAn=       5 diagonalized for initial guess.
 HarFok:  IExCor=  205 AccDes= 0.00D+00 IRadAn=         5 IDoV= 1 UseB2=F ITyADJ=14
 ICtDFT=  3500011 ScaDFX=  1.000000  1.000000  1.000000  1.000000
 FoFCou: FMM=F IPFlag=           0 FMFlag=      100000 FMFlg1=           0
         NFxFlg=           0 DoJE=T BraDBF=F KetDBF=T FulRan=T
         wScrn=  0.000000 ICntrl=       500 IOpCl=  0 I1Cent=   200000004 NGrid=           0
         NMat0=    1 NMatS0=      1 NMatT0=    0 NMatD0=    1 NMtDS0=    0 NMtDT0=    0
 Petite list used in FoFCou.
 Initial guess <Sx>= 0.0000 <Sy>= 0.0000 <Sz>= 0.5000 <S**2>= 0.7500 S= 0.5000
 SCF Done:  E(UHF) =  -117.673752760     A.U. after   15 cycles
            NFock= 15  Conv=0.36D-08     -V/T= 2.0023
 <Sx>= 0.0000 <Sy>= 0.0000 <Sz>= 0.5000 <S**2>= 0.7638 S= 0.5069
 <L.S>=  0.00000000000    
 Annihilation of the first spin contaminant:
 S**2 before annihilation     0.7638,   after     0.7501
 ExpMin= 1.03D-01 ExpMax= 8.24D+03 ExpMxC= 2.81D+02 IAcc=3 IRadAn=         5 AccDes= 0.00D+00
 HarFok:  IExCor=  205 AccDes= 0.00D+00 IRadAn=         5 IDoV=-2 UseB2=F ITyADJ=14
 ICtDFT= 12500011 ScaDFX=  1.000000  1.000000  1.000000  1.000000
 NROrb=    185 NOA=    10 NOB=     9 NVA=   175 NVB=   176

 **** Warning!!: The largest alpha MO coefficient is  0.11471374D+02


 **** Warning!!: The largest beta MO coefficient is  0.11463812D+02

 Semi-Direct transformation.
 ModeAB=           2 MOrb=            10 LenV=    6290274781
 LASXX=     30471160 LTotXX=    30471160 LenRXX=    30471160
 LTotAB=    31055025 MaxLAS=    40986750 LenRXY=    40986750
 NonZer=    60942320 LenScr=    92194816 LnRSAI=           0
 LnScr1=           0 LExtra=           0 Total=    163652726
 MaxDsk=          -1 SrtSym=           F ITran=            4
 JobTyp=1 Pass  1:  I=   1 to  10.
 (rs|ai) integrals will be sorted in core.
 ModeAB=           2 MOrb=             9 LenV=    6290274781
 LASXX=     27514746 LTotXX=    27514746 LenRXX=    36888075
 LTotAB=    25086600 MaxLAS=    36888075 LenRXY=    25086600
 NonZer=    55029492 LenScr=    83307520 LnRSAI=           0
 LnScr1=           0 LExtra=           0 Total=    145282195
 MaxDsk=          -1 SrtSym=           F ITran=            4
 JobTyp=2 Pass  1:  I=   1 to   9.
 (rs|ai) integrals will be sorted in core.
 SymMOI:  orbitals are not symmetric.
 ANorm=    0.1075999164D+01
 E2 =    -0.5049030354D+00 EUMP2 =    -0.11817865579516D+03
 (S**2,0)=  0.76378D+00           (S**2,1)=  0.75380D+00
 E(PUHF)=      -0.11767727847D+03        E(PMP2)=      -0.11818091140D+03
 CIDS: In Core Option IDoMem=           1.
 Produce multiple copies of IABC intergrals
 E(PMP3)=      -0.11821889482D+03
 MP4(R+Q)=  0.11452760D-01
 E3=       -0.38933630D-01        EUMP3=      -0.11821758943D+03
 E4(DQ)=   -0.14355442D-03        UMP4(DQ)=   -0.11821773298D+03
 E4(SDQ)=  -0.32218448D-02        UMP4(SDQ)=  -0.11822081127D+03
 DE(Corr)= -0.53227147     E(Corr)=     -118.20602423    
 NORM(A)=   0.10875767D+01
 DE(Corr)= -0.54408811     E(CORR)=     -118.21784087     Delta=-1.18D-02
 NORM(A)=   0.10935769D+01
 DE(Corr)= -0.54638577     E(CORR)=     -118.22013853     Delta=-2.30D-03
 NORM(A)=   0.10948559D+01
 DE(Corr)= -0.54731233     E(CORR)=     -118.22106509     Delta=-9.27D-04
 NORM(A)=   0.10952137D+01
 DE(Corr)= -0.54742146     E(CORR)=     -118.22117422     Delta=-1.09D-04
 NORM(A)=   0.10953000D+01
 DE(Corr)= -0.54743682     E(CORR)=     -118.22118958     Delta=-1.54D-05
 NORM(A)=   0.10953012D+01
 DE(Corr)= -0.54743578     E(CORR)=     -118.22118854     Delta= 1.04D-06
 NORM(A)=   0.10953103D+01
 DE(Corr)= -0.54743498     E(CORR)=     -118.22118774     Delta= 8.02D-07
 NORM(A)=   0.10953113D+01
 DE(Corr)= -0.54743602     E(CORR)=     -118.22118878     Delta=-1.04D-06
 NORM(A)=   0.10953124D+01
 DE(Corr)= -0.54743607     E(CORR)=     -118.22118883     Delta=-5.33D-08
 NORM(A)=   0.10953128D+01
 Wavefunction amplitudes converged. E(Corr)=     -118.22118883    
 Largest amplitude= 1.91D-02
 Time for triples=     1362.00 seconds.
 T4(CCSD)= -0.20249006D-01
 T5(CCSD)=  0.48882211D-03
 CCSD(T)= -0.11824094902D+03

 S**2, projected HF & approx projected MPn energies after annihilation of
 unwanted spin states (see manual for definitions):

 spins       (S**2,0) (S**2,1)    PUHF        PMP2        PMP3        PMP4
 annihilated
 s+1         0.74992  0.75003 -117.677278 -118.180911 -118.218895
 s+1,s+2     0.75000  0.75000 -117.677265 -118.180898 -118.218883
 s+1 to s+3  0.75000  0.75000 -117.677265 -118.180898 -118.218883
 s+1 to s+4  0.75000  0.75000 -117.677265 -118.180898 -118.218883
 s+1 to s+5  0.75000  0.75000 -117.677265
 s+1 to s+6  0.75000  0.75000 -117.677265

 Discarding MO integrals.

 **********************************************************************

            Population analysis using the SCF Density.

 **********************************************************************

 Orbital symmetries:
 Alpha Orbitals:
       Occupied  (A) (A) (A) (A) (A) (A) (A) (A) (A) (A) (A) (A)
                 (A)
       Virtual   (A) (A) (A) (A) (A) (A) (A) (A) (A) (A) (A) (A)
                 (A) (A) (A) (A) (A) (A) (A) (A) (A) (A) (A) (A)
                 (A) (A) (A) (A) (A) (A) (A) (A) (A) (A) (A) (A)
                 (A) (A) (A) (A) (A) (A) (A) (A) (A) (A) (A) (A)
                 (A) (A) (A) (A) (A) (A) (A) (A) (A) (A) (A) (A)
                 (A) (A) (A) (A) (A) (A) (A) (A) (A) (A) (A) (A)
                 (A) (A) (A) (A) (A) (A) (A) (A) (A) (A) (A) (A)
                 (A) (A) (A) (A) (A) (A) (A) (A) (A) (A) (A) (A)
                 (A) (A) (A) (A) (A) (A) (A) (A) (A) (A) (A) (A)
                 (A) (A) (A) (A) (A) (A) (A) (A) (A) (A) (A) (A)
                 (A) (A) (A) (A) (A) (A) (A) (A) (A) (A) (A) (A)
                 (A) (A) (A) (A) (A) (A) (A) (A) (A) (A) (A) (A)
                 (A) (A) (A) (A) (A) (A) (A) (A) (A) (A) (A) (A)
                 (A) (A) (A) (A) (A) (A) (A) (A) (A) (A) (A) (A)
                 (A) (A) (A) (A) (A) (A) (A)
 Beta  Orbitals:
       Occupied  (A) (A) (A) (A) (A) (A) (A) (A) (A) (A) (A) (A)
       Virtual   (A) (A) (A) (A) (A) (A) (A) (A) (A) (A) (A) (A)
                 (A) (A) (A) (A) (A) (A) (A) (A) (A) (A) (A) (A)
                 (A) (A) (A) (A) (A) (A) (A) (A) (A) (A) (A) (A)
                 (A) (A) (A) (A) (A) (A) (A) (A) (A) (A) (A) (A)
                 (A) (A) (A) (A) (A) (A) (A) (A) (A) (A) (A) (A)
                 (A) (A) (A) (A) (A) (A) (A) (A) (A) (A) (A) (A)
                 (A) (A) (A) (A) (A) (A) (A) (A) (A) (A) (A) (A)
                 (A) (A) (A) (A) (A) (A) (A) (A) (A) (A) (A) (A)
                 (A) (A) (A) (A) (A) (A) (A) (A) (A) (A) (A) (A)
                 (A) (A) (A) (A) (A) (A) (A) (A) (A) (A) (A) (A)
                 (A) (A) (A) (A) (A) (A) (A) (A) (A) (A) (A) (A)
                 (A) (A) (A) (A) (A) (A) (A) (A) (A) (A) (A) (A)
                 (A) (A) (A) (A) (A) (A) (A) (A) (A) (A) (A) (A)
                 (A) (A) (A) (A) (A) (A) (A) (A) (A) (A) (A) (A)
                 (A) (A) (A) (A) (A) (A) (A) (A)
 The electronic state is 2-A.
 Alpha  occ. eigenvalues --  -11.22951 -11.22692 -11.21844  -1.05803  -0.92371
 Alpha  occ. eigenvalues --   -0.79586  -0.61880  -0.60378  -0.56108  -0.50422
 Alpha  occ. eigenvalues --   -0.49568  -0.48221  -0.34811
 Alpha virt. eigenvalues --    0.14394   0.17789   0.18013   0.19816   0.21945
 Alpha virt. eigenvalues --    0.23429   0.24231   0.30293   0.36176   0.39057
 Alpha virt. eigenvalues --    0.40061   0.41895   0.44183   0.46867   0.49149
 Alpha virt. eigenvalues --    0.50955   0.58208   0.59182   0.61821   0.62191
 Alpha virt. eigenvalues --    0.63077   0.63677   0.66312   0.66824   0.69599
 Alpha virt. eigenvalues --    0.71519   0.72089   0.76890   0.84378   0.90269
 Alpha virt. eigenvalues --    0.92514   0.95730   1.02704   1.05162   1.07862
 Alpha virt. eigenvalues --    1.11312   1.13846   1.17261   1.18937   1.22082
 Alpha virt. eigenvalues --    1.24017   1.28022   1.29444   1.30894   1.31747
 Alpha virt. eigenvalues --    1.36437   1.36638   1.38399   1.42441   1.43860
 Alpha virt. eigenvalues --    1.48530   1.51560   1.52085   1.54162   1.57257
 Alpha virt. eigenvalues --    1.59111   1.60443   1.64622   1.69248   1.71300
 Alpha virt. eigenvalues --    1.76666   1.78729   1.81167   1.97724   2.44593
 Alpha virt. eigenvalues --    2.45146   2.51598   2.54605   2.57019   2.68117
 Alpha virt. eigenvalues --    2.72600   2.73721   2.76529   2.79004   2.82789
 Alpha virt. eigenvalues --    2.87134   2.91062   2.92388   2.99500   3.02153
 Alpha virt. eigenvalues --    3.02992   3.07438   3.08549   3.10601   3.12809
 Alpha virt. eigenvalues --    3.18332   3.20515   3.24886   3.26182   3.27588
 Alpha virt. eigenvalues --    3.29673   3.33129   3.34909   3.38279   3.40154
 Alpha virt. eigenvalues --    3.41950   3.43497   3.45416   3.46166   3.51682
 Alpha virt. eigenvalues --    3.52928   3.57660   3.60460   3.63691   3.66646
 Alpha virt. eigenvalues --    3.71219   3.73171   3.74287   3.76763   3.79003
 Alpha virt. eigenvalues --    3.80679   3.85447   3.91243   3.94660   3.98744
 Alpha virt. eigenvalues --    4.00503   4.06212   4.10553   4.11500   4.12728
 Alpha virt. eigenvalues --    4.13253   4.15664   4.19670   4.20012   4.23598
 Alpha virt. eigenvalues --    4.27328   4.28416   4.31567   4.32245   4.35683
 Alpha virt. eigenvalues --    4.38577   4.41369   4.42010   4.42602   4.48087
 Alpha virt. eigenvalues --    4.52523   4.57532   4.58786   4.62755   4.64418
 Alpha virt. eigenvalues --    4.70251   4.74600   4.85256   4.88898   4.97668
 Alpha virt. eigenvalues --    5.03937   5.05430   5.07552   5.15477   5.16616
 Alpha virt. eigenvalues --    5.19600   5.23646   5.25319   5.28321   5.31426
 Alpha virt. eigenvalues --    5.41193   5.46245   5.54921   5.56492   5.64888
 Alpha virt. eigenvalues --    5.65738   5.67710   5.70482   5.74836   5.82343
 Alpha virt. eigenvalues --    5.85284   5.94133   6.00768   6.23988   6.28061
 Alpha virt. eigenvalues --    6.29712   6.35091  12.13484  13.08879  13.82963
  Beta  occ. eigenvalues --  -11.23019 -11.21785 -11.20578  -1.03899  -0.88440
  Beta  occ. eigenvalues --   -0.76369  -0.60863  -0.59011  -0.55294  -0.49130
  Beta  occ. eigenvalues --   -0.48543  -0.47719
  Beta virt. eigenvalues --    0.13029   0.14942   0.18012   0.18853   0.20082
  Beta virt. eigenvalues --    0.22218   0.23763   0.24762   0.30528   0.36310
  Beta virt. eigenvalues --    0.39410   0.40369   0.42540   0.44665   0.49896
  Beta virt. eigenvalues --    0.54569   0.57382   0.59041   0.59554   0.62264
  Beta virt. eigenvalues --    0.62901   0.63295   0.65769   0.66796   0.67646
  Beta virt. eigenvalues --    0.70222   0.72752   0.74176   0.78525   0.85515
  Beta virt. eigenvalues --    0.90762   0.93266   0.96120   1.03760   1.06006
  Beta virt. eigenvalues --    1.08895   1.11450   1.14865   1.17676   1.19643
  Beta virt. eigenvalues --    1.22895   1.25641   1.28272   1.29872   1.31769
  Beta virt. eigenvalues --    1.32258   1.37008   1.37547   1.38861   1.43595
  Beta virt. eigenvalues --    1.45137   1.48745   1.51917   1.52389   1.55024
  Beta virt. eigenvalues --    1.58323   1.59785   1.60875   1.65080   1.69928
  Beta virt. eigenvalues --    1.71730   1.77271   1.79123   1.81990   1.98298
  Beta virt. eigenvalues --    2.45721   2.49801   2.54261   2.55676   2.58249
  Beta virt. eigenvalues --    2.68573   2.73175   2.74155   2.77253   2.79648
  Beta virt. eigenvalues --    2.84017   2.89125   2.91349   2.93226   3.00501
  Beta virt. eigenvalues --    3.03614   3.03989   3.07932   3.10278   3.11583
  Beta virt. eigenvalues --    3.13381   3.19260   3.22136   3.25674   3.27299
  Beta virt. eigenvalues --    3.28900   3.30862   3.34172   3.36116   3.38751
  Beta virt. eigenvalues --    3.41913   3.43209   3.44859   3.45925   3.46895
  Beta virt. eigenvalues --    3.51816   3.54285   3.58047   3.61069   3.63892
  Beta virt. eigenvalues --    3.67276   3.71616   3.73471   3.75110   3.76955
  Beta virt. eigenvalues --    3.79269   3.80896   3.85665   3.91581   3.95065
  Beta virt. eigenvalues --    3.99029   4.00821   4.06408   4.10821   4.11588
  Beta virt. eigenvalues --    4.13083   4.13473   4.15834   4.19908   4.20132
  Beta virt. eigenvalues --    4.23818   4.27566   4.28672   4.31774   4.32493
  Beta virt. eigenvalues --    4.35969   4.38711   4.41472   4.42310   4.42642
  Beta virt. eigenvalues --    4.48344   4.52780   4.57584   4.58969   4.63135
  Beta virt. eigenvalues --    4.64657   4.70459   4.75000   4.85365   4.89647
  Beta virt. eigenvalues --    4.98052   5.04619   5.06004   5.07933   5.15545
  Beta virt. eigenvalues --    5.16853   5.19915   5.24093   5.25789   5.28555
  Beta virt. eigenvalues --    5.32164   5.41532   5.46615   5.55284   5.56691
  Beta virt. eigenvalues --    5.64925   5.65775   5.67845   5.70655   5.74981
  Beta virt. eigenvalues --    5.82454   5.85544   5.94410   6.01017   6.24290
  Beta virt. eigenvalues --    6.28130   6.29827   6.35227  12.14726  13.09316
  Beta virt. eigenvalues --   13.83061
          Condensed to atoms (all electrons):
          Atomic-Atomic Spin Densities.
 Mulliken charges and spin densities:
               1          2
     1  C   -0.311945   1.195720
     2  C   -0.108514  -0.133132
     3  C   -0.274330   0.015389
     4  H    0.132418  -0.077756
     5  H    0.123756  -0.079422
     6  H    0.083071   0.060386
     7  H    0.087128   0.020965
     8  H    0.083929  -0.001875
     9  H    0.094818  -0.001209
    10  H    0.089668   0.000935
 Sum of Mulliken charges =  -0.00000   1.00000
 Mulliken charges and spin densities with hydrogens summed into heavy atoms:
               1          2
     1  C   -0.055771   1.038542
     2  C    0.061686  -0.051782
     3  C   -0.005915   0.013239
 Electronic spatial extent (au):  <R**2>=            214.2475
 Charge=             -0.0000 electrons
 Dipole moment (field-independent basis, Debye):
    X=             -0.0999    Y=              0.1638    Z=              0.1040  Tot=              0.2183
 Unable to Open any file for archive entry.
 1\1\GINC-NODE01\SP\UCCSD(T)-FC\CC-pVTZ\C3H7(2)\XUHJ\21-Nov-2024\0\\#T 
 CCSD(T)/cc-pVTZ symm=veryloose geom=allcheck\\[CH2]CC\\0,2\C,0,1.30525
 9,-0.294642,-0.032411\C,0,0.080326,0.552375,0.050306\C,0,-1.228195,-0.
 242716,-0.037193\H,0,2.276671,0.143791,-0.287074\H,0,1.289134,-1.33437
 1,0.316297\H,0,0.082471,1.129715,1.004685\H,0,0.104962,1.326255,-0.742
 607\H,0,-1.28804,-0.994795,0.771059\H,0,-2.107596,0.419324,0.053135\H,
 0,-1.301942,-0.780021,-0.999705\\Version=ES64L-G16RevC.01\State=2-A\HF
 =-117.6737528\MP2=-118.1786558\MP3=-118.2175894\MP4D=-118.2291857\MP4D
 Q=-118.217733\PUHF=-117.6772785\PMP2-0=-118.1809114\PMP3-0=-118.218894
 8\MP4SDQ=-118.2208113\CCSD=-118.2211888\CCSD(T)=-118.240949\S2=0.76377
 9\S2-1=0.753797\S2A=0.750127\RMSD=3.626e-09\PG=C01 [X(C3H7)]\\@
 The archive entry for this job was punched.


 Other things may change us, but we start and end with family.
 -- Anthony Brandt
 Job cpu time:       0 days  0 hours 44 minutes 44.6 seconds.
 Elapsed time:       0 days  0 hours  2 minutes 50.3 seconds.
 File lengths (MBytes):  RWF=   5429 Int=      0 D2E=      0 Chk=      4 Scr=      1
 Normal termination of Gaussian 16 at Thu Nov 21 17:57:47 2024.
