%nprocshared=8
%mem=32000MB
%chk=ORGHESHFQPYLAO-UHFFFAOYSA-N.chk
#T ROCCSD(T)/cc-pVDZ symm=veryloose

[CH]=C

0 2
C        -0.049323       0.724659      -0.000000
C        -0.049323      -0.588853       0.000000
H         0.683423       1.535377      -0.000000
H        -0.980907      -1.175786       0.000000
H         0.889360      -1.174424       0.000000


--link1--
%nprocshared=8
%mem=32000MB
%chk=ORGHESHFQPYLAO-UHFFFAOYSA-N.chk
#T ROCCSD(T)/cc-pVTZ symm=veryloose geom=allcheck

