%nprocshared=16
%mem=8000MB
%chk=OTMSDBZUPAUEDD-UHFFFAOYSA-N.chk
#T CCSD(T)/cc-pVDZ symm=veryloose

CC

0 1
C         0.000000      -0.000000       0.764481
C         0.000000      -0.000000      -0.764481
H        -0.000000       1.028729       1.168351
H         0.890906      -0.514365       1.168351
H        -0.890906      -0.514365       1.168351
H         0.890906       0.514365      -1.168351
H        -0.890906       0.514365      -1.168351
H        -0.000000      -1.028729      -1.168351


--link1--
%nprocshared=16
%mem=8000MB
%chk=OTMSDBZUPAUEDD-UHFFFAOYSA-N.chk
#T CCSD(T)/cc-pVTZ symm=veryloose geom=allcheck

