%nprocshared=12
%mem=15600MB
%chk=PKIFBGYEEVFWTJ-UHFFFAOYSA-N-1.chk
#T CCSD(T)/cc-pVDZ symm=veryloose 

c1ccc2cc3cc4c(ccc5cc6ccccc6cc54)cc3cc2c1

0 1
C         4.449768       5.400134       0.000000
C         3.146072       5.985138       0.000000
C         2.027924       5.190105       0.000000
C         2.137839       3.762373       0.000000
C         1.014983       2.926324       0.000000
C         1.134635       1.526097       0.000000
C        -0.000000       0.670476       0.000000
C         0.105041      -0.710087      -0.000000
C         1.433029      -1.297340      -0.000000
C         1.570155      -2.736922      -0.000000
C         0.488963      -3.554481      -0.000000
C        -0.859898      -3.030420      -0.000000
C        -1.954149      -3.890177      -0.000000
C        -3.281777      -3.412924      -0.000000
C        -4.412296      -4.279809      -0.000000
C        -5.691827      -3.769490       0.000000
C        -5.903820      -2.363853       0.000000
C        -4.831574      -1.498865       0.000000
C        -3.494913      -1.992143       0.000000
C        -2.374930      -1.129937       0.000000
C        -1.067132      -1.602288      -0.000000
C         2.552521      -0.480087      -0.000000
C         2.454861       0.934665      -0.000000
C         3.581638       1.774631      -0.000000
C         3.459934       3.169049       0.000000
C         4.599521       4.036399       0.000000
H         5.330233       6.049474       0.000000
H         3.045707       7.074520       0.000000
H         1.028287       5.635698       0.000000
H         0.016252       3.374751       0.000000
H        -0.981140       1.149653       0.000000
H         2.581809      -3.153834      -0.000000
H         0.614893      -4.641403      -0.000000
H        -1.780417      -4.971009      -0.000000
H        -4.244995      -5.361389      -0.000000
H        -6.552210      -4.445218       0.000000
H        -6.925116      -1.971782       0.000000
H        -4.991898      -0.416106       0.000000
H        -2.572244      -0.055902       0.000000
H         3.546588      -0.938244      -0.000000
H         4.579851       1.325338      -0.000000
H         5.596995       3.586034      -0.000000


--link1--
%nprocshared=12
%mem=15600MB
%chk=PKIFBGYEEVFWTJ-UHFFFAOYSA-N-1.chk
#T CCSD(T)/cc-pVTZ symm=veryloose geom=allcheck 

