%nprocshared=12
%mem=15600MB
%chk=PLKNNIMJRPBOSW-UHFFFAOYSA-N-1.chk
#T CCSD(T)/cc-pVDZ symm=veryloose 

c1ccc2cc3cc4cc5c(ccc6ccccc65)cc4cc3cc2c1

0 1
C        -5.268327      -4.944703      -0.000000
C        -6.073626      -3.759226      -0.000000
C        -5.487952      -2.521613      -0.000000
C        -4.059462      -2.378180      -0.000000
C        -3.437291      -1.131976      -0.000000
C        -2.029946      -0.998565      -0.000000
C        -1.394087       0.257368       0.000000
C         0.000000       0.380246       0.000000
C         0.647050       1.647286       0.000000
C         2.024472       1.783214       0.000000
C         2.836229       0.574156      -0.000000
C         4.274951       0.693156      -0.000000
C         4.884884       1.905037       0.000000
C         4.124200       3.135054       0.000000
C         4.782335       4.383081       0.000000
C         4.066351       5.572189       0.000000
C         2.662643       5.531980       0.000000
C         1.997739       4.311170       0.000000
C         2.700251       3.087959       0.000000
C         2.227202      -0.670253      -0.000000
C         0.815874      -0.822134      -0.000000
C         0.190019      -2.074153      -0.000000
C        -1.211481      -2.203101      -0.000000
C        -1.854349      -3.462382      -0.000000
C        -3.242061      -3.581372      -0.000000
C        -3.901999      -4.856476      -0.000000
H        -5.756015      -5.923994      -0.000000
H        -7.163713      -3.851671      -0.000000
H        -6.100987      -1.614992      -0.000000
H        -4.052591      -0.226613       0.000000
H        -2.009563       1.162567       0.000000
H         0.004556       2.529898       0.000000
H         4.865873      -0.227752      -0.000000
H         5.976789       1.976838       0.000000
H         5.876703       4.398767       0.000000
H         4.590653       6.532194       0.000000
H         2.087047       6.462226       0.000000
H         0.906237       4.312336       0.000000
H         2.851639      -1.569192      -0.000000
H         0.806313      -2.978662      -0.000000
H        -1.239463      -4.368006      -0.000000
H        -3.285186      -5.760521      -0.000000


--link1--
%nprocshared=12
%mem=15600MB
%chk=PLKNNIMJRPBOSW-UHFFFAOYSA-N-1.chk
#T CCSD(T)/cc-pVTZ symm=veryloose geom=allcheck 

