 Entering Gaussian System, Link 0=g16
 Initial command:
 /home/software/g16/l1.exe "/home/software/g16tmp/Gau-174055.inp" -scrdir="/home/software/g16tmp/"
 Default is to use a total of   8 processors:
                                8 via shared-memory
                                1 via Linda
 Entering Link 1 = /home/software/g16/l1.exe PID=    174056.
  
 Copyright (c) 1988-2019, Gaussian, Inc.  All Rights Reserved.
  
 This is part of the Gaussian(R) 16 program.  It is based on
 the Gaussian(R) 09 system (copyright 2009, Gaussian, Inc.),
 the Gaussian(R) 03 system (copyright 2003, Gaussian, Inc.),
 the Gaussian(R) 98 system (copyright 1998, Gaussian, Inc.),
 the Gaussian(R) 94 system (copyright 1995, Gaussian, Inc.),
 the Gaussian 92(TM) system (copyright 1992, Gaussian, Inc.),
 the Gaussian 90(TM) system (copyright 1990, Gaussian, Inc.),
 the Gaussian 88(TM) system (copyright 1988, Gaussian, Inc.),
 the Gaussian 86(TM) system (copyright 1986, Carnegie Mellon
 University), and the Gaussian 82(TM) system (copyright 1983,
 Carnegie Mellon University). Gaussian is a federally registered
 trademark of Gaussian, Inc.
  
 This software contains proprietary and confidential information,
 including trade secrets, belonging to Gaussian, Inc.
  
 This software is provided under written license and may be
 used, copied, transmitted, or stored only in accord with that
 written license.
  
 The following legend is applicable only to US Government
 contracts under FAR:
  
                    RESTRICTED RIGHTS LEGEND
  
 Use, reproduction and disclosure by the US Government is
 subject to restrictions as set forth in subparagraphs (a)
 and (c) of the Commercial Computer Software - Restricted
 Rights clause in FAR 52.227-19.
  
 Gaussian, Inc.
 340 Quinnipiac St., Bldg. 40, Wallingford CT 06492
  
  
 ---------------------------------------------------------------
 Warning -- This program may not be used in any manner that
 competes with the business of Gaussian, Inc. or will provide
 assistance to any competitor of Gaussian, Inc.  The licensee
 of this program is prohibited from giving any competitor of
 Gaussian, Inc. access to this program.  By using this program,
 the user acknowledges that Gaussian, Inc. is engaged in the
 business of creating and licensing software in the field of
 computational chemistry and represents and warrants to the
 licensee that it is not a competitor of Gaussian, Inc. and that
 it will not use this program in any manner prohibited above.
 ---------------------------------------------------------------
  

 Cite this work as:
 Gaussian 16, Revision C.01,
 M. J. Frisch, G. W. Trucks, H. B. Schlegel, G. E. Scuseria, 
 M. A. Robb, J. R. Cheeseman, G. Scalmani, V. Barone, 
 G. A. Petersson, H. Nakatsuji, X. Li, M. Caricato, A. V. Marenich, 
 J. Bloino, B. G. Janesko, R. Gomperts, B. Mennucci, H. P. Hratchian, 
 J. V. Ortiz, A. F. Izmaylov, J. L. Sonnenberg, D. Williams-Young, 
 F. Ding, F. Lipparini, F. Egidi, J. Goings, B. Peng, A. Petrone, 
 T. Henderson, D. Ranasinghe, V. G. Zakrzewski, J. Gao, N. Rega, 
 G. Zheng, W. Liang, M. Hada, M. Ehara, K. Toyota, R. Fukuda, 
 J. Hasegawa, M. Ishida, T. Nakajima, Y. Honda, O. Kitao, H. Nakai, 
 T. Vreven, K. Throssell, J. A. Montgomery, Jr., J. E. Peralta, 
 F. Ogliaro, M. J. Bearpark, J. J. Heyd, E. N. Brothers, K. N. Kudin, 
 V. N. Staroverov, T. A. Keith, R. Kobayashi, J. Normand, 
 K. Raghavachari, A. P. Rendell, J. C. Burant, S. S. Iyengar, 
 J. Tomasi, M. Cossi, J. M. Millam, M. Klene, C. Adamo, R. Cammi, 
 J. W. Ochterski, R. L. Martin, K. Morokuma, O. Farkas, 
 J. B. Foresman, and D. J. Fox, Gaussian, Inc., Wallingford CT, 2019.
 
 ******************************************
 Gaussian 16:  ES64L-G16RevC.01  3-Jul-2019
                20-Dec-2023 
 ******************************************
 %nprocshared=16
 Will use up to   16 processors via shared memory.
 %mem=12000MB
 %chk=QFXZANXYUCUTQH-UHFFFAOYSA-N.chk
 ---------------------------------
 #T CCSD(T)/cc-pVDZ symm=veryloose
 ---------------------------------
 ----
 C#CO
 ----
 Symbolic Z-matrix:
 Charge =  0 Multiplicity = 1
 C                     0.14843  -1.32075   0. 
 C                     0.       -0.11975   0. 
 O                    -0.22345   1.17006   0. 
 H                     0.28133  -2.38491   0. 
 H                     0.61572   1.66742   0. 
 
                    Distance matrix (angstroms):
                    1          2          3          4          5
     1  C    0.000000
     2  C    1.210143   0.000000
     3  O    2.518417   1.309017   0.000000
     4  H    1.072429   2.282571   3.590631   0.000000
     5  H    3.024489   1.890258   0.975487   4.066107   0.000000
 Framework group  CS[SG(C2H2O)]
 Deg. of freedom     7
                         Standard orientation:                         
 ---------------------------------------------------------------------
 Center     Atomic      Atomic             Coordinates (Angstroms)
 Number     Number       Type             X           Y           Z
 ---------------------------------------------------------------------
      1          6           0        0.148425    1.320751    0.000000
      2          6           0        0.000000    0.119745    0.000000
      3          8           0       -0.223450   -1.170059    0.000000
      4          1           0        0.281330    2.384913    0.000000
      5          1           0        0.615720   -1.667421    0.000000
 ---------------------------------------------------------------------
 Rotational constants (GHZ):         666.4041622           9.6681681           9.5299085
    52 basis functions,   113 primitive gaussians,    55 cartesian basis functions
    11 alpha electrons       11 beta electrons
       nuclear repulsion energy        57.9624995509 Hartrees.
 NAtoms=    5 NActive=    5 NUniq=    5 SFac= 1.00D+00 NAtFMM=   60 NAOKFM=F Big=F
 ExpMin= 1.22D-01 ExpMax= 1.17D+04 ExpMxC= 4.01D+02 IAcc=3 IRadAn=         5 AccDes= 0.00D+00
 Harris functional with IExCor=  205 and IRadAn=       5 diagonalized for initial guess.
 HarFok:  IExCor=  205 AccDes= 0.00D+00 IRadAn=         5 IDoV= 1 UseB2=F ITyADJ=14
 ICtDFT=  3500011 ScaDFX=  1.000000  1.000000  1.000000  1.000000
 FoFCou: FMM=F IPFlag=           0 FMFlag=      100000 FMFlg1=           0
         NFxFlg=           0 DoJE=T BraDBF=F KetDBF=T FulRan=T
         wScrn=  0.000000 ICntrl=       500 IOpCl=  0 I1Cent=   200000004 NGrid=           0
         NMat0=    1 NMatS0=      1 NMatT0=    0 NMatD0=    1 NMtDS0=    0 NMtDT0=    0
 Petite list used in FoFCou.
 Initial guess orbital symmetries:
       Occupied  (A') (A') (A') (A') (A') (A') (A') (A') (A") (A')
                 (A")
       Virtual   (A') (A") (A') (A') (A') (A') (A') (A") (A') (A")
                 (A') (A') (A') (A') (A') (A") (A') (A") (A') (A')
                 (A") (A') (A') (A") (A') (A") (A') (A") (A') (A')
                 (A') (A") (A') (A') (A') (A") (A') (A") (A') (A')
                 (A')
 The electronic state of the initial guess is 1-A'.
 SCF Done:  E(RHF) =  -151.679253508     A.U. after   13 cycles
            NFock= 13  Conv=0.70D-08     -V/T= 2.0017
 ExpMin= 1.22D-01 ExpMax= 1.17D+04 ExpMxC= 4.01D+02 IAcc=3 IRadAn=         5 AccDes= 0.00D+00
 HarFok:  IExCor=  205 AccDes= 0.00D+00 IRadAn=         5 IDoV=-2 UseB2=F ITyADJ=14
 ICtDFT= 12500011 ScaDFX=  1.000000  1.000000  1.000000  1.000000
 NROrb=     49 NOA=     8 NOB=     8 NVA=    41 NVB=    41

 **** Warning!!: The largest alpha MO coefficient is  0.13136270D+02

 Semi-Direct transformation.
 ModeAB=           2 MOrb=             8 LenV=    1572630638
 LASXX=       211470 LTotXX=      211470 LenRXX=      211470
 LTotAB=      226438 MaxLAS=      603680 LenRXY=      603680
 NonZer=      630336 LenScr=     1310720 LnRSAI=           0
 LnScr1=           0 LExtra=           0 Total=      2125870
 MaxDsk=          -1 SrtSym=           F ITran=            4
 JobTyp=0 Pass  1:  I=   1 to   8.
 (rs|ai) integrals will be sorted in core.
 ANorm=    0.1072151849D+01
 E2 =    -0.4378838494D+00 EUMP2 =    -0.15211713735775D+03
 CIDS: In Core Option IDoMem=           1.
 Produce multiple copies of IABC intergrals
 MP4(R+Q)=  0.87110852D-02
 E3=       -0.97142733D-02        EUMP3=      -0.15212685163D+03
 E4(DQ)=   -0.15173329D-02        UMP4(DQ)=   -0.15212836896D+03
 E4(SDQ)=  -0.62156688D-02        UMP4(SDQ)=  -0.15213306730D+03
 DE(Corr)= -0.43869565     E(Corr)=     -152.11794916    
 NORM(A)=   0.10737328D+01
 DE(Corr)= -0.45100902     E(CORR)=     -152.13026253     Delta=-1.23D-02
 NORM(A)=   0.10806619D+01
 DE(Corr)= -0.45247569     E(CORR)=     -152.13172920     Delta=-1.47D-03
 NORM(A)=   0.10823745D+01
 DE(Corr)= -0.45382675     E(CORR)=     -152.13308025     Delta=-1.35D-03
 NORM(A)=   0.10829061D+01
 DE(Corr)= -0.45400262     E(CORR)=     -152.13325612     Delta=-1.76D-04
 NORM(A)=   0.10830670D+01
 DE(Corr)= -0.45403177     E(CORR)=     -152.13328528     Delta=-2.92D-05
 NORM(A)=   0.10830698D+01
 DE(Corr)= -0.45403359     E(CORR)=     -152.13328710     Delta=-1.81D-06
 NORM(A)=   0.10830721D+01
 DE(Corr)= -0.45403226     E(CORR)=     -152.13328577     Delta= 1.32D-06
 NORM(A)=   0.10830732D+01
 DE(Corr)= -0.45403295     E(CORR)=     -152.13328646     Delta=-6.88D-07
 NORM(A)=   0.10830736D+01
 DE(Corr)= -0.45403308     E(CORR)=     -152.13328659     Delta=-1.28D-07
 NORM(A)=   0.10830739D+01
 DE(Corr)= -0.45403329     E(CORR)=     -152.13328680     Delta=-2.16D-07
 NORM(A)=   0.10830741D+01
 DE(Corr)= -0.45403335     E(CORR)=     -152.13328686     Delta=-5.84D-08
 NORM(A)=   0.10830742D+01
 Wavefunction amplitudes converged. E(Corr)=     -152.13328686    
 Largest amplitude= 8.80D-02
 Time for triples=        7.85 seconds.
 T4(CCSD)= -0.16759222D-01
 T5(CCSD)=  0.82050872D-03
 CCSD(T)= -0.15214922557D+03
 Discarding MO integrals.

 **********************************************************************

            Population analysis using the SCF Density.

 **********************************************************************

 Orbital symmetries:
       Occupied  (A') (A') (A') (A') (A') (A') (A') (A') (A") (A')
                 (A")
       Virtual   (A') (A') (A') (A") (A') (A') (A') (A") (A') (A')
                 (A") (A') (A') (A') (A') (A') (A") (A") (A') (A")
                 (A') (A') (A') (A") (A') (A") (A') (A") (A') (A')
                 (A') (A") (A') (A') (A') (A") (A') (A") (A') (A')
                 (A')
 The electronic state is 1-A'.
 Alpha  occ. eigenvalues --  -20.63808 -11.30452 -11.23073  -1.44722  -1.01619
 Alpha  occ. eigenvalues --   -0.81752  -0.69820  -0.65789  -0.61713  -0.38801
 Alpha  occ. eigenvalues --   -0.37040
 Alpha virt. eigenvalues --    0.15626   0.21145   0.23566   0.25270   0.39152
 Alpha virt. eigenvalues --    0.48955   0.62876   0.66830   0.67602   0.76325
 Alpha virt. eigenvalues --    0.80778   0.83958   0.92428   0.99681   1.16679
 Alpha virt. eigenvalues --    1.20633   1.22518   1.23555   1.25622   1.33832
 Alpha virt. eigenvalues --    1.38564   1.43332   1.45561   1.54425   1.64688
 Alpha virt. eigenvalues --    1.69910   1.71573   1.80683   1.93949   2.14825
 Alpha virt. eigenvalues --    2.36697   2.41424   2.45448   2.50105   2.98472
 Alpha virt. eigenvalues --    3.21386   3.43448   3.49802   3.53939   3.81141
 Alpha virt. eigenvalues --    4.03686
          Condensed to atoms (all electrons):
 Mulliken charges:
               1
     1  C   -0.087407
     2  C    0.068666
     3  O   -0.254704
     4  H    0.065627
     5  H    0.207818
 Sum of Mulliken charges =   0.00000
 Mulliken charges with hydrogens summed into heavy atoms:
               1
     1  C   -0.021779
     2  C    0.068666
     3  O   -0.046886
 Electronic spatial extent (au):  <R**2>=            146.0626
 Charge=              0.0000 electrons
 Dipole moment (field-independent basis, Debye):
    X=              1.6208    Y=             -0.8087    Z=              0.0000  Tot=              1.8113
 Unable to Open any file for archive entry.
 1\1\GINC-NODE02\SP\RCCSD(T)-FC\CC-pVDZ\C2H2O1\XUHJ\20-Dec-2023\0\\#T C
 CSD(T)/cc-pVDZ symm=veryloose\\C#CO\\0,1\C,0,0.148425,-1.320751,0.\C,0
 ,0.,-0.119745,0.\O,0,-0.22345,1.170059,0.\H,0,0.28133,-2.384913,0.\H,0
 ,0.61572,1.667421,0.\\Version=ES64L-G16RevC.01\State=1-A'\HF=-151.6792
 535\MP2=-152.1171374\MP3=-152.1268516\MP4D=-152.13708\MP4DQ=-152.12836
 9\MP4SDQ=-152.1330673\CCSD=-152.1332869\CCSD(T)=-152.1492256\RMSD=6.99
 7e-09\PG=CS [SG(C2H2O1)]\\@
 The archive entry for this job was punched.


 THE TRULY SUCCESSFUL PERFORMANCE OF RESEARCHES IN
 INORGANIC CHEMISTRY IS POSSIBLE ONLY TO ONE WHO IS NOT
 ONLY A THEORETICAL CHEMIST, BUT ALSO AN ACCOMPLISHED
 ANALYST AND, MOREOVER, NOT MERELY A PRACTICALLY TRAINED,
 MECHANICAL WORKER, BUT A THINKING CREATIVE ARTIST.
   --  CLEMENS WINKLER, BER. 33, 1697(1900)
 Job cpu time:       0 days  0 hours  0 minutes 55.9 seconds.
 Elapsed time:       0 days  0 hours  0 minutes  4.1 seconds.
 File lengths (MBytes):  RWF=    101 Int=      0 D2E=      0 Chk=      2 Scr=      2
 Normal termination of Gaussian 16 at Wed Dec 20 04:56:45 2023.
 Initial command:
 /home/software/g16/l1.exe "/home/software/g16tmp/Gau-174055.inp" -scrdir="/home/software/g16tmp/"
 Default is to use a total of   8 processors:
                                8 via shared-memory
                                1 via Linda
 Entering Link 1 = /home/software/g16/l1.exe PID=    174254.
  
 Copyright (c) 1988-2019, Gaussian, Inc.  All Rights Reserved.
  
 This is part of the Gaussian(R) 16 program.  It is based on
 the Gaussian(R) 09 system (copyright 2009, Gaussian, Inc.),
 the Gaussian(R) 03 system (copyright 2003, Gaussian, Inc.),
 the Gaussian(R) 98 system (copyright 1998, Gaussian, Inc.),
 the Gaussian(R) 94 system (copyright 1995, Gaussian, Inc.),
 the Gaussian 92(TM) system (copyright 1992, Gaussian, Inc.),
 the Gaussian 90(TM) system (copyright 1990, Gaussian, Inc.),
 the Gaussian 88(TM) system (copyright 1988, Gaussian, Inc.),
 the Gaussian 86(TM) system (copyright 1986, Carnegie Mellon
 University), and the Gaussian 82(TM) system (copyright 1983,
 Carnegie Mellon University). Gaussian is a federally registered
 trademark of Gaussian, Inc.
  
 This software contains proprietary and confidential information,
 including trade secrets, belonging to Gaussian, Inc.
  
 This software is provided under written license and may be
 used, copied, transmitted, or stored only in accord with that
 written license.
  
 The following legend is applicable only to US Government
 contracts under FAR:
  
                    RESTRICTED RIGHTS LEGEND
  
 Use, reproduction and disclosure by the US Government is
 subject to restrictions as set forth in subparagraphs (a)
 and (c) of the Commercial Computer Software - Restricted
 Rights clause in FAR 52.227-19.
  
 Gaussian, Inc.
 340 Quinnipiac St., Bldg. 40, Wallingford CT 06492
  
  
 ---------------------------------------------------------------
 Warning -- This program may not be used in any manner that
 competes with the business of Gaussian, Inc. or will provide
 assistance to any competitor of Gaussian, Inc.  The licensee
 of this program is prohibited from giving any competitor of
 Gaussian, Inc. access to this program.  By using this program,
 the user acknowledges that Gaussian, Inc. is engaged in the
 business of creating and licensing software in the field of
 computational chemistry and represents and warrants to the
 licensee that it is not a competitor of Gaussian, Inc. and that
 it will not use this program in any manner prohibited above.
 ---------------------------------------------------------------
  

 Cite this work as:
 Gaussian 16, Revision C.01,
 M. J. Frisch, G. W. Trucks, H. B. Schlegel, G. E. Scuseria, 
 M. A. Robb, J. R. Cheeseman, G. Scalmani, V. Barone, 
 G. A. Petersson, H. Nakatsuji, X. Li, M. Caricato, A. V. Marenich, 
 J. Bloino, B. G. Janesko, R. Gomperts, B. Mennucci, H. P. Hratchian, 
 J. V. Ortiz, A. F. Izmaylov, J. L. Sonnenberg, D. Williams-Young, 
 F. Ding, F. Lipparini, F. Egidi, J. Goings, B. Peng, A. Petrone, 
 T. Henderson, D. Ranasinghe, V. G. Zakrzewski, J. Gao, N. Rega, 
 G. Zheng, W. Liang, M. Hada, M. Ehara, K. Toyota, R. Fukuda, 
 J. Hasegawa, M. Ishida, T. Nakajima, Y. Honda, O. Kitao, H. Nakai, 
 T. Vreven, K. Throssell, J. A. Montgomery, Jr., J. E. Peralta, 
 F. Ogliaro, M. J. Bearpark, J. J. Heyd, E. N. Brothers, K. N. Kudin, 
 V. N. Staroverov, T. A. Keith, R. Kobayashi, J. Normand, 
 K. Raghavachari, A. P. Rendell, J. C. Burant, S. S. Iyengar, 
 J. Tomasi, M. Cossi, J. M. Millam, M. Klene, C. Adamo, R. Cammi, 
 J. W. Ochterski, R. L. Martin, K. Morokuma, O. Farkas, 
 J. B. Foresman, and D. J. Fox, Gaussian, Inc., Wallingford CT, 2019.
 
 ******************************************
 Gaussian 16:  ES64L-G16RevC.01  3-Jul-2019
                20-Dec-2023 
 ******************************************
 %nprocshared=16
 Will use up to   16 processors via shared memory.
 %mem=12000MB
 %chk=QFXZANXYUCUTQH-UHFFFAOYSA-N.chk
 -----------------------------------------------
 #T CCSD(T)/cc-pVTZ symm=veryloose geom=allcheck
 -----------------------------------------------
 Structure from the checkpoint file:  "QFXZANXYUCUTQH-UHFFFAOYSA-N.chk"
 ----
 C#CO
 ----
 Charge =  0 Multiplicity = 1
 Z-Matrix found in chk file.
 C,0,0.148425,-1.320751,0.
 C,0,0.,-0.119745,0.
 O,0,-0.22345,1.170059,0.
 H,0,0.28133,-2.384913,0.
 H,0,0.61572,1.667421,0.
 Recover connectivity data from disk.
                    Distance matrix (angstroms):
                    1          2          3          4          5
     1  C    0.000000
     2  C    1.210143   0.000000
     3  O    2.518417   1.309017   0.000000
     4  H    1.072429   2.282571   3.590631   0.000000
     5  H    3.024489   1.890258   0.975487   4.066107   0.000000
 Framework group  CS[SG(C2H2O)]
 Deg. of freedom     7
                         Standard orientation:                         
 ---------------------------------------------------------------------
 Center     Atomic      Atomic             Coordinates (Angstroms)
 Number     Number       Type             X           Y           Z
 ---------------------------------------------------------------------
      1          6           0        0.148425    1.320751    0.000000
      2          6           0        0.000000    0.119745    0.000000
      3          8           0       -0.223450   -1.170059    0.000000
      4          1           0        0.281330    2.384913    0.000000
      5          1           0        0.615720   -1.667421    0.000000
 ---------------------------------------------------------------------
 Rotational constants (GHZ):         666.4041622           9.6681681           9.5299085
   118 basis functions,   190 primitive gaussians,   135 cartesian basis functions
    11 alpha electrons       11 beta electrons
       nuclear repulsion energy        57.9624995509 Hartrees.
 NAtoms=    5 NActive=    5 NUniq=    5 SFac= 1.00D+00 NAtFMM=   60 NAOKFM=F Big=F
 ExpMin= 1.03D-01 ExpMax= 1.53D+04 ExpMxC= 5.22D+02 IAcc=3 IRadAn=         5 AccDes= 0.00D+00
 Harris functional with IExCor=  205 and IRadAn=       5 diagonalized for initial guess.
 HarFok:  IExCor=  205 AccDes= 0.00D+00 IRadAn=         5 IDoV= 1 UseB2=F ITyADJ=14
 ICtDFT=  3500011 ScaDFX=  1.000000  1.000000  1.000000  1.000000
 FoFCou: FMM=F IPFlag=           0 FMFlag=      100000 FMFlg1=           0
         NFxFlg=           0 DoJE=T BraDBF=F KetDBF=T FulRan=T
         wScrn=  0.000000 ICntrl=       500 IOpCl=  0 I1Cent=   200000004 NGrid=           0
         NMat0=    1 NMatS0=      1 NMatT0=    0 NMatD0=    1 NMtDS0=    0 NMtDT0=    0
 Petite list used in FoFCou.
 Initial guess orbital symmetries:
       Occupied  (A') (A') (A') (A') (A') (A') (A') (A') (A") (A')
                 (A")
       Virtual   (A') (A") (A') (A') (A') (A') (A') (A") (A') (A')
                 (A") (A') (A') (A') (A") (A') (A') (A") (A') (A')
                 (A") (A") (A') (A') (A') (A") (A') (A') (A") (A')
                 (A') (A") (A') (A') (A') (A") (A') (A") (A') (A')
                 (A') (A") (A') (A') (A') (A") (A") (A') (A") (A')
                 (A') (A") (A') (A') (A') (A") (A") (A') (A') (A")
                 (A') (A') (A") (A') (A") (A') (A") (A') (A") (A')
                 (A') (A") (A') (A") (A') (A') (A") (A') (A") (A')
                 (A") (A') (A') (A') (A") (A') (A') (A') (A') (A")
                 (A') (A") (A') (A') (A") (A') (A") (A") (A') (A')
                 (A") (A') (A') (A') (A') (A') (A')
 The electronic state of the initial guess is 1-A'.
 SCF Done:  E(RHF) =  -151.725705493     A.U. after   13 cycles
            NFock= 13  Conv=0.45D-08     -V/T= 2.0023
 ExpMin= 1.03D-01 ExpMax= 1.53D+04 ExpMxC= 5.22D+02 IAcc=3 IRadAn=         5 AccDes= 0.00D+00
 HarFok:  IExCor=  205 AccDes= 0.00D+00 IRadAn=         5 IDoV=-2 UseB2=F ITyADJ=14
 ICtDFT= 12500011 ScaDFX=  1.000000  1.000000  1.000000  1.000000
 NROrb=    115 NOA=     8 NOB=     8 NVA=   107 NVB=   107

 **** Warning!!: The largest alpha MO coefficient is  0.32955972D+02

 Semi-Direct transformation.
 ModeAB=           2 MOrb=             8 LenV=    1572341912
 LASXX=      2935476 LTotXX=     2935476 LenRXX=     2935476
 LTotAB=     3020740 MaxLAS=     8445600 LenRXY=     8445600
 NonZer=     8622240 LenScr=    13107200 LnRSAI=           0
 LnScr1=           0 LExtra=           0 Total=     24488276
 MaxDsk=          -1 SrtSym=           F ITran=            4
 JobTyp=0 Pass  1:  I=   1 to   8.
 (rs|ai) integrals will be sorted in core.
 ANorm=    0.1080387519D+01
 E2 =    -0.5436556029D+00 EUMP2 =    -0.15226936109600D+03
 CIDS: In Core Option IDoMem=           1.
 Produce multiple copies of IABC intergrals
 MP4(R+Q)=  0.13795384D-01
 E3=       -0.49698723D-02        EUMP3=      -0.15227433097D+03
 E4(DQ)=    0.17746635D-02        UMP4(DQ)=   -0.15227255630D+03
 E4(SDQ)=  -0.44143157D-02        UMP4(SDQ)=  -0.15227874528D+03
 DE(Corr)= -0.53453732     E(Corr)=     -152.26024281    
 NORM(A)=   0.10789727D+01
 DE(Corr)= -0.55015156     E(CORR)=     -152.27585705     Delta=-1.56D-02
 NORM(A)=   0.10858275D+01
 DE(Corr)= -0.55048209     E(CORR)=     -152.27618758     Delta=-3.31D-04
 NORM(A)=   0.10875076D+01
 DE(Corr)= -0.55188844     E(CORR)=     -152.27759393     Delta=-1.41D-03
 NORM(A)=   0.10880411D+01
 DE(Corr)= -0.55206023     E(CORR)=     -152.27776573     Delta=-1.72D-04
 NORM(A)=   0.10882021D+01
 DE(Corr)= -0.55208551     E(CORR)=     -152.27779100     Delta=-2.53D-05
 NORM(A)=   0.10882089D+01
 DE(Corr)= -0.55208879     E(CORR)=     -152.27779428     Delta=-3.28D-06
 NORM(A)=   0.10882083D+01
 DE(Corr)= -0.55208806     E(CORR)=     -152.27779355     Delta= 7.27D-07
 NORM(A)=   0.10882095D+01
 DE(Corr)= -0.55208813     E(CORR)=     -152.27779363     Delta=-7.15D-08
 NORM(A)=   0.10882098D+01
 Wavefunction amplitudes converged. E(Corr)=     -152.27779363    
 Largest amplitude= 7.76D-02
 Time for triples=      346.96 seconds.
 T4(CCSD)= -0.26721014D-01
 T5(CCSD)=  0.98732526D-03
 CCSD(T)= -0.15230352731D+03
 Discarding MO integrals.

 **********************************************************************

            Population analysis using the SCF Density.

 **********************************************************************

 Orbital symmetries:
       Occupied  (A') (A') (A') (A') (A') (A') (A') (A') (A") (A')
                 (A")
       Virtual   (A') (A') (A') (A") (A') (A') (A") (A') (A') (A')
                 (A") (A') (A') (A') (A') (A") (A') (A") (A') (A')
                 (A") (A') (A") (A') (A') (A") (A') (A') (A") (A')
                 (A') (A') (A") (A') (A') (A") (A') (A') (A") (A')
                 (A') (A") (A') (A') (A') (A") (A') (A") (A") (A')
                 (A') (A") (A') (A') (A') (A") (A') (A") (A") (A')
                 (A') (A') (A") (A') (A") (A') (A") (A') (A") (A')
                 (A") (A') (A') (A") (A') (A") (A') (A') (A") (A')
                 (A") (A') (A') (A') (A") (A') (A') (A') (A') (A")
                 (A') (A") (A') (A') (A') (A") (A") (A") (A') (A')
                 (A") (A') (A') (A') (A') (A') (A')
 The electronic state is 1-A'.
 Alpha  occ. eigenvalues --  -20.63774 -11.30037 -11.22455  -1.44871  -1.01734
 Alpha  occ. eigenvalues --   -0.82066  -0.70226  -0.66276  -0.62243  -0.39161
 Alpha  occ. eigenvalues --   -0.37453
 Alpha virt. eigenvalues --    0.12133   0.16730   0.21395   0.23249   0.28500
 Alpha virt. eigenvalues --    0.37356   0.44055   0.44387   0.47443   0.50990
 Alpha virt. eigenvalues --    0.55005   0.59169   0.61260   0.67416   0.72076
 Alpha virt. eigenvalues --    0.73384   0.78414   0.82413   0.83219   0.88098
 Alpha virt. eigenvalues --    0.88529   0.92824   0.94581   1.10398   1.14095
 Alpha virt. eigenvalues --    1.14702   1.16349   1.29807   1.30499   1.41191
 Alpha virt. eigenvalues --    1.48762   1.61846   1.62285   1.68213   1.77174
 Alpha virt. eigenvalues --    2.00277   2.15470   2.22200   2.24268   2.26406
 Alpha virt. eigenvalues --    2.31502   2.37070   2.47173   2.53171   2.67796
 Alpha virt. eigenvalues --    2.78461   2.81231   2.81506   2.85330   2.86668
 Alpha virt. eigenvalues --    2.93239   3.02230   3.07064   3.08808   3.10893
 Alpha virt. eigenvalues --    3.17899   3.22453   3.22583   3.23753   3.24525
 Alpha virt. eigenvalues --    3.28674   3.34889   3.35528   3.39064   3.48564
 Alpha virt. eigenvalues --    3.58148   3.60308   3.67089   3.74823   3.78270
 Alpha virt. eigenvalues --    3.90569   3.97323   4.07025   4.11634   4.14164
 Alpha virt. eigenvalues --    4.23874   4.24177   4.33336   4.38780   4.52691
 Alpha virt. eigenvalues --    4.61482   4.71796   4.84717   4.90077   5.13638
 Alpha virt. eigenvalues --    5.23044   5.41640   5.70255   5.72712   5.87539
 Alpha virt. eigenvalues --    5.95077   6.01206   6.43680   6.51186   6.85214
 Alpha virt. eigenvalues --    6.86439   6.99094   7.05604   7.14065   7.14370
 Alpha virt. eigenvalues --    7.32548   7.41522   7.69624   8.03567   8.97344
 Alpha virt. eigenvalues --   13.40998  16.82793
          Condensed to atoms (all electrons):
 Mulliken charges:
               1
     1  C   -0.332376
     2  C    0.136179
     3  O   -0.268498
     4  H    0.200679
     5  H    0.264016
 Sum of Mulliken charges =  -0.00000
 Mulliken charges with hydrogens summed into heavy atoms:
               1
     1  C   -0.131697
     2  C    0.136179
     3  O   -0.004482
 Electronic spatial extent (au):  <R**2>=            146.4259
 Charge=             -0.0000 electrons
 Dipole moment (field-independent basis, Debye):
    X=              1.5457    Y=             -0.7837    Z=              0.0000  Tot=              1.7330
 Unable to Open any file for archive entry.
 1\1\GINC-NODE02\SP\RCCSD(T)-FC\CC-pVTZ\C2H2O1\XUHJ\20-Dec-2023\0\\#T C
 CSD(T)/cc-pVTZ symm=veryloose geom=allcheck\\C#CO\\0,1\C,0,0.148425,-1
 .320751,0.\C,0,0.,-0.119745,0.\O,0,-0.22345,1.170059,0.\H,0,0.28133,-2
 .384913,0.\H,0,0.61572,1.667421,0.\\Version=ES64L-G16RevC.01\State=1-A
 '\HF=-151.7257055\MP2=-152.2693611\MP3=-152.274331\MP4D=-152.2863517\M
 P4DQ=-152.2725563\MP4SDQ=-152.2787453\CCSD=-152.2777936\CCSD(T)=-152.3
 035273\RMSD=4.484e-09\PG=CS [SG(C2H2O1)]\\@
 The archive entry for this job was punched.


 ... IT CAN BE VERY DIFFICULT, IN THESE COMPLEX TIMES,
 TO UNDERSTAND JUST HOW SCIENTISTS DO WHAT THEY DO.

                     DON MOSER IN THE FEBRUARY 1979 SMITHSONIAN
 Job cpu time:       0 days  0 hours 10 minutes 52.3 seconds.
 Elapsed time:       0 days  0 hours  0 minutes 41.9 seconds.
 File lengths (MBytes):  RWF=    339 Int=      0 D2E=      0 Chk=      3 Scr=      2
 Normal termination of Gaussian 16 at Wed Dec 20 04:57:28 2023.
