 Entering Gaussian System, Link 0=g16
 Initial command:
 /home/software/g16/l1.exe "/home/software/g16tmp/Gau-176503.inp" -scrdir="/home/software/g16tmp/"
 Default is to use a total of   8 processors:
                                8 via shared-memory
                                1 via Linda
 Entering Link 1 = /home/software/g16/l1.exe PID=    176504.
  
 Copyright (c) 1988-2019, Gaussian, Inc.  All Rights Reserved.
  
 This is part of the Gaussian(R) 16 program.  It is based on
 the Gaussian(R) 09 system (copyright 2009, Gaussian, Inc.),
 the Gaussian(R) 03 system (copyright 2003, Gaussian, Inc.),
 the Gaussian(R) 98 system (copyright 1998, Gaussian, Inc.),
 the Gaussian(R) 94 system (copyright 1995, Gaussian, Inc.),
 the Gaussian 92(TM) system (copyright 1992, Gaussian, Inc.),
 the Gaussian 90(TM) system (copyright 1990, Gaussian, Inc.),
 the Gaussian 88(TM) system (copyright 1988, Gaussian, Inc.),
 the Gaussian 86(TM) system (copyright 1986, Carnegie Mellon
 University), and the Gaussian 82(TM) system (copyright 1983,
 Carnegie Mellon University). Gaussian is a federally registered
 trademark of Gaussian, Inc.
  
 This software contains proprietary and confidential information,
 including trade secrets, belonging to Gaussian, Inc.
  
 This software is provided under written license and may be
 used, copied, transmitted, or stored only in accord with that
 written license.
  
 The following legend is applicable only to US Government
 contracts under FAR:
  
                    RESTRICTED RIGHTS LEGEND
  
 Use, reproduction and disclosure by the US Government is
 subject to restrictions as set forth in subparagraphs (a)
 and (c) of the Commercial Computer Software - Restricted
 Rights clause in FAR 52.227-19.
  
 Gaussian, Inc.
 340 Quinnipiac St., Bldg. 40, Wallingford CT 06492
  
  
 ---------------------------------------------------------------
 Warning -- This program may not be used in any manner that
 competes with the business of Gaussian, Inc. or will provide
 assistance to any competitor of Gaussian, Inc.  The licensee
 of this program is prohibited from giving any competitor of
 Gaussian, Inc. access to this program.  By using this program,
 the user acknowledges that Gaussian, Inc. is engaged in the
 business of creating and licensing software in the field of
 computational chemistry and represents and warrants to the
 licensee that it is not a competitor of Gaussian, Inc. and that
 it will not use this program in any manner prohibited above.
 ---------------------------------------------------------------
  

 Cite this work as:
 Gaussian 16, Revision C.01,
 M. J. Frisch, G. W. Trucks, H. B. Schlegel, G. E. Scuseria, 
 M. A. Robb, J. R. Cheeseman, G. Scalmani, V. Barone, 
 G. A. Petersson, H. Nakatsuji, X. Li, M. Caricato, A. V. Marenich, 
 J. Bloino, B. G. Janesko, R. Gomperts, B. Mennucci, H. P. Hratchian, 
 J. V. Ortiz, A. F. Izmaylov, J. L. Sonnenberg, D. Williams-Young, 
 F. Ding, F. Lipparini, F. Egidi, J. Goings, B. Peng, A. Petrone, 
 T. Henderson, D. Ranasinghe, V. G. Zakrzewski, J. Gao, N. Rega, 
 G. Zheng, W. Liang, M. Hada, M. Ehara, K. Toyota, R. Fukuda, 
 J. Hasegawa, M. Ishida, T. Nakajima, Y. Honda, O. Kitao, H. Nakai, 
 T. Vreven, K. Throssell, J. A. Montgomery, Jr., J. E. Peralta, 
 F. Ogliaro, M. J. Bearpark, J. J. Heyd, E. N. Brothers, K. N. Kudin, 
 V. N. Staroverov, T. A. Keith, R. Kobayashi, J. Normand, 
 K. Raghavachari, A. P. Rendell, J. C. Burant, S. S. Iyengar, 
 J. Tomasi, M. Cossi, J. M. Millam, M. Klene, C. Adamo, R. Cammi, 
 J. W. Ochterski, R. L. Martin, K. Morokuma, O. Farkas, 
 J. B. Foresman, and D. J. Fox, Gaussian, Inc., Wallingford CT, 2019.
 
 ******************************************
 Gaussian 16:  ES64L-G16RevC.01  3-Jul-2019
                20-Dec-2023 
 ******************************************
 %nprocshared=16
 Will use up to   16 processors via shared memory.
 %mem=12000MB
 %chk=QQONPFPTGQHPMA-UHFFFAOYSA-N.chk
 ---------------------------------
 #T CCSD(T)/cc-pVDZ symm=veryloose
 ---------------------------------
 ----
 C=CC
 ----
 Symbolic Z-matrix:
 Charge =  0 Multiplicity = 1
 C                     1.29686   0.14785   0. 
 C                     0.        0.47288   0. 
 C                    -1.14147  -0.50188   0. 
 H                     2.0805    0.91449   0. 
 H                     1.62505  -0.90026   0. 
 H                    -0.27636   1.53752   0. 
 H                    -0.78429  -1.54662   0. 
 H                    -1.78864  -0.35912  -0.88687 
 H                    -1.78864  -0.35912   0.88687 
 
                    Distance matrix (angstroms):
                    1          2          3          4          5
     1  C    0.000000
     2  C    1.336971   0.000000
     3  C    2.523407   1.501031   0.000000
     4  H    1.096280   2.126855   3.519542   0.000000
     5  H    1.098286   2.127506   2.795051   1.871025   0.000000
     6  H    2.099093   1.099924   2.215302   2.437817   3.091616
     7  H    2.683727   2.166439   1.104104   3.776779   2.494532
     8  H    3.250213   2.162868   1.107143   4.168800   3.568287
     9  H    3.250213   2.162868   1.107143   4.168800   3.568287
                    6          7          8          9
     6  H    0.000000
     7  H    3.125680   0.000000
     8  H    2.582784   1.790371   0.000000
     9  H    2.582784   1.790371   1.773748   0.000000
 Framework group  CS[SG(C3H4),X(H2)]
 Deg. of freedom    14
                         Standard orientation:                         
 ---------------------------------------------------------------------
 Center     Atomic      Atomic             Coordinates (Angstroms)
 Number     Number       Type             X           Y           Z
 ---------------------------------------------------------------------
      1          6           0       -1.296861    0.147850    0.000000
      2          6           0        0.000000    0.472878    0.000000
      3          6           0        1.141465   -0.501880    0.000000
      4          1           0       -2.080503    0.914489    0.000000
      5          1           0       -1.625050   -0.900255    0.000000
      6          1           0        0.276356    1.537519    0.000000
      7          1           0        0.784288   -1.546615    0.000000
      8          1           0        1.788642   -0.359115    0.886874
      9          1           0        1.788642   -0.359115   -0.886874
 ---------------------------------------------------------------------
 Rotational constants (GHZ):          46.3971579           9.2031177           8.0685654
    72 basis functions,   141 primitive gaussians,    75 cartesian basis functions
    12 alpha electrons       12 beta electrons
       nuclear repulsion energy        70.3248107715 Hartrees.
 NAtoms=    9 NActive=    9 NUniq=    8 SFac= 1.27D+00 NAtFMM=   60 NAOKFM=F Big=F
 ExpMin= 1.22D-01 ExpMax= 6.67D+03 ExpMxC= 2.28D+02 IAcc=3 IRadAn=         5 AccDes= 0.00D+00
 Harris functional with IExCor=  205 and IRadAn=       5 diagonalized for initial guess.
 HarFok:  IExCor=  205 AccDes= 0.00D+00 IRadAn=         5 IDoV= 1 UseB2=F ITyADJ=14
 ICtDFT=  3500011 ScaDFX=  1.000000  1.000000  1.000000  1.000000
 FoFCou: FMM=F IPFlag=           0 FMFlag=      100000 FMFlg1=           0
         NFxFlg=           0 DoJE=T BraDBF=F KetDBF=T FulRan=T
         wScrn=  0.000000 ICntrl=       500 IOpCl=  0 I1Cent=   200000004 NGrid=           0
         NMat0=    1 NMatS0=      1 NMatT0=    0 NMatD0=    1 NMtDS0=    0 NMtDT0=    0
 Petite list used in FoFCou.
 Initial guess orbital symmetries:
       Occupied  (A') (A') (A') (A') (A') (A') (A') (A') (A") (A')
                 (A') (A")
       Virtual   (A") (A') (A') (A') (A") (A') (A') (A') (A') (A')
                 (A') (A") (A') (A") (A') (A") (A') (A') (A') (A")
                 (A') (A') (A') (A') (A") (A") (A") (A') (A') (A')
                 (A') (A") (A') (A") (A') (A') (A") (A') (A") (A')
                 (A') (A") (A') (A') (A") (A") (A') (A') (A") (A')
                 (A') (A') (A") (A') (A') (A') (A") (A') (A') (A')
 The electronic state of the initial guess is 1-A'.
 SCF Done:  E(RHF) =  -117.081452501     A.U. after   12 cycles
            NFock= 12  Conv=0.28D-08     -V/T= 2.0026
 ExpMin= 1.22D-01 ExpMax= 6.67D+03 ExpMxC= 2.28D+02 IAcc=3 IRadAn=         5 AccDes= 0.00D+00
 HarFok:  IExCor=  205 AccDes= 0.00D+00 IRadAn=         5 IDoV=-2 UseB2=F ITyADJ=14
 ICtDFT= 12500011 ScaDFX=  1.000000  1.000000  1.000000  1.000000
 NROrb=     69 NOA=     9 NOB=     9 NVA=    60 NVB=    60
 Semi-Direct transformation.
 ModeAB=           4 MOrb=             9 LenV=    1572577928
 LASXX=       684636 LTotXX=      684636 LenRXX=     1403275
 LTotAB=      718639 MaxLAS=     1602180 LenRXY=           0
 NonZer=     2087911 LenScr=     3276800 LnRSAI=     1602180
 LnScr1=     2752512 LExtra=           0 Total=      9034767
 MaxDsk=          -1 SrtSym=           T ITran=            4
 JobTyp=0 Pass  1:  I=   1 to   9.
 (rs|ai) integrals will be sorted in core.
 ANorm=    0.1073211553D+01
 E2 =    -0.4187629141D+00 EUMP2 =    -0.11750021541563D+03
 CIDS: In Core Option IDoMem=           1.
 Produce multiple copies of IABC intergrals
 MP4(R+Q)=  0.90098474D-02
 E3=       -0.36306220D-01        EUMP3=      -0.11753652164D+03
 E4(DQ)=   -0.26917106D-02        UMP4(DQ)=   -0.11753921335D+03
 E4(SDQ)=  -0.53142673D-02        UMP4(SDQ)=  -0.11754183590D+03
 DE(Corr)= -0.44599841     E(Corr)=     -117.52745092    
 NORM(A)=   0.10853244D+01
 DE(Corr)= -0.45764097     E(CORR)=     -117.53909347     Delta=-1.16D-02
 NORM(A)=   0.10923727D+01
 DE(Corr)= -0.46032830     E(CORR)=     -117.54178080     Delta=-2.69D-03
 NORM(A)=   0.10939052D+01
 DE(Corr)= -0.46126601     E(CORR)=     -117.54271851     Delta=-9.38D-04
 NORM(A)=   0.10943309D+01
 DE(Corr)= -0.46137032     E(CORR)=     -117.54282282     Delta=-1.04D-04
 NORM(A)=   0.10943952D+01
 DE(Corr)= -0.46137894     E(CORR)=     -117.54283144     Delta=-8.62D-06
 NORM(A)=   0.10943944D+01
 DE(Corr)= -0.46137779     E(CORR)=     -117.54283030     Delta= 1.15D-06
 NORM(A)=   0.10943982D+01
 DE(Corr)= -0.46137761     E(CORR)=     -117.54283011     Delta= 1.85D-07
 NORM(A)=   0.10943983D+01
 DE(Corr)= -0.46137787     E(CORR)=     -117.54283037     Delta=-2.59D-07
 NORM(A)=   0.10943987D+01
 DE(Corr)= -0.46137797     E(CORR)=     -117.54283047     Delta=-9.89D-08
 NORM(A)=   0.10943988D+01
 Wavefunction amplitudes converged. E(Corr)=     -117.54283047    
 Dominant configurations:
 ***********************
 Spin Case        I    J    A    B          Value
   ABAB          12   12   13   13      -0.124853D+00
 Largest amplitude= 1.25D-01
 Time for triples=       25.92 seconds.
 T4(CCSD)= -0.15222994D-01
 T5(CCSD)=  0.36845914D-03
 CCSD(T)= -0.11755768500D+03
 Discarding MO integrals.

 **********************************************************************

            Population analysis using the SCF Density.

 **********************************************************************

 Orbital symmetries:
       Occupied  (A') (A') (A') (A') (A') (A') (A') (A') (A") (A')
                 (A') (A")
       Virtual   (A") (A') (A') (A') (A") (A') (A') (A') (A') (A')
                 (A') (A") (A') (A") (A') (A') (A") (A') (A") (A')
                 (A') (A') (A') (A') (A") (A") (A') (A") (A') (A')
                 (A') (A") (A') (A") (A') (A') (A") (A') (A") (A')
                 (A') (A") (A') (A") (A') (A") (A') (A') (A") (A')
                 (A') (A') (A") (A') (A') (A') (A") (A') (A') (A')
 The electronic state is 1-A'.
 Alpha  occ. eigenvalues --  -11.24002 -11.23301 -11.22727  -1.06011  -0.92813
 Alpha  occ. eigenvalues --   -0.75103  -0.63199  -0.57776  -0.56098  -0.51854
 Alpha  occ. eigenvalues --   -0.48551  -0.35609
 Alpha virt. eigenvalues --    0.17684   0.19284   0.22026   0.23140   0.26623
 Alpha virt. eigenvalues --    0.27388   0.29044   0.40257   0.50832   0.57967
 Alpha virt. eigenvalues --    0.61083   0.63041   0.70777   0.73020   0.76763
 Alpha virt. eigenvalues --    0.78137   0.82178   0.86254   0.87125   0.87860
 Alpha virt. eigenvalues --    0.91711   0.92588   0.98404   1.01221   1.11633
 Alpha virt. eigenvalues --    1.21471   1.24013   1.28783   1.29745   1.40582
 Alpha virt. eigenvalues --    1.44158   1.59470   1.67176   1.67844   1.74679
 Alpha virt. eigenvalues --    1.81153   1.83459   1.88170   1.89298   1.90592
 Alpha virt. eigenvalues --    1.94304   1.96309   1.97755   2.06546   2.07153
 Alpha virt. eigenvalues --    2.16827   2.22898   2.29917   2.36076   2.39784
 Alpha virt. eigenvalues --    2.50725   2.53919   2.55299   2.61783   2.72435
 Alpha virt. eigenvalues --    2.79708   2.81472   2.89784   3.06081   3.31898
          Condensed to atoms (all electrons):
 Mulliken charges:
               1
     1  C   -0.050999
     2  C   -0.183553
     3  C   -0.011441
     4  H    0.048140
     5  H    0.039733
     6  H    0.030513
     7  H    0.035983
     8  H    0.045812
     9  H    0.045812
 Sum of Mulliken charges =   0.00000
 Mulliken charges with hydrogens summed into heavy atoms:
               1
     1  C    0.036874
     2  C   -0.153039
     3  C    0.116166
 Electronic spatial extent (au):  <R**2>=            199.1105
 Charge=              0.0000 electrons
 Dipole moment (field-independent basis, Debye):
    X=              0.3695    Y=             -0.0200    Z=             -0.0000  Tot=              0.3701
 Unable to Open any file for archive entry.
 1\1\GINC-NODE02\SP\RCCSD(T)-FC\CC-pVDZ\C3H6\XUHJ\20-Dec-2023\0\\#T CCS
 D(T)/cc-pVDZ symm=veryloose\\C=CC\\0,1\C,0,1.296861,0.14785,0.\C,0,0.,
 0.472878,0.\C,0,-1.141465,-0.50188,0.\H,0,2.080503,0.914489,0.\H,0,1.6
 2505,-0.900255,0.\H,0,-0.276356,1.537519,0.\H,0,-0.784288,-1.546615,0.
 \H,0,-1.788642,-0.359115,-0.886874\H,0,-1.788642,-0.359115,0.886874\\V
 ersion=ES64L-G16RevC.01\State=1-A'\HF=-117.0814525\MP2=-117.5002154\MP
 3=-117.5365216\MP4D=-117.5482232\MP4DQ=-117.5392133\MP4SDQ=-117.541835
 9\CCSD=-117.5428305\CCSD(T)=-117.557685\RMSD=2.810e-09\PG=CS [SG(C3H4)
 ,X(H2)]\\@
 The archive entry for this job was punched.


 THOSE WITH THE GOLD MAKE THE RULES.

             -- PETER'S GOLDEN RULE
 Job cpu time:       0 days  0 hours  1 minutes 38.5 seconds.
 Elapsed time:       0 days  0 hours  0 minutes  6.8 seconds.
 File lengths (MBytes):  RWF=     91 Int=      0 D2E=      0 Chk=      2 Scr=      2
 Normal termination of Gaussian 16 at Wed Dec 20 05:10:29 2023.
 Initial command:
 /home/software/g16/l1.exe "/home/software/g16tmp/Gau-176503.inp" -scrdir="/home/software/g16tmp/"
 Default is to use a total of   8 processors:
                                8 via shared-memory
                                1 via Linda
 Entering Link 1 = /home/software/g16/l1.exe PID=    176703.
  
 Copyright (c) 1988-2019, Gaussian, Inc.  All Rights Reserved.
  
 This is part of the Gaussian(R) 16 program.  It is based on
 the Gaussian(R) 09 system (copyright 2009, Gaussian, Inc.),
 the Gaussian(R) 03 system (copyright 2003, Gaussian, Inc.),
 the Gaussian(R) 98 system (copyright 1998, Gaussian, Inc.),
 the Gaussian(R) 94 system (copyright 1995, Gaussian, Inc.),
 the Gaussian 92(TM) system (copyright 1992, Gaussian, Inc.),
 the Gaussian 90(TM) system (copyright 1990, Gaussian, Inc.),
 the Gaussian 88(TM) system (copyright 1988, Gaussian, Inc.),
 the Gaussian 86(TM) system (copyright 1986, Carnegie Mellon
 University), and the Gaussian 82(TM) system (copyright 1983,
 Carnegie Mellon University). Gaussian is a federally registered
 trademark of Gaussian, Inc.
  
 This software contains proprietary and confidential information,
 including trade secrets, belonging to Gaussian, Inc.
  
 This software is provided under written license and may be
 used, copied, transmitted, or stored only in accord with that
 written license.
  
 The following legend is applicable only to US Government
 contracts under FAR:
  
                    RESTRICTED RIGHTS LEGEND
  
 Use, reproduction and disclosure by the US Government is
 subject to restrictions as set forth in subparagraphs (a)
 and (c) of the Commercial Computer Software - Restricted
 Rights clause in FAR 52.227-19.
  
 Gaussian, Inc.
 340 Quinnipiac St., Bldg. 40, Wallingford CT 06492
  
  
 ---------------------------------------------------------------
 Warning -- This program may not be used in any manner that
 competes with the business of Gaussian, Inc. or will provide
 assistance to any competitor of Gaussian, Inc.  The licensee
 of this program is prohibited from giving any competitor of
 Gaussian, Inc. access to this program.  By using this program,
 the user acknowledges that Gaussian, Inc. is engaged in the
 business of creating and licensing software in the field of
 computational chemistry and represents and warrants to the
 licensee that it is not a competitor of Gaussian, Inc. and that
 it will not use this program in any manner prohibited above.
 ---------------------------------------------------------------
  

 Cite this work as:
 Gaussian 16, Revision C.01,
 M. J. Frisch, G. W. Trucks, H. B. Schlegel, G. E. Scuseria, 
 M. A. Robb, J. R. Cheeseman, G. Scalmani, V. Barone, 
 G. A. Petersson, H. Nakatsuji, X. Li, M. Caricato, A. V. Marenich, 
 J. Bloino, B. G. Janesko, R. Gomperts, B. Mennucci, H. P. Hratchian, 
 J. V. Ortiz, A. F. Izmaylov, J. L. Sonnenberg, D. Williams-Young, 
 F. Ding, F. Lipparini, F. Egidi, J. Goings, B. Peng, A. Petrone, 
 T. Henderson, D. Ranasinghe, V. G. Zakrzewski, J. Gao, N. Rega, 
 G. Zheng, W. Liang, M. Hada, M. Ehara, K. Toyota, R. Fukuda, 
 J. Hasegawa, M. Ishida, T. Nakajima, Y. Honda, O. Kitao, H. Nakai, 
 T. Vreven, K. Throssell, J. A. Montgomery, Jr., J. E. Peralta, 
 F. Ogliaro, M. J. Bearpark, J. J. Heyd, E. N. Brothers, K. N. Kudin, 
 V. N. Staroverov, T. A. Keith, R. Kobayashi, J. Normand, 
 K. Raghavachari, A. P. Rendell, J. C. Burant, S. S. Iyengar, 
 J. Tomasi, M. Cossi, J. M. Millam, M. Klene, C. Adamo, R. Cammi, 
 J. W. Ochterski, R. L. Martin, K. Morokuma, O. Farkas, 
 J. B. Foresman, and D. J. Fox, Gaussian, Inc., Wallingford CT, 2019.
 
 ******************************************
 Gaussian 16:  ES64L-G16RevC.01  3-Jul-2019
                20-Dec-2023 
 ******************************************
 %nprocshared=16
 Will use up to   16 processors via shared memory.
 %mem=12000MB
 %chk=QQONPFPTGQHPMA-UHFFFAOYSA-N.chk
 -----------------------------------------------
 #T CCSD(T)/cc-pVTZ symm=veryloose geom=allcheck
 -----------------------------------------------
 Structure from the checkpoint file:  "QQONPFPTGQHPMA-UHFFFAOYSA-N.chk"
 ----
 C=CC
 ----
 Charge =  0 Multiplicity = 1
 Z-Matrix found in chk file.
 C,0,1.296861,0.14785,0.
 C,0,0.,0.472878,0.
 C,0,-1.141465,-0.50188,0.
 H,0,2.080503,0.914489,0.
 H,0,1.62505,-0.900255,0.
 H,0,-0.276356,1.537519,0.
 H,0,-0.784288,-1.546615,0.
 H,0,-1.788642,-0.359115,-0.886874
 H,0,-1.788642,-0.359115,0.886874
 Recover connectivity data from disk.
                    Distance matrix (angstroms):
                    1          2          3          4          5
     1  C    0.000000
     2  C    1.336971   0.000000
     3  C    2.523407   1.501031   0.000000
     4  H    1.096280   2.126855   3.519542   0.000000
     5  H    1.098286   2.127506   2.795051   1.871025   0.000000
     6  H    2.099093   1.099924   2.215302   2.437817   3.091616
     7  H    2.683727   2.166439   1.104104   3.776779   2.494532
     8  H    3.250213   2.162868   1.107143   4.168800   3.568287
     9  H    3.250213   2.162868   1.107143   4.168800   3.568287
                    6          7          8          9
     6  H    0.000000
     7  H    3.125680   0.000000
     8  H    2.582784   1.790371   0.000000
     9  H    2.582784   1.790371   1.773748   0.000000
 Framework group  CS[SG(C3H4),X(H2)]
 Deg. of freedom    14
                         Standard orientation:                         
 ---------------------------------------------------------------------
 Center     Atomic      Atomic             Coordinates (Angstroms)
 Number     Number       Type             X           Y           Z
 ---------------------------------------------------------------------
      1          6           0       -1.296861    0.147850    0.000000
      2          6           0        0.000000    0.472878    0.000000
      3          6           0        1.141465   -0.501880    0.000000
      4          1           0       -2.080503    0.914489    0.000000
      5          1           0       -1.625050   -0.900255    0.000000
      6          1           0        0.276356    1.537519    0.000000
      7          1           0        0.784288   -1.546615    0.000000
      8          1           0        1.788642   -0.359115    0.886874
      9          1           0        1.788642   -0.359115   -0.886874
 ---------------------------------------------------------------------
 Rotational constants (GHZ):          46.3971579           9.2031177           8.0685654
   174 basis functions,   258 primitive gaussians,   195 cartesian basis functions
    12 alpha electrons       12 beta electrons
       nuclear repulsion energy        70.3248107715 Hartrees.
 NAtoms=    9 NActive=    9 NUniq=    8 SFac= 1.27D+00 NAtFMM=   60 NAOKFM=F Big=F
 ExpMin= 1.03D-01 ExpMax= 8.24D+03 ExpMxC= 2.81D+02 IAcc=3 IRadAn=         5 AccDes= 0.00D+00
 Harris functional with IExCor=  205 and IRadAn=       5 diagonalized for initial guess.
 HarFok:  IExCor=  205 AccDes= 0.00D+00 IRadAn=         5 IDoV= 1 UseB2=F ITyADJ=14
 ICtDFT=  3500011 ScaDFX=  1.000000  1.000000  1.000000  1.000000
 FoFCou: FMM=F IPFlag=           0 FMFlag=      100000 FMFlg1=           0
         NFxFlg=           0 DoJE=T BraDBF=F KetDBF=T FulRan=T
         wScrn=  0.000000 ICntrl=       500 IOpCl=  0 I1Cent=   200000004 NGrid=           0
         NMat0=    1 NMatS0=      1 NMatT0=    0 NMatD0=    1 NMtDS0=    0 NMtDT0=    0
 Petite list used in FoFCou.
 Initial guess orbital symmetries:
       Occupied  (A') (A') (A') (A') (A') (A') (A') (A') (A") (A')
                 (A') (A")
       Virtual   (A") (A') (A') (A') (A") (A') (A') (A') (A') (A")
                 (A') (A') (A') (A") (A') (A') (A") (A") (A') (A')
                 (A') (A') (A') (A") (A') (A') (A") (A") (A') (A')
                 (A') (A') (A") (A") (A') (A') (A") (A") (A') (A")
                 (A') (A') (A') (A") (A') (A") (A') (A') (A') (A")
                 (A') (A') (A") (A') (A') (A") (A') (A') (A') (A')
                 (A") (A') (A') (A") (A') (A") (A') (A') (A') (A")
                 (A') (A") (A') (A') (A") (A") (A') (A') (A") (A')
                 (A") (A') (A") (A') (A") (A') (A") (A') (A") (A')
                 (A') (A') (A") (A') (A") (A') (A") (A') (A") (A')
                 (A") (A') (A") (A') (A") (A') (A') (A') (A') (A")
                 (A') (A") (A') (A") (A') (A") (A') (A") (A') (A')
                 (A") (A') (A") (A') (A") (A') (A') (A") (A') (A')
                 (A") (A') (A') (A") (A') (A') (A") (A") (A') (A')
                 (A") (A') (A') (A") (A') (A') (A") (A') (A") (A")
                 (A') (A') (A') (A') (A') (A") (A') (A') (A') (A')
                 (A') (A')
 The electronic state of the initial guess is 1-A'.
 SCF Done:  E(RHF) =  -117.114426716     A.U. after   11 cycles
            NFock= 11  Conv=0.85D-08     -V/T= 2.0026
 ExpMin= 1.03D-01 ExpMax= 8.24D+03 ExpMxC= 2.81D+02 IAcc=3 IRadAn=         5 AccDes= 0.00D+00
 HarFok:  IExCor=  205 AccDes= 0.00D+00 IRadAn=         5 IDoV=-2 UseB2=F ITyADJ=14
 ICtDFT= 12500011 ScaDFX=  1.000000  1.000000  1.000000  1.000000
 NROrb=    171 NOA=     9 NOB=     9 NVA=   162 NVB=   162

 **** Warning!!: The largest alpha MO coefficient is  0.12025523D+02

 Semi-Direct transformation.
 ModeAB=           4 MOrb=             9 LenV=    1571950118
 LASXX=     10974744 LTotXX=    10974744 LenRXX=    22162714
 LTotAB=    11187970 MaxLAS=    25701300 LenRXY=           0
 NonZer=    33137458 LenScr=    49938432 LnRSAI=    25701300
 LnScr1=    38928384 LExtra=           0 Total=    136730830
 MaxDsk=          -1 SrtSym=           T ITran=            4
 JobTyp=0 Pass  1:  I=   1 to   9.
 (rs|ai) integrals will be sorted in core.
 ANorm=    0.1081029275D+01
 E2 =    -0.5103589701D+00 EUMP2 =    -0.11762478568580D+03
 CIDS: In Core Option IDoMem=           1.
 Produce multiple copies of IABC intergrals
 MP4(R+Q)=  0.13233840D-01
 E3=       -0.31587271D-01        EUMP3=      -0.11765637296D+03
 E4(DQ)=    0.10982988D-02        UMP4(DQ)=   -0.11765527466D+03
 E4(SDQ)=  -0.26847355D-02        UMP4(SDQ)=  -0.11765905769D+03
 DE(Corr)= -0.52851789     E(Corr)=     -117.64294460    
 NORM(A)=   0.10897754D+01
 DE(Corr)= -0.54144922     E(CORR)=     -117.65587594     Delta=-1.29D-02
 NORM(A)=   0.10968821D+01
 DE(Corr)= -0.54334296     E(CORR)=     -117.65776968     Delta=-1.89D-03
 NORM(A)=   0.10984812D+01
 DE(Corr)= -0.54444771     E(CORR)=     -117.65887443     Delta=-1.10D-03
 NORM(A)=   0.10989217D+01
 DE(Corr)= -0.54455358     E(CORR)=     -117.65898030     Delta=-1.06D-04
 NORM(A)=   0.10989998D+01
 DE(Corr)= -0.54456487     E(CORR)=     -117.65899158     Delta=-1.13D-05
 NORM(A)=   0.10990000D+01
 DE(Corr)= -0.54456462     E(CORR)=     -117.65899133     Delta= 2.52D-07
 NORM(A)=   0.10990031D+01
 DE(Corr)= -0.54456376     E(CORR)=     -117.65899048     Delta= 8.54D-07
 NORM(A)=   0.10990034D+01
 DE(Corr)= -0.54456429     E(CORR)=     -117.65899101     Delta=-5.31D-07
 NORM(A)=   0.10990038D+01
 DE(Corr)= -0.54456436     E(CORR)=     -117.65899108     Delta=-6.70D-08
 NORM(A)=   0.10990040D+01
 Wavefunction amplitudes converged. E(Corr)=     -117.65899108    
 Dominant configurations:
 ***********************
 Spin Case        I    J    A    B          Value
   ABAB          12   12   14   14      -0.109288D+00
 Largest amplitude= 1.09D-01
 Time for triples=     1560.84 seconds.
 T4(CCSD)= -0.23362733D-01
 T5(CCSD)=  0.58755875D-03
 CCSD(T)= -0.11768176625D+03
 Discarding MO integrals.

 **********************************************************************

            Population analysis using the SCF Density.

 **********************************************************************

 Orbital symmetries:
       Occupied  (A') (A') (A') (A') (A') (A') (A') (A') (A") (A')
                 (A') (A")
       Virtual   (A') (A") (A') (A') (A") (A') (A') (A') (A') (A")
                 (A') (A') (A") (A') (A') (A") (A') (A') (A') (A")
                 (A') (A') (A') (A") (A') (A") (A') (A') (A") (A')
                 (A') (A') (A") (A') (A") (A") (A') (A") (A') (A")
                 (A') (A') (A') (A") (A') (A') (A") (A') (A') (A")
                 (A') (A') (A") (A') (A") (A') (A') (A') (A') (A')
                 (A") (A') (A') (A") (A') (A") (A') (A') (A') (A")
                 (A') (A") (A') (A') (A") (A") (A') (A') (A") (A")
                 (A') (A') (A") (A') (A") (A') (A") (A') (A") (A')
                 (A') (A') (A") (A') (A") (A') (A") (A') (A") (A')
                 (A") (A") (A') (A') (A") (A') (A') (A') (A") (A')
                 (A") (A') (A') (A") (A') (A") (A") (A') (A') (A")
                 (A') (A') (A") (A') (A") (A') (A") (A') (A') (A')
                 (A") (A') (A') (A") (A') (A") (A') (A") (A') (A')
                 (A") (A') (A') (A") (A') (A') (A") (A') (A") (A")
                 (A') (A') (A') (A') (A') (A") (A') (A') (A') (A')
                 (A') (A')
 The electronic state is 1-A'.
 Alpha  occ. eigenvalues --  -11.23638 -11.22692 -11.22077  -1.06018  -0.92843
 Alpha  occ. eigenvalues --   -0.75237  -0.63404  -0.57995  -0.56261  -0.52041
 Alpha  occ. eigenvalues --   -0.48784  -0.35795
 Alpha virt. eigenvalues --    0.14679   0.16321   0.17731   0.18315   0.21889
 Alpha virt. eigenvalues --    0.22195   0.24530   0.30939   0.38446   0.38969
 Alpha virt. eigenvalues --    0.40052   0.44897   0.47066   0.48366   0.51293
 Alpha virt. eigenvalues --    0.58431   0.58582   0.60481   0.62895   0.62999
 Alpha virt. eigenvalues --    0.63358   0.64972   0.67060   0.71047   0.73483
 Alpha virt. eigenvalues --    0.80484   0.82461   0.83981   0.85864   0.90085
 Alpha virt. eigenvalues --    0.92414   1.06186   1.06217   1.09115   1.09670
 Alpha virt. eigenvalues --    1.18773   1.19473   1.20022   1.22693   1.24657
 Alpha virt. eigenvalues --    1.28854   1.29794   1.34601   1.34939   1.38786
 Alpha virt. eigenvalues --    1.41488   1.42569   1.49728   1.50915   1.53497
 Alpha virt. eigenvalues --    1.57633   1.59370   1.61294   1.65064   1.71200
 Alpha virt. eigenvalues --    1.71824   1.74091   1.76959   1.91169   2.08556
 Alpha virt. eigenvalues --    2.37058   2.39793   2.47947   2.53407   2.58446
 Alpha virt. eigenvalues --    2.59505   2.64568   2.67479   2.72125   2.77992
 Alpha virt. eigenvalues --    2.85519   2.91124   2.92065   2.97620   3.03329
 Alpha virt. eigenvalues --    3.06544   3.07322   3.09171   3.12304   3.16737
 Alpha virt. eigenvalues --    3.16851   3.20018   3.20599   3.21431   3.24471
 Alpha virt. eigenvalues --    3.28231   3.30094   3.33279   3.35014   3.37237
 Alpha virt. eigenvalues --    3.41677   3.42408   3.46111   3.50475   3.55492
 Alpha virt. eigenvalues --    3.57224   3.58913   3.62965   3.63192   3.70508
 Alpha virt. eigenvalues --    3.73620   3.74633   3.75179   3.76856   3.83352
 Alpha virt. eigenvalues --    3.90933   3.91517   3.96913   3.99836   4.01840
 Alpha virt. eigenvalues --    4.04775   4.04962   4.08639   4.13317   4.18431
 Alpha virt. eigenvalues --    4.19574   4.22523   4.23233   4.26489   4.31760
 Alpha virt. eigenvalues --    4.33800   4.34664   4.39314   4.41153   4.41416
 Alpha virt. eigenvalues --    4.51148   4.51247   4.56377   4.58258   4.69512
 Alpha virt. eigenvalues --    4.69667   4.75655   4.79450   4.85948   4.94446
 Alpha virt. eigenvalues --    5.00636   5.06378   5.11282   5.13694   5.17659
 Alpha virt. eigenvalues --    5.24744   5.26390   5.31258   5.33258   5.38340
 Alpha virt. eigenvalues --    5.50361   5.50376   5.53791   5.57877   5.61404
 Alpha virt. eigenvalues --    5.67580   5.74310   5.76519   5.96308   6.19369
 Alpha virt. eigenvalues --    6.22908   6.27588   6.33935   6.58888  11.21111
 Alpha virt. eigenvalues --   13.85909  14.52012
          Condensed to atoms (all electrons):
 Mulliken charges:
               1
     1  C   -0.333853
     2  C   -0.107029
     3  C   -0.232417
     4  H    0.134934
     5  H    0.127855
     6  H    0.142234
     7  H    0.089880
     8  H    0.089198
     9  H    0.089198
 Sum of Mulliken charges =  -0.00000
 Mulliken charges with hydrogens summed into heavy atoms:
               1
     1  C   -0.071064
     2  C    0.035205
     3  C    0.035859
 Electronic spatial extent (au):  <R**2>=            199.3327
 Charge=             -0.0000 electrons
 Dipole moment (field-independent basis, Debye):
    X=              0.3889    Y=             -0.0313    Z=             -0.0000  Tot=              0.3901
 Unable to Open any file for archive entry.
 1\1\GINC-NODE02\SP\RCCSD(T)-FC\CC-pVTZ\C3H6\XUHJ\20-Dec-2023\0\\#T CCS
 D(T)/cc-pVTZ symm=veryloose geom=allcheck\\C=CC\\0,1\C,0,1.296861,0.14
 785,0.\C,0,0.,0.472878,0.\C,0,-1.141465,-0.50188,0.\H,0,2.080503,0.914
 489,0.\H,0,1.62505,-0.900255,0.\H,0,-0.276356,1.537519,0.\H,0,-0.78428
 8,-1.546615,0.\H,0,-1.788642,-0.359115,-0.886874\H,0,-1.788642,-0.3591
 15,0.886874\\Version=ES64L-G16RevC.01\State=1-A'\HF=-117.1144267\MP2=-
 117.6247857\MP3=-117.656373\MP4D=-117.6685085\MP4DQ=-117.6552747\MP4SD
 Q=-117.6590577\CCSD=-117.6589911\CCSD(T)=-117.6817663\RMSD=8.467e-09\P
 G=CS [SG(C3H4),X(H2)]\\@
 The archive entry for this job was punched.


 TO SEE A WORLD IN A GRAIN OF SAND
 AND A HEAVEN IN A WILD FLOWER
 HOLD INFINITY IN THE PALM OF YOUR HAND
 AND ETERNITY IN AN HOUR

                       -- WILLIAM BLAKE
 Job cpu time:       0 days  0 hours 38 minutes  9.0 seconds.
 Elapsed time:       0 days  0 hours  2 minutes 25.7 seconds.
 File lengths (MBytes):  RWF=   1085 Int=      0 D2E=      0 Chk=      4 Scr=      2
 Normal termination of Gaussian 16 at Wed Dec 20 05:12:57 2023.
