%nprocshared=12
%mem=15600MB
%chk=QSQIGGCOCHABAP-UHFFFAOYSA-N-1.chk
#T CCSD(T)/cc-pVDZ symm=veryloose 

c1ccc2cc3cc4cc5cc6ccccc6cc5cc4cc3cc2c1

0 1
C        -0.000000       7.355475       0.717756
C         0.000000       7.355475      -0.717756
C         0.000000       6.177377      -1.412442
C         0.000000       4.912522      -0.729004
C         0.000000       3.701786      -1.410115
C         0.000000       2.456944      -0.730265
C         0.000000       1.233441      -1.411098
C         0.000000      -0.000000      -0.730903
C        -0.000000      -1.233441      -1.411098
C        -0.000000      -2.456944      -0.730265
C        -0.000000      -3.701786      -1.410115
C        -0.000000      -4.912522      -0.729004
C        -0.000000      -6.177377      -1.412442
C        -0.000000      -7.355475      -0.717756
C        -0.000000      -7.355475       0.717756
C        -0.000000      -6.177377       1.412442
C        -0.000000      -4.912522       0.729004
C        -0.000000      -3.701786       1.410115
C        -0.000000      -2.456944       0.730265
C        -0.000000      -1.233441       1.411098
C        -0.000000      -0.000000       0.730903
C        -0.000000       1.233441       1.411098
C        -0.000000       2.456944       0.730265
C        -0.000000       3.701786       1.410115
C        -0.000000       4.912522       0.729004
C        -0.000000       6.177377       1.412442
H        -0.000000       8.309656       1.252891
H         0.000000       8.309656      -1.252891
H         0.000000       6.175290      -2.506844
H         0.000000       3.702234      -2.504724
H         0.000000       1.233742      -2.505561
H        -0.000000      -1.233742      -2.505561
H        -0.000000      -3.702234      -2.504724
H        -0.000000      -6.175290      -2.506844
H        -0.000000      -8.309656      -1.252891
H        -0.000000      -8.309656       1.252891
H        -0.000000      -6.175290       2.506844
H        -0.000000      -3.702234       2.504724
H        -0.000000      -1.233742       2.505561
H        -0.000000       1.233742       2.505561
H        -0.000000       3.702234       2.504724
H        -0.000000       6.175290       2.506844


--link1--
%nprocshared=12
%mem=15600MB
%chk=QSQIGGCOCHABAP-UHFFFAOYSA-N-1.chk
#T CCSD(T)/cc-pVTZ symm=veryloose geom=allcheck 

