 Entering Gaussian System, Link 0=g16
 Initial command:
 /home/software/g16/l1.exe "/home/software/g16tmp/Gau-123925.inp" -scrdir="/home/software/g16tmp/"
 Default is to use a total of   8 processors:
                                8 via shared-memory
                                1 via Linda
 Entering Link 1 = /home/software/g16/l1.exe PID=    123926.
  
 Copyright (c) 1988-2019, Gaussian, Inc.  All Rights Reserved.
  
 This is part of the Gaussian(R) 16 program.  It is based on
 the Gaussian(R) 09 system (copyright 2009, Gaussian, Inc.),
 the Gaussian(R) 03 system (copyright 2003, Gaussian, Inc.),
 the Gaussian(R) 98 system (copyright 1998, Gaussian, Inc.),
 the Gaussian(R) 94 system (copyright 1995, Gaussian, Inc.),
 the Gaussian 92(TM) system (copyright 1992, Gaussian, Inc.),
 the Gaussian 90(TM) system (copyright 1990, Gaussian, Inc.),
 the Gaussian 88(TM) system (copyright 1988, Gaussian, Inc.),
 the Gaussian 86(TM) system (copyright 1986, Carnegie Mellon
 University), and the Gaussian 82(TM) system (copyright 1983,
 Carnegie Mellon University). Gaussian is a federally registered
 trademark of Gaussian, Inc.
  
 This software contains proprietary and confidential information,
 including trade secrets, belonging to Gaussian, Inc.
  
 This software is provided under written license and may be
 used, copied, transmitted, or stored only in accord with that
 written license.
  
 The following legend is applicable only to US Government
 contracts under FAR:
  
                    RESTRICTED RIGHTS LEGEND
  
 Use, reproduction and disclosure by the US Government is
 subject to restrictions as set forth in subparagraphs (a)
 and (c) of the Commercial Computer Software - Restricted
 Rights clause in FAR 52.227-19.
  
 Gaussian, Inc.
 340 Quinnipiac St., Bldg. 40, Wallingford CT 06492
  
  
 ---------------------------------------------------------------
 Warning -- This program may not be used in any manner that
 competes with the business of Gaussian, Inc. or will provide
 assistance to any competitor of Gaussian, Inc.  The licensee
 of this program is prohibited from giving any competitor of
 Gaussian, Inc. access to this program.  By using this program,
 the user acknowledges that Gaussian, Inc. is engaged in the
 business of creating and licensing software in the field of
 computational chemistry and represents and warrants to the
 licensee that it is not a competitor of Gaussian, Inc. and that
 it will not use this program in any manner prohibited above.
 ---------------------------------------------------------------
  

 Cite this work as:
 Gaussian 16, Revision C.01,
 M. J. Frisch, G. W. Trucks, H. B. Schlegel, G. E. Scuseria, 
 M. A. Robb, J. R. Cheeseman, G. Scalmani, V. Barone, 
 G. A. Petersson, H. Nakatsuji, X. Li, M. Caricato, A. V. Marenich, 
 J. Bloino, B. G. Janesko, R. Gomperts, B. Mennucci, H. P. Hratchian, 
 J. V. Ortiz, A. F. Izmaylov, J. L. Sonnenberg, D. Williams-Young, 
 F. Ding, F. Lipparini, F. Egidi, J. Goings, B. Peng, A. Petrone, 
 T. Henderson, D. Ranasinghe, V. G. Zakrzewski, J. Gao, N. Rega, 
 G. Zheng, W. Liang, M. Hada, M. Ehara, K. Toyota, R. Fukuda, 
 J. Hasegawa, M. Ishida, T. Nakajima, Y. Honda, O. Kitao, H. Nakai, 
 T. Vreven, K. Throssell, J. A. Montgomery, Jr., J. E. Peralta, 
 F. Ogliaro, M. J. Bearpark, J. J. Heyd, E. N. Brothers, K. N. Kudin, 
 V. N. Staroverov, T. A. Keith, R. Kobayashi, J. Normand, 
 K. Raghavachari, A. P. Rendell, J. C. Burant, S. S. Iyengar, 
 J. Tomasi, M. Cossi, J. M. Millam, M. Klene, C. Adamo, R. Cammi, 
 J. W. Ochterski, R. L. Martin, K. Morokuma, O. Farkas, 
 J. B. Foresman, and D. J. Fox, Gaussian, Inc., Wallingford CT, 2019.
 
 ******************************************
 Gaussian 16:  ES64L-G16RevC.01  3-Jul-2019
                20-Dec-2023 
 ******************************************
 %nprocshared=16
 Will use up to   16 processors via shared memory.
 %mem=8000MB
 %chk=QUPDWYMUPZLYJZ-UHFFFAOYSA-N.chk
 ---------------------------------
 #T CCSD(T)/cc-pVDZ symm=veryloose
 ---------------------------------
 ------
 [CH2]C
 ------
 Symbolic Z-matrix:
 Charge =  0 Multiplicity = 2
 C                     0.01138   0.79576   0. 
 C                     0.01138  -0.69339   0. 
 H                    -0.06988   1.35723   0.93745 
 H                    -0.06988   1.35723  -0.93745 
 H                     0.51213  -1.10747   0.8951 
 H                     0.51213  -1.10747  -0.8951 
 H                    -1.02106  -1.1137    0. 
 
                    Distance matrix (angstroms):
                    1          2          3          4          5
     1  C    0.000000
     2  C    1.489148   0.000000
     3  H    1.095754   2.256209   0.000000
     4  H    1.095754   2.256209   1.874906   0.000000
     5  H    2.161991   1.106080   2.532837   3.125977   0.000000
     6  H    2.161991   1.106080   3.125977   2.532837   1.790206
     7  H    2.170706   1.114718   2.808748   2.808748   1.775363
                    6          7
     6  H    0.000000
     7  H    1.775363   0.000000
 Framework group  CS[SG(C2H),X(H4)]
 Deg. of freedom     9
                         Standard orientation:                         
 ---------------------------------------------------------------------
 Center     Atomic      Atomic             Coordinates (Angstroms)
 Number     Number       Type             X           Y           Z
 ---------------------------------------------------------------------
      1          6           0        0.011381    0.795755   -0.000000
      2          6           0        0.011381   -0.693393    0.000000
      3          1           0       -0.069884    1.357231    0.937453
      4          1           0       -0.069884    1.357231   -0.937453
      5          1           0        0.512127   -1.107466    0.895103
      6          1           0        0.512127   -1.107466   -0.895103
      7          1           0       -1.021061   -1.113702    0.000000
 ---------------------------------------------------------------------
 Rotational constants (GHZ):         101.5549556          22.5793816          20.9019059
    53 basis functions,   101 primitive gaussians,    55 cartesian basis functions
     9 alpha electrons        8 beta electrons
       nuclear repulsion energy        36.6990003110 Hartrees.
 NAtoms=    7 NActive=    7 NUniq=    5 SFac= 1.96D+00 NAtFMM=   60 NAOKFM=F Big=F
 ExpMin= 1.22D-01 ExpMax= 6.67D+03 ExpMxC= 2.28D+02 IAcc=3 IRadAn=         5 AccDes= 0.00D+00
 Harris functional with IExCor=  205 and IRadAn=       5 diagonalized for initial guess.
 HarFok:  IExCor=  205 AccDes= 0.00D+00 IRadAn=         5 IDoV= 1 UseB2=F ITyADJ=14
 ICtDFT=  3500011 ScaDFX=  1.000000  1.000000  1.000000  1.000000
 FoFCou: FMM=F IPFlag=           0 FMFlag=      100000 FMFlg1=           0
         NFxFlg=           0 DoJE=T BraDBF=F KetDBF=T FulRan=T
         wScrn=  0.000000 ICntrl=       500 IOpCl=  0 I1Cent=   200000004 NGrid=           0
         NMat0=    1 NMatS0=      1 NMatT0=    0 NMatD0=    1 NMtDS0=    0 NMtDT0=    0
 Petite list used in FoFCou.
 Initial guess orbital symmetries:
 Alpha Orbitals:
       Occupied  (A') (A') (A') (A') (A") (A') (A') (A") (A')
       Virtual   (A') (A") (A') (A') (A") (A') (A") (A') (A') (A')
                 (A') (A") (A') (A') (A") (A") (A') (A') (A') (A")
                 (A") (A') (A') (A") (A') (A") (A') (A") (A') (A")
                 (A') (A') (A") (A') (A") (A') (A') (A") (A') (A')
                 (A') (A") (A') (A")
 Beta  Orbitals:
       Occupied  (A') (A') (A') (A') (A") (A') (A') (A")
       Virtual   (A') (A') (A") (A') (A') (A") (A') (A") (A') (A')
                 (A') (A') (A") (A') (A') (A") (A") (A') (A') (A')
                 (A") (A") (A') (A') (A") (A') (A") (A') (A") (A')
                 (A") (A') (A') (A") (A') (A") (A') (A') (A") (A')
                 (A') (A') (A") (A') (A")
 The electronic state of the initial guess is 2-A'.
 Initial guess <Sx>= 0.0000 <Sy>= 0.0000 <Sz>= 0.5000 <S**2>= 0.7500 S= 0.5000
 SCF Done:  E(UHF) =  -78.6034410002     A.U. after   14 cycles
            NFock= 14  Conv=0.88D-08     -V/T= 2.0023
 <Sx>= 0.0000 <Sy>= 0.0000 <Sz>= 0.5000 <S**2>= 0.7632 S= 0.5066
 <L.S>=  0.00000000000    
 Annihilation of the first spin contaminant:
 S**2 before annihilation     0.7632,   after     0.7501
 ExpMin= 1.22D-01 ExpMax= 6.67D+03 ExpMxC= 2.28D+02 IAcc=3 IRadAn=         5 AccDes= 0.00D+00
 HarFok:  IExCor=  205 AccDes= 0.00D+00 IRadAn=         5 IDoV=-2 UseB2=F ITyADJ=14
 ICtDFT= 12500011 ScaDFX=  1.000000  1.000000  1.000000  1.000000
 NROrb=     51 NOA=     7 NOB=     6 NVA=    44 NVB=    45
 Semi-Direct transformation.
 ModeAB=           4 MOrb=             7 LenV=    1048330128
 LASXX=       207303 LTotXX=      207303 LenRXX=      432161
 LTotAB=      224858 MaxLAS=      409479 LenRXY=           0
 NonZer=      639464 LenScr=     1310720 LnRSAI=      409479
 LnScr1=     1048576 LExtra=           0 Total=      3200936
 MaxDsk=          -1 SrtSym=           T ITran=            4
 JobTyp=1 Pass  1:  I=   1 to   7.
 (rs|ai) integrals will be sorted in core.
 ModeAB=           4 MOrb=             6 LenV=    1048330128
 LASXX=       180244 LTotXX=      180244 LenRXX=      325261
 LTotAB=      145017 MaxLAS=      350982 LenRXY=           0
 NonZer=      505505 LenScr=     1310720 LnRSAI=      350982
 LnScr1=     1048576 LExtra=           0 Total=      3035539
 MaxDsk=          -1 SrtSym=           T ITran=            4
 JobTyp=2 Pass  1:  I=   1 to   6.
 (rs|ai) integrals will be sorted in core.
 ANorm=    0.1044912421D+01
 E2 =    -0.2686690153D+00 EUMP2 =    -0.78872110015588D+02
 (S**2,0)=  0.76323D+00           (S**2,1)=  0.75378D+00
 E(PUHF)=      -0.78606778088D+02        E(PMP2)=      -0.78874261899D+02
 CIDS: In Core Option IDoMem=           1.
 Produce multiple copies of IABC intergrals
 E(PMP3)=      -0.78904986299D+02
 MP4(R+Q)=  0.47944113D-02
 E3=       -0.31594634D-01        EUMP3=      -0.78903704649D+02
 E4(DQ)=   -0.31166490D-02        UMP4(DQ)=   -0.78906821299D+02
 E4(SDQ)=  -0.43209355D-02        UMP4(SDQ)=  -0.78908025585D+02
 DE(Corr)= -0.29545774     E(Corr)=     -78.898898742    
 NORM(A)=   0.10563785D+01
 DE(Corr)= -0.30313960     E(CORR)=     -78.906580605     Delta=-7.68D-03
 NORM(A)=   0.10600500D+01
 DE(Corr)= -0.30506185     E(CORR)=     -78.908502853     Delta=-1.92D-03
 NORM(A)=   0.10609213D+01
 DE(Corr)= -0.30560172     E(CORR)=     -78.909042716     Delta=-5.40D-04
 NORM(A)=   0.10611644D+01
 DE(Corr)= -0.30567630     E(CORR)=     -78.909117300     Delta=-7.46D-05
 NORM(A)=   0.10612102D+01
 DE(Corr)= -0.30568334     E(CORR)=     -78.909124336     Delta=-7.04D-06
 NORM(A)=   0.10612146D+01
 DE(Corr)= -0.30568291     E(CORR)=     -78.909123915     Delta= 4.21D-07
 NORM(A)=   0.10612182D+01
 DE(Corr)= -0.30568344     E(CORR)=     -78.909124436     Delta=-5.21D-07
 NORM(A)=   0.10612182D+01
 DE(Corr)= -0.30568350     E(CORR)=     -78.909124500     Delta=-6.36D-08
 NORM(A)=   0.10612183D+01
 Wavefunction amplitudes converged. E(Corr)=     -78.909124500    
 Largest amplitude= 2.97D-02
 Time for triples=        7.85 seconds.
 T4(CCSD)= -0.75050656D-02
 T5(CCSD)=  0.17131009D-03
 CCSD(T)= -0.78916458255D+02

 S**2, projected HF & approx projected MPn energies after annihilation of
 unwanted spin states (see manual for definitions):

 spins       (S**2,0) (S**2,1)    PUHF        PMP2        PMP3        PMP4
 annihilated
 s+1         0.74993  0.75002  -78.606778  -78.874262  -78.904986
 s+1,s+2     0.75000  0.75000  -78.606766  -78.874250  -78.904975
 s+1 to s+3  0.75000  0.75000  -78.606766  -78.874250  -78.904975
 s+1 to s+4  0.75000  0.75000  -78.606766  -78.874250  -78.904975
 s+1 to s+5  0.75000  0.75000  -78.606766
 s+1 to s+6  0.75000  0.75000  -78.606766

 Discarding MO integrals.

 **********************************************************************

            Population analysis using the SCF Density.

 **********************************************************************

 Orbital symmetries:
 Alpha Orbitals:
       Occupied  (A') (A') (A') (A') (A") (A') (A') (A") (A')
       Virtual   (A') (A') (A") (A') (A") (A') (A") (A') (A') (A')
                 (A') (A") (A') (A") (A') (A") (A') (A') (A') (A")
                 (A") (A') (A') (A") (A") (A') (A') (A") (A") (A')
                 (A') (A') (A") (A') (A") (A') (A') (A") (A') (A')
                 (A') (A") (A') (A")
 Beta  Orbitals:
       Occupied  (A') (A') (A') (A') (A") (A') (A') (A")
       Virtual   (A') (A') (A') (A") (A') (A") (A') (A") (A') (A')
                 (A') (A") (A') (A') (A") (A') (A") (A') (A') (A')
                 (A") (A") (A') (A') (A") (A") (A') (A") (A') (A")
                 (A') (A') (A') (A") (A') (A') (A") (A') (A") (A')
                 (A') (A') (A") (A') (A")
 The electronic state is 2-A'.
 Alpha  occ. eigenvalues --  -11.23595 -11.22913  -1.02607  -0.83396  -0.61147
 Alpha  occ. eigenvalues --   -0.57015  -0.53956  -0.49818  -0.34877
 Alpha virt. eigenvalues --    0.19236   0.22409   0.23990   0.26732   0.29702
 Alpha virt. eigenvalues --    0.40890   0.58655   0.60818   0.64621   0.69571
 Alpha virt. eigenvalues --    0.69863   0.80380   0.86815   0.87740   0.88945
 Alpha virt. eigenvalues --    0.90122   0.91780   1.05392   1.12496   1.19683
 Alpha virt. eigenvalues --    1.39048   1.39476   1.57615   1.68282   1.73011
 Alpha virt. eigenvalues --    1.73057   1.84910   1.85504   1.90681   1.91484
 Alpha virt. eigenvalues --    1.92704   2.00603   2.05915   2.18367   2.30561
 Alpha virt. eigenvalues --    2.31584   2.47128   2.50239   2.51244   2.70598
 Alpha virt. eigenvalues --    2.73196   2.81254   2.92464   3.02878
  Beta  occ. eigenvalues --  -11.23257 -11.21077  -0.98906  -0.77983  -0.60052
  Beta  occ. eigenvalues --   -0.53785  -0.52693  -0.49240
  Beta virt. eigenvalues --    0.15285   0.19645   0.23775   0.24282   0.27225
  Beta virt. eigenvalues --    0.30143   0.41914   0.58863   0.61272   0.66699
  Beta virt. eigenvalues --    0.74340   0.80692   0.83216   0.87135   0.88145
  Beta virt. eigenvalues --    0.90503   0.91303   0.92399   1.08459   1.15287
  Beta virt. eigenvalues --    1.25862   1.39033   1.40682   1.60921   1.68755
  Beta virt. eigenvalues --    1.73269   1.74940   1.85711   1.87746   1.91011
  Beta virt. eigenvalues --    1.92960   1.93708   2.02330   2.07816   2.20727
  Beta virt. eigenvalues --    2.31804   2.31844   2.47919   2.50717   2.51895
  Beta virt. eigenvalues --    2.70868   2.73712   2.81492   2.93035   3.03654
          Condensed to atoms (all electrons):
          Atomic-Atomic Spin Densities.
 Mulliken charges and spin densities:
               1          2
     1  C   -0.150486   1.206599
     2  C   -0.079806  -0.149178
     3  H    0.052618  -0.079916
     4  H    0.052618  -0.079916
     5  H    0.041501   0.018708
     6  H    0.041501   0.018708
     7  H    0.042054   0.064994
 Sum of Mulliken charges =   0.00000   1.00000
 Mulliken charges and spin densities with hydrogens summed into heavy atoms:
               1          2
     1  C   -0.045250   1.046768
     2  C    0.045250  -0.046768
 Electronic spatial extent (au):  <R**2>=            100.0772
 Charge=              0.0000 electrons
 Dipole moment (field-independent basis, Debye):
    X=             -0.1059    Y=             -0.1523    Z=             -0.0000  Tot=              0.1855
 Unable to Open any file for archive entry.
 1\1\GINC-NODE04\SP\UCCSD(T)-FC\CC-pVDZ\C2H5(2)\XUHJ\20-Dec-2023\0\\#T 
 CCSD(T)/cc-pVDZ symm=veryloose\\[CH2]C\\0,2\C,0,0.011381,0.795755,0.\C
 ,0,0.011381,-0.693393,0.\H,0,-0.069884,1.357231,0.937453\H,0,-0.069884
 ,1.357231,-0.937453\H,0,0.512127,-1.107466,0.895103\H,0,0.512127,-1.10
 7466,-0.895103\H,0,-1.021061,-1.113702,0.\\Version=ES64L-G16RevC.01\St
 ate=2-A'\HF=-78.603441\MP2=-78.87211\MP3=-78.9037046\MP4D=-78.9116157\
 MP4DQ=-78.9068213\PUHF=-78.6067781\PMP2-0=-78.8742619\PMP3-0=-78.90498
 63\MP4SDQ=-78.9080256\CCSD=-78.9091245\CCSD(T)=-78.9164583\S2=0.763229
 \S2-1=0.753782\S2A=0.750119\RMSD=8.828e-09\PG=CS [SG(C2H1),X(H4)]\\@
 The archive entry for this job was punched.


 WOE UNTO THEM THAT CALL EVIL GOOD, AND GOOD EVIL      
 Job cpu time:       0 days  0 hours  0 minutes 40.8 seconds.
 Elapsed time:       0 days  0 hours  0 minutes  3.0 seconds.
 File lengths (MBytes):  RWF=    114 Int=      0 D2E=      0 Chk=      2 Scr=      2
 Normal termination of Gaussian 16 at Wed Dec 20 01:35:59 2023.
 Initial command:
 /home/software/g16/l1.exe "/home/software/g16tmp/Gau-123925.inp" -scrdir="/home/software/g16tmp/"
 Default is to use a total of   8 processors:
                                8 via shared-memory
                                1 via Linda
 Entering Link 1 = /home/software/g16/l1.exe PID=    124129.
  
 Copyright (c) 1988-2019, Gaussian, Inc.  All Rights Reserved.
  
 This is part of the Gaussian(R) 16 program.  It is based on
 the Gaussian(R) 09 system (copyright 2009, Gaussian, Inc.),
 the Gaussian(R) 03 system (copyright 2003, Gaussian, Inc.),
 the Gaussian(R) 98 system (copyright 1998, Gaussian, Inc.),
 the Gaussian(R) 94 system (copyright 1995, Gaussian, Inc.),
 the Gaussian 92(TM) system (copyright 1992, Gaussian, Inc.),
 the Gaussian 90(TM) system (copyright 1990, Gaussian, Inc.),
 the Gaussian 88(TM) system (copyright 1988, Gaussian, Inc.),
 the Gaussian 86(TM) system (copyright 1986, Carnegie Mellon
 University), and the Gaussian 82(TM) system (copyright 1983,
 Carnegie Mellon University). Gaussian is a federally registered
 trademark of Gaussian, Inc.
  
 This software contains proprietary and confidential information,
 including trade secrets, belonging to Gaussian, Inc.
  
 This software is provided under written license and may be
 used, copied, transmitted, or stored only in accord with that
 written license.
  
 The following legend is applicable only to US Government
 contracts under FAR:
  
                    RESTRICTED RIGHTS LEGEND
  
 Use, reproduction and disclosure by the US Government is
 subject to restrictions as set forth in subparagraphs (a)
 and (c) of the Commercial Computer Software - Restricted
 Rights clause in FAR 52.227-19.
  
 Gaussian, Inc.
 340 Quinnipiac St., Bldg. 40, Wallingford CT 06492
  
  
 ---------------------------------------------------------------
 Warning -- This program may not be used in any manner that
 competes with the business of Gaussian, Inc. or will provide
 assistance to any competitor of Gaussian, Inc.  The licensee
 of this program is prohibited from giving any competitor of
 Gaussian, Inc. access to this program.  By using this program,
 the user acknowledges that Gaussian, Inc. is engaged in the
 business of creating and licensing software in the field of
 computational chemistry and represents and warrants to the
 licensee that it is not a competitor of Gaussian, Inc. and that
 it will not use this program in any manner prohibited above.
 ---------------------------------------------------------------
  

 Cite this work as:
 Gaussian 16, Revision C.01,
 M. J. Frisch, G. W. Trucks, H. B. Schlegel, G. E. Scuseria, 
 M. A. Robb, J. R. Cheeseman, G. Scalmani, V. Barone, 
 G. A. Petersson, H. Nakatsuji, X. Li, M. Caricato, A. V. Marenich, 
 J. Bloino, B. G. Janesko, R. Gomperts, B. Mennucci, H. P. Hratchian, 
 J. V. Ortiz, A. F. Izmaylov, J. L. Sonnenberg, D. Williams-Young, 
 F. Ding, F. Lipparini, F. Egidi, J. Goings, B. Peng, A. Petrone, 
 T. Henderson, D. Ranasinghe, V. G. Zakrzewski, J. Gao, N. Rega, 
 G. Zheng, W. Liang, M. Hada, M. Ehara, K. Toyota, R. Fukuda, 
 J. Hasegawa, M. Ishida, T. Nakajima, Y. Honda, O. Kitao, H. Nakai, 
 T. Vreven, K. Throssell, J. A. Montgomery, Jr., J. E. Peralta, 
 F. Ogliaro, M. J. Bearpark, J. J. Heyd, E. N. Brothers, K. N. Kudin, 
 V. N. Staroverov, T. A. Keith, R. Kobayashi, J. Normand, 
 K. Raghavachari, A. P. Rendell, J. C. Burant, S. S. Iyengar, 
 J. Tomasi, M. Cossi, J. M. Millam, M. Klene, C. Adamo, R. Cammi, 
 J. W. Ochterski, R. L. Martin, K. Morokuma, O. Farkas, 
 J. B. Foresman, and D. J. Fox, Gaussian, Inc., Wallingford CT, 2019.
 
 ******************************************
 Gaussian 16:  ES64L-G16RevC.01  3-Jul-2019
                20-Dec-2023 
 ******************************************
 %nprocshared=16
 Will use up to   16 processors via shared memory.
 %mem=8000MB
 %chk=QUPDWYMUPZLYJZ-UHFFFAOYSA-N.chk
 -----------------------------------------------
 #T CCSD(T)/cc-pVTZ symm=veryloose geom=allcheck
 -----------------------------------------------
 Structure from the checkpoint file:  "QUPDWYMUPZLYJZ-UHFFFAOYSA-N.chk"
 ------
 [CH2]C
 ------
 Charge =  0 Multiplicity = 2
 Z-Matrix found in chk file.
 C,0,0.011381,0.795755,0.
 C,0,0.011381,-0.693393,0.
 H,0,-0.069884,1.357231,0.937453
 H,0,-0.069884,1.357231,-0.937453
 H,0,0.512127,-1.107466,0.895103
 H,0,0.512127,-1.107466,-0.895103
 H,0,-1.021061,-1.113702,0.
 Recover connectivity data from disk.
                    Distance matrix (angstroms):
                    1          2          3          4          5
     1  C    0.000000
     2  C    1.489148   0.000000
     3  H    1.095754   2.256209   0.000000
     4  H    1.095754   2.256209   1.874906   0.000000
     5  H    2.161991   1.106080   2.532837   3.125977   0.000000
     6  H    2.161991   1.106080   3.125977   2.532837   1.790206
     7  H    2.170706   1.114718   2.808748   2.808748   1.775363
                    6          7
     6  H    0.000000
     7  H    1.775363   0.000000
 Framework group  CS[SG(C2H),X(H4)]
 Deg. of freedom     9
                         Standard orientation:                         
 ---------------------------------------------------------------------
 Center     Atomic      Atomic             Coordinates (Angstroms)
 Number     Number       Type             X           Y           Z
 ---------------------------------------------------------------------
      1          6           0        0.011381    0.795755    0.000000
      2          6           0        0.011381   -0.693393   -0.000000
      3          1           0       -0.069884    1.357231    0.937453
      4          1           0       -0.069884    1.357231   -0.937453
      5          1           0        0.512127   -1.107466    0.895103
      6          1           0        0.512127   -1.107466   -0.895103
      7          1           0       -1.021061   -1.113702   -0.000000
 ---------------------------------------------------------------------
 Rotational constants (GHZ):         101.5549556          22.5793816          20.9019059
   130 basis functions,   189 primitive gaussians,   145 cartesian basis functions
     9 alpha electrons        8 beta electrons
       nuclear repulsion energy        36.6990003110 Hartrees.
 NAtoms=    7 NActive=    7 NUniq=    5 SFac= 1.96D+00 NAtFMM=   60 NAOKFM=F Big=F
 ExpMin= 1.03D-01 ExpMax= 8.24D+03 ExpMxC= 2.81D+02 IAcc=3 IRadAn=         5 AccDes= 0.00D+00
 Harris functional with IExCor=  205 and IRadAn=       5 diagonalized for initial guess.
 HarFok:  IExCor=  205 AccDes= 0.00D+00 IRadAn=         5 IDoV= 1 UseB2=F ITyADJ=14
 ICtDFT=  3500011 ScaDFX=  1.000000  1.000000  1.000000  1.000000
 FoFCou: FMM=F IPFlag=           0 FMFlag=      100000 FMFlg1=           0
         NFxFlg=           0 DoJE=T BraDBF=F KetDBF=T FulRan=T
         wScrn=  0.000000 ICntrl=       500 IOpCl=  0 I1Cent=   200000004 NGrid=           0
         NMat0=    1 NMatS0=      1 NMatT0=    0 NMatD0=    1 NMtDS0=    0 NMtDT0=    0
 Petite list used in FoFCou.
 Initial guess orbital symmetries:
 Alpha Orbitals:
       Occupied  (A') (A') (A') (A') (A") (A') (A') (A") (A')
       Virtual   (A') (A') (A") (A') (A") (A') (A') (A") (A') (A')
                 (A") (A') (A') (A') (A") (A') (A") (A') (A') (A")
                 (A') (A") (A') (A") (A") (A') (A") (A') (A') (A')
                 (A') (A") (A") (A') (A') (A") (A") (A') (A') (A")
                 (A') (A') (A") (A') (A') (A') (A') (A") (A') (A")
                 (A') (A") (A') (A') (A") (A') (A") (A") (A') (A")
                 (A') (A') (A") (A') (A") (A') (A') (A") (A") (A')
                 (A") (A') (A") (A") (A') (A") (A') (A') (A") (A")
                 (A') (A') (A') (A") (A') (A") (A') (A') (A") (A')
                 (A') (A") (A') (A') (A") (A") (A') (A') (A") (A')
                 (A') (A") (A") (A') (A') (A") (A') (A") (A') (A')
                 (A") (A') (A") (A') (A') (A") (A") (A') (A") (A')
                 (A')
 Beta  Orbitals:
       Occupied  (A') (A') (A') (A') (A") (A') (A') (A")
       Virtual   (A') (A') (A') (A") (A') (A") (A') (A') (A") (A')
                 (A') (A") (A') (A') (A') (A") (A') (A") (A') (A')
                 (A") (A') (A") (A') (A") (A") (A') (A") (A') (A')
                 (A') (A') (A") (A") (A') (A') (A") (A") (A') (A')
                 (A") (A') (A') (A") (A') (A') (A') (A') (A") (A')
                 (A") (A') (A") (A') (A') (A") (A') (A") (A") (A')
                 (A") (A') (A') (A") (A') (A") (A') (A') (A") (A")
                 (A') (A") (A') (A") (A") (A') (A") (A') (A') (A")
                 (A") (A') (A') (A') (A") (A') (A") (A') (A') (A")
                 (A') (A') (A") (A') (A') (A") (A") (A') (A') (A")
                 (A') (A') (A") (A") (A') (A') (A") (A') (A") (A')
                 (A') (A") (A') (A") (A') (A') (A") (A") (A') (A")
                 (A') (A')
 The electronic state of the initial guess is 2-A'.
 Initial guess <Sx>= 0.0000 <Sy>= 0.0000 <Sz>= 0.5000 <S**2>= 0.7500 S= 0.5000
 SCF Done:  E(UHF) =  -78.6264929542     A.U. after   14 cycles
            NFock= 14  Conv=0.50D-08     -V/T= 2.0024
 <Sx>= 0.0000 <Sy>= 0.0000 <Sz>= 0.5000 <S**2>= 0.7639 S= 0.5069
 <L.S>=  0.00000000000    
 Annihilation of the first spin contaminant:
 S**2 before annihilation     0.7639,   after     0.7501
 ExpMin= 1.03D-01 ExpMax= 8.24D+03 ExpMxC= 2.81D+02 IAcc=3 IRadAn=         5 AccDes= 0.00D+00
 HarFok:  IExCor=  205 AccDes= 0.00D+00 IRadAn=         5 IDoV=-2 UseB2=F ITyADJ=14
 ICtDFT= 12500011 ScaDFX=  1.000000  1.000000  1.000000  1.000000
 NROrb=    128 NOA=     7 NOB=     6 NVA=   121 NVB=   122

 **** Warning!!: The largest alpha MO coefficient is  0.11071680D+02


 **** Warning!!: The largest beta MO coefficient is  0.10931454D+02

 Semi-Direct transformation.
 ModeAB=           4 MOrb=             7 LenV=    1047914596
 LASXX=      3525695 LTotXX=     3525695 LenRXX=     7150191
 LTotAB=     3624496 MaxLAS=     6637568 LenRXY=           0
 NonZer=    10675886 LenScr=    16384000 LnRSAI=     6637568
 LnScr1=    10485760 LExtra=           0 Total=     40657519
 MaxDsk=          -1 SrtSym=           T ITran=            4
 JobTyp=1 Pass  1:  I=   1 to   7.
 (rs|ai) integrals will be sorted in core.
 ModeAB=           4 MOrb=             6 LenV=    1047914596
 LASXX=      3035107 LTotXX=     3035107 LenRXX=     5820938
 LTotAB=     2785831 MaxLAS=     5689344 LenRXY=           0
 NonZer=     8856045 LenScr=    13762560 LnRSAI=     5689344
 LnScr1=     9175040 LExtra=           0 Total=     34447882
 MaxDsk=          -1 SrtSym=           T ITran=            4
 JobTyp=2 Pass  1:  I=   1 to   6.
 (rs|ai) integrals will be sorted in core.
 ANorm=    0.1050290981D+01
 E2 =    -0.3310342852D+00 EUMP2 =    -0.78957527239420D+02
 (S**2,0)=  0.76390D+00           (S**2,1)=  0.75385D+00
 E(PUHF)=      -0.78630047217D+02        E(PMP2)=      -0.78959803831D+02
 CIDS: In Core Option IDoMem=           1.
 Produce multiple copies of IABC intergrals
 E(PMP3)=      -0.78987770925D+02
 MP4(R+Q)=  0.71703914D-02
 E3=       -0.28926013D-01        EUMP3=      -0.78986453252D+02
 E4(DQ)=   -0.73561408D-03        UMP4(DQ)=   -0.78987188866D+02
 E4(SDQ)=  -0.27111262D-02        UMP4(SDQ)=  -0.78989164378D+02
 DE(Corr)= -0.35271174     E(Corr)=     -78.979204690    
 NORM(A)=   0.10597496D+01
 DE(Corr)= -0.36068115     E(CORR)=     -78.987174100     Delta=-7.97D-03
 NORM(A)=   0.10639227D+01
 DE(Corr)= -0.36240965     E(CORR)=     -78.988902600     Delta=-1.73D-03
 NORM(A)=   0.10649329D+01
 DE(Corr)= -0.36307180     E(CORR)=     -78.989564753     Delta=-6.62D-04
 NORM(A)=   0.10652246D+01
 DE(Corr)= -0.36315786     E(CORR)=     -78.989650819     Delta=-8.61D-05
 NORM(A)=   0.10652881D+01
 DE(Corr)= -0.36316884     E(CORR)=     -78.989661798     Delta=-1.10D-05
 NORM(A)=   0.10652889D+01
 DE(Corr)= -0.36316791     E(CORR)=     -78.989660867     Delta= 9.32D-07
 NORM(A)=   0.10652949D+01
 DE(Corr)= -0.36316785     E(CORR)=     -78.989660807     Delta= 6.00D-08
 NORM(A)=   0.10652952D+01
 DE(Corr)= -0.36316842     E(CORR)=     -78.989661377     Delta=-5.70D-07
 NORM(A)=   0.10652959D+01
 DE(Corr)= -0.36316842     E(CORR)=     -78.989661371     Delta= 5.93D-09
 NORM(A)=   0.10652960D+01
 Wavefunction amplitudes converged. E(Corr)=     -78.989661371    
 Largest amplitude= 2.91D-02
 Time for triples=      217.60 seconds.
 T4(CCSD)= -0.12509273D-01
 T5(CCSD)=  0.32321255D-03
 CCSD(T)= -0.79001847431D+02

 S**2, projected HF & approx projected MPn energies after annihilation of
 unwanted spin states (see manual for definitions):

 spins       (S**2,0) (S**2,1)    PUHF        PMP2        PMP3        PMP4
 annihilated
 s+1         0.74992  0.75003  -78.630047  -78.959804  -78.987771
 s+1,s+2     0.75000  0.75000  -78.630033  -78.959790  -78.987759
 s+1 to s+3  0.75000  0.75000  -78.630033  -78.959790  -78.987759
 s+1 to s+4  0.75000  0.75000  -78.630033  -78.959790  -78.987759
 s+1 to s+5  0.75000  0.75000  -78.630033
 s+1 to s+6  0.75000  0.75000  -78.630033

 Discarding MO integrals.

 **********************************************************************

            Population analysis using the SCF Density.

 **********************************************************************

 Orbital symmetries:
 Alpha Orbitals:
       Occupied  (A') (A') (A') (A') (A") (A') (A') (A") (A')
       Virtual   (A') (A') (A") (A') (A") (A') (A') (A") (A') (A')
                 (A") (A') (A") (A') (A') (A') (A') (A") (A') (A")
                 (A') (A") (A') (A") (A") (A') (A") (A') (A') (A')
                 (A") (A') (A") (A') (A') (A") (A") (A') (A') (A")
                 (A') (A') (A") (A') (A') (A') (A') (A") (A') (A")
                 (A') (A") (A') (A') (A") (A") (A') (A") (A') (A")
                 (A') (A') (A") (A') (A") (A') (A') (A") (A") (A')
                 (A") (A") (A') (A") (A') (A") (A') (A') (A") (A")
                 (A') (A') (A') (A") (A") (A') (A') (A') (A") (A')
                 (A') (A") (A') (A") (A") (A') (A') (A") (A') (A')
                 (A') (A") (A") (A') (A') (A") (A') (A") (A') (A')
                 (A") (A') (A") (A') (A') (A") (A") (A') (A") (A')
                 (A')
 Beta  Orbitals:
       Occupied  (A') (A') (A') (A') (A") (A') (A') (A")
       Virtual   (A') (A') (A') (A") (A') (A") (A') (A') (A") (A')
                 (A") (A') (A') (A") (A') (A') (A') (A") (A') (A')
                 (A") (A') (A") (A') (A") (A") (A') (A") (A') (A')
                 (A') (A") (A') (A") (A') (A') (A") (A') (A") (A')
                 (A") (A') (A') (A") (A') (A') (A') (A") (A') (A')
                 (A") (A') (A") (A') (A') (A") (A") (A') (A") (A')
                 (A") (A') (A') (A") (A') (A") (A') (A") (A') (A")
                 (A') (A") (A") (A') (A") (A') (A") (A') (A') (A")
                 (A") (A') (A') (A') (A") (A") (A') (A') (A') (A")
                 (A') (A') (A") (A') (A") (A") (A') (A') (A") (A')
                 (A') (A') (A") (A") (A') (A') (A") (A') (A") (A')
                 (A') (A") (A') (A") (A') (A') (A") (A") (A') (A")
                 (A') (A')
 The electronic state is 2-A'.
 Alpha  occ. eigenvalues --  -11.23200 -11.22297  -1.02599  -0.83446  -0.61285
 Alpha  occ. eigenvalues --   -0.57163  -0.54117  -0.49980  -0.35007
 Alpha virt. eigenvalues --    0.14679   0.17803   0.19795   0.22005   0.24305
 Alpha virt. eigenvalues --    0.33656   0.38474   0.39269   0.41512   0.46096
 Alpha virt. eigenvalues --    0.48991   0.51301   0.60053   0.61900   0.62835
 Alpha virt. eigenvalues --    0.63975   0.68657   0.69197   0.73086   0.75059
 Alpha virt. eigenvalues --    0.82447   0.93510   1.01743   1.05021   1.10514
 Alpha virt. eigenvalues --    1.13880   1.16546   1.19720   1.23063   1.24268
 Alpha virt. eigenvalues --    1.26230   1.29270   1.32915   1.39480   1.41852
 Alpha virt. eigenvalues --    1.48902   1.53402   1.53442   1.56980   1.59088
 Alpha virt. eigenvalues --    1.61239   1.74382   1.77608   1.83302   2.38227
 Alpha virt. eigenvalues --    2.44129   2.49459   2.52001   2.66133   2.66728
 Alpha virt. eigenvalues --    2.68554   2.80615   2.83502   2.95950   2.99723
 Alpha virt. eigenvalues --    3.03108   3.05788   3.11281   3.12373   3.15525
 Alpha virt. eigenvalues --    3.17597   3.21043   3.26423   3.26801   3.31070
 Alpha virt. eigenvalues --    3.33121   3.39510   3.40645   3.43690   3.49414
 Alpha virt. eigenvalues --    3.58614   3.63213   3.65105   3.71333   3.72595
 Alpha virt. eigenvalues --    3.74157   3.74887   3.77255   3.85599   3.93980
 Alpha virt. eigenvalues --    4.01197   4.04145   4.07973   4.11156   4.12853
 Alpha virt. eigenvalues --    4.15957   4.18934   4.24617   4.26247   4.32916
 Alpha virt. eigenvalues --    4.34662   4.40378   4.44383   4.46547   4.48946
 Alpha virt. eigenvalues --    4.51928   4.61813   4.71121   4.71763   4.90507
 Alpha virt. eigenvalues --    5.04143   5.07113   5.12399   5.12947   5.16380
 Alpha virt. eigenvalues --    5.19189   5.32510   5.41852   5.43567   5.52499
 Alpha virt. eigenvalues --    5.59408   5.61762   5.66215   5.77415   5.86311
 Alpha virt. eigenvalues --    5.96678   6.18790   6.24735   6.29814  12.03651
 Alpha virt. eigenvalues --   13.63972
  Beta  occ. eigenvalues --  -11.22627 -11.20817  -0.98933  -0.78107  -0.60265
  Beta  occ. eigenvalues --   -0.53916  -0.52922  -0.49429
  Beta virt. eigenvalues --    0.13696   0.14944   0.18722   0.20019   0.22253
  Beta virt. eigenvalues --    0.24566   0.34054   0.38781   0.39464   0.42293
  Beta virt. eigenvalues --    0.49365   0.55907   0.56856   0.60509   0.63393
  Beta virt. eigenvalues --    0.64127   0.65586   0.69882   0.69907   0.74984
  Beta virt. eigenvalues --    0.79305   0.83102   0.93727   1.03861   1.05333
  Beta virt. eigenvalues --    1.10732   1.15314   1.17098   1.20957   1.24401
  Beta virt. eigenvalues --    1.26408   1.26619   1.30129   1.33799   1.40138
  Beta virt. eigenvalues --    1.43886   1.49239   1.53592   1.54611   1.57970
  Beta virt. eigenvalues --    1.59842   1.62224   1.75231   1.77797   1.84404
  Beta virt. eigenvalues --    2.41026   2.47010   2.52859   2.54866   2.66409
  Beta virt. eigenvalues --    2.67703   2.69780   2.82948   2.85271   2.97042
  Beta virt. eigenvalues --    3.00535   3.05180   3.07423   3.11504   3.14334
  Beta virt. eigenvalues --    3.16930   3.19734   3.22940   3.27161   3.28028
  Beta virt. eigenvalues --    3.31822   3.34726   3.41097   3.42175   3.45387
  Beta virt. eigenvalues --    3.52176   3.58823   3.63518   3.66444   3.71575
  Beta virt. eigenvalues --    3.73331   3.74338   3.75309   3.77477   3.86216
  Beta virt. eigenvalues --    3.94597   4.01486   4.04380   4.08524   4.11321
  Beta virt. eigenvalues --    4.13036   4.16205   4.19512   4.24918   4.26517
  Beta virt. eigenvalues --    4.33148   4.35215   4.40607   4.44578   4.47024
  Beta virt. eigenvalues --    4.49066   4.52550   4.62048   4.71298   4.72838
  Beta virt. eigenvalues --    4.91103   5.05003   5.07446   5.12607   5.13493
  Beta virt. eigenvalues --    5.16943   5.20561   5.32877   5.42146   5.43984
  Beta virt. eigenvalues --    5.52762   5.59904   5.61969   5.66343   5.77771
  Beta virt. eigenvalues --    5.86724   5.96968   6.19119   6.24910   6.29989
  Beta virt. eigenvalues --   12.05173  13.64187
          Condensed to atoms (all electrons):
          Atomic-Atomic Spin Densities.
 Mulliken charges and spin densities:
               1          2
     1  C   -0.286970   1.185579
     2  C   -0.229796  -0.134261
     3  H    0.124720  -0.075592
     4  H    0.124720  -0.075592
     5  H    0.090999   0.017294
     6  H    0.090999   0.017294
     7  H    0.085328   0.065279
 Sum of Mulliken charges =  -0.00000   1.00000
 Mulliken charges and spin densities with hydrogens summed into heavy atoms:
               1          2
     1  C   -0.037531   1.034395
     2  C    0.037531  -0.034395
 Electronic spatial extent (au):  <R**2>=            100.2427
 Charge=             -0.0000 electrons
 Dipole moment (field-independent basis, Debye):
    X=             -0.1115    Y=             -0.1563    Z=             -0.0000  Tot=              0.1920
 Unable to Open any file for archive entry.
 1\1\GINC-NODE04\SP\UCCSD(T)-FC\CC-pVTZ\C2H5(2)\XUHJ\20-Dec-2023\0\\#T 
 CCSD(T)/cc-pVTZ symm=veryloose geom=allcheck\\[CH2]C\\0,2\C,0,0.011381
 ,0.795755,0.\C,0,0.011381,-0.693393,0.\H,0,-0.069884,1.357231,0.937453
 \H,0,-0.069884,1.357231,-0.937453\H,0,0.512127,-1.107466,0.895103\H,0,
 0.512127,-1.107466,-0.895103\H,0,-1.021061,-1.113702,0.\\Version=ES64L
 -G16RevC.01\State=2-A'\HF=-78.626493\MP2=-78.9575272\MP3=-78.9864533\M
 P4D=-78.9943593\MP4DQ=-78.9871889\PUHF=-78.6300472\PMP2-0=-78.9598038\
 PMP3-0=-78.9877709\MP4SDQ=-78.9891644\CCSD=-78.9896614\CCSD(T)=-79.001
 8474\S2=0.763901\S2-1=0.753851\S2A=0.75013\RMSD=5.050e-09\PG=CS [SG(C2
 H1),X(H4)]\\@
 The archive entry for this job was punched.


 BE LIKE A POSTAGE STAMP.  STICK TO ONE THING UNTIL
 YOU GET THERE -- JOSH BILLINGS
 Job cpu time:       0 days  0 hours  8 minutes  1.9 seconds.
 Elapsed time:       0 days  0 hours  0 minutes 31.0 seconds.
 File lengths (MBytes):  RWF=    645 Int=      0 D2E=      0 Chk=      3 Scr=      2
 Normal termination of Gaussian 16 at Wed Dec 20 01:36:32 2023.
