%nprocshared=32
%mem=153600MB
%chk=RXUSYFJGDZFVND-UHFFFAOYSA-N-1.chk
#T CCSD(T)/cc-pVDZ symm=veryloose 

c1ccc2c(c1)cc1ccc3c4ccccc4cc4ccc2c1c43

0 1
C        -1.055824      -5.727381       0.000000
C        -2.309256      -5.063206       0.000000
C        -2.372309      -3.685691       0.000000
C        -1.194031      -2.885371       0.000000
C         0.074078      -3.564591       0.000000
C         0.105581      -4.990652       0.000000
C         1.267380      -2.813253       0.000000
C         1.256095      -1.422514       0.000000
C         2.470081      -0.657153       0.000000
C         2.452666       0.705620       0.000000
C         1.220138       1.447259       0.000000
C         1.194031       2.885371       0.000000
C         2.372309       3.685691       0.000000
C         2.309256       5.063206       0.000000
C         1.055824       5.727381       0.000000
C        -0.105581       4.990652       0.000000
C        -0.074078       3.564591       0.000000
C        -1.267380       2.813253       0.000000
C        -1.256095       1.422514       0.000000
C        -2.470081       0.657153       0.000000
C        -2.452666      -0.705620       0.000000
C        -1.220138      -1.447259       0.000000
C         0.000000      -0.718550       0.000000
C        -0.000000       0.718550       0.000000
H        -1.017780      -6.820616       0.000000
H        -3.233363      -5.648576       0.000000
H        -3.353097      -3.208353       0.000000
H         1.080162      -5.488369       0.000000
H         2.225984      -3.341098       0.000000
H         3.422331      -1.195901       0.000000
H         3.402087       1.241937       0.000000
H         3.353097       3.208353       0.000000
H         3.233363       5.648576       0.000000
H         1.017780       6.820616       0.000000
H        -1.080162       5.488369       0.000000
H        -2.225984       3.341098       0.000000
H        -3.422331       1.195901       0.000000
H        -3.402087      -1.241937       0.000000


--link1--
%nprocshared=32
%mem=153600MB
%chk=RXUSYFJGDZFVND-UHFFFAOYSA-N-1.chk
#T CCSD(T)/cc-pVTZ symm=veryloose geom=allcheck 

