%nprocshared=16
%mem=89600MB
%chk=RYQHWGXLBQHJST-UHFFFAOYSA-N-1.chk
#T CCSD(T)/cc-pVDZ symm=veryloose 

c1cc2cc3cccc4c5cccc6cc7cccc8c(c1)c2c(c34)c(c78)c65

0 1
C        -0.000000      -3.652536      -2.895185
C        -0.000000      -2.461429      -3.581866
C        -0.000000      -1.223769      -2.874783
C        -0.000000       0.000000      -3.556545
C        -0.000000       1.223769      -2.874783
C        -0.000000       2.461429      -3.581866
C        -0.000000       3.652536      -2.895185
C        -0.000000       3.663769      -1.482781
C        -0.000000       2.488920      -0.736028
C         0.000000       2.488920       0.736028
C         0.000000       3.663769       1.482781
C        -0.000000       3.652536       2.895185
C        -0.000000       2.461429       3.581866
C        -0.000000       1.223769       2.874783
C         0.000000       0.000000       3.556545
C         0.000000      -1.223769       2.874783
C         0.000000      -2.461429       3.581866
C         0.000000      -3.652536       2.895185
C         0.000000      -3.663769       1.482781
C         0.000000      -2.488920       0.736028
C         0.000000      -2.488920      -0.736028
C         0.000000      -3.663769      -1.482781
C        -0.000000      -1.231068      -1.432515
C        -0.000000       0.000000      -0.726264
C        -0.000000       1.231068      -1.432515
C         0.000000       0.000000       0.726264
C         0.000000      -1.231068       1.432515
C        -0.000000       1.231068       1.432515
H         0.000000      -4.602856      -3.436962
H        -0.000000      -2.441978      -4.675520
H        -0.000000       0.000000      -4.650643
H        -0.000000       2.441978      -4.675520
H        -0.000000       4.602856      -3.436962
H        -0.000000       4.631586      -0.979983
H         0.000000       4.631586       0.979983
H        -0.000000       4.602856       3.436962
H        -0.000000       2.441978       4.675520
H         0.000000       0.000000       4.650643
H         0.000000      -2.441978       4.675520
H         0.000000      -4.602856       3.436962
H         0.000000      -4.631586       0.979983
H         0.000000      -4.631586      -0.979983


--link1--
%nprocshared=16
%mem=89600MB
%chk=RYQHWGXLBQHJST-UHFFFAOYSA-N-1.chk
#T CCSD(T)/cc-pVTZ symm=veryloose geom=allcheck 

