%nprocshared=16
%mem=144000MB
%chk=SLGBZMMZGDRARJ-UHFFFAOYSA-N-1.chk
#T CCSD(T)/cc-pVDZ symm=veryloose 

c1ccc2c(c1)c1ccccc1c1ccccc21

0 1
C         0.701612       3.705546      -0.000000
C        -0.701612       3.705546      -0.000000
C        -1.385913       2.500681      -0.000000
C        -0.711196       1.257280      -0.000000
C         0.711196       1.257280       0.000000
C         1.385913       2.500681       0.000000
C         1.444435      -0.012726       0.000000
C         2.858610      -0.050105       0.000000
C         3.559903      -1.245159      -0.000000
C         2.858291      -2.460387      -0.000000
C         1.472697      -2.450576      -0.000000
C         0.733239      -1.244554      -0.000000
C        -0.733239      -1.244554       0.000000
C        -1.472697      -2.450576       0.000000
C        -2.858291      -2.460387       0.000000
C        -3.559903      -1.245159       0.000000
C        -2.858610      -0.050105       0.000000
C        -1.444435      -0.012726       0.000000
H         1.256061       4.648482      -0.000000
H        -1.256061       4.648482      -0.000000
H        -2.475601       2.527489      -0.000000
H         2.475601       2.527489       0.000000
H         3.426670       0.880189       0.000000
H         4.653734      -1.236460      -0.000000
H         3.397673      -3.412022      -0.000000
H         0.951069      -3.407677      -0.000000
H        -0.951069      -3.407677       0.000000
H        -3.397673      -3.412022       0.000000
H        -4.653734      -1.236460       0.000000
H        -3.426670       0.880189       0.000000


--link1--
%nprocshared=16
%mem=144000MB
%chk=SLGBZMMZGDRARJ-UHFFFAOYSA-N-1.chk
#T CCSD(T)/cc-pVTZ symm=veryloose geom=allcheck 

