 Entering Gaussian System, Link 0=g16
 Initial command:
 /home/soft/g16/l1.exe "/home/soft/tmp/Gau-18084.inp" -scrdir="/home/soft/tmp/"
 Entering Link 1 = /home/soft/g16/l1.exe PID=     18085.
  
 Copyright (c) 1988-2019, Gaussian, Inc.  All Rights Reserved.
  
 This is part of the Gaussian(R) 16 program.  It is based on
 the Gaussian(R) 09 system (copyright 2009, Gaussian, Inc.),
 the Gaussian(R) 03 system (copyright 2003, Gaussian, Inc.),
 the Gaussian(R) 98 system (copyright 1998, Gaussian, Inc.),
 the Gaussian(R) 94 system (copyright 1995, Gaussian, Inc.),
 the Gaussian 92(TM) system (copyright 1992, Gaussian, Inc.),
 the Gaussian 90(TM) system (copyright 1990, Gaussian, Inc.),
 the Gaussian 88(TM) system (copyright 1988, Gaussian, Inc.),
 the Gaussian 86(TM) system (copyright 1986, Carnegie Mellon
 University), and the Gaussian 82(TM) system (copyright 1983,
 Carnegie Mellon University). Gaussian is a federally registered
 trademark of Gaussian, Inc.
  
 This software contains proprietary and confidential information,
 including trade secrets, belonging to Gaussian, Inc.
  
 This software is provided under written license and may be
 used, copied, transmitted, or stored only in accord with that
 written license.
  
 The following legend is applicable only to US Government
 contracts under FAR:
  
                    RESTRICTED RIGHTS LEGEND
  
 Use, reproduction and disclosure by the US Government is
 subject to restrictions as set forth in subparagraphs (a)
 and (c) of the Commercial Computer Software - Restricted
 Rights clause in FAR 52.227-19.
  
 Gaussian, Inc.
 340 Quinnipiac St., Bldg. 40, Wallingford CT 06492
  
  
 ---------------------------------------------------------------
 Warning -- This program may not be used in any manner that
 competes with the business of Gaussian, Inc. or will provide
 assistance to any competitor of Gaussian, Inc.  The licensee
 of this program is prohibited from giving any competitor of
 Gaussian, Inc. access to this program.  By using this program,
 the user acknowledges that Gaussian, Inc. is engaged in the
 business of creating and licensing software in the field of
 computational chemistry and represents and warrants to the
 licensee that it is not a competitor of Gaussian, Inc. and that
 it will not use this program in any manner prohibited above.
 ---------------------------------------------------------------
  

 Cite this work as:
 Gaussian 16, Revision C.01,
 M. J. Frisch, G. W. Trucks, H. B. Schlegel, G. E. Scuseria, 
 M. A. Robb, J. R. Cheeseman, G. Scalmani, V. Barone, 
 G. A. Petersson, H. Nakatsuji, X. Li, M. Caricato, A. V. Marenich, 
 J. Bloino, B. G. Janesko, R. Gomperts, B. Mennucci, H. P. Hratchian, 
 J. V. Ortiz, A. F. Izmaylov, J. L. Sonnenberg, D. Williams-Young, 
 F. Ding, F. Lipparini, F. Egidi, J. Goings, B. Peng, A. Petrone, 
 T. Henderson, D. Ranasinghe, V. G. Zakrzewski, J. Gao, N. Rega, 
 G. Zheng, W. Liang, M. Hada, M. Ehara, K. Toyota, R. Fukuda, 
 J. Hasegawa, M. Ishida, T. Nakajima, Y. Honda, O. Kitao, H. Nakai, 
 T. Vreven, K. Throssell, J. A. Montgomery, Jr., J. E. Peralta, 
 F. Ogliaro, M. J. Bearpark, J. J. Heyd, E. N. Brothers, K. N. Kudin, 
 V. N. Staroverov, T. A. Keith, R. Kobayashi, J. Normand, 
 K. Raghavachari, A. P. Rendell, J. C. Burant, S. S. Iyengar, 
 J. Tomasi, M. Cossi, J. M. Millam, M. Klene, C. Adamo, R. Cammi, 
 J. W. Ochterski, R. L. Martin, K. Morokuma, O. Farkas, 
 J. B. Foresman, and D. J. Fox, Gaussian, Inc., Wallingford CT, 2019.
 
 ******************************************
 Gaussian 16:  ES64L-G16RevC.01  3-Jul-2019
                 7-Nov-2024 
 ******************************************
 %nprocshared=8
 Will use up to    8 processors via shared memory.
 %mem=32000MB
 %chk=SNVLJLYUUXKWOJ-UHFFFAOYSA-N.chk
 -----------------------------------
 #T ROCCSD(T)/cc-pVDZ symm=veryloose
 -----------------------------------
 -----
 [C]=C
 -----
 Symbolic Z-matrix:
 Charge =  0 Multiplicity = 3
 C                     0.        0.        0.83675 
 C                     0.        0.       -0.48317 
 H                     0.       -0.94381  -1.06074 
 H                     0.        0.94381  -1.06074 
 
                    Distance matrix (angstroms):
                    1          2          3          4
     1  C    0.000000
     2  C    1.319913   0.000000
     3  H    2.119247   1.106505   0.000000
     4  H    2.119247   1.106505   1.887610   0.000000
 Framework group  C2V[C2(CC),SGV(H2)]
 Deg. of freedom     3
                         Standard orientation:                         
 ---------------------------------------------------------------------
 Center     Atomic      Atomic             Coordinates (Angstroms)
 Number     Number       Type             X           Y           Z
 ---------------------------------------------------------------------
      1          6           0       -0.000000    0.000000    0.836746
      2          6           0        0.000000    0.000000   -0.483167
      3          1           0        0.000000    0.943805   -1.060736
      4          1           0       -0.000000   -0.943805   -1.060736
 ---------------------------------------------------------------------
 Rotational constants (GHZ):         281.4734999          37.9962510          33.4771531
    38 basis functions,    80 primitive gaussians,    40 cartesian basis functions
     8 alpha electrons        6 beta electrons
       nuclear repulsion energy        23.4487104462 Hartrees.
 NAtoms=    4 NActive=    4 NUniq=    3 SFac= 1.78D+00 NAtFMM=   60 NAOKFM=F Big=F
 ExpMin= 1.22D-01 ExpMax= 6.67D+03 ExpMxC= 2.28D+02 IAcc=3 IRadAn=         5 AccDes= 0.00D+00
 Harris functional with IExCor=  205 and IRadAn=       5 diagonalized for initial guess.
 HarFok:  IExCor=  205 AccDes= 0.00D+00 IRadAn=         5 IDoV= 1 UseB2=F ITyADJ=14
 ICtDFT=  3500011 ScaDFX=  1.000000  1.000000  1.000000  1.000000
 FoFCou: FMM=F IPFlag=           0 FMFlag=      100000 FMFlg1=           0
         NFxFlg=           0 DoJE=T BraDBF=F KetDBF=T FulRan=T
         wScrn=  0.000000 ICntrl=       500 IOpCl=  0 I1Cent=   200000004 NGrid=           0
         NMat0=    1 NMatS0=      1 NMatT0=    0 NMatD0=    1 NMtDS0=    0 NMtDT0=    0
 Petite list used in FoFCou.
 Initial guess orbital symmetries:
       Occupied  (A1) (A1) (A1) (A1) (B2) (B1) (A1) (B2)
       Virtual   (B1) (A1) (B2) (A1) (A1) (B1) (A1) (B2) (B1) (B2)
                 (A1) (B2) (A1) (A2) (A1) (B1) (A1) (A2) (B2) (B2)
                 (A1) (B1) (A1) (B1) (A2) (A1) (B2) (A1) (A1) (B2)
 The electronic state of the initial guess is 3-B2.
 SCF Done:  E(ROHF) =  -76.7212370656     A.U. after   14 cycles
            NFock= 14  Conv=0.26D-08     -V/T= 2.0020
 <Sx>= 0.0000 <Sy>= 0.0000 <Sz>= 1.0000 <S**2>= 2.0000 S= 1.0000
 <L.S>=  0.00000000000    
 Annihilation of the first spin contaminant:
 S**2 before annihilation     2.0000,   after     2.0000
 GenMOA:  NOpAll=  4 NOp2=4 NOpUse=  4 JSym2X=1
 <Sx>= 0.0000 <Sy>= 0.0000 <Sz>= 1.0000 <S**2>= 2.0000 S= 1.0000
 ExpMin= 1.22D-01 ExpMax= 6.67D+03 ExpMxC= 2.28D+02 IAcc=3 IRadAn=         5 AccDes= 0.00D+00
 HarFok:  IExCor=  205 AccDes= 0.00D+00 IRadAn=         5 IDoV=-2 UseB2=F ITyADJ=14
 ICtDFT= 12500011 ScaDFX=  1.000000  1.000000  1.000000  1.000000
 NROrb=     36 NOA=     6 NOB=     4 NVA=    30 NVB=    32
 Singles contribution to E2=   -0.3105938465D-02
 Semi-Direct transformation.
 ModeAB=           4 MOrb=             6 LenV=    4194091268
 LASXX=        31546 LTotXX=       31546 LenRXX=       67538
 LTotAB=       35992 MaxLAS=      149688 LenRXY=           0
 NonZer=       99084 LenScr=      785920 LnRSAI=      149688
 LnScr1=      785920 LExtra=           0 Total=      1789066
 MaxDsk=          -1 SrtSym=           T ITran=            4
 JobTyp=1 Pass  1:  I=   1 to   6.
 (rs|ai) integrals will be sorted in core.
 ModeAB=           4 MOrb=             4 LenV=    4194091268
 LASXX=        21817 LTotXX=       21817 LenRXX=       38799
 LTotAB=       16982 MaxLAS=       99792 LenRXY=           0
 NonZer=       60616 LenScr=      785920 LnRSAI=       99792
 LnScr1=      785920 LExtra=           0 Total=      1710431
 MaxDsk=          -1 SrtSym=           T ITran=            4
 JobTyp=2 Pass  1:  I=   1 to   4.
 (rs|ai) integrals will be sorted in core.
 ANorm=    0.1042637975D+01
 E2 =    -0.2159365437D+00 EUMP2 =    -0.76937173609292D+02
 (S**2,0)=  0.20000D+01           (S**2,1)=  0.20000D+01
 E(PUHF)=      -0.76721237066D+02        E(PMP2)=      -0.76937173609D+02
 CIDS: In Core Option IDoMem=           1.
 Produce multiple copies of IABC intergrals
 MP4(R+Q)=  0.28152459D-01
 E3=       -0.23019288D-01        EROMP3=      -0.76960192897D+02
 E4(SDQ)=  -0.50458155D-02        ROMP4(SDQ)=  -0.76965238713D+02
 DE(Corr)= -0.21072456     E(Corr)=     -76.931961624    
 NORM(A)=   0.10400565D+01
 DE(Corr)= -0.23325041     E(CORR)=     -76.954487472     Delta=-2.25D-02
 NORM(A)=   0.10420579D+01
 DE(Corr)= -0.23480303     E(CORR)=     -76.956040091     Delta=-1.55D-03
 NORM(A)=   0.10477699D+01
 DE(Corr)= -0.23806582     E(CORR)=     -76.959302885     Delta=-3.26D-03
 NORM(A)=   0.10667300D+01
 DE(Corr)= -0.24597452     E(CORR)=     -76.967211585     Delta=-7.91D-03
 NORM(A)=   0.10753551D+01
 DE(Corr)= -0.24844593     E(CORR)=     -76.969682998     Delta=-2.47D-03
 NORM(A)=   0.10708660D+01
 DE(Corr)= -0.24701056     E(CORR)=     -76.968247629     Delta= 1.44D-03
 NORM(A)=   0.10712603D+01
 DE(Corr)= -0.24709132     E(CORR)=     -76.968328389     Delta=-8.08D-05
 NORM(A)=   0.10711507D+01
 DE(Corr)= -0.24707256     E(CORR)=     -76.968309628     Delta= 1.88D-05
 NORM(A)=   0.10711066D+01
 DE(Corr)= -0.24707029     E(CORR)=     -76.968307359     Delta= 2.27D-06
 NORM(A)=   0.10710796D+01
 DE(Corr)= -0.24706962     E(CORR)=     -76.968306682     Delta= 6.77D-07
 NORM(A)=   0.10710961D+01
 DE(Corr)= -0.24707399     E(CORR)=     -76.968311057     Delta=-4.37D-06
 NORM(A)=   0.10710968D+01
 DE(Corr)= -0.24707400     E(CORR)=     -76.968311068     Delta=-1.19D-08
 NORM(A)=   0.10710939D+01
 Wavefunction amplitudes converged. E(Corr)=     -76.968311068    
 Dominant configurations:
 ***********************
 Spin Case        I    J    A    B          Value
   ABAB           7    6    9    9      -0.132996D+00
 Largest amplitude= 1.33D-01
 Time for triples=        5.26 seconds.
 T4(CCSD)= -0.90937519D-02
 T5(CCSD)=  0.41911263D-03
 CCSD(T)= -0.76976985708D+02
 Discarding MO integrals.

 **********************************************************************

            Population analysis using the SCF Density.

 **********************************************************************

 Orbital symmetries:
       Occupied  (A1) (A1) (A1) (A1) (B2) (B1) (A1) (B2)
       Virtual   (B1) (A1) (B2) (A1) (A1) (B1) (B2) (A1) (B2) (B1)
                 (A1) (B2) (A1) (A2) (A1) (B1) (A1) (A2) (B2) (B2)
                 (A1) (B1) (A1) (B1) (A2) (A1) (B2) (A1) (A1) (B2)
 The electronic state is 3-B2.
 Alpha  occ. eigenvalues --  -11.30917 -11.26738  -1.06337  -0.76542  -0.62776
 Alpha  occ. eigenvalues --   -0.57603  -0.41053  -0.38217
 Alpha virt. eigenvalues --    0.14456   0.20821   0.25578   0.39810   0.57308
 Alpha virt. eigenvalues --    0.65552   0.66486   0.69120   0.76001   0.78366
 Alpha virt. eigenvalues --    0.78782   0.88545   0.97709   1.14055   1.19713
 Alpha virt. eigenvalues --    1.27533   1.33610   1.41257   1.60867   1.70505
 Alpha virt. eigenvalues --    1.78792   1.85518   1.92164   2.14681   2.15851
 Alpha virt. eigenvalues --    2.21754   2.30590   2.54015   2.77576   2.88788
          Condensed to atoms (all electrons):
          Atomic-Atomic Spin Densities.
 Mulliken charges and spin densities:
               1          2
     1  C   -0.095384   1.889356
     2  C   -0.056378   0.058768
     3  H    0.075881   0.025938
     4  H    0.075881   0.025938
 Sum of Mulliken charges =   0.00000   2.00000
 Mulliken charges and spin densities with hydrogens summed into heavy atoms:
               1          2
     1  C   -0.095384   1.889356
     2  C    0.095384   0.110644
 Electronic spatial extent (au):  <R**2>=             62.0615
 Charge=              0.0000 electrons
 Dipole moment (field-independent basis, Debye):
    X=             -0.0000    Y=              0.0000    Z=             -0.4156  Tot=              0.4156
                          Isotropic Fermi Contact Couplings
        Atom                 a.u.       MegaHertz       Gauss      10(-4) cm-1
     1  C(13)              0.91390     513.69979     183.30086     171.35181
     2  C(13)              0.10727      60.29635      21.51524      20.11270
     3  H(1)               0.01395      31.18669      11.12819      10.40276
     4  H(1)               0.01395      31.18669      11.12819      10.40276
 --------------------------------------------------------
       Center         ----  Spin Dipole Couplings  ----
                      3XX-RR        3YY-RR        3ZZ-RR
 --------------------------------------------------------
     1   Atom       -1.024232      0.849585      0.174647
     2   Atom       -0.133948     -0.098237      0.232185
     3   Atom       -0.026294     -0.002677      0.028971
     4   Atom       -0.026294     -0.002677      0.028971
 --------------------------------------------------------
                        XY            XZ            YZ
 --------------------------------------------------------
     1   Atom       -0.000000     -0.000000      0.000000
     2   Atom        0.000000      0.000000     -0.000000
     3   Atom       -0.000000      0.000000     -0.025687
     4   Atom        0.000000      0.000000      0.025687
 --------------------------------------------------------


 ---------------------------------------------------------------------------------
              Anisotropic Spin Dipole Couplings in Principal Axis System
 ---------------------------------------------------------------------------------

       Atom             a.u.   MegaHertz   Gauss  10(-4) cm-1        Axes

              Baa    -1.0242  -137.442   -49.043   -45.846  1.0000 -0.0000  0.0000
     1 C(13)  Bbb     0.1746    23.436     8.363     7.817  0.0000  0.0000  1.0000
              Bcc     0.8496   114.006    40.680    38.028 -0.0000  1.0000 -0.0000
 
              Baa    -0.1339   -17.975    -6.414    -5.996  1.0000 -0.0000  0.0000
     2 C(13)  Bbb    -0.0982   -13.182    -4.704    -4.397  0.0000  1.0000 -0.0000
              Bcc     0.2322    31.157    11.118    10.393  0.0000  0.0000  1.0000
 
              Baa    -0.0263   -14.029    -5.006    -4.680  1.0000  0.0000  0.0000
     3 H(1)   Bbb    -0.0170    -9.082    -3.241    -3.030 -0.0000  0.8731  0.4876
              Bcc     0.0433    23.112     8.247     7.709  0.0000 -0.4876  0.8731
 
              Baa    -0.0263   -14.029    -5.006    -4.680  1.0000 -0.0000 -0.0000
     4 H(1)   Bbb    -0.0170    -9.082    -3.241    -3.030  0.0000  0.8731 -0.4876
              Bcc     0.0433    23.112     8.247     7.709  0.0000  0.4876  0.8731
 

 ---------------------------------------------------------------------------------

 Unable to Open any file for archive entry.
 1\1\GINC-GPU\SP\ROCCSD(T)-FC\CC-pVDZ\C2H2(3)\XUHJ\07-Nov-2024\0\\#T RO
 CCSD(T)/cc-pVDZ symm=veryloose\\[C]=C\\0,3\C,0,0.,0.,0.836746\C,0,0.,0
 .,-0.483167\H,0,0.,-0.943805,-1.060736\H,0,0.,0.943805,-1.060736\\Vers
 ion=ES64L-G16RevC.01\State=3-B2\HF=-76.7212371\MP2=-76.9371736\MP3=-76
 .9601929\PUHF=-76.7212371\PMP2-0=-76.9371736\MP4SDQ=-76.9652387\CCSD=-
 76.9683111\CCSD(T)=-76.9769857\RMSD=2.556e-09\PG=C02V [C2(C1C1),SGV(H2
 )]\\@
 The archive entry for this job was punched.


 IT IS UNWORTHY OF EXCELLENT MEN TO LOSE HOURS LIKE SLAVES IN THE LABOR
 OF CALCULATION WHICH COULD BE SAFELY RELEGATED TO ANYONE ELSE
 IF A MACHINE WERE USED.
    -- G.W. VON LEIBNIZ
 Job cpu time:       0 days  0 hours  0 minutes 19.3 seconds.
 Elapsed time:       0 days  0 hours  0 minutes  2.7 seconds.
 File lengths (MBytes):  RWF=     21 Int=      0 D2E=      0 Chk=      1 Scr=      1
 Normal termination of Gaussian 16 at Thu Nov  7 00:32:29 2024.
 Initial command:
 /home/soft/g16/l1.exe "/home/soft/tmp/Gau-18084.inp" -scrdir="/home/soft/tmp/"
 Entering Link 1 = /home/soft/g16/l1.exe PID=     18185.
  
 Copyright (c) 1988-2019, Gaussian, Inc.  All Rights Reserved.
  
 This is part of the Gaussian(R) 16 program.  It is based on
 the Gaussian(R) 09 system (copyright 2009, Gaussian, Inc.),
 the Gaussian(R) 03 system (copyright 2003, Gaussian, Inc.),
 the Gaussian(R) 98 system (copyright 1998, Gaussian, Inc.),
 the Gaussian(R) 94 system (copyright 1995, Gaussian, Inc.),
 the Gaussian 92(TM) system (copyright 1992, Gaussian, Inc.),
 the Gaussian 90(TM) system (copyright 1990, Gaussian, Inc.),
 the Gaussian 88(TM) system (copyright 1988, Gaussian, Inc.),
 the Gaussian 86(TM) system (copyright 1986, Carnegie Mellon
 University), and the Gaussian 82(TM) system (copyright 1983,
 Carnegie Mellon University). Gaussian is a federally registered
 trademark of Gaussian, Inc.
  
 This software contains proprietary and confidential information,
 including trade secrets, belonging to Gaussian, Inc.
  
 This software is provided under written license and may be
 used, copied, transmitted, or stored only in accord with that
 written license.
  
 The following legend is applicable only to US Government
 contracts under FAR:
  
                    RESTRICTED RIGHTS LEGEND
  
 Use, reproduction and disclosure by the US Government is
 subject to restrictions as set forth in subparagraphs (a)
 and (c) of the Commercial Computer Software - Restricted
 Rights clause in FAR 52.227-19.
  
 Gaussian, Inc.
 340 Quinnipiac St., Bldg. 40, Wallingford CT 06492
  
  
 ---------------------------------------------------------------
 Warning -- This program may not be used in any manner that
 competes with the business of Gaussian, Inc. or will provide
 assistance to any competitor of Gaussian, Inc.  The licensee
 of this program is prohibited from giving any competitor of
 Gaussian, Inc. access to this program.  By using this program,
 the user acknowledges that Gaussian, Inc. is engaged in the
 business of creating and licensing software in the field of
 computational chemistry and represents and warrants to the
 licensee that it is not a competitor of Gaussian, Inc. and that
 it will not use this program in any manner prohibited above.
 ---------------------------------------------------------------
  

 Cite this work as:
 Gaussian 16, Revision C.01,
 M. J. Frisch, G. W. Trucks, H. B. Schlegel, G. E. Scuseria, 
 M. A. Robb, J. R. Cheeseman, G. Scalmani, V. Barone, 
 G. A. Petersson, H. Nakatsuji, X. Li, M. Caricato, A. V. Marenich, 
 J. Bloino, B. G. Janesko, R. Gomperts, B. Mennucci, H. P. Hratchian, 
 J. V. Ortiz, A. F. Izmaylov, J. L. Sonnenberg, D. Williams-Young, 
 F. Ding, F. Lipparini, F. Egidi, J. Goings, B. Peng, A. Petrone, 
 T. Henderson, D. Ranasinghe, V. G. Zakrzewski, J. Gao, N. Rega, 
 G. Zheng, W. Liang, M. Hada, M. Ehara, K. Toyota, R. Fukuda, 
 J. Hasegawa, M. Ishida, T. Nakajima, Y. Honda, O. Kitao, H. Nakai, 
 T. Vreven, K. Throssell, J. A. Montgomery, Jr., J. E. Peralta, 
 F. Ogliaro, M. J. Bearpark, J. J. Heyd, E. N. Brothers, K. N. Kudin, 
 V. N. Staroverov, T. A. Keith, R. Kobayashi, J. Normand, 
 K. Raghavachari, A. P. Rendell, J. C. Burant, S. S. Iyengar, 
 J. Tomasi, M. Cossi, J. M. Millam, M. Klene, C. Adamo, R. Cammi, 
 J. W. Ochterski, R. L. Martin, K. Morokuma, O. Farkas, 
 J. B. Foresman, and D. J. Fox, Gaussian, Inc., Wallingford CT, 2019.
 
 ******************************************
 Gaussian 16:  ES64L-G16RevC.01  3-Jul-2019
                 7-Nov-2024 
 ******************************************
 %nprocshared=8
 Will use up to    8 processors via shared memory.
 %mem=32000MB
 %chk=SNVLJLYUUXKWOJ-UHFFFAOYSA-N.chk
 -------------------------------------------------
 #T ROCCSD(T)/cc-pVTZ symm=veryloose geom=allcheck
 -------------------------------------------------
 Structure from the checkpoint file:  "SNVLJLYUUXKWOJ-UHFFFAOYSA-N.chk"
 -----
 [C]=C
 -----
 Charge =  0 Multiplicity = 3
 Z-Matrix found in chk file.
 C,0,0.,0.,0.836746
 C,0,0.,0.,-0.483167
 H,0,0.,-0.943805,-1.060736
 H,0,0.,0.943805,-1.060736
 Recover connectivity data from disk.
                    Distance matrix (angstroms):
                    1          2          3          4
     1  C    0.000000
     2  C    1.319913   0.000000
     3  H    2.119247   1.106505   0.000000
     4  H    2.119247   1.106505   1.887610   0.000000
 Framework group  C2V[C2(CC),SGV(H2)]
 Deg. of freedom     3
                         Standard orientation:                         
 ---------------------------------------------------------------------
 Center     Atomic      Atomic             Coordinates (Angstroms)
 Number     Number       Type             X           Y           Z
 ---------------------------------------------------------------------
      1          6           0        0.000000   -0.000000    0.836746
      2          6           0       -0.000000    0.000000   -0.483167
      3          1           0        0.000000    0.943805   -1.060736
      4          1           0       -0.000000   -0.943805   -1.060736
 ---------------------------------------------------------------------
 Rotational constants (GHZ):         281.4734999          37.9962510          33.4771531
    88 basis functions,   138 primitive gaussians,   100 cartesian basis functions
     8 alpha electrons        6 beta electrons
       nuclear repulsion energy        23.4487104462 Hartrees.
 NAtoms=    4 NActive=    4 NUniq=    3 SFac= 1.78D+00 NAtFMM=   60 NAOKFM=F Big=F
 ExpMin= 1.03D-01 ExpMax= 8.24D+03 ExpMxC= 2.81D+02 IAcc=3 IRadAn=         5 AccDes= 0.00D+00
 Harris functional with IExCor=  205 and IRadAn=       5 diagonalized for initial guess.
 HarFok:  IExCor=  205 AccDes= 0.00D+00 IRadAn=         5 IDoV= 1 UseB2=F ITyADJ=14
 ICtDFT=  3500011 ScaDFX=  1.000000  1.000000  1.000000  1.000000
 FoFCou: FMM=F IPFlag=           0 FMFlag=      100000 FMFlg1=           0
         NFxFlg=           0 DoJE=T BraDBF=F KetDBF=T FulRan=T
         wScrn=  0.000000 ICntrl=       500 IOpCl=  0 I1Cent=   200000004 NGrid=           0
         NMat0=    1 NMatS0=      1 NMatT0=    0 NMatD0=    1 NMtDS0=    0 NMtDT0=    0
 Petite list used in FoFCou.
 Initial guess orbital symmetries:
       Occupied  (A1) (A1) (A1) (A1) (B2) (B1) (A1) (B2)
       Virtual   (B1) (A1) (B2) (A1) (B1) (A1) (A1) (B2) (B1) (B2)
                 (A1) (B2) (A1) (A2) (A1) (A1) (B1) (A2) (B2) (B2)
                 (A1) (B1) (A1) (B1) (A1) (A2) (B2) (B2) (A1) (A1)
                 (B1) (A1) (B2) (B1) (A1) (B2) (B1) (B2) (A1) (A2)
                 (B1) (B2) (A2) (B2) (A1) (A1) (B1) (A1) (B2) (B1)
                 (A1) (A2) (A1) (A2) (B2) (B1) (B2) (A1) (A2) (B2)
                 (A1) (B1) (A1) (B2) (B1) (A1) (A2) (A1) (B1) (B2)
                 (A1) (B1) (B2) (A2) (A1) (A1) (B2) (B2) (A1) (A1)
 The electronic state of the initial guess is 3-B2.
 SCF Done:  E(ROHF) =  -76.7398437490     A.U. after   13 cycles
            NFock= 13  Conv=0.88D-08     -V/T= 2.0022
 <Sx>= 0.0000 <Sy>= 0.0000 <Sz>= 1.0000 <S**2>= 2.0000 S= 1.0000
 <L.S>=  0.00000000000    
 Annihilation of the first spin contaminant:
 S**2 before annihilation     2.0000,   after     2.0000
 GenMOA:  NOpAll=  4 NOp2=4 NOpUse=  4 JSym2X=1
 <Sx>= 0.0000 <Sy>= 0.0000 <Sz>= 1.0000 <S**2>= 2.0000 S= 1.0000
 ExpMin= 1.03D-01 ExpMax= 8.24D+03 ExpMxC= 2.81D+02 IAcc=3 IRadAn=         5 AccDes= 0.00D+00
 HarFok:  IExCor=  205 AccDes= 0.00D+00 IRadAn=         5 IDoV=-2 UseB2=F ITyADJ=14
 ICtDFT= 12500011 ScaDFX=  1.000000  1.000000  1.000000  1.000000
 NROrb=     86 NOA=     6 NOB=     4 NVA=    80 NVB=    82

 **** Warning!!: The largest alpha MO coefficient is  0.10820530D+02


 **** Warning!!: The largest beta MO coefficient is  0.10813727D+02

 Singles contribution to E2=   -0.3337312582D-02
 Semi-Direct transformation.
 ModeAB=           4 MOrb=             6 LenV=    4193896323
 LASXX=       462403 LTotXX=      462403 LenRXX=      947067
 LTotAB=      484664 MaxLAS=     2056260 LenRXY=           0
 NonZer=     1409470 LenScr=     2818048 LnRSAI=     2056260
 LnScr1=     3855360 LExtra=           0 Total=      9676735
 MaxDsk=          -1 SrtSym=           T ITran=            4
 JobTyp=1 Pass  1:  I=   1 to   6.
 (rs|ai) integrals will be sorted in core.
 ModeAB=           4 MOrb=             4 LenV=    4193896323
 LASXX=       311369 LTotXX=      311369 LenRXX=      592352
 LTotAB=      280983 MaxLAS=     1370840 LenRXY=           0
 NonZer=      903721 LenScr=     2032128 LnRSAI=     1370840
 LnScr1=     2740224 LExtra=           0 Total=      6735544
 MaxDsk=          -1 SrtSym=           T ITran=            4
 JobTyp=2 Pass  1:  I=   1 to   4.
 (rs|ai) integrals will be sorted in core.
 ANorm=    0.1047287597D+01
 E2 =    -0.2646134743D+00 EUMP2 =    -0.77004457223246D+02
 (S**2,0)=  0.20000D+01           (S**2,1)=  0.20000D+01
 E(PUHF)=      -0.76739843749D+02        E(PMP2)=      -0.77004457223D+02
 CIDS: In Core Option IDoMem=           1.
 Produce multiple copies of IABC intergrals
 MP4(R+Q)=  0.28480214D-01
 E3=       -0.21017058D-01        EROMP3=      -0.77025474281D+02
 E4(SDQ)=  -0.35839366D-02        ROMP4(SDQ)=  -0.77029058218D+02
 DE(Corr)= -0.25700996     E(Corr)=     -76.996853708    
 NORM(A)=   0.10437554D+01
 DE(Corr)= -0.27754796     E(CORR)=     -77.017391706     Delta=-2.05D-02
 NORM(A)=   0.10459979D+01
 DE(Corr)= -0.27957010     E(CORR)=     -77.019413851     Delta=-2.02D-03
 NORM(A)=   0.10517168D+01
 DE(Corr)= -0.28277313     E(CORR)=     -77.022616878     Delta=-3.20D-03
 NORM(A)=   0.10686515D+01
 DE(Corr)= -0.29025516     E(CORR)=     -77.030098906     Delta=-7.48D-03
 NORM(A)=   0.10754164D+01
 DE(Corr)= -0.29224369     E(CORR)=     -77.032087436     Delta=-1.99D-03
 NORM(A)=   0.10727484D+01
 DE(Corr)= -0.29127980     E(CORR)=     -77.031123547     Delta= 9.64D-04
 NORM(A)=   0.10730086D+01
 DE(Corr)= -0.29133388     E(CORR)=     -77.031177630     Delta=-5.41D-05
 NORM(A)=   0.10729454D+01
 DE(Corr)= -0.29131388     E(CORR)=     -77.031157629     Delta= 2.00D-05
 NORM(A)=   0.10729167D+01
 DE(Corr)= -0.29131381     E(CORR)=     -77.031157563     Delta= 6.61D-08
 NORM(A)=   0.10728872D+01
 DE(Corr)= -0.29131101     E(CORR)=     -77.031154757     Delta= 2.81D-06
 NORM(A)=   0.10729018D+01
 DE(Corr)= -0.29131581     E(CORR)=     -77.031159562     Delta=-4.81D-06
 NORM(A)=   0.10729034D+01
 DE(Corr)= -0.29131613     E(CORR)=     -77.031159880     Delta=-3.18D-07
 NORM(A)=   0.10729027D+01
 DE(Corr)= -0.29131603     E(CORR)=     -77.031159777     Delta= 1.04D-07
 NORM(A)=   0.10729011D+01
 DE(Corr)= -0.29131568     E(CORR)=     -77.031159430     Delta= 3.46D-07
 NORM(A)=   0.10729005D+01
 DE(Corr)= -0.29131562     E(CORR)=     -77.031159369     Delta= 6.09D-08
 NORM(A)=   0.10729004D+01
 Wavefunction amplitudes converged. E(Corr)=     -77.031159369    
 Dominant configurations:
 ***********************
 Spin Case        I    J    A    B          Value
   ABAB           7    6    9   10       0.115518D+00
 Largest amplitude= 1.16D-01
 Time for triples=       42.35 seconds.
 T4(CCSD)= -0.13710652D-01
 T5(CCSD)=  0.52125815D-03
 CCSD(T)= -0.77044348764D+02
 Discarding MO integrals.

 **********************************************************************

            Population analysis using the SCF Density.

 **********************************************************************

 Orbital symmetries:
       Occupied  (A1) (A1) (A1) (A1) (B2) (B1) (A1) (B2)
       Virtual   (B1) (A1) (B2) (A1) (A1) (B1) (B2) (A1) (B2) (B1)
                 (A1) (B2) (A1) (A2) (A1) (A1) (B1) (A2) (B2) (B2)
                 (B1) (A1) (A1) (B1) (A2) (A1) (B2) (B2) (A1) (A1)
                 (B1) (A1) (B2) (A1) (B1) (B2) (A1) (B1) (B2) (A2)
                 (B1) (B2) (B2) (A2) (A1) (A1) (B1) (A1) (B2) (A2)
                 (B1) (A1) (A1) (A2) (B2) (B1) (B2) (A1) (A2) (B2)
                 (A1) (B1) (B2) (A1) (B1) (A2) (A1) (A1) (B1) (B2)
                 (B1) (A1) (B2) (A2) (A1) (A1) (B2) (B2) (A1) (A1)
 The electronic state is 3-B2.
 Alpha  occ. eigenvalues --  -11.30848 -11.26079  -1.06374  -0.76721  -0.63002
 Alpha  occ. eigenvalues --   -0.57916  -0.41232  -0.38502
 Alpha virt. eigenvalues --    0.13216   0.16393   0.20471   0.28117   0.37827
 Alpha virt. eigenvalues --    0.43214   0.43745   0.48242   0.52958   0.54746
 Alpha virt. eigenvalues --    0.61264   0.63411   0.63778   0.68670   0.78090
 Alpha virt. eigenvalues --    0.83295   0.89057   0.91029   1.07885   1.15383
 Alpha virt. eigenvalues --    1.18809   1.19000   1.25116   1.34937   1.38908
 Alpha virt. eigenvalues --    1.42896   1.45268   1.51212   1.69038   1.73757
 Alpha virt. eigenvalues --    2.31966   2.36953   2.42790   2.52267   2.52928
 Alpha virt. eigenvalues --    2.70424   2.73373   2.75450   2.76047   2.86360
 Alpha virt. eigenvalues --    2.90007   2.96670   3.06883   3.07350   3.12325
 Alpha virt. eigenvalues --    3.13292   3.20061   3.24550   3.29008   3.32584
 Alpha virt. eigenvalues --    3.35447   3.37450   3.43015   3.46069   3.51874
 Alpha virt. eigenvalues --    3.57663   3.73683   3.74468   3.84004   3.96889
 Alpha virt. eigenvalues --    4.04380   4.07829   4.17964   4.21886   4.29927
 Alpha virt. eigenvalues --    4.36561   4.42638   4.66734   4.82959   4.86292
 Alpha virt. eigenvalues --    5.06351   5.07599   5.12487   5.24162   5.25577
 Alpha virt. eigenvalues --    5.59120   5.99224   6.21254   8.40805  13.69255
          Condensed to atoms (all electrons):
          Atomic-Atomic Spin Densities.
 Mulliken charges and spin densities:
               1          2
     1  C   -0.037976   1.888282
     2  C   -0.250775   0.060671
     3  H    0.144376   0.025524
     4  H    0.144376   0.025524
 Sum of Mulliken charges =   0.00000   2.00000
 Mulliken charges and spin densities with hydrogens summed into heavy atoms:
               1          2
     1  C   -0.037976   1.888282
     2  C    0.037976   0.111718
 Electronic spatial extent (au):  <R**2>=             62.2590
 Charge=              0.0000 electrons
 Dipole moment (field-independent basis, Debye):
    X=             -0.0000    Y=             -0.0000    Z=             -0.4305  Tot=              0.4305
                          Isotropic Fermi Contact Couplings
        Atom                 a.u.       MegaHertz       Gauss      10(-4) cm-1
     1  C(13)              0.92281     518.70644     185.08736     173.02184
     2  C(13)              0.11012      61.89517      22.08574      20.64601
     3  H(1)               0.01570      35.08672      12.51981      11.70367
     4  H(1)               0.01570      35.08672      12.51981      11.70367
 --------------------------------------------------------
       Center         ----  Spin Dipole Couplings  ----
                      3XX-RR        3YY-RR        3ZZ-RR
 --------------------------------------------------------
     1   Atom       -1.060756      0.875229      0.185527
     2   Atom       -0.138749     -0.101251      0.240000
     3   Atom       -0.026575     -0.002959      0.029534
     4   Atom       -0.026575     -0.002959      0.029534
 --------------------------------------------------------
                        XY            XZ            YZ
 --------------------------------------------------------
     1   Atom       -0.000000     -0.000000      0.000000
     2   Atom        0.000000      0.000000      0.000000
     3   Atom       -0.000000      0.000000     -0.026162
     4   Atom        0.000000      0.000000      0.026162
 --------------------------------------------------------


 ---------------------------------------------------------------------------------
              Anisotropic Spin Dipole Couplings in Principal Axis System
 ---------------------------------------------------------------------------------

       Atom             a.u.   MegaHertz   Gauss  10(-4) cm-1        Axes

              Baa    -1.0608  -142.343   -50.792   -47.481  1.0000  0.0000  0.0000
     1 C(13)  Bbb     0.1855    24.896     8.883     8.304  0.0000  0.0000  1.0000
              Bcc     0.8752   117.447    41.908    39.176  0.0000  1.0000 -0.0000
 
              Baa    -0.1387   -18.619    -6.644    -6.211  1.0000  0.0000 -0.0000
     2 C(13)  Bbb    -0.1013   -13.587    -4.848    -4.532 -0.0000  1.0000 -0.0000
              Bcc     0.2400    32.206    11.492    10.743  0.0000  0.0000  1.0000
 
              Baa    -0.0266   -14.179    -5.059    -4.730  1.0000  0.0000  0.0000
     3 H(1)   Bbb    -0.0175    -9.342    -3.333    -3.116 -0.0000  0.8739  0.4860
              Bcc     0.0441    23.521     8.393     7.846  0.0000 -0.4860  0.8739
 
              Baa    -0.0266   -14.179    -5.059    -4.730  1.0000 -0.0000 -0.0000
     4 H(1)   Bbb    -0.0175    -9.342    -3.333    -3.116  0.0000  0.8739 -0.4860
              Bcc     0.0441    23.521     8.393     7.846  0.0000  0.4860  0.8739
 

 ---------------------------------------------------------------------------------

 Unable to Open any file for archive entry.
 1\1\GINC-GPU\SP\ROCCSD(T)-FC\CC-pVTZ\C2H2(3)\XUHJ\07-Nov-2024\0\\#T RO
 CCSD(T)/cc-pVTZ symm=veryloose geom=allcheck\\[C]=C\\0,3\C,0,0.,0.,0.8
 36746\C,0,0.,0.,-0.483167\H,0,0.,-0.943805,-1.060736\H,0,0.,0.943805,-
 1.060736\\Version=ES64L-G16RevC.01\State=3-B2\HF=-76.7398437\MP2=-77.0
 044572\MP3=-77.0254743\PUHF=-76.7398437\PMP2-0=-77.0044572\MP4SDQ=-77.
 0290582\CCSD=-77.0311594\CCSD(T)=-77.0443488\RMSD=8.756e-09\PG=C02V [C
 2(C1C1),SGV(H2)]\\@
 The archive entry for this job was punched.


 LIFE IS SO UNCERTAIN - EAT DESSERT FIRST.
 Job cpu time:       0 days  0 hours  1 minutes 42.3 seconds.
 Elapsed time:       0 days  0 hours  0 minutes 13.1 seconds.
 File lengths (MBytes):  RWF=     83 Int=      0 D2E=      0 Chk=      2 Scr=      1
 Normal termination of Gaussian 16 at Thu Nov  7 00:32:42 2024.
