%nprocshared=16
%mem=57600MB
%chk=TUAHORSUHVUKBD-UHFFFAOYSA-N-1.chk
#T CCSD(T)/cc-pVDZ symm=veryloose 

c1ccc2c(c1)ccc1ccc3ccccc3c12

0 1
C         0.000000       3.855261      -1.521207
C         0.389966       2.708681      -2.243438
C         0.402713       1.464721      -1.636202
C         0.022130       1.287840      -0.277250
C        -0.255196       2.477775       0.475410
C        -0.296545       3.735598      -0.177583
C        -0.412999       2.398842       1.893894
C        -0.225445       1.213701       2.543591
C        -0.000000       0.000000       1.819567
C         0.225445      -1.213701       2.543591
C         0.412999      -2.398842       1.893894
C         0.255196      -2.477775       0.475410
C         0.296545      -3.735598      -0.177583
C        -0.000000      -3.855261      -1.521207
C        -0.389966      -2.708681      -2.243438
C        -0.402713      -1.464721      -1.636202
C        -0.022130      -1.287840      -0.277250
C        -0.000000       0.000000       0.400091
H        -0.026015       4.833313      -2.010377
H         0.704224       2.801276      -3.287325
H         0.770332       0.614634      -2.207920
H        -0.540011       4.621666       0.416954
H        -0.626749       3.316124       2.450627
H        -0.267652       1.164023       3.635780
H         0.267652      -1.164023       3.635780
H         0.626749      -3.316124       2.450627
H         0.540011      -4.621666       0.416954
H         0.026015      -4.833313      -2.010377
H        -0.704224      -2.801276      -3.287325
H        -0.770332      -0.614634      -2.207920


--link1--
%nprocshared=16
%mem=57600MB
%chk=TUAHORSUHVUKBD-UHFFFAOYSA-N-1.chk
#T CCSD(T)/cc-pVTZ symm=veryloose geom=allcheck 

