%nprocshared=16
%mem=4000MB
%chk=UFHFLCQGNIYNRP-UHFFFAOYSA-N.chk
#T CCSD(T)/cc-pVDZ symm=veryloose

[H][H]

0 1
H         0.000000       0.000000       0.382265
H         0.000000       0.000000      -0.382265


--link1--
%nprocshared=16
%mem=4000MB
%chk=UFHFLCQGNIYNRP-UHFFFAOYSA-N.chk
#T CCSD(T)/cc-pVTZ symm=veryloose geom=allcheck

