%nprocshared=16
%mem=40000MB
%chk=UFWIBTONFRDIAS-UHFFFAOYSA-N.chk
#T CCSD(T)/cc-pVDZ symm=veryloose

c1ccc2ccccc2c1

0 1
C         0.000000       2.437470       0.709256
C         0.000000       2.437470      -0.709256
C         0.000000       1.246038      -1.403999
C        -0.000000       0.000000      -0.717907
C        -0.000000      -1.246038      -1.403999
C        -0.000000      -2.437470      -0.709256
C        -0.000000      -2.437470       0.709256
C        -0.000000      -1.246038       1.403999
C        -0.000000       0.000000       0.717907
C        -0.000000       1.246038       1.403999
H         0.000000       3.388063       1.251115
H         0.000000       3.388063      -1.251115
H         0.000000       1.243089      -2.498684
H        -0.000000      -1.243089      -2.498684
H        -0.000000      -3.388063      -1.251115
H        -0.000000      -3.388063       1.251115
H        -0.000000      -1.243089       2.498684
H        -0.000000       1.243089       2.498684


--link1--
%nprocshared=16
%mem=40000MB
%chk=UFWIBTONFRDIAS-UHFFFAOYSA-N.chk
#T CCSD(T)/cc-pVTZ symm=veryloose geom=allcheck

