 Entering Gaussian System, Link 0=g16
 Initial command:
 /home/software/g16/l1.exe "/home/software/g16tmp/Gau-127821.inp" -scrdir="/home/software/g16tmp/"
 Default is to use a total of   8 processors:
                                8 via shared-memory
                                1 via Linda
 Entering Link 1 = /home/software/g16/l1.exe PID=    127822.
  
 Copyright (c) 1988-2019, Gaussian, Inc.  All Rights Reserved.
  
 This is part of the Gaussian(R) 16 program.  It is based on
 the Gaussian(R) 09 system (copyright 2009, Gaussian, Inc.),
 the Gaussian(R) 03 system (copyright 2003, Gaussian, Inc.),
 the Gaussian(R) 98 system (copyright 1998, Gaussian, Inc.),
 the Gaussian(R) 94 system (copyright 1995, Gaussian, Inc.),
 the Gaussian 92(TM) system (copyright 1992, Gaussian, Inc.),
 the Gaussian 90(TM) system (copyright 1990, Gaussian, Inc.),
 the Gaussian 88(TM) system (copyright 1988, Gaussian, Inc.),
 the Gaussian 86(TM) system (copyright 1986, Carnegie Mellon
 University), and the Gaussian 82(TM) system (copyright 1983,
 Carnegie Mellon University). Gaussian is a federally registered
 trademark of Gaussian, Inc.
  
 This software contains proprietary and confidential information,
 including trade secrets, belonging to Gaussian, Inc.
  
 This software is provided under written license and may be
 used, copied, transmitted, or stored only in accord with that
 written license.
  
 The following legend is applicable only to US Government
 contracts under FAR:
  
                    RESTRICTED RIGHTS LEGEND
  
 Use, reproduction and disclosure by the US Government is
 subject to restrictions as set forth in subparagraphs (a)
 and (c) of the Commercial Computer Software - Restricted
 Rights clause in FAR 52.227-19.
  
 Gaussian, Inc.
 340 Quinnipiac St., Bldg. 40, Wallingford CT 06492
  
  
 ---------------------------------------------------------------
 Warning -- This program may not be used in any manner that
 competes with the business of Gaussian, Inc. or will provide
 assistance to any competitor of Gaussian, Inc.  The licensee
 of this program is prohibited from giving any competitor of
 Gaussian, Inc. access to this program.  By using this program,
 the user acknowledges that Gaussian, Inc. is engaged in the
 business of creating and licensing software in the field of
 computational chemistry and represents and warrants to the
 licensee that it is not a competitor of Gaussian, Inc. and that
 it will not use this program in any manner prohibited above.
 ---------------------------------------------------------------
  

 Cite this work as:
 Gaussian 16, Revision C.01,
 M. J. Frisch, G. W. Trucks, H. B. Schlegel, G. E. Scuseria, 
 M. A. Robb, J. R. Cheeseman, G. Scalmani, V. Barone, 
 G. A. Petersson, H. Nakatsuji, X. Li, M. Caricato, A. V. Marenich, 
 J. Bloino, B. G. Janesko, R. Gomperts, B. Mennucci, H. P. Hratchian, 
 J. V. Ortiz, A. F. Izmaylov, J. L. Sonnenberg, D. Williams-Young, 
 F. Ding, F. Lipparini, F. Egidi, J. Goings, B. Peng, A. Petrone, 
 T. Henderson, D. Ranasinghe, V. G. Zakrzewski, J. Gao, N. Rega, 
 G. Zheng, W. Liang, M. Hada, M. Ehara, K. Toyota, R. Fukuda, 
 J. Hasegawa, M. Ishida, T. Nakajima, Y. Honda, O. Kitao, H. Nakai, 
 T. Vreven, K. Throssell, J. A. Montgomery, Jr., J. E. Peralta, 
 F. Ogliaro, M. J. Bearpark, J. J. Heyd, E. N. Brothers, K. N. Kudin, 
 V. N. Staroverov, T. A. Keith, R. Kobayashi, J. Normand, 
 K. Raghavachari, A. P. Rendell, J. C. Burant, S. S. Iyengar, 
 J. Tomasi, M. Cossi, J. M. Millam, M. Klene, C. Adamo, R. Cammi, 
 J. W. Ochterski, R. L. Martin, K. Morokuma, O. Farkas, 
 J. B. Foresman, and D. J. Fox, Gaussian, Inc., Wallingford CT, 2019.
 
 ******************************************
 Gaussian 16:  ES64L-G16RevC.01  3-Jul-2019
                20-Dec-2023 
 ******************************************
 %nprocshared=16
 Will use up to   16 processors via shared memory.
 %mem=8000MB
 %chk=UGFAIRIUMAVXCW-UHFFFAOYSA-N.chk
 ---------------------------------
 #T CCSD(T)/cc-pVDZ symm=veryloose
 ---------------------------------
 ---------
 [C-]#[O+]
 ---------
 Symbolic Z-matrix:
 Charge =  0 Multiplicity = 1
 C                     0.        0.       -0.64594 
 O                     0.        0.        0.48445 
 
 Framework group  C*V[C*(CO)]
 Deg. of freedom     1
                         Standard orientation:                         
 ---------------------------------------------------------------------
 Center     Atomic      Atomic             Coordinates (Angstroms)
 Number     Number       Type             X           Y           Z
 ---------------------------------------------------------------------
      1          6           0        0.000000    0.000000   -0.645938
      2          8           0        0.000000    0.000000    0.484454
 ---------------------------------------------------------------------
 Rotational constants (GHZ):           0.0000000          57.6866108          57.6866108
    28 basis functions,    66 primitive gaussians,    30 cartesian basis functions
     7 alpha electrons        7 beta electrons
       nuclear repulsion energy        22.4705289175 Hartrees.
 NAtoms=    2 NActive=    2 NUniq=    2 SFac= 1.00D+00 NAtFMM=   60 NAOKFM=F Big=F
 ExpMin= 1.52D-01 ExpMax= 1.17D+04 ExpMxC= 4.01D+02 IAcc=3 IRadAn=         5 AccDes= 0.00D+00
 Harris functional with IExCor=  205 and IRadAn=       5 diagonalized for initial guess.
 HarFok:  IExCor=  205 AccDes= 0.00D+00 IRadAn=         5 IDoV= 1 UseB2=F ITyADJ=14
 ICtDFT=  3500011 ScaDFX=  1.000000  1.000000  1.000000  1.000000
 FoFCou: FMM=F IPFlag=           0 FMFlag=      100000 FMFlg1=           0
         NFxFlg=           0 DoJE=T BraDBF=F KetDBF=T FulRan=T
         wScrn=  0.000000 ICntrl=       500 IOpCl=  0 I1Cent=   200000004 NGrid=           0
         NMat0=    1 NMatS0=      1 NMatT0=    0 NMatD0=    1 NMtDS0=    0 NMtDT0=    0
 Petite list used in FoFCou.
 Initial guess orbital symmetries:
       Occupied  (SG) (SG) (SG) (SG) (PI) (PI) (SG)
       Virtual   (PI) (PI) (SG) (PI) (PI) (SG) (SG) (SG) (PI) (PI)
                 (DLTA) (DLTA) (PI) (PI) (SG) (SG) (DLTA) (DLTA)
                 (PI) (PI) (SG)
 The electronic state of the initial guess is 1-SG.
 SCF Done:  E(RHF) =  -112.749077117     A.U. after    9 cycles
            NFock=  9  Conv=0.93D-08     -V/T= 2.0015
 ExpMin= 1.52D-01 ExpMax= 1.17D+04 ExpMxC= 4.01D+02 IAcc=3 IRadAn=         5 AccDes= 0.00D+00
 HarFok:  IExCor=  205 AccDes= 0.00D+00 IRadAn=         5 IDoV=-2 UseB2=F ITyADJ=14
 ICtDFT= 12500011 ScaDFX=  1.000000  1.000000  1.000000  1.000000
 NROrb=     26 NOA=     5 NOB=     5 NVA=    21 NVB=    21
 Semi-Direct transformation.
 ModeAB=           2 MOrb=             5 LenV=    1048383505
 LASXX=         9480 LTotXX=        9480 LenRXX=        9480
 LTotAB=       10959 MaxLAS=       60450 LenRXY=       60450
 NonZer=       65910 LenScr=      655360 LnRSAI=           0
 LnScr1=           0 LExtra=           0 Total=       725290
 MaxDsk=          -1 SrtSym=           F ITran=            4
 JobTyp=0 Pass  1:  I=   1 to   5.
 (rs|ai) integrals will be sorted in core.
 ANorm=    0.1045163273D+01
 E2 =    -0.2871230388D+00 EUMP2 =    -0.11303620015563D+03
 CIDS: In Core Option IDoMem=           1.
 Produce multiple copies of IABC intergrals
 MP4(R+Q)=  0.43823283D-02
 E3=        0.10539343D-02        EUMP3=      -0.11303514622D+03
 E4(DQ)=   -0.48470728D-02        UMP4(DQ)=   -0.11303999329D+03
 E4(SDQ)=  -0.10690675D-01        UMP4(SDQ)=  -0.11304583690D+03
 DE(Corr)= -0.28108773     E(Corr)=     -113.03016484    
 NORM(A)=   0.10464271D+01
 DE(Corr)= -0.29324598     E(CORR)=     -113.04232309     Delta=-1.22D-02
 NORM(A)=   0.10522860D+01
 DE(Corr)= -0.29341214     E(CORR)=     -113.04248926     Delta=-1.66D-04
 NORM(A)=   0.10541258D+01
 DE(Corr)= -0.29463942     E(CORR)=     -113.04371654     Delta=-1.23D-03
 NORM(A)=   0.10544858D+01
 DE(Corr)= -0.29473777     E(CORR)=     -113.04381489     Delta=-9.83D-05
 NORM(A)=   0.10545648D+01
 DE(Corr)= -0.29474513     E(CORR)=     -113.04382224     Delta=-7.36D-06
 NORM(A)=   0.10545606D+01
 DE(Corr)= -0.29474583     E(CORR)=     -113.04382295     Delta=-7.05D-07
 NORM(A)=   0.10545628D+01
 DE(Corr)= -0.29474483     E(CORR)=     -113.04382195     Delta= 1.00D-06
 NORM(A)=   0.10545628D+01
 DE(Corr)= -0.29474535     E(CORR)=     -113.04382246     Delta=-5.15D-07
 NORM(A)=   0.10545630D+01
 DE(Corr)= -0.29474521     E(CORR)=     -113.04382232     Delta= 1.40D-07
 NORM(A)=   0.10545631D+01
 DE(Corr)= -0.29474527     E(CORR)=     -113.04382238     Delta=-5.97D-08
 NORM(A)=   0.10545631D+01
 Wavefunction amplitudes converged. E(Corr)=     -113.04382238    
 Largest amplitude= 7.70D-02
 Time for triples=        0.88 seconds.
 T4(CCSD)= -0.12246207D-01
 T5(CCSD)=  0.15383491D-02
 CCSD(T)= -0.11305453024D+03
 Discarding MO integrals.

 **********************************************************************

            Population analysis using the SCF Density.

 **********************************************************************

 Orbital symmetries:
       Occupied  (SG) (SG) (SG) (SG) (PI) (PI) (SG)
       Virtual   (PI) (PI) (SG) (PI) (PI) (SG) (SG) (SG) (PI) (PI)
                 (DLTA) (DLTA) (PI) (PI) (SG) (SG) (DLTA) (DLTA)
                 (PI) (PI) (SG)
 The electronic state is 1-SG.
 Alpha  occ. eigenvalues --  -20.66939 -11.36752  -1.52141  -0.80190  -0.63347
 Alpha  occ. eigenvalues --   -0.63347  -0.54908
 Alpha virt. eigenvalues --    0.15373   0.15373   0.38242   0.67213   0.67213
 Alpha virt. eigenvalues --    0.72628   1.01566   1.06112   1.22479   1.22479
 Alpha virt. eigenvalues --    1.34419   1.34419   1.55658   1.55658   1.93892
 Alpha virt. eigenvalues --    2.33855   2.93680   2.93680   3.42418   3.42418
 Alpha virt. eigenvalues --    3.86872
          Condensed to atoms (all electrons):
 Mulliken charges:
               1
     1  C    0.104201
     2  O   -0.104201
 Sum of Mulliken charges =   0.00000
 Mulliken charges with hydrogens summed into heavy atoms:
               1
     1  C    0.104201
     2  O   -0.104201
 Electronic spatial extent (au):  <R**2>=             39.5864
 Charge=              0.0000 electrons
 Dipole moment (field-independent basis, Debye):
    X=              0.0000    Y=              0.0000    Z=             -0.2443  Tot=              0.2443
 Unable to Open any file for archive entry.
 1\1\GINC-NODE05\SP\RCCSD(T)-FC\CC-pVDZ\C1O1\XUHJ\20-Dec-2023\0\\#T CCS
 D(T)/cc-pVDZ symm=veryloose\\[C-]#[O+]\\0,1\C,0,0.,0.,-0.645938\O,0,0.
 ,0.,0.484454\\Version=ES64L-G16RevC.01\State=1-SG\HF=-112.7490771\MP2=
 -113.0362002\MP3=-113.0351462\MP4D=-113.0443756\MP4DQ=-113.0399933\MP4
 SDQ=-113.0458369\CCSD=-113.0438224\CCSD(T)=-113.0545302\RMSD=9.334e-09
 \PG=C*V [C*(C1O1)]\\@
 The archive entry for this job was punched.


 LIFE IS SO UNCERTAIN - EAT DESSERT FIRST.
 Job cpu time:       0 days  0 hours  0 minutes 10.8 seconds.
 Elapsed time:       0 days  0 hours  0 minutes  0.9 seconds.
 File lengths (MBytes):  RWF=     24 Int=      0 D2E=      0 Chk=      2 Scr=      2
 Normal termination of Gaussian 16 at Wed Dec 20 02:46:27 2023.
 Initial command:
 /home/software/g16/l1.exe "/home/software/g16tmp/Gau-127821.inp" -scrdir="/home/software/g16tmp/"
 Default is to use a total of   8 processors:
                                8 via shared-memory
                                1 via Linda
 Entering Link 1 = /home/software/g16/l1.exe PID=    128018.
  
 Copyright (c) 1988-2019, Gaussian, Inc.  All Rights Reserved.
  
 This is part of the Gaussian(R) 16 program.  It is based on
 the Gaussian(R) 09 system (copyright 2009, Gaussian, Inc.),
 the Gaussian(R) 03 system (copyright 2003, Gaussian, Inc.),
 the Gaussian(R) 98 system (copyright 1998, Gaussian, Inc.),
 the Gaussian(R) 94 system (copyright 1995, Gaussian, Inc.),
 the Gaussian 92(TM) system (copyright 1992, Gaussian, Inc.),
 the Gaussian 90(TM) system (copyright 1990, Gaussian, Inc.),
 the Gaussian 88(TM) system (copyright 1988, Gaussian, Inc.),
 the Gaussian 86(TM) system (copyright 1986, Carnegie Mellon
 University), and the Gaussian 82(TM) system (copyright 1983,
 Carnegie Mellon University). Gaussian is a federally registered
 trademark of Gaussian, Inc.
  
 This software contains proprietary and confidential information,
 including trade secrets, belonging to Gaussian, Inc.
  
 This software is provided under written license and may be
 used, copied, transmitted, or stored only in accord with that
 written license.
  
 The following legend is applicable only to US Government
 contracts under FAR:
  
                    RESTRICTED RIGHTS LEGEND
  
 Use, reproduction and disclosure by the US Government is
 subject to restrictions as set forth in subparagraphs (a)
 and (c) of the Commercial Computer Software - Restricted
 Rights clause in FAR 52.227-19.
  
 Gaussian, Inc.
 340 Quinnipiac St., Bldg. 40, Wallingford CT 06492
  
  
 ---------------------------------------------------------------
 Warning -- This program may not be used in any manner that
 competes with the business of Gaussian, Inc. or will provide
 assistance to any competitor of Gaussian, Inc.  The licensee
 of this program is prohibited from giving any competitor of
 Gaussian, Inc. access to this program.  By using this program,
 the user acknowledges that Gaussian, Inc. is engaged in the
 business of creating and licensing software in the field of
 computational chemistry and represents and warrants to the
 licensee that it is not a competitor of Gaussian, Inc. and that
 it will not use this program in any manner prohibited above.
 ---------------------------------------------------------------
  

 Cite this work as:
 Gaussian 16, Revision C.01,
 M. J. Frisch, G. W. Trucks, H. B. Schlegel, G. E. Scuseria, 
 M. A. Robb, J. R. Cheeseman, G. Scalmani, V. Barone, 
 G. A. Petersson, H. Nakatsuji, X. Li, M. Caricato, A. V. Marenich, 
 J. Bloino, B. G. Janesko, R. Gomperts, B. Mennucci, H. P. Hratchian, 
 J. V. Ortiz, A. F. Izmaylov, J. L. Sonnenberg, D. Williams-Young, 
 F. Ding, F. Lipparini, F. Egidi, J. Goings, B. Peng, A. Petrone, 
 T. Henderson, D. Ranasinghe, V. G. Zakrzewski, J. Gao, N. Rega, 
 G. Zheng, W. Liang, M. Hada, M. Ehara, K. Toyota, R. Fukuda, 
 J. Hasegawa, M. Ishida, T. Nakajima, Y. Honda, O. Kitao, H. Nakai, 
 T. Vreven, K. Throssell, J. A. Montgomery, Jr., J. E. Peralta, 
 F. Ogliaro, M. J. Bearpark, J. J. Heyd, E. N. Brothers, K. N. Kudin, 
 V. N. Staroverov, T. A. Keith, R. Kobayashi, J. Normand, 
 K. Raghavachari, A. P. Rendell, J. C. Burant, S. S. Iyengar, 
 J. Tomasi, M. Cossi, J. M. Millam, M. Klene, C. Adamo, R. Cammi, 
 J. W. Ochterski, R. L. Martin, K. Morokuma, O. Farkas, 
 J. B. Foresman, and D. J. Fox, Gaussian, Inc., Wallingford CT, 2019.
 
 ******************************************
 Gaussian 16:  ES64L-G16RevC.01  3-Jul-2019
                20-Dec-2023 
 ******************************************
 %nprocshared=16
 Will use up to   16 processors via shared memory.
 %mem=8000MB
 %chk=UGFAIRIUMAVXCW-UHFFFAOYSA-N.chk
 -----------------------------------------------
 #T CCSD(T)/cc-pVTZ symm=veryloose geom=allcheck
 -----------------------------------------------
 Structure from the checkpoint file:  "UGFAIRIUMAVXCW-UHFFFAOYSA-N.chk"
 ---------
 [C-]#[O+]
 ---------
 Charge =  0 Multiplicity = 1
 Z-Matrix found in chk file.
 C,0,0.,0.,-0.645938
 O,0,0.,0.,0.484454
 Recover connectivity data from disk.
 Framework group  C*V[C*(CO)]
 Deg. of freedom     1
                         Standard orientation:                         
 ---------------------------------------------------------------------
 Center     Atomic      Atomic             Coordinates (Angstroms)
 Number     Number       Type             X           Y           Z
 ---------------------------------------------------------------------
      1          6           0        0.000000    0.000000   -0.645938
      2          8           0        0.000000    0.000000    0.484454
 ---------------------------------------------------------------------
 Rotational constants (GHZ):           0.0000000          57.6866108          57.6866108
    60 basis functions,   104 primitive gaussians,    70 cartesian basis functions
     7 alpha electrons        7 beta electrons
       nuclear repulsion energy        22.4705289175 Hartrees.
 NAtoms=    2 NActive=    2 NUniq=    2 SFac= 1.00D+00 NAtFMM=   60 NAOKFM=F Big=F
 ExpMin= 1.21D-01 ExpMax= 1.53D+04 ExpMxC= 5.22D+02 IAcc=3 IRadAn=         5 AccDes= 0.00D+00
 Harris functional with IExCor=  205 and IRadAn=       5 diagonalized for initial guess.
 HarFok:  IExCor=  205 AccDes= 0.00D+00 IRadAn=         5 IDoV= 1 UseB2=F ITyADJ=14
 ICtDFT=  3500011 ScaDFX=  1.000000  1.000000  1.000000  1.000000
 FoFCou: FMM=F IPFlag=           0 FMFlag=      100000 FMFlg1=           0
         NFxFlg=           0 DoJE=T BraDBF=F KetDBF=T FulRan=T
         wScrn=  0.000000 ICntrl=       500 IOpCl=  0 I1Cent=   200000004 NGrid=           0
         NMat0=    1 NMatS0=      1 NMatT0=    0 NMatD0=    1 NMtDS0=    0 NMtDT0=    0
 Petite list used in FoFCou.
 Initial guess orbital symmetries:
       Occupied  (SG) (SG) (SG) (SG) (PI) (PI) (SG)
       Virtual   (PI) (PI) (SG) (PI) (PI) (SG) (SG) (SG) (PI) (PI)
                 (DLTA) (DLTA) (PI) (PI) (SG) (SG) (DLTA) (DLTA)
                 (PI) (PI) (SG) (PI) (PI) (SG) (PHI) (PHI) (DLTA)
                 (DLTA) (DLTA) (DLTA) (PI) (PI) (SG) (PI) (PI)
                 (SG) (PI) (PI) (SG) (PHI) (PHI) (DLTA) (DLTA)
                 (SG) (PI) (PI) (DLTA) (DLTA) (PI) (PI) (SG) (SG)
                 (SG)
 The electronic state of the initial guess is 1-SG.
 SCF Done:  E(RHF) =  -112.780082851     A.U. after   10 cycles
            NFock= 10  Conv=0.25D-08     -V/T= 2.0016
 ExpMin= 1.21D-01 ExpMax= 1.53D+04 ExpMxC= 5.22D+02 IAcc=3 IRadAn=         5 AccDes= 0.00D+00
 HarFok:  IExCor=  205 AccDes= 0.00D+00 IRadAn=         5 IDoV=-2 UseB2=F ITyADJ=14
 ICtDFT= 12500011 ScaDFX=  1.000000  1.000000  1.000000  1.000000
 NROrb=     58 NOA=     5 NOB=     5 NVA=    53 NVB=    53
 Semi-Direct transformation.
 ModeAB=           2 MOrb=             5 LenV=    1048287879
 LASXX=       116060 LTotXX=      116060 LenRXX=      116060
 LTotAB=      123615 MaxLAS=      720650 LenRXY=      720650
 NonZer=      769370 LenScr=     1572864 LnRSAI=           0
 LnScr1=           0 LExtra=           0 Total=      2409574
 MaxDsk=          -1 SrtSym=           F ITran=            4
 JobTyp=0 Pass  1:  I=   1 to   5.
 (rs|ai) integrals will be sorted in core.
 ANorm=    0.1050103290D+01
 E2 =    -0.3554295767D+00 EUMP2 =    -0.11313551242749D+03
 CIDS: In Core Option IDoMem=           1.
 Produce multiple copies of IABC intergrals
 MP4(R+Q)=  0.75612741D-02
 E3=        0.38297420D-02        EUMP3=      -0.11313168269D+03
 E4(DQ)=   -0.29895623D-02        UMP4(DQ)=   -0.11313467225D+03
 E4(SDQ)=  -0.94884307D-02        UMP4(SDQ)=  -0.11314117112D+03
 DE(Corr)= -0.34349423     E(Corr)=     -113.12357708    
 NORM(A)=   0.10495879D+01
 DE(Corr)= -0.35761251     E(CORR)=     -113.13769536     Delta=-1.41D-02
 NORM(A)=   0.10553034D+01
 DE(Corr)= -0.35702062     E(CORR)=     -113.13710347     Delta= 5.92D-04
 NORM(A)=   0.10571792D+01
 DE(Corr)= -0.35832512     E(CORR)=     -113.13840797     Delta=-1.30D-03
 NORM(A)=   0.10576163D+01
 DE(Corr)= -0.35845273     E(CORR)=     -113.13853558     Delta=-1.28D-04
 NORM(A)=   0.10577233D+01
 DE(Corr)= -0.35845888     E(CORR)=     -113.13854173     Delta=-6.15D-06
 NORM(A)=   0.10577231D+01
 DE(Corr)= -0.35846042     E(CORR)=     -113.13854327     Delta=-1.54D-06
 NORM(A)=   0.10577243D+01
 DE(Corr)= -0.35845886     E(CORR)=     -113.13854171     Delta= 1.56D-06
 NORM(A)=   0.10577245D+01
 DE(Corr)= -0.35845966     E(CORR)=     -113.13854251     Delta=-8.04D-07
 NORM(A)=   0.10577250D+01
 DE(Corr)= -0.35845942     E(CORR)=     -113.13854227     Delta= 2.46D-07
 NORM(A)=   0.10577251D+01
 DE(Corr)= -0.35845955     E(CORR)=     -113.13854240     Delta=-1.29D-07
 NORM(A)=   0.10577252D+01
 DE(Corr)= -0.35845955     E(CORR)=     -113.13854240     Delta=-4.98D-09
 NORM(A)=   0.10577252D+01
 Wavefunction amplitudes converged. E(Corr)=     -113.13854240    
 Largest amplitude= 6.71D-02
 Time for triples=        5.16 seconds.
 T4(CCSD)= -0.18445982D-01
 T5(CCSD)=  0.14713316D-02
 CCSD(T)= -0.11315551705D+03
 Discarding MO integrals.

 **********************************************************************

            Population analysis using the SCF Density.

 **********************************************************************

 Orbital symmetries:
       Occupied  (SG) (SG) (SG) (SG) (PI) (PI) (SG)
       Virtual   (PI) (PI) (SG) (SG) (PI) (PI) (SG) (PI) (PI) (DLTA)
                 (DLTA) (SG) (PI) (PI) (SG) (SG) (DLTA) (DLTA)
                 (PI) (PI) (SG) (PI) (PI) (SG) (PHI) (PHI) (DLTA)
                 (DLTA) (DLTA) (DLTA) (PI) (PI) (SG) (PI) (PI)
                 (SG) (PI) (PI) (SG) (PHI) (PHI) (DLTA) (DLTA)
                 (SG) (PI) (PI) (DLTA) (DLTA) (PI) (PI) (SG) (SG)
                 (SG)
 The electronic state is 1-SG.
 Alpha  occ. eigenvalues --  -20.66596 -11.36059  -1.51979  -0.80341  -0.63806
 Alpha  occ. eigenvalues --   -0.63806  -0.55385
 Alpha virt. eigenvalues --    0.13780   0.13780   0.27669   0.43749   0.45262
 Alpha virt. eigenvalues --    0.45262   0.71965   0.81748   0.81748   0.81781
 Alpha virt. eigenvalues --    0.81781   0.82921   1.06453   1.06453   1.35209
 Alpha virt. eigenvalues --    1.59010   1.77401   1.77401   2.19066   2.19066
 Alpha virt. eigenvalues --    2.21215   2.29933   2.29933   2.78580   2.91422
 Alpha virt. eigenvalues --    2.91422   3.12549   3.12549   3.25132   3.25132
 Alpha virt. eigenvalues --    3.30168   3.30168   3.44353   3.61989   3.61989
 Alpha virt. eigenvalues --    3.74611   4.50335   4.50335   4.89256   5.51848
 Alpha virt. eigenvalues --    5.51848   5.92610   5.92610   6.60941   6.72058
 Alpha virt. eigenvalues --    6.72058   6.74529   6.74529   7.22695   7.22695
 Alpha virt. eigenvalues --    7.25055   7.51859  12.87359
          Condensed to atoms (all electrons):
 Mulliken charges:
               1
     1  C    0.078670
     2  O   -0.078670
 Sum of Mulliken charges =  -0.00000
 Mulliken charges with hydrogens summed into heavy atoms:
               1
     1  C    0.078670
     2  O   -0.078670
 Electronic spatial extent (au):  <R**2>=             39.8389
 Charge=             -0.0000 electrons
 Dipole moment (field-independent basis, Debye):
    X=              0.0000    Y=              0.0000    Z=             -0.2562  Tot=              0.2562
 Unable to Open any file for archive entry.
 1\1\GINC-NODE05\SP\RCCSD(T)-FC\CC-pVTZ\C1O1\XUHJ\20-Dec-2023\0\\#T CCS
 D(T)/cc-pVTZ symm=veryloose geom=allcheck\\[C-]#[O+]\\0,1\C,0,0.,0.,-0
 .645938\O,0,0.,0.,0.484454\\Version=ES64L-G16RevC.01\State=1-SG\HF=-11
 2.7800829\MP2=-113.1355124\MP3=-113.1316827\MP4D=-113.1422335\MP4DQ=-1
 13.1346722\MP4SDQ=-113.1411711\CCSD=-113.1385424\CCSD(T)=-113.1555171\
 RMSD=2.525e-09\PG=C*V [C*(C1O1)]\\@
 The archive entry for this job was punched.


 GARBAGE IN, GARBAGE OUT
 Job cpu time:       0 days  0 hours  0 minutes 22.7 seconds.
 Elapsed time:       0 days  0 hours  0 minutes  1.8 seconds.
 File lengths (MBytes):  RWF=     38 Int=      0 D2E=      0 Chk=      2 Scr=      2
 Normal termination of Gaussian 16 at Wed Dec 20 02:46:31 2023.
