%nprocshared=16
%mem=24000MB
%chk=UHOVQNZJYSORNB-UHFFFAOYSA-N.chk
#T CCSD(T)/cc-pVDZ symm=veryloose

c1ccccc1

0 1
C         0.000000      -1.399069      -0.000000
C         1.211629      -0.699534       0.000000
C         1.211629       0.699534       0.000000
C        -0.000000       1.399069      -0.000000
C        -1.211629       0.699534      -0.000000
C        -1.211629      -0.699534      -0.000000
H         0.000000      -2.493878      -0.000000
H         2.159761      -1.246939       0.000000
H         2.159761       1.246939       0.000000
H        -0.000000       2.493878      -0.000000
H        -2.159761       1.246939      -0.000000
H        -2.159761      -1.246939      -0.000000


--link1--
%nprocshared=16
%mem=24000MB
%chk=UHOVQNZJYSORNB-UHFFFAOYSA-N.chk
#T CCSD(T)/cc-pVTZ symm=veryloose geom=allcheck

