%nprocshared=8
%mem=16000MB
%chk=ULOIAOPTGWSNHU-UHFFFAOYSA-N.chk
#T CCSD(T)/cc-pVDZ symm=veryloose

C[CH]CC

0 2
C         1.985939       0.043062      -0.067204
C         0.581131      -0.444330       0.043796
C        -0.572064       0.504505       0.091967
C        -1.937375      -0.167916      -0.081529
H         2.688132      -0.768612      -0.327902
H         2.351681       0.488733       0.887472
H         2.082536       0.840075      -0.831091
H         0.406516      -1.485003       0.346713
H        -0.437423       1.290612      -0.679876
H        -0.564888       1.061729       1.059398
H        -2.004743      -0.680833      -1.057745
H        -2.759768       0.566927      -0.024418
H        -2.107829      -0.925553       0.705271


--link1--
%nprocshared=8
%mem=16000MB
%chk=ULOIAOPTGWSNHU-UHFFFAOYSA-N.chk
#T CCSD(T)/cc-pVTZ symm=veryloose geom=allcheck

