 Entering Gaussian System, Link 0=g16
 Initial command:
 /home/software/g16/l1.exe "/home/software/g16tmp/Gau-114688.inp" -scrdir="/home/software/g16tmp/"
 Default is to use a total of   8 processors:
                                8 via shared-memory
                                1 via Linda
 Entering Link 1 = /home/software/g16/l1.exe PID=    114689.
  
 Copyright (c) 1988-2019, Gaussian, Inc.  All Rights Reserved.
  
 This is part of the Gaussian(R) 16 program.  It is based on
 the Gaussian(R) 09 system (copyright 2009, Gaussian, Inc.),
 the Gaussian(R) 03 system (copyright 2003, Gaussian, Inc.),
 the Gaussian(R) 98 system (copyright 1998, Gaussian, Inc.),
 the Gaussian(R) 94 system (copyright 1995, Gaussian, Inc.),
 the Gaussian 92(TM) system (copyright 1992, Gaussian, Inc.),
 the Gaussian 90(TM) system (copyright 1990, Gaussian, Inc.),
 the Gaussian 88(TM) system (copyright 1988, Gaussian, Inc.),
 the Gaussian 86(TM) system (copyright 1986, Carnegie Mellon
 University), and the Gaussian 82(TM) system (copyright 1983,
 Carnegie Mellon University). Gaussian is a federally registered
 trademark of Gaussian, Inc.
  
 This software contains proprietary and confidential information,
 including trade secrets, belonging to Gaussian, Inc.
  
 This software is provided under written license and may be
 used, copied, transmitted, or stored only in accord with that
 written license.
  
 The following legend is applicable only to US Government
 contracts under FAR:
  
                    RESTRICTED RIGHTS LEGEND
  
 Use, reproduction and disclosure by the US Government is
 subject to restrictions as set forth in subparagraphs (a)
 and (c) of the Commercial Computer Software - Restricted
 Rights clause in FAR 52.227-19.
  
 Gaussian, Inc.
 340 Quinnipiac St., Bldg. 40, Wallingford CT 06492
  
  
 ---------------------------------------------------------------
 Warning -- This program may not be used in any manner that
 competes with the business of Gaussian, Inc. or will provide
 assistance to any competitor of Gaussian, Inc.  The licensee
 of this program is prohibited from giving any competitor of
 Gaussian, Inc. access to this program.  By using this program,
 the user acknowledges that Gaussian, Inc. is engaged in the
 business of creating and licensing software in the field of
 computational chemistry and represents and warrants to the
 licensee that it is not a competitor of Gaussian, Inc. and that
 it will not use this program in any manner prohibited above.
 ---------------------------------------------------------------
  

 Cite this work as:
 Gaussian 16, Revision C.01,
 M. J. Frisch, G. W. Trucks, H. B. Schlegel, G. E. Scuseria, 
 M. A. Robb, J. R. Cheeseman, G. Scalmani, V. Barone, 
 G. A. Petersson, H. Nakatsuji, X. Li, M. Caricato, A. V. Marenich, 
 J. Bloino, B. G. Janesko, R. Gomperts, B. Mennucci, H. P. Hratchian, 
 J. V. Ortiz, A. F. Izmaylov, J. L. Sonnenberg, D. Williams-Young, 
 F. Ding, F. Lipparini, F. Egidi, J. Goings, B. Peng, A. Petrone, 
 T. Henderson, D. Ranasinghe, V. G. Zakrzewski, J. Gao, N. Rega, 
 G. Zheng, W. Liang, M. Hada, M. Ehara, K. Toyota, R. Fukuda, 
 J. Hasegawa, M. Ishida, T. Nakajima, Y. Honda, O. Kitao, H. Nakai, 
 T. Vreven, K. Throssell, J. A. Montgomery, Jr., J. E. Peralta, 
 F. Ogliaro, M. J. Bearpark, J. J. Heyd, E. N. Brothers, K. N. Kudin, 
 V. N. Staroverov, T. A. Keith, R. Kobayashi, J. Normand, 
 K. Raghavachari, A. P. Rendell, J. C. Burant, S. S. Iyengar, 
 J. Tomasi, M. Cossi, J. M. Millam, M. Klene, C. Adamo, R. Cammi, 
 J. W. Ochterski, R. L. Martin, K. Morokuma, O. Farkas, 
 J. B. Foresman, and D. J. Fox, Gaussian, Inc., Wallingford CT, 2019.
 
 ******************************************
 Gaussian 16:  ES64L-G16RevC.01  3-Jul-2019
                20-Dec-2023 
 ******************************************
 %nprocshared=16
 Will use up to   16 processors via shared memory.
 %mem=8000MB
 %chk=UUOIGPDTLYBNGY-UHFFFAOYSA-N-1.chk
 ---------------------------------
 #T CCSD(T)/cc-pVDZ symm=veryloose
 ---------------------------------
 -------
 [CH]O-1
 -------
 Symbolic Z-matrix:
 Charge =  0 Multiplicity = 1
 C                    -0.01109  -0.74117   0. 
 O                    -0.01109   0.5665    0. 
 H                     1.08944  -0.97637   0. 
 H                    -0.93424   0.89136   0. 
 
                    Distance matrix (angstroms):
                    1          2          3          4
     1  C    0.000000
     2  O    1.307669   0.000000
     3  H    1.125380   1.895155   0.000000
     4  H    1.875461   0.978647   2.753851   0.000000
 Framework group  CS[SG(CH2O)]
 Deg. of freedom     5
                         Standard orientation:                         
 ---------------------------------------------------------------------
 Center     Atomic      Atomic             Coordinates (Angstroms)
 Number     Number       Type             X           Y           Z
 ---------------------------------------------------------------------
      1          6           0        0.011086   -0.741167    0.000000
      2          8           0        0.011086    0.566502   -0.000000
      3          1           0       -1.089441   -0.976369    0.000000
      4          1           0        0.934243    0.891357   -0.000000
 ---------------------------------------------------------------------
 Rotational constants (GHZ):         286.1222314          36.6255769          32.4692887
    38 basis functions,    80 primitive gaussians,    40 cartesian basis functions
     8 alpha electrons        8 beta electrons
       nuclear repulsion energy        30.6902969147 Hartrees.
 NAtoms=    4 NActive=    4 NUniq=    4 SFac= 1.00D+00 NAtFMM=   60 NAOKFM=F Big=F
 ExpMin= 1.22D-01 ExpMax= 1.17D+04 ExpMxC= 4.01D+02 IAcc=3 IRadAn=         5 AccDes= 0.00D+00
 Harris functional with IExCor=  205 and IRadAn=       5 diagonalized for initial guess.
 HarFok:  IExCor=  205 AccDes= 0.00D+00 IRadAn=         5 IDoV= 1 UseB2=F ITyADJ=14
 ICtDFT=  3500011 ScaDFX=  1.000000  1.000000  1.000000  1.000000
 FoFCou: FMM=F IPFlag=           0 FMFlag=      100000 FMFlg1=           0
         NFxFlg=           0 DoJE=T BraDBF=F KetDBF=T FulRan=T
         wScrn=  0.000000 ICntrl=       500 IOpCl=  0 I1Cent=   200000004 NGrid=           0
         NMat0=    1 NMatS0=      1 NMatT0=    0 NMatD0=    1 NMtDS0=    0 NMtDT0=    0
 Petite list used in FoFCou.
 Initial guess orbital symmetries:
       Occupied  (A') (A') (A') (A') (A') (A') (A") (A')
       Virtual   (A") (A') (A') (A') (A") (A') (A') (A') (A') (A')
                 (A') (A") (A') (A") (A') (A") (A") (A') (A') (A')
                 (A") (A') (A') (A') (A') (A") (A") (A') (A') (A')
 The electronic state of the initial guess is 1-A'.
 SCF Done:  E(RHF) =  -113.799518321     A.U. after   11 cycles
            NFock= 11  Conv=0.94D-08     -V/T= 2.0010
 ExpMin= 1.22D-01 ExpMax= 1.17D+04 ExpMxC= 4.01D+02 IAcc=3 IRadAn=         5 AccDes= 0.00D+00
 HarFok:  IExCor=  205 AccDes= 0.00D+00 IRadAn=         5 IDoV=-2 UseB2=F ITyADJ=14
 ICtDFT= 12500011 ScaDFX=  1.000000  1.000000  1.000000  1.000000
 NROrb=     36 NOA=     6 NOB=     6 NVA=    30 NVB=    30
 Semi-Direct transformation.
 ModeAB=           2 MOrb=             6 LenV=    1048369536
 LASXX=        62815 LTotXX=       62815 LenRXX=       62815
 LTotAB=       69086 MaxLAS=      177120 LenRXY=      177120
 NonZer=      187488 LenScr=      655360 LnRSAI=           0
 LnScr1=           0 LExtra=           0 Total=       895295
 MaxDsk=          -1 SrtSym=           F ITran=            4
 JobTyp=0 Pass  1:  I=   1 to   6.
 (rs|ai) integrals will be sorted in core.
 ANorm=    0.1044459820D+01
 E2 =    -0.3037321913D+00 EUMP2 =    -0.11410325051258D+03
 CIDS: In Core Option IDoMem=           1.
 Produce multiple copies of IABC intergrals
 MP4(R+Q)=  0.44771350D-02
 E3=       -0.14619749D-01        EUMP3=      -0.11411787026D+03
 E4(DQ)=   -0.39104148D-02        UMP4(DQ)=   -0.11412178068D+03
 E4(SDQ)=  -0.76410876D-02        UMP4(SDQ)=  -0.11412551135D+03
 DE(Corr)= -0.31367137     E(Corr)=     -114.11318969    
 NORM(A)=   0.10512458D+01
 DE(Corr)= -0.32372580     E(CORR)=     -114.12324413     Delta=-1.01D-02
 NORM(A)=   0.10575160D+01
 DE(Corr)= -0.32520547     E(CORR)=     -114.12472379     Delta=-1.48D-03
 NORM(A)=   0.10601870D+01
 DE(Corr)= -0.32660503     E(CORR)=     -114.12612335     Delta=-1.40D-03
 NORM(A)=   0.10611543D+01
 DE(Corr)= -0.32678215     E(CORR)=     -114.12630047     Delta=-1.77D-04
 NORM(A)=   0.10614287D+01
 DE(Corr)= -0.32680699     E(CORR)=     -114.12632531     Delta=-2.48D-05
 NORM(A)=   0.10614479D+01
 DE(Corr)= -0.32680552     E(CORR)=     -114.12632384     Delta= 1.47D-06
 NORM(A)=   0.10614578D+01
 DE(Corr)= -0.32680469     E(CORR)=     -114.12632302     Delta= 8.26D-07
 NORM(A)=   0.10614583D+01
 DE(Corr)= -0.32680629     E(CORR)=     -114.12632461     Delta=-1.59D-06
 NORM(A)=   0.10614590D+01
 DE(Corr)= -0.32680599     E(CORR)=     -114.12632431     Delta= 2.95D-07
 NORM(A)=   0.10614591D+01
 DE(Corr)= -0.32680642     E(CORR)=     -114.12632474     Delta=-4.25D-07
 NORM(A)=   0.10614592D+01
 DE(Corr)= -0.32680635     E(CORR)=     -114.12632467     Delta= 6.82D-08
 NORM(A)=   0.10614592D+01
 Wavefunction amplitudes converged. E(Corr)=     -114.12632467    
 Largest amplitude= 7.61D-02
 Time for triples=        1.15 seconds.
 T4(CCSD)= -0.99710754D-02
 T5(CCSD)=  0.96845963D-03
 CCSD(T)= -0.11413532729D+03
 Discarding MO integrals.

 **********************************************************************

            Population analysis using the SCF Density.

 **********************************************************************

 Orbital symmetries:
       Occupied  (A') (A') (A') (A') (A') (A') (A") (A')
       Virtual   (A") (A') (A') (A') (A') (A") (A') (A') (A') (A')
                 (A') (A') (A") (A") (A') (A") (A") (A') (A') (A')
                 (A") (A') (A') (A') (A') (A") (A") (A') (A') (A')
 The electronic state is 1-A'.
 Alpha  occ. eigenvalues --  -20.63613 -11.30262  -1.44728  -0.89196  -0.68031
 Alpha  occ. eigenvalues --   -0.62525  -0.58291  -0.36295
 Alpha virt. eigenvalues --    0.12968   0.17987   0.23201   0.40472   0.69964
 Alpha virt. eigenvalues --    0.72709   0.74145   0.79376   0.81967   0.96278
 Alpha virt. eigenvalues --    1.16229   1.20425   1.21344   1.24875   1.39596
 Alpha virt. eigenvalues --    1.43051   1.62202   1.72967   1.85134   1.99816
 Alpha virt. eigenvalues --    2.02103   2.09387   2.21111   2.38700   2.70513
 Alpha virt. eigenvalues --    3.19892   3.28108   3.41045   3.61650   4.00943
          Condensed to atoms (all electrons):
 Mulliken charges:
               1
     1  C   -0.038334
     2  O   -0.212063
     3  H    0.042155
     4  H    0.208241
 Sum of Mulliken charges =  -0.00000
 Mulliken charges with hydrogens summed into heavy atoms:
               1
     1  C    0.003821
     2  O   -0.003821
 Electronic spatial extent (au):  <R**2>=             61.3778
 Charge=             -0.0000 electrons
 Dipole moment (field-independent basis, Debye):
    X=              0.2510    Y=              1.3190    Z=             -0.0000  Tot=              1.3427
 Unable to Open any file for archive entry.
 1\1\GINC-NODE05\SP\RCCSD(T)-FC\CC-pVDZ\C1H2O1\XUHJ\20-Dec-2023\0\\#T C
 CSD(T)/cc-pVDZ symm=veryloose\\[CH]O-1\\0,1\C,0,-0.011086,-0.741167,0.
 \O,0,-0.011086,0.566502,0.\H,0,1.089441,-0.976369,0.\H,0,-0.934243,0.8
 91357,0.\\Version=ES64L-G16RevC.01\State=1-A'\HF=-113.7995183\MP2=-114
 .1032505\MP3=-114.1178703\MP4D=-114.1262578\MP4DQ=-114.1217807\MP4SDQ=
 -114.1255113\CCSD=-114.1263247\CCSD(T)=-114.1353273\RMSD=9.377e-09\PG=
 CS [SG(C1H2O1)]\\@
 The archive entry for this job was punched.


 TOM, TOM, THE BURGLAR'S SON
 STOLE A MACHINE AND AWAY HE RUN
 THE JOB WAS NEAT, BUT TOM GOT BEAT
 BY THE TIME HE GOT HOME IT WAS OBSOLETE.
 Job cpu time:       0 days  0 hours  0 minutes 30.8 seconds.
 Elapsed time:       0 days  0 hours  0 minutes  2.3 seconds.
 File lengths (MBytes):  RWF=     26 Int=      0 D2E=      0 Chk=      2 Scr=      2
 Normal termination of Gaussian 16 at Wed Dec 20 01:40:48 2023.
 Initial command:
 /home/software/g16/l1.exe "/home/software/g16tmp/Gau-114688.inp" -scrdir="/home/software/g16tmp/"
 Default is to use a total of   8 processors:
                                8 via shared-memory
                                1 via Linda
 Entering Link 1 = /home/software/g16/l1.exe PID=    114885.
  
 Copyright (c) 1988-2019, Gaussian, Inc.  All Rights Reserved.
  
 This is part of the Gaussian(R) 16 program.  It is based on
 the Gaussian(R) 09 system (copyright 2009, Gaussian, Inc.),
 the Gaussian(R) 03 system (copyright 2003, Gaussian, Inc.),
 the Gaussian(R) 98 system (copyright 1998, Gaussian, Inc.),
 the Gaussian(R) 94 system (copyright 1995, Gaussian, Inc.),
 the Gaussian 92(TM) system (copyright 1992, Gaussian, Inc.),
 the Gaussian 90(TM) system (copyright 1990, Gaussian, Inc.),
 the Gaussian 88(TM) system (copyright 1988, Gaussian, Inc.),
 the Gaussian 86(TM) system (copyright 1986, Carnegie Mellon
 University), and the Gaussian 82(TM) system (copyright 1983,
 Carnegie Mellon University). Gaussian is a federally registered
 trademark of Gaussian, Inc.
  
 This software contains proprietary and confidential information,
 including trade secrets, belonging to Gaussian, Inc.
  
 This software is provided under written license and may be
 used, copied, transmitted, or stored only in accord with that
 written license.
  
 The following legend is applicable only to US Government
 contracts under FAR:
  
                    RESTRICTED RIGHTS LEGEND
  
 Use, reproduction and disclosure by the US Government is
 subject to restrictions as set forth in subparagraphs (a)
 and (c) of the Commercial Computer Software - Restricted
 Rights clause in FAR 52.227-19.
  
 Gaussian, Inc.
 340 Quinnipiac St., Bldg. 40, Wallingford CT 06492
  
  
 ---------------------------------------------------------------
 Warning -- This program may not be used in any manner that
 competes with the business of Gaussian, Inc. or will provide
 assistance to any competitor of Gaussian, Inc.  The licensee
 of this program is prohibited from giving any competitor of
 Gaussian, Inc. access to this program.  By using this program,
 the user acknowledges that Gaussian, Inc. is engaged in the
 business of creating and licensing software in the field of
 computational chemistry and represents and warrants to the
 licensee that it is not a competitor of Gaussian, Inc. and that
 it will not use this program in any manner prohibited above.
 ---------------------------------------------------------------
  

 Cite this work as:
 Gaussian 16, Revision C.01,
 M. J. Frisch, G. W. Trucks, H. B. Schlegel, G. E. Scuseria, 
 M. A. Robb, J. R. Cheeseman, G. Scalmani, V. Barone, 
 G. A. Petersson, H. Nakatsuji, X. Li, M. Caricato, A. V. Marenich, 
 J. Bloino, B. G. Janesko, R. Gomperts, B. Mennucci, H. P. Hratchian, 
 J. V. Ortiz, A. F. Izmaylov, J. L. Sonnenberg, D. Williams-Young, 
 F. Ding, F. Lipparini, F. Egidi, J. Goings, B. Peng, A. Petrone, 
 T. Henderson, D. Ranasinghe, V. G. Zakrzewski, J. Gao, N. Rega, 
 G. Zheng, W. Liang, M. Hada, M. Ehara, K. Toyota, R. Fukuda, 
 J. Hasegawa, M. Ishida, T. Nakajima, Y. Honda, O. Kitao, H. Nakai, 
 T. Vreven, K. Throssell, J. A. Montgomery, Jr., J. E. Peralta, 
 F. Ogliaro, M. J. Bearpark, J. J. Heyd, E. N. Brothers, K. N. Kudin, 
 V. N. Staroverov, T. A. Keith, R. Kobayashi, J. Normand, 
 K. Raghavachari, A. P. Rendell, J. C. Burant, S. S. Iyengar, 
 J. Tomasi, M. Cossi, J. M. Millam, M. Klene, C. Adamo, R. Cammi, 
 J. W. Ochterski, R. L. Martin, K. Morokuma, O. Farkas, 
 J. B. Foresman, and D. J. Fox, Gaussian, Inc., Wallingford CT, 2019.
 
 ******************************************
 Gaussian 16:  ES64L-G16RevC.01  3-Jul-2019
                20-Dec-2023 
 ******************************************
 %nprocshared=16
 Will use up to   16 processors via shared memory.
 %mem=8000MB
 %chk=UUOIGPDTLYBNGY-UHFFFAOYSA-N-1.chk
 -----------------------------------------------
 #T CCSD(T)/cc-pVTZ symm=veryloose geom=allcheck
 -----------------------------------------------
 Structure from the checkpoint file:  "UUOIGPDTLYBNGY-UHFFFAOYSA-N-1.chk"
 -------
 [CH]O-1
 -------
 Charge =  0 Multiplicity = 1
 Z-Matrix found in chk file.
 C,0,-0.011086,-0.741167,0.
 O,0,-0.011086,0.566502,0.
 H,0,1.089441,-0.976369,0.
 H,0,-0.934243,0.891357,0.
 Recover connectivity data from disk.
                    Distance matrix (angstroms):
                    1          2          3          4
     1  C    0.000000
     2  O    1.307669   0.000000
     3  H    1.125380   1.895155   0.000000
     4  H    1.875461   0.978647   2.753851   0.000000
 Framework group  CS[SG(CH2O)]
 Deg. of freedom     5
                         Standard orientation:                         
 ---------------------------------------------------------------------
 Center     Atomic      Atomic             Coordinates (Angstroms)
 Number     Number       Type             X           Y           Z
 ---------------------------------------------------------------------
      1          6           0        0.011086   -0.741167    0.000000
      2          8           0        0.011086    0.566502   -0.000000
      3          1           0       -1.089441   -0.976369    0.000000
      4          1           0        0.934243    0.891357   -0.000000
 ---------------------------------------------------------------------
 Rotational constants (GHZ):         286.1222314          36.6255769          32.4692887
    88 basis functions,   138 primitive gaussians,   100 cartesian basis functions
     8 alpha electrons        8 beta electrons
       nuclear repulsion energy        30.6902969147 Hartrees.
 NAtoms=    4 NActive=    4 NUniq=    4 SFac= 1.00D+00 NAtFMM=   60 NAOKFM=F Big=F
 ExpMin= 1.03D-01 ExpMax= 1.53D+04 ExpMxC= 5.22D+02 IAcc=3 IRadAn=         5 AccDes= 0.00D+00
 Harris functional with IExCor=  205 and IRadAn=       5 diagonalized for initial guess.
 HarFok:  IExCor=  205 AccDes= 0.00D+00 IRadAn=         5 IDoV= 1 UseB2=F ITyADJ=14
 ICtDFT=  3500011 ScaDFX=  1.000000  1.000000  1.000000  1.000000
 FoFCou: FMM=F IPFlag=           0 FMFlag=      100000 FMFlg1=           0
         NFxFlg=           0 DoJE=T BraDBF=F KetDBF=T FulRan=T
         wScrn=  0.000000 ICntrl=       500 IOpCl=  0 I1Cent=   200000004 NGrid=           0
         NMat0=    1 NMatS0=      1 NMatT0=    0 NMatD0=    1 NMtDS0=    0 NMtDT0=    0
 Petite list used in FoFCou.
 Initial guess orbital symmetries:
       Occupied  (A') (A') (A') (A') (A') (A') (A") (A')
       Virtual   (A") (A') (A') (A') (A') (A") (A') (A') (A') (A')
                 (A') (A") (A") (A') (A') (A") (A") (A') (A') (A")
                 (A') (A') (A') (A') (A') (A") (A") (A') (A') (A')
                 (A") (A') (A') (A') (A') (A") (A") (A') (A') (A")
                 (A') (A") (A') (A') (A") (A') (A") (A') (A') (A")
                 (A') (A") (A') (A") (A") (A') (A') (A') (A") (A')
                 (A') (A') (A") (A') (A') (A') (A") (A') (A") (A')
                 (A") (A") (A') (A') (A") (A') (A') (A') (A') (A')
 The electronic state of the initial guess is 1-A'.
 SCF Done:  E(RHF) =  -113.834642171     A.U. after   12 cycles
            NFock= 12  Conv=0.15D-08     -V/T= 2.0015
 ExpMin= 1.03D-01 ExpMax= 1.53D+04 ExpMxC= 5.22D+02 IAcc=3 IRadAn=         5 AccDes= 0.00D+00
 HarFok:  IExCor=  205 AccDes= 0.00D+00 IRadAn=         5 IDoV=-2 UseB2=F ITyADJ=14
 ICtDFT= 12500011 ScaDFX=  1.000000  1.000000  1.000000  1.000000
 NROrb=     86 NOA=     6 NOB=     6 NVA=    80 NVB=    80
 Semi-Direct transformation.
 ModeAB=           2 MOrb=             6 LenV=    1048200427
 LASXX=       922879 LTotXX=      922879 LenRXX=      922879
 LTotAB=      959856 MaxLAS=     2605800 LenRXY=     2605800
 NonZer=     2714160 LenScr=     4587520 LnRSAI=           0
 LnScr1=           0 LExtra=           0 Total=      8116199
 MaxDsk=          -1 SrtSym=           F ITran=            4
 JobTyp=0 Pass  1:  I=   1 to   6.
 (rs|ai) integrals will be sorted in core.
 ANorm=    0.1050781696D+01
 E2 =    -0.3833016453D+00 EUMP2 =    -0.11421794381591D+03
 CIDS: In Core Option IDoMem=           1.
 Produce multiple copies of IABC intergrals
 MP4(R+Q)=  0.76540750D-02
 E3=       -0.11543031D-01        EUMP3=      -0.11422948685D+03
 E4(DQ)=   -0.17372056D-02        UMP4(DQ)=   -0.11423122405D+03
 E4(SDQ)=  -0.61706986D-02        UMP4(SDQ)=  -0.11423565755D+03
 DE(Corr)= -0.38698885     E(Corr)=     -114.22163102    
 NORM(A)=   0.10554348D+01
 DE(Corr)= -0.39839049     E(CORR)=     -114.23303266     Delta=-1.14D-02
 NORM(A)=   0.10615468D+01
 DE(Corr)= -0.39923440     E(CORR)=     -114.23387657     Delta=-8.44D-04
 NORM(A)=   0.10641039D+01
 DE(Corr)= -0.40065734     E(CORR)=     -114.23529951     Delta=-1.42D-03
 NORM(A)=   0.10650388D+01
 DE(Corr)= -0.40085294     E(CORR)=     -114.23549511     Delta=-1.96D-04
 NORM(A)=   0.10653583D+01
 DE(Corr)= -0.40088259     E(CORR)=     -114.23552476     Delta=-2.96D-05
 NORM(A)=   0.10653819D+01
 DE(Corr)= -0.40088299     E(CORR)=     -114.23552516     Delta=-3.96D-07
 NORM(A)=   0.10653932D+01
 DE(Corr)= -0.40088030     E(CORR)=     -114.23552247     Delta= 2.69D-06
 NORM(A)=   0.10653937D+01
 DE(Corr)= -0.40088242     E(CORR)=     -114.23552460     Delta=-2.13D-06
 NORM(A)=   0.10653950D+01
 DE(Corr)= -0.40088203     E(CORR)=     -114.23552420     Delta= 3.95D-07
 NORM(A)=   0.10653954D+01
 DE(Corr)= -0.40088259     E(CORR)=     -114.23552476     Delta=-5.61D-07
 NORM(A)=   0.10653957D+01
 DE(Corr)= -0.40088259     E(CORR)=     -114.23552476     Delta=-1.60D-09
 NORM(A)=   0.10653958D+01
 Wavefunction amplitudes converged. E(Corr)=     -114.23552476    
 Largest amplitude= 6.88D-02
 Time for triples=       22.01 seconds.
 T4(CCSD)= -0.16619538D-01
 T5(CCSD)=  0.97291297D-03
 CCSD(T)= -0.11425117139D+03
 Discarding MO integrals.

 **********************************************************************

            Population analysis using the SCF Density.

 **********************************************************************

 Orbital symmetries:
       Occupied  (A') (A') (A') (A') (A') (A') (A") (A')
       Virtual   (A") (A') (A') (A') (A') (A") (A') (A') (A') (A')
                 (A') (A") (A') (A") (A') (A") (A") (A') (A') (A")
                 (A') (A') (A') (A') (A') (A") (A") (A') (A') (A')
                 (A") (A') (A') (A') (A') (A") (A") (A') (A') (A")
                 (A') (A") (A') (A') (A") (A") (A') (A') (A") (A')
                 (A') (A") (A') (A") (A") (A') (A') (A') (A") (A')
                 (A') (A") (A') (A') (A') (A') (A") (A') (A") (A')
                 (A") (A") (A') (A') (A") (A') (A') (A') (A') (A')
 The electronic state is 1-A'.
 Alpha  occ. eigenvalues --  -20.63727 -11.30308  -1.45023  -0.89566  -0.68566
 Alpha  occ. eigenvalues --   -0.63089  -0.58971  -0.36867
 Alpha virt. eigenvalues --    0.11478   0.14019   0.18649   0.31239   0.43221
 Alpha virt. eigenvalues --    0.48462   0.53465   0.55141   0.62671   0.64174
 Alpha virt. eigenvalues --    0.70056   0.73085   0.78945   0.80686   0.86430
 Alpha virt. eigenvalues --    0.91377   1.03302   1.11195   1.19496   1.26558
 Alpha virt. eigenvalues --    1.32771   1.39071   1.43320   1.55646   1.63775
 Alpha virt. eigenvalues --    1.98421   2.06869   2.13298   2.17903   2.30366
 Alpha virt. eigenvalues --    2.39238   2.49741   2.60281   2.76067   2.82396
 Alpha virt. eigenvalues --    2.93146   2.95971   3.16186   3.20080   3.23487
 Alpha virt. eigenvalues --    3.30060   3.37700   3.43666   3.47969   3.49950
 Alpha virt. eigenvalues --    3.59096   3.60295   3.67447   3.79541   3.84346
 Alpha virt. eigenvalues --    3.94855   3.98427   4.09641   4.16272   4.17154
 Alpha virt. eigenvalues --    4.21777   4.31551   4.42144   4.56968   4.80524
 Alpha virt. eigenvalues --    4.99231   5.02889   5.07353   5.22978   5.37201
 Alpha virt. eigenvalues --    5.68859   5.88114   6.09796   6.31583   6.61910
 Alpha virt. eigenvalues --    6.85220   6.99594   7.08913   7.13424   7.23223
 Alpha virt. eigenvalues --    7.30041   7.53218   7.82185   9.74198  12.52185
          Condensed to atoms (all electrons):
 Mulliken charges:
               1
     1  C   -0.111205
     2  O   -0.232452
     3  H    0.078903
     4  H    0.264754
 Sum of Mulliken charges =  -0.00000
 Mulliken charges with hydrogens summed into heavy atoms:
               1
     1  C   -0.032302
     2  O    0.032302
 Electronic spatial extent (au):  <R**2>=             61.7974
 Charge=             -0.0000 electrons
 Dipole moment (field-independent basis, Debye):
    X=              0.2046    Y=              1.3544    Z=             -0.0000  Tot=              1.3698
 Unable to Open any file for archive entry.
 1\1\GINC-NODE05\SP\RCCSD(T)-FC\CC-pVTZ\C1H2O1\XUHJ\20-Dec-2023\0\\#T C
 CSD(T)/cc-pVTZ symm=veryloose geom=allcheck\\[CH]O-1\\0,1\C,0,-0.01108
 6,-0.741167,0.\O,0,-0.011086,0.566502,0.\H,0,1.089441,-0.976369,0.\H,0
 ,-0.934243,0.891357,0.\\Version=ES64L-G16RevC.01\State=1-A'\HF=-113.83
 46422\MP2=-114.2179438\MP3=-114.2294868\MP4D=-114.2388781\MP4DQ=-114.2
 312241\MP4SDQ=-114.2356575\CCSD=-114.2355248\CCSD(T)=-114.2511714\RMSD
 =1.454e-09\PG=CS [SG(C1H2O1)]\\@
 The archive entry for this job was punched.


 THE SOLUTION TO A PROBLEM CHANGES THE PROBLEM.

                                 -- JOHN PEERS
           PAUL DICKSON'S "THE OFFICIAL RULES"
 Job cpu time:       0 days  0 hours  3 minutes 11.6 seconds.
 Elapsed time:       0 days  0 hours  0 minutes 13.8 seconds.
 File lengths (MBytes):  RWF=    164 Int=      0 D2E=      0 Chk=      2 Scr=      2
 Normal termination of Gaussian 16 at Wed Dec 20 01:41:07 2023.
