%nprocshared=16
%mem=8000MB
%chk=VGGSQFUCUMXWEO-UHFFFAOYSA-N.chk
#T CCSD(T)/cc-pVDZ symm=veryloose

C=C

0 1
C        -0.000000       0.000000      -0.667353
C         0.000000       0.000000       0.667353
H        -0.000000      -0.933849      -1.243887
H        -0.000000       0.933849      -1.243887
H         0.000000      -0.933849       1.243887
H        -0.000000       0.933849       1.243887


--link1--
%nprocshared=16
%mem=8000MB
%chk=VGGSQFUCUMXWEO-UHFFFAOYSA-N.chk
#T CCSD(T)/cc-pVTZ symm=veryloose geom=allcheck

