%nprocshared=16
%mem=4000MB
%chk=VNWKTOKETHGBQD-UHFFFAOYSA-N.chk
#T CCSD(T)/cc-pVDZ symm=veryloose

C

0 1
C         0.000000       0.000000       0.000000
H         0.636794       0.636794       0.636794
H        -0.636794      -0.636794       0.636794
H         0.636794      -0.636794      -0.636794
H        -0.636794       0.636794      -0.636794


--link1--
%nprocshared=16
%mem=4000MB
%chk=VNWKTOKETHGBQD-UHFFFAOYSA-N.chk
#T CCSD(T)/cc-pVTZ symm=veryloose geom=allcheck

