 Entering Gaussian System, Link 0=g16
 Initial command:
 /home/software/g16/l1.exe "/home/software/g16tmp/Gau-118744.inp" -scrdir="/home/software/g16tmp/"
 Default is to use a total of   8 processors:
                                8 via shared-memory
                                1 via Linda
 Entering Link 1 = /home/software/g16/l1.exe PID=    118745.
  
 Copyright (c) 1988-2019, Gaussian, Inc.  All Rights Reserved.
  
 This is part of the Gaussian(R) 16 program.  It is based on
 the Gaussian(R) 09 system (copyright 2009, Gaussian, Inc.),
 the Gaussian(R) 03 system (copyright 2003, Gaussian, Inc.),
 the Gaussian(R) 98 system (copyright 1998, Gaussian, Inc.),
 the Gaussian(R) 94 system (copyright 1995, Gaussian, Inc.),
 the Gaussian 92(TM) system (copyright 1992, Gaussian, Inc.),
 the Gaussian 90(TM) system (copyright 1990, Gaussian, Inc.),
 the Gaussian 88(TM) system (copyright 1988, Gaussian, Inc.),
 the Gaussian 86(TM) system (copyright 1986, Carnegie Mellon
 University), and the Gaussian 82(TM) system (copyright 1983,
 Carnegie Mellon University). Gaussian is a federally registered
 trademark of Gaussian, Inc.
  
 This software contains proprietary and confidential information,
 including trade secrets, belonging to Gaussian, Inc.
  
 This software is provided under written license and may be
 used, copied, transmitted, or stored only in accord with that
 written license.
  
 The following legend is applicable only to US Government
 contracts under FAR:
  
                    RESTRICTED RIGHTS LEGEND
  
 Use, reproduction and disclosure by the US Government is
 subject to restrictions as set forth in subparagraphs (a)
 and (c) of the Commercial Computer Software - Restricted
 Rights clause in FAR 52.227-19.
  
 Gaussian, Inc.
 340 Quinnipiac St., Bldg. 40, Wallingford CT 06492
  
  
 ---------------------------------------------------------------
 Warning -- This program may not be used in any manner that
 competes with the business of Gaussian, Inc. or will provide
 assistance to any competitor of Gaussian, Inc.  The licensee
 of this program is prohibited from giving any competitor of
 Gaussian, Inc. access to this program.  By using this program,
 the user acknowledges that Gaussian, Inc. is engaged in the
 business of creating and licensing software in the field of
 computational chemistry and represents and warrants to the
 licensee that it is not a competitor of Gaussian, Inc. and that
 it will not use this program in any manner prohibited above.
 ---------------------------------------------------------------
  

 Cite this work as:
 Gaussian 16, Revision C.01,
 M. J. Frisch, G. W. Trucks, H. B. Schlegel, G. E. Scuseria, 
 M. A. Robb, J. R. Cheeseman, G. Scalmani, V. Barone, 
 G. A. Petersson, H. Nakatsuji, X. Li, M. Caricato, A. V. Marenich, 
 J. Bloino, B. G. Janesko, R. Gomperts, B. Mennucci, H. P. Hratchian, 
 J. V. Ortiz, A. F. Izmaylov, J. L. Sonnenberg, D. Williams-Young, 
 F. Ding, F. Lipparini, F. Egidi, J. Goings, B. Peng, A. Petrone, 
 T. Henderson, D. Ranasinghe, V. G. Zakrzewski, J. Gao, N. Rega, 
 G. Zheng, W. Liang, M. Hada, M. Ehara, K. Toyota, R. Fukuda, 
 J. Hasegawa, M. Ishida, T. Nakajima, Y. Honda, O. Kitao, H. Nakai, 
 T. Vreven, K. Throssell, J. A. Montgomery, Jr., J. E. Peralta, 
 F. Ogliaro, M. J. Bearpark, J. J. Heyd, E. N. Brothers, K. N. Kudin, 
 V. N. Staroverov, T. A. Keith, R. Kobayashi, J. Normand, 
 K. Raghavachari, A. P. Rendell, J. C. Burant, S. S. Iyengar, 
 J. Tomasi, M. Cossi, J. M. Millam, M. Klene, C. Adamo, R. Cammi, 
 J. W. Ochterski, R. L. Martin, K. Morokuma, O. Farkas, 
 J. B. Foresman, and D. J. Fox, Gaussian, Inc., Wallingford CT, 2019.
 
 ******************************************
 Gaussian 16:  ES64L-G16RevC.01  3-Jul-2019
                20-Dec-2023 
 ******************************************
 %nprocshared=16
 Will use up to   16 processors via shared memory.
 %mem=4000MB
 %chk=VRLIPUYDFBXWCH-UHFFFAOYSA-N-2.chk
 ---------------------------------
 #T CCSD(T)/cc-pVDZ symm=veryloose
 ---------------------------------
 ------
 [CH]-2
 ------
 Symbolic Z-matrix:
 Charge =  0 Multiplicity = 2
 C                     0.        0.        0.1624 
 H                     0.        0.       -0.97443 
 
 Framework group  C*V[C*(HC)]
 Deg. of freedom     1
                         Standard orientation:                         
 ---------------------------------------------------------------------
 Center     Atomic      Atomic             Coordinates (Angstroms)
 Number     Number       Type             X           Y           Z
 ---------------------------------------------------------------------
      1          6           0        0.000000    0.000000    0.162404
      2          1           0        0.000000    0.000000   -0.974426
 ---------------------------------------------------------------------
 Rotational constants (GHZ):           0.0000000         420.5953295         420.5953295
    19 basis functions,    40 primitive gaussians,    20 cartesian basis functions
     4 alpha electrons        3 beta electrons
       nuclear repulsion energy         2.7929094636 Hartrees.
 NAtoms=    2 NActive=    2 NUniq=    2 SFac= 1.00D+00 NAtFMM=   60 NAOKFM=F Big=F
 ExpMin= 1.22D-01 ExpMax= 6.67D+03 ExpMxC= 2.28D+02 IAcc=3 IRadAn=         5 AccDes= 0.00D+00
 Harris functional with IExCor=  205 and IRadAn=       5 diagonalized for initial guess.
 HarFok:  IExCor=  205 AccDes= 0.00D+00 IRadAn=         5 IDoV= 1 UseB2=F ITyADJ=14
 ICtDFT=  3500011 ScaDFX=  1.000000  1.000000  1.000000  1.000000
 FoFCou: FMM=F IPFlag=           0 FMFlag=      100000 FMFlg1=           0
         NFxFlg=           0 DoJE=T BraDBF=F KetDBF=T FulRan=T
         wScrn=  0.000000 ICntrl=       500 IOpCl=  0 I1Cent=   200000004 NGrid=           0
         NMat0=    1 NMatS0=      1 NMatT0=    0 NMatD0=    1 NMtDS0=    0 NMtDT0=    0
 Petite list used in FoFCou.
 Initial guess orbital symmetries:
 Alpha Orbitals:
       Occupied  (SG) (SG) (SG) (PI)
       Virtual   (PI) (SG) (SG) (PI) (PI) (SG) (SG) (PI) (PI) (DLTA)
                 (DLTA) (SG) (PI) (PI) (SG)
 Beta  Orbitals:
       Occupied  (SG) (SG) (SG)
       Virtual   (PI) (PI) (SG) (SG) (PI) (PI) (SG) (SG) (PI) (PI)
                 (DLTA) (DLTA) (SG) (PI) (PI) (SG)
 Initial guess <Sx>= 0.0000 <Sy>= 0.0000 <Sz>= 0.5000 <S**2>= 0.7500 S= 0.5000
 SCF Done:  E(UHF) =  -38.2724230415     A.U. after   12 cycles
            NFock= 12  Conv=0.15D-08     -V/T= 2.0011
 <Sx>= 0.0000 <Sy>= 0.0000 <Sz>= 0.5000 <S**2>= 0.7571 S= 0.5036
 <L.S>=  0.00000000000    
 Annihilation of the first spin contaminant:
 S**2 before annihilation     0.7571,   after     0.7500
 ExpMin= 1.22D-01 ExpMax= 6.67D+03 ExpMxC= 2.28D+02 IAcc=3 IRadAn=         5 AccDes= 0.00D+00
 HarFok:  IExCor=  205 AccDes= 0.00D+00 IRadAn=         5 IDoV=-2 UseB2=F ITyADJ=14
 ICtDFT= 12500011 ScaDFX=  1.000000  1.000000  1.000000  1.000000
 NROrb=     18 NOA=     3 NOB=     2 NVA=    15 NVB=    16
 Semi-Direct transformation.
 ModeAB=           2 MOrb=             3 LenV=     524104772
 LASXX=         1930 LTotXX=        1930 LenRXX=        1930
 LTotAB=        2496 MaxLAS=       11340 LenRXY=       11340
 NonZer=       12636 LenScr=      655360 LnRSAI=           0
 LnScr1=           0 LExtra=           0 Total=       668630
 MaxDsk=          -1 SrtSym=           F ITran=            4
 JobTyp=1 Pass  1:  I=   1 to   3.
 (rs|ai) integrals will be sorted in core.
 ModeAB=           2 MOrb=             2 LenV=     524104772
 LASXX=         1396 LTotXX=        1396 LenRXX=        7560
 LTotAB=        1251 MaxLAS=        7560 LenRXY=        1251
 NonZer=        8424 LenScr=      655360 LnRSAI=           0
 LnScr1=           0 LExtra=           0 Total=       664171
 MaxDsk=          -1 SrtSym=           F ITran=            4
 JobTyp=2 Pass  1:  I=   1 to   2.
 (rs|ai) integrals will be sorted in core.
 ANorm=    0.1015348571D+01
 E2 =    -0.7971406577D-01 EUMP2 =    -0.38352137107319D+02
 (S**2,0)=  0.75714D+00           (S**2,1)=  0.75081D+00
 E(PUHF)=      -0.38274927162D+02        E(PMP2)=      -0.38353531398D+02
 CIDS: In Core Option IDoMem=           1.
 Produce multiple copies of IABC intergrals
 E(PMP3)=      -0.38371502098D+02
 MP4(R+Q)=  0.14326935D-02
 E3=       -0.18673414D-01        EUMP3=      -0.38370810522D+02
 E4(DQ)=   -0.43339417D-02        UMP4(DQ)=   -0.38375144463D+02
 E4(SDQ)=  -0.46594422D-02        UMP4(SDQ)=  -0.38375469964D+02
 DE(Corr)= -0.96953575E-01 E(Corr)=     -38.369376617    
 NORM(A)=   0.10267963D+01
 DE(Corr)= -0.10324184     E(CORR)=     -38.375664879     Delta=-6.29D-03
 NORM(A)=   0.10310514D+01
 DE(Corr)= -0.10519505     E(CORR)=     -38.377618087     Delta=-1.95D-03
 NORM(A)=   0.10326474D+01
 DE(Corr)= -0.10570089     E(CORR)=     -38.378123927     Delta=-5.06D-04
 NORM(A)=   0.10329479D+01
 DE(Corr)= -0.10573222     E(CORR)=     -38.378155266     Delta=-3.13D-05
 NORM(A)=   0.10330404D+01
 DE(Corr)= -0.10573756     E(CORR)=     -38.378160601     Delta=-5.33D-06
 NORM(A)=   0.10330710D+01
 DE(Corr)= -0.10574318     E(CORR)=     -38.378166224     Delta=-5.62D-06
 NORM(A)=   0.10330720D+01
 DE(Corr)= -0.10574316     E(CORR)=     -38.378166201     Delta= 2.26D-08
 NORM(A)=   0.10330723D+01
 DE(Corr)= -0.10574302     E(CORR)=     -38.378166057     Delta= 1.44D-07
 NORM(A)=   0.10330717D+01
 DE(Corr)= -0.10574277     E(CORR)=     -38.378165813     Delta= 2.44D-07
 NORM(A)=   0.10330713D+01
 DE(Corr)= -0.10574265     E(CORR)=     -38.378165690     Delta= 1.23D-07
 NORM(A)=   0.10330711D+01
 DE(Corr)= -0.10574261     E(CORR)=     -38.378165648     Delta= 4.22D-08
 NORM(A)=   0.10330711D+01
 Wavefunction amplitudes converged. E(Corr)=     -38.378165648    
 Largest amplitude= 9.88D-02
 Time for triples=        0.54 seconds.
 T4(CCSD)= -0.18605834D-02
 T5(CCSD)=  0.23486096D-04
 CCSD(T)= -0.38380002745D+02

 S**2, projected HF & approx projected MPn energies after annihilation of
 unwanted spin states (see manual for definitions):

 spins       (S**2,0) (S**2,1)    PUHF        PMP2        PMP3        PMP4
 annihilated
 s+1         0.74999  0.75000  -38.274927  -38.353531  -38.371502
 s+1,s+2     0.75000  0.75000  -38.274926  -38.353530  -38.371501

 Discarding MO integrals.

 **********************************************************************

            Population analysis using the SCF Density.

 **********************************************************************

 Orbital symmetries:
 Alpha Orbitals:
       Occupied  (SG) (SG) (SG) (?A)
       Virtual   (?A) (SG) (SG) (?A) (?A) (SG) (SG) (PI) (PI) (DLTA)
                 (DLTA) (SG) (PI) (PI) (SG)
 Beta  Orbitals:
       Occupied  (SG) (SG) (SG)
       Virtual   (PI) (PI) (SG) (SG) (PI) (SG) (PI) (SG) (PI) (PI)
                 (?A) (?A) (?A) (PI) (PI) (SG)
 Unable to determine electronic state:  an orbital has unidentified symmetry.
 Alpha  occ. eigenvalues --  -11.32658  -0.87156  -0.46568  -0.41913
 Alpha virt. eigenvalues --    0.05041   0.20610   0.63867   0.64333   0.72532
 Alpha virt. eigenvalues --    0.74447   0.91754   1.21025   1.23693   1.36911
 Alpha virt. eigenvalues --    1.37058   1.82024   1.99151   1.99171   2.63117
  Beta  occ. eigenvalues --  -11.30277  -0.77659  -0.42858
  Beta virt. eigenvalues --    0.07301   0.12973   0.21766   0.65309   0.74246
  Beta virt. eigenvalues --    0.76164   0.79307   0.94979   1.24173   1.27701
  Beta virt. eigenvalues --    1.45442   1.45455   1.84507   1.99332   2.02185
  Beta virt. eigenvalues --    2.63806
          Condensed to atoms (all electrons):
          Atomic-Atomic Spin Densities.
 Mulliken charges and spin densities:
               1          2
     1  C   -0.070721   1.059612
     2  H    0.070721  -0.059612
 Sum of Mulliken charges =   0.00000   1.00000
 Mulliken charges and spin densities with hydrogens summed into heavy atoms:
               1          2
     1  C    0.000000   1.000000
 Electronic spatial extent (au):  <R**2>=             19.3246
 Charge=              0.0000 electrons
 Dipole moment (field-independent basis, Debye):
    X=              0.0000    Y=              0.0000    Z=             -1.5820  Tot=              1.5820
 Unable to Open any file for archive entry.
 1\1\GINC-NODE05\SP\UCCSD(T)-FC\CC-pVDZ\C1H1(2)\XUHJ\20-Dec-2023\0\\#T 
 CCSD(T)/cc-pVDZ symm=veryloose\\[CH]-2\\0,2\C,0,0.,0.,0.162404\H,0,0.,
 0.,-0.974426\\Version=ES64L-G16RevC.01\HF=-38.272423\MP2=-38.3521371\M
 P3=-38.3708105\MP4D=-38.3765772\MP4DQ=-38.3751445\PUHF=-38.2749272\PMP
 2-0=-38.3535314\PMP3-0=-38.3715021\MP4SDQ=-38.37547\CCSD=-38.3781656\C
 CSD(T)=-38.3800027\S2=0.757142\S2-1=0.750806\S2A=0.75001\RMSD=1.546e-0
 9\PG=C*V [C*(H1C1)]\\@
 The archive entry for this job was punched.


 TO DETECT ERRORS, THE PROGRAMMER MUST HAVE A CONNIVING MIND,
 ONE THAT DELIGHTS IN UNCOVERING FLAWS WHERE BEAUTY AND
 PERFECTION WERE ONCE THOUGHT TO LIE.

             -- THE PSYCHOLOGY OF COMPUTER PROGRAMMING
                GERALD M. WEINBERG
 Job cpu time:       0 days  0 hours  0 minutes 11.2 seconds.
 Elapsed time:       0 days  0 hours  0 minutes  0.9 seconds.
 File lengths (MBytes):  RWF=     24 Int=      0 D2E=      0 Chk=      2 Scr=      2
 Normal termination of Gaussian 16 at Wed Dec 20 01:46:08 2023.
 Initial command:
 /home/software/g16/l1.exe "/home/software/g16tmp/Gau-118744.inp" -scrdir="/home/software/g16tmp/"
 Default is to use a total of   8 processors:
                                8 via shared-memory
                                1 via Linda
 Entering Link 1 = /home/software/g16/l1.exe PID=    118941.
  
 Copyright (c) 1988-2019, Gaussian, Inc.  All Rights Reserved.
  
 This is part of the Gaussian(R) 16 program.  It is based on
 the Gaussian(R) 09 system (copyright 2009, Gaussian, Inc.),
 the Gaussian(R) 03 system (copyright 2003, Gaussian, Inc.),
 the Gaussian(R) 98 system (copyright 1998, Gaussian, Inc.),
 the Gaussian(R) 94 system (copyright 1995, Gaussian, Inc.),
 the Gaussian 92(TM) system (copyright 1992, Gaussian, Inc.),
 the Gaussian 90(TM) system (copyright 1990, Gaussian, Inc.),
 the Gaussian 88(TM) system (copyright 1988, Gaussian, Inc.),
 the Gaussian 86(TM) system (copyright 1986, Carnegie Mellon
 University), and the Gaussian 82(TM) system (copyright 1983,
 Carnegie Mellon University). Gaussian is a federally registered
 trademark of Gaussian, Inc.
  
 This software contains proprietary and confidential information,
 including trade secrets, belonging to Gaussian, Inc.
  
 This software is provided under written license and may be
 used, copied, transmitted, or stored only in accord with that
 written license.
  
 The following legend is applicable only to US Government
 contracts under FAR:
  
                    RESTRICTED RIGHTS LEGEND
  
 Use, reproduction and disclosure by the US Government is
 subject to restrictions as set forth in subparagraphs (a)
 and (c) of the Commercial Computer Software - Restricted
 Rights clause in FAR 52.227-19.
  
 Gaussian, Inc.
 340 Quinnipiac St., Bldg. 40, Wallingford CT 06492
  
  
 ---------------------------------------------------------------
 Warning -- This program may not be used in any manner that
 competes with the business of Gaussian, Inc. or will provide
 assistance to any competitor of Gaussian, Inc.  The licensee
 of this program is prohibited from giving any competitor of
 Gaussian, Inc. access to this program.  By using this program,
 the user acknowledges that Gaussian, Inc. is engaged in the
 business of creating and licensing software in the field of
 computational chemistry and represents and warrants to the
 licensee that it is not a competitor of Gaussian, Inc. and that
 it will not use this program in any manner prohibited above.
 ---------------------------------------------------------------
  

 Cite this work as:
 Gaussian 16, Revision C.01,
 M. J. Frisch, G. W. Trucks, H. B. Schlegel, G. E. Scuseria, 
 M. A. Robb, J. R. Cheeseman, G. Scalmani, V. Barone, 
 G. A. Petersson, H. Nakatsuji, X. Li, M. Caricato, A. V. Marenich, 
 J. Bloino, B. G. Janesko, R. Gomperts, B. Mennucci, H. P. Hratchian, 
 J. V. Ortiz, A. F. Izmaylov, J. L. Sonnenberg, D. Williams-Young, 
 F. Ding, F. Lipparini, F. Egidi, J. Goings, B. Peng, A. Petrone, 
 T. Henderson, D. Ranasinghe, V. G. Zakrzewski, J. Gao, N. Rega, 
 G. Zheng, W. Liang, M. Hada, M. Ehara, K. Toyota, R. Fukuda, 
 J. Hasegawa, M. Ishida, T. Nakajima, Y. Honda, O. Kitao, H. Nakai, 
 T. Vreven, K. Throssell, J. A. Montgomery, Jr., J. E. Peralta, 
 F. Ogliaro, M. J. Bearpark, J. J. Heyd, E. N. Brothers, K. N. Kudin, 
 V. N. Staroverov, T. A. Keith, R. Kobayashi, J. Normand, 
 K. Raghavachari, A. P. Rendell, J. C. Burant, S. S. Iyengar, 
 J. Tomasi, M. Cossi, J. M. Millam, M. Klene, C. Adamo, R. Cammi, 
 J. W. Ochterski, R. L. Martin, K. Morokuma, O. Farkas, 
 J. B. Foresman, and D. J. Fox, Gaussian, Inc., Wallingford CT, 2019.
 
 ******************************************
 Gaussian 16:  ES64L-G16RevC.01  3-Jul-2019
                20-Dec-2023 
 ******************************************
 %nprocshared=16
 Will use up to   16 processors via shared memory.
 %mem=4000MB
 %chk=VRLIPUYDFBXWCH-UHFFFAOYSA-N-2.chk
 -----------------------------------------------
 #T CCSD(T)/cc-pVTZ symm=veryloose geom=allcheck
 -----------------------------------------------
 Structure from the checkpoint file:  "VRLIPUYDFBXWCH-UHFFFAOYSA-N-2.chk"
 ------
 [CH]-2
 ------
 Charge =  0 Multiplicity = 2
 Z-Matrix found in chk file.
 C,0,0.,0.,0.162404
 H,0,0.,0.,-0.974426
 Recover connectivity data from disk.
 Framework group  C*V[C*(HC)]
 Deg. of freedom     1
                         Standard orientation:                         
 ---------------------------------------------------------------------
 Center     Atomic      Atomic             Coordinates (Angstroms)
 Number     Number       Type             X           Y           Z
 ---------------------------------------------------------------------
      1          6           0        0.000000    0.000000    0.162404
      2          1           0        0.000000    0.000000   -0.974426
 ---------------------------------------------------------------------
 Rotational constants (GHZ):           0.0000000         420.5953295         420.5953295
    44 basis functions,    69 primitive gaussians,    50 cartesian basis functions
     4 alpha electrons        3 beta electrons
       nuclear repulsion energy         2.7929094636 Hartrees.
 NAtoms=    2 NActive=    2 NUniq=    2 SFac= 1.00D+00 NAtFMM=   60 NAOKFM=F Big=F
 ExpMin= 1.03D-01 ExpMax= 8.24D+03 ExpMxC= 2.81D+02 IAcc=3 IRadAn=         5 AccDes= 0.00D+00
 Harris functional with IExCor=  205 and IRadAn=       5 diagonalized for initial guess.
 HarFok:  IExCor=  205 AccDes= 0.00D+00 IRadAn=         5 IDoV= 1 UseB2=F ITyADJ=14
 ICtDFT=  3500011 ScaDFX=  1.000000  1.000000  1.000000  1.000000
 FoFCou: FMM=F IPFlag=           0 FMFlag=      100000 FMFlg1=           0
         NFxFlg=           0 DoJE=T BraDBF=F KetDBF=T FulRan=T
         wScrn=  0.000000 ICntrl=       500 IOpCl=  0 I1Cent=   200000004 NGrid=           0
         NMat0=    1 NMatS0=      1 NMatT0=    0 NMatD0=    1 NMtDS0=    0 NMtDT0=    0
 Petite list used in FoFCou.
 Initial guess orbital symmetries:
 Alpha Orbitals:
       Occupied  (SG) (SG) (SG) (PI)
       Virtual   (PI) (SG) (SG) (PI) (PI) (SG) (SG) (PI) (PI) (DLTA)
                 (DLTA) (SG) (PI) (PI) (SG) (PI) (PI) (SG) (SG)
                 (DLTA) (DLTA) (PI) (PI) (PHI) (PHI) (SG) (DLTA)
                 (DLTA) (PI) (PI) (SG) (DLTA) (DLTA) (PI) (PI)
                 (SG) (PI) (PI) (SG) (SG)
 Beta  Orbitals:
       Occupied  (SG) (SG) (SG)
       Virtual   (PI) (PI) (SG) (SG) (PI) (PI) (SG) (SG) (PI) (PI)
                 (DLTA) (DLTA) (SG) (PI) (PI) (SG) (PI) (PI) (SG)
                 (SG) (DLTA) (DLTA) (PI) (PI) (PHI) (PHI) (SG)
                 (DLTA) (DLTA) (PI) (PI) (SG) (DLTA) (DLTA) (PI)
                 (PI) (SG) (PI) (PI) (SG) (SG)
 Initial guess <Sx>= 0.0000 <Sy>= 0.0000 <Sz>= 0.5000 <S**2>= 0.7500 S= 0.5000
 SCF Done:  E(UHF) =  -38.2809447400     A.U. after   12 cycles
            NFock= 12  Conv=0.30D-08     -V/T= 2.0011
 <Sx>= 0.0000 <Sy>= 0.0000 <Sz>= 0.5000 <S**2>= 0.7590 S= 0.5045
 <L.S>=  0.00000000000    
 Annihilation of the first spin contaminant:
 S**2 before annihilation     0.7590,   after     0.7500
 ExpMin= 1.03D-01 ExpMax= 8.24D+03 ExpMxC= 2.81D+02 IAcc=3 IRadAn=         5 AccDes= 0.00D+00
 HarFok:  IExCor=  205 AccDes= 0.00D+00 IRadAn=         5 IDoV=-2 UseB2=F ITyADJ=14
 ICtDFT= 12500011 ScaDFX=  1.000000  1.000000  1.000000  1.000000
 NROrb=     43 NOA=     3 NOB=     2 NVA=    40 NVB=    41
 Semi-Direct transformation.
 ModeAB=           2 MOrb=             3 LenV=     524020273
 LASXX=        28832 LTotXX=       28832 LenRXX=       28832
 LTotAB=       31768 MaxLAS=      164475 LenRXY=      164475
 NonZer=      178020 LenScr=      655360 LnRSAI=           0
 LnScr1=           0 LExtra=           0 Total=       848667
 MaxDsk=          -1 SrtSym=           F ITran=            4
 JobTyp=1 Pass  1:  I=   1 to   3.
 (rs|ai) integrals will be sorted in core.
 ModeAB=           2 MOrb=             2 LenV=     524020273
 LASXX=        19919 LTotXX=       19919 LenRXX=      109650
 LTotAB=       18975 MaxLAS=      109650 LenRXY=       18975
 NonZer=      118680 LenScr=      655360 LnRSAI=           0
 LnScr1=           0 LExtra=           0 Total=       783985
 MaxDsk=          -1 SrtSym=           F ITran=            4
 JobTyp=2 Pass  1:  I=   1 to   2.
 (rs|ai) integrals will be sorted in core.
 ANorm=    0.1017839536D+01
 E2 =    -0.1013351313D+00 EUMP2 =    -0.38382279871270D+02
 (S**2,0)=  0.75902D+00           (S**2,1)=  0.75143D+00
 E(PUHF)=      -0.38283822910D+02        E(PMP2)=      -0.38383948958D+02
 CIDS: In Core Option IDoMem=           1.
 Produce multiple copies of IABC intergrals
 E(PMP3)=      -0.38401522620D+02
 MP4(R+Q)=  0.21616912D-02
 E3=       -0.18407552D-01        EUMP3=      -0.38400687423D+02
 E4(DQ)=   -0.34459309D-02        UMP4(DQ)=   -0.38404133354D+02
 E4(SDQ)=  -0.39656539D-02        UMP4(SDQ)=  -0.38404653077D+02
 DE(Corr)= -0.11757100     E(Corr)=     -38.398515738    
 NORM(A)=   0.10281602D+01
 DE(Corr)= -0.12317373     E(CORR)=     -38.404118466     Delta=-5.60D-03
 NORM(A)=   0.10329874D+01
 DE(Corr)= -0.12531963     E(CORR)=     -38.406264365     Delta=-2.15D-03
 NORM(A)=   0.10347487D+01
 DE(Corr)= -0.12593639     E(CORR)=     -38.406881128     Delta=-6.17D-04
 NORM(A)=   0.10351863D+01
 DE(Corr)= -0.12601343     E(CORR)=     -38.406958169     Delta=-7.70D-05
 NORM(A)=   0.10352831D+01
 DE(Corr)= -0.12602018     E(CORR)=     -38.406964924     Delta=-6.76D-06
 NORM(A)=   0.10353165D+01
 DE(Corr)= -0.12602349     E(CORR)=     -38.406968227     Delta=-3.30D-06
 NORM(A)=   0.10353223D+01
 DE(Corr)= -0.12602443     E(CORR)=     -38.406969172     Delta=-9.46D-07
 NORM(A)=   0.10353223D+01
 DE(Corr)= -0.12602415     E(CORR)=     -38.406968886     Delta= 2.86D-07
 NORM(A)=   0.10353218D+01
 DE(Corr)= -0.12602389     E(CORR)=     -38.406968634     Delta= 2.52D-07
 NORM(A)=   0.10353213D+01
 DE(Corr)= -0.12602373     E(CORR)=     -38.406968469     Delta= 1.66D-07
 NORM(A)=   0.10353211D+01
 DE(Corr)= -0.12602365     E(CORR)=     -38.406968395     Delta= 7.36D-08
 NORM(A)=   0.10353210D+01
 Wavefunction amplitudes converged. E(Corr)=     -38.406968395    
 Largest amplitude= 8.98D-02
 Time for triples=        4.22 seconds.
 T4(CCSD)= -0.33724751D-02
 T5(CCSD)=  0.60407799D-04
 CCSD(T)= -0.38410280462D+02

 S**2, projected HF & approx projected MPn energies after annihilation of
 unwanted spin states (see manual for definitions):

 spins       (S**2,0) (S**2,1)    PUHF        PMP2        PMP3        PMP4
 annihilated
 s+1         0.74999  0.75000  -38.283823  -38.383949  -38.401523
 s+1,s+2     0.75000  0.75000  -38.283821  -38.383947  -38.401521

 Discarding MO integrals.

 **********************************************************************

            Population analysis using the SCF Density.

 **********************************************************************

 Orbital symmetries:
 Alpha Orbitals:
       Occupied  (SG) (SG) (SG) (?A)
       Virtual   (?A) (SG) (SG) (?A) (?A) (SG) (?B) (PI) (PI) (?B)
                 (?B) (SG) (PI) (PI) (SG) (PI) (PI) (SG) (SG) (DLTA)
                 (DLTA) (?C) (?C) (?C) (?C) (?D) (?D) (?D) (PI)
                 (PI) (SG) (DLTA) (DLTA) (PI) (PI) (SG) (PI) (PI)
                 (SG) (SG)
 Beta  Orbitals:
       Occupied  (SG) (SG) (SG)
       Virtual   (PI) (PI) (SG) (SG) (PI) (SG) (PI) (SG) (PI) (PI)
                 (?A) (?A) (?A) (PI) (PI) (SG) (PI) (?B) (PI) (?B)
                 (?B) (?B) (?C) (?C) (?C) (?C) (?D) (?D) (?D) (PI)
                 (PI) (?E) (?E) (?E) (PI) (PI) (SG) (PI) (PI) (SG)
                 (SG)
 Unable to determine electronic state:  an orbital has unidentified symmetry.
 Alpha  occ. eigenvalues --  -11.32600  -0.87382  -0.46990  -0.42409
 Alpha virt. eigenvalues --    0.03928   0.16379   0.41052   0.42769   0.49225
 Alpha virt. eigenvalues --    0.51629   0.60469   0.74139   0.75946   0.83955
 Alpha virt. eigenvalues --    0.84092   1.14417   1.21843   1.22034   1.60970
 Alpha virt. eigenvalues --    2.28301   2.31858   2.37611   2.54872   2.82415
 Alpha virt. eigenvalues --    2.82417   2.93186   2.93304   2.93953   2.93970
 Alpha virt. eigenvalues --    3.23636   3.24879   3.25023   3.39148   3.39544
 Alpha virt. eigenvalues --    3.54688   3.84110   3.84126   4.11471   4.12061
 Alpha virt. eigenvalues --    4.81756   4.96771   4.97967   5.05381   8.38815
  Beta  occ. eigenvalues --  -11.30299  -0.77867  -0.43318
  Beta virt. eigenvalues --    0.05843   0.11090   0.17179   0.42017   0.50661
  Beta virt. eigenvalues --    0.53529   0.55232   0.62464   0.76136   0.79068
  Beta virt. eigenvalues --    0.89818   0.89847   1.15988   1.21967   1.24486
  Beta virt. eigenvalues --    1.62450   2.33244   2.38394   2.38795   2.56685
  Beta virt. eigenvalues --    2.85141   2.85260   2.93938   2.97262   2.98673
  Beta virt. eigenvalues --    2.99194   3.24982   3.31793   3.32866   3.39806
  Beta virt. eigenvalues --    3.44406   3.55682   3.84886   3.84974   4.11170
  Beta virt. eigenvalues --    4.12188   4.82712   4.97018   4.99734   5.05862
  Beta virt. eigenvalues --    8.40399
          Condensed to atoms (all electrons):
          Atomic-Atomic Spin Densities.
 Mulliken charges and spin densities:
               1          2
     1  C   -0.102315   1.045911
     2  H    0.102315  -0.045911
 Sum of Mulliken charges =  -0.00000   1.00000
 Mulliken charges and spin densities with hydrogens summed into heavy atoms:
               1          2
     1  C   -0.000000   1.000000
 Electronic spatial extent (au):  <R**2>=             19.5595
 Charge=             -0.0000 electrons
 Dipole moment (field-independent basis, Debye):
    X=              0.0000    Y=              0.0000    Z=             -1.5729  Tot=              1.5729
 Unable to Open any file for archive entry.
 1\1\GINC-NODE05\SP\UCCSD(T)-FC\CC-pVTZ\C1H1(2)\XUHJ\20-Dec-2023\0\\#T 
 CCSD(T)/cc-pVTZ symm=veryloose geom=allcheck\\[CH]-2\\0,2\C,0,0.,0.,0.
 162404\H,0,0.,0.,-0.974426\\Version=ES64L-G16RevC.01\HF=-38.2809447\MP
 2=-38.3822799\MP3=-38.4006874\MP4D=-38.406295\MP4DQ=-38.4041334\PUHF=-
 38.2838229\PMP2-0=-38.383949\PMP3-0=-38.4015226\MP4SDQ=-38.4046531\CCS
 D=-38.4069684\CCSD(T)=-38.4102805\S2=0.759023\S2-1=0.751434\S2A=0.7500
 17\RMSD=2.955e-09\PG=C*V [C*(H1C1)]\\@
 The archive entry for this job was punched.


 We make a living by what we get,
 we make a life by what we give.
                   -- Sir Winston Churchill
 Job cpu time:       0 days  0 hours  0 minutes 24.1 seconds.
 Elapsed time:       0 days  0 hours  0 minutes  1.8 seconds.
 File lengths (MBytes):  RWF=     26 Int=      0 D2E=      0 Chk=      2 Scr=      2
 Normal termination of Gaussian 16 at Wed Dec 20 01:46:11 2023.
