%nprocshared=16
%mem=64000MB
%chk=WPWHSFAFEBZWBB-UHFFFAOYSA-N-2.chk
#T CCSD(T)/cc-pVDZ symm=veryloose 

[CH2]CCC

0 2
C        -1.889832      -0.132270       0.016184
C        -0.509561       0.520889      -0.060752
H        -2.696699       0.618921      -0.051966
H        -2.020858      -0.680576       0.967620
H        -2.036042      -0.856588      -0.806547
C         0.644222      -0.488172       0.032908
H        -0.415489       1.088201      -1.005724
H        -0.403289       1.263535       0.753456
C         1.999039       0.131875      -0.013536
H         0.522859      -1.071863       0.976802
H         0.545192      -1.242740      -0.773808
H         2.882779      -0.463668      -0.267747
H         2.158339       1.150849       0.359088


--link1--
%nprocshared=16
%mem=64000MB
%chk=WPWHSFAFEBZWBB-UHFFFAOYSA-N-2.chk
#T CCSD(T)/cc-pVTZ symm=veryloose geom=allcheck 

