 Entering Gaussian System, Link 0=g16
 Initial command:
 /opt/g16/l1.exe "/tmp/Gau-531746.inp" -scrdir="/tmp/"
 Entering Link 1 = /opt/g16/l1.exe PID=    531747.
  
 Copyright (c) 1988-2019, Gaussian, Inc.  All Rights Reserved.
  
 This is part of the Gaussian(R) 16 program.  It is based on
 the Gaussian(R) 09 system (copyright 2009, Gaussian, Inc.),
 the Gaussian(R) 03 system (copyright 2003, Gaussian, Inc.),
 the Gaussian(R) 98 system (copyright 1998, Gaussian, Inc.),
 the Gaussian(R) 94 system (copyright 1995, Gaussian, Inc.),
 the Gaussian 92(TM) system (copyright 1992, Gaussian, Inc.),
 the Gaussian 90(TM) system (copyright 1990, Gaussian, Inc.),
 the Gaussian 88(TM) system (copyright 1988, Gaussian, Inc.),
 the Gaussian 86(TM) system (copyright 1986, Carnegie Mellon
 University), and the Gaussian 82(TM) system (copyright 1983,
 Carnegie Mellon University). Gaussian is a federally registered
 trademark of Gaussian, Inc.
  
 This software contains proprietary and confidential information,
 including trade secrets, belonging to Gaussian, Inc.
  
 This software is provided under written license and may be
 used, copied, transmitted, or stored only in accord with that
 written license.
  
 The following legend is applicable only to US Government
 contracts under FAR:
  
                    RESTRICTED RIGHTS LEGEND
  
 Use, reproduction and disclosure by the US Government is
 subject to restrictions as set forth in subparagraphs (a)
 and (c) of the Commercial Computer Software - Restricted
 Rights clause in FAR 52.227-19.
  
 Gaussian, Inc.
 340 Quinnipiac St., Bldg. 40, Wallingford CT 06492
  
  
 ---------------------------------------------------------------
 Warning -- This program may not be used in any manner that
 competes with the business of Gaussian, Inc. or will provide
 assistance to any competitor of Gaussian, Inc.  The licensee
 of this program is prohibited from giving any competitor of
 Gaussian, Inc. access to this program.  By using this program,
 the user acknowledges that Gaussian, Inc. is engaged in the
 business of creating and licensing software in the field of
 computational chemistry and represents and warrants to the
 licensee that it is not a competitor of Gaussian, Inc. and that
 it will not use this program in any manner prohibited above.
 ---------------------------------------------------------------
  

 Cite this work as:
 Gaussian 16, Revision C.01,
 M. J. Frisch, G. W. Trucks, H. B. Schlegel, G. E. Scuseria, 
 M. A. Robb, J. R. Cheeseman, G. Scalmani, V. Barone, 
 G. A. Petersson, H. Nakatsuji, X. Li, M. Caricato, A. V. Marenich, 
 J. Bloino, B. G. Janesko, R. Gomperts, B. Mennucci, H. P. Hratchian, 
 J. V. Ortiz, A. F. Izmaylov, J. L. Sonnenberg, D. Williams-Young, 
 F. Ding, F. Lipparini, F. Egidi, J. Goings, B. Peng, A. Petrone, 
 T. Henderson, D. Ranasinghe, V. G. Zakrzewski, J. Gao, N. Rega, 
 G. Zheng, W. Liang, M. Hada, M. Ehara, K. Toyota, R. Fukuda, 
 J. Hasegawa, M. Ishida, T. Nakajima, Y. Honda, O. Kitao, H. Nakai, 
 T. Vreven, K. Throssell, J. A. Montgomery, Jr., J. E. Peralta, 
 F. Ogliaro, M. J. Bearpark, J. J. Heyd, E. N. Brothers, K. N. Kudin, 
 V. N. Staroverov, T. A. Keith, R. Kobayashi, J. Normand, 
 K. Raghavachari, A. P. Rendell, J. C. Burant, S. S. Iyengar, 
 J. Tomasi, M. Cossi, J. M. Millam, M. Klene, C. Adamo, R. Cammi, 
 J. W. Ochterski, R. L. Martin, K. Morokuma, O. Farkas, 
 J. B. Foresman, and D. J. Fox, Gaussian, Inc., Wallingford CT, 2019.
 
 ******************************************
 Gaussian 16:  ES64L-G16RevC.01  3-Jul-2019
                26-Dec-2024 
 ******************************************
 %nprocshared=16
 Will use up to   16 processors via shared memory.
 %mem=48000MB
 %chk=WWVWWECUZUPLCL-UHFFFAOYSA-N1-1.chk
 ---------------------------------
 #T CCSD(T)/cc-pVDZ symm=veryloose
 ---------------------------------
 ------
 C1#CC1
 ------
 Symbolic Z-matrix:
 Charge =  0 Multiplicity = 1
 C                     0.        0.66445  -0.61929 
 C                     0.       -0.66445  -0.61929 
 C                     0.        0.        0.76817 
 H                     0.       -0.89954   1.41125 
 H                     0.        0.89954   1.41125 
 
                    Distance matrix (angstroms):
                    1          2          3          4          5
     1  C    0.000000
     2  C    1.328898   0.000000
     3  C    1.538362   1.538362   0.000000
     4  H    2.563036   2.044104   1.105764   0.000000
     5  H    2.044104   2.563036   1.105764   1.799080   0.000000
 Framework group  C2V[C2(C),SGV(C2H2)]
 Deg. of freedom     4
                         Standard orientation:                         
 ---------------------------------------------------------------------
 Center     Atomic      Atomic             Coordinates (Angstroms)
 Number     Number       Type             X           Y           Z
 ---------------------------------------------------------------------
      1          6           0        0.000000    0.664449   -0.619294
      2          6           0       -0.000000   -0.664449   -0.619294
      3          6           0        0.000000   -0.000000    0.768173
      4          1           0        0.000000   -0.899540    1.411246
      5          1           0        0.000000    0.899540    1.411246
 ---------------------------------------------------------------------
 Rotational constants (GHZ):          41.3336177          25.1510074          15.6364291
    52 basis functions,   113 primitive gaussians,    55 cartesian basis functions
    10 alpha electrons       10 beta electrons
       nuclear repulsion energy        50.7235930737 Hartrees.
 NAtoms=    5 NActive=    5 NUniq=    3 SFac= 2.78D+00 NAtFMM=   60 NAOKFM=F Big=F
 ExpMin= 1.22D-01 ExpMax= 6.67D+03 ExpMxC= 2.28D+02 IAcc=3 IRadAn=         5 AccDes= 0.00D+00
 Harris functional with IExCor=  205 and IRadAn=       5 diagonalized for initial guess.
 HarFok:  IExCor=  205 AccDes= 0.00D+00 IRadAn=         5 IDoV= 1 UseB2=F ITyADJ=14
 ICtDFT=  3500011 ScaDFX=  1.000000  1.000000  1.000000  1.000000
 FoFCou: FMM=F IPFlag=           0 FMFlag=      100000 FMFlg1=           0
         NFxFlg=           0 DoJE=T BraDBF=F KetDBF=T FulRan=T
         wScrn=  0.000000 ICntrl=       500 IOpCl=  0 I1Cent=   200000004 NGrid=           0
         NMat0=    1 NMatS0=      1 NMatT0=    0 NMatD0=    1 NMtDS0=    0 NMtDT0=    0
 Petite list used in FoFCou.
 Initial guess orbital symmetries:
       Occupied  (A1) (A1) (B2) (A1) (A1) (B2) (A1) (B1) (B2) (A1)
       Virtual   (B1) (B2) (A2) (A1) (B2) (A1) (B2) (A1) (A1) (B1)
                 (A1) (B2) (B1) (A1) (A2) (B2) (B2) (A1) (B2) (B1)
                 (A2) (A1) (A1) (B1) (B2) (A2) (A1) (B1) (B2) (A1)
                 (B2) (A1) (B2) (A2) (B1) (A1) (B2) (A2) (B2) (A1)
                 (A1) (B2)
 The electronic state of the initial guess is 1-A1.
 SCF Done:  E(RHF) =  -114.538090655     A.U. after   11 cycles
            NFock= 11  Conv=0.40D-08     -V/T= 2.0012
 ExpMin= 1.22D-01 ExpMax= 6.67D+03 ExpMxC= 2.28D+02 IAcc=3 IRadAn=         5 AccDes= 0.00D+00
 HarFok:  IExCor=  205 AccDes= 0.00D+00 IRadAn=         5 IDoV=-2 UseB2=F ITyADJ=14
 ICtDFT= 12500011 ScaDFX=  1.000000  1.000000  1.000000  1.000000
 NROrb=     49 NOA=     7 NOB=     7 NVA=    42 NVB=    42
 Semi-Direct transformation.
 ModeAB=           4 MOrb=             7 LenV=    6291221223
 LASXX=        95187 LTotXX=       95187 LenRXX=      197444
 LTotAB=      102257 MaxLAS=      311787 LenRXY=           0
 NonZer=      292631 LenScr=      877568 LnRSAI=      311787
 LnScr1=      934912 LExtra=           0 Total=      2321711
 MaxDsk=          -1 SrtSym=           T ITran=            4
 JobTyp=0 Pass  1:  I=   1 to   7.
 (rs|ai) integrals will be sorted in core.
 ANorm=    0.1073649194D+01
 E2 =    -0.3652999075D+00 EUMP2 =    -0.11490339056289D+03
 CIDS: In Core Option IDoMem=           1.
 Produce multiple copies of IABC intergrals
 MP4(R+Q)=  0.10971971D-01
 E3=       -0.19698157D-01        EUMP3=      -0.11492308872D+03
 E4(DQ)=   -0.61623292D-03        UMP4(DQ)=   -0.11492370495D+03
 E4(SDQ)=  -0.44733332D-02        UMP4(SDQ)=  -0.11492756205D+03
 DE(Corr)= -0.37398698     E(Corr)=     -114.91207764    
 NORM(A)=   0.10789723D+01
 DE(Corr)= -0.38693824     E(CORR)=     -114.92502889     Delta=-1.30D-02
 NORM(A)=   0.10876166D+01
 DE(Corr)= -0.38872169     E(CORR)=     -114.92681235     Delta=-1.78D-03
 NORM(A)=   0.10891867D+01
 DE(Corr)= -0.38976005     E(CORR)=     -114.92785071     Delta=-1.04D-03
 NORM(A)=   0.10897120D+01
 DE(Corr)= -0.38987110     E(CORR)=     -114.92796176     Delta=-1.11D-04
 NORM(A)=   0.10898396D+01
 DE(Corr)= -0.38988743     E(CORR)=     -114.92797809     Delta=-1.63D-05
 NORM(A)=   0.10898372D+01
 DE(Corr)= -0.38988780     E(CORR)=     -114.92797845     Delta=-3.66D-07
 NORM(A)=   0.10898447D+01
 DE(Corr)= -0.38988652     E(CORR)=     -114.92797718     Delta= 1.27D-06
 NORM(A)=   0.10898442D+01
 DE(Corr)= -0.38988743     E(CORR)=     -114.92797809     Delta=-9.09D-07
 NORM(A)=   0.10898451D+01
 DE(Corr)= -0.38988749     E(CORR)=     -114.92797815     Delta=-5.88D-08
 NORM(A)=   0.10898454D+01
 Wavefunction amplitudes converged. E(Corr)=     -114.92797815    
 Dominant configurations:
 ***********************
 Spin Case        I    J    A    B          Value
   ABAB           9    9   11   11      -0.107908D+00
 Largest amplitude= 1.08D-01
 Time for triples=        9.88 seconds.
 T4(CCSD)= -0.20462977D-01
 T5(CCSD)=  0.53105585D-03
 CCSD(T)= -0.11494791007D+03
 Discarding MO integrals.

 **********************************************************************

            Population analysis using the SCF Density.

 **********************************************************************

 Orbital symmetries:
       Occupied  (A1) (A1) (B2) (A1) (A1) (B2) (A1) (B2) (B1) (A1)
       Virtual   (B1) (B2) (A1) (A2) (B2) (A1) (B2) (A1) (A1) (B1)
                 (B2) (A1) (B1) (A1) (A2) (B2) (B2) (A1) (B2) (A1)
                 (B1) (A2) (A1) (B1) (B2) (A2) (B2) (A1) (B1) (A1)
                 (B2) (A1) (B2) (A2) (B1) (A1) (A2) (B2) (B2) (A1)
                 (A1) (B2)
 The electronic state is 1-A1.
 Alpha  occ. eigenvalues --  -11.35903 -11.28346 -11.28160  -1.20052  -0.87960
 Alpha  occ. eigenvalues --   -0.72169  -0.55474  -0.46762  -0.46726  -0.41479
 Alpha virt. eigenvalues --    0.06597   0.13924   0.17449   0.18441   0.28008
 Alpha virt. eigenvalues --    0.35735   0.45019   0.57887   0.62227   0.63513
 Alpha virt. eigenvalues --    0.70206   0.70602   0.73283   0.76495   0.80273
 Alpha virt. eigenvalues --    0.84261   0.91172   0.92068   1.07356   1.12227
 Alpha virt. eigenvalues --    1.12684   1.13948   1.22883   1.34077   1.34231
 Alpha virt. eigenvalues --    1.61269   1.72370   1.72489   1.73022   1.88425
 Alpha virt. eigenvalues --    1.89705   2.05041   2.07091   2.08565   2.11439
 Alpha virt. eigenvalues --    2.17475   2.22658   2.24151   2.39656   2.43237
 Alpha virt. eigenvalues --    2.74101   3.06781
          Condensed to atoms (all electrons):
 Mulliken charges:
               1
     1  C   -0.103796
     2  C   -0.103796
     3  C   -0.085122
     4  H    0.146358
     5  H    0.146358
 Sum of Mulliken charges =  -0.00000
 Mulliken charges with hydrogens summed into heavy atoms:
               1
     1  C   -0.103796
     2  C   -0.103796
     3  C    0.207593
 Electronic spatial extent (au):  <R**2>=            110.0538
 Charge=             -0.0000 electrons
 Dipole moment (field-independent basis, Debye):
    X=              0.0000    Y=             -0.0000    Z=              3.1282  Tot=              3.1282
 Unable to Open any file for archive entry.
 1\1\GINC-GPU\SP\RCCSD(T)-FC\CC-pVDZ\C3H2\XUHJ\26-Dec-2024\0\\#T CCSD(T
 )/cc-pVDZ symm=veryloose\\C1#CC1\\0,1\C,0,0.,0.664449,-0.619294\C,0,0.
 ,-0.664449,-0.619294\C,0,0.,0.,0.768173\H,0,0.,-0.89954,1.411246\H,0,0
 .,0.89954,1.411246\\Version=ES64L-G16RevC.01\State=1-A1\HF=-114.538090
 7\MP2=-114.9033906\MP3=-114.9230887\MP4D=-114.9346769\MP4DQ=-114.92370
 5\MP4SDQ=-114.9275621\CCSD=-114.9279781\CCSD(T)=-114.9479101\RMSD=3.95
 8e-09\PG=C02V [C2(C1),SGV(C2H2)]\\@
 The archive entry for this job was punched.


     SCHOPENHAUER'S LAW OF ENTROPY
 IF YOU PUT A SPOONFUL OF WINE IN A BARREL FULL
 OF SEWAGE, YOU GET SEWAGE.
 IF YOU PUT A SPOONFUL OF SEWAGE IN A BARREL FULL
 OF WINE, YOU GET SEWAGE.
 Job cpu time:       0 days  0 hours  1 minutes  1.5 seconds.
 Elapsed time:       0 days  0 hours  0 minutes  4.3 seconds.
 File lengths (MBytes):  RWF=     25 Int=      0 D2E=      0 Chk=      1 Scr=      1
 Normal termination of Gaussian 16 at Thu Dec 26 14:40:51 2024.
 Initial command:
 /opt/g16/l1.exe "/tmp/Gau-531746.inp" -scrdir="/tmp/"
 Entering Link 1 = /opt/g16/l1.exe PID=    531974.
  
 Copyright (c) 1988-2019, Gaussian, Inc.  All Rights Reserved.
  
 This is part of the Gaussian(R) 16 program.  It is based on
 the Gaussian(R) 09 system (copyright 2009, Gaussian, Inc.),
 the Gaussian(R) 03 system (copyright 2003, Gaussian, Inc.),
 the Gaussian(R) 98 system (copyright 1998, Gaussian, Inc.),
 the Gaussian(R) 94 system (copyright 1995, Gaussian, Inc.),
 the Gaussian 92(TM) system (copyright 1992, Gaussian, Inc.),
 the Gaussian 90(TM) system (copyright 1990, Gaussian, Inc.),
 the Gaussian 88(TM) system (copyright 1988, Gaussian, Inc.),
 the Gaussian 86(TM) system (copyright 1986, Carnegie Mellon
 University), and the Gaussian 82(TM) system (copyright 1983,
 Carnegie Mellon University). Gaussian is a federally registered
 trademark of Gaussian, Inc.
  
 This software contains proprietary and confidential information,
 including trade secrets, belonging to Gaussian, Inc.
  
 This software is provided under written license and may be
 used, copied, transmitted, or stored only in accord with that
 written license.
  
 The following legend is applicable only to US Government
 contracts under FAR:
  
                    RESTRICTED RIGHTS LEGEND
  
 Use, reproduction and disclosure by the US Government is
 subject to restrictions as set forth in subparagraphs (a)
 and (c) of the Commercial Computer Software - Restricted
 Rights clause in FAR 52.227-19.
  
 Gaussian, Inc.
 340 Quinnipiac St., Bldg. 40, Wallingford CT 06492
  
  
 ---------------------------------------------------------------
 Warning -- This program may not be used in any manner that
 competes with the business of Gaussian, Inc. or will provide
 assistance to any competitor of Gaussian, Inc.  The licensee
 of this program is prohibited from giving any competitor of
 Gaussian, Inc. access to this program.  By using this program,
 the user acknowledges that Gaussian, Inc. is engaged in the
 business of creating and licensing software in the field of
 computational chemistry and represents and warrants to the
 licensee that it is not a competitor of Gaussian, Inc. and that
 it will not use this program in any manner prohibited above.
 ---------------------------------------------------------------
  

 Cite this work as:
 Gaussian 16, Revision C.01,
 M. J. Frisch, G. W. Trucks, H. B. Schlegel, G. E. Scuseria, 
 M. A. Robb, J. R. Cheeseman, G. Scalmani, V. Barone, 
 G. A. Petersson, H. Nakatsuji, X. Li, M. Caricato, A. V. Marenich, 
 J. Bloino, B. G. Janesko, R. Gomperts, B. Mennucci, H. P. Hratchian, 
 J. V. Ortiz, A. F. Izmaylov, J. L. Sonnenberg, D. Williams-Young, 
 F. Ding, F. Lipparini, F. Egidi, J. Goings, B. Peng, A. Petrone, 
 T. Henderson, D. Ranasinghe, V. G. Zakrzewski, J. Gao, N. Rega, 
 G. Zheng, W. Liang, M. Hada, M. Ehara, K. Toyota, R. Fukuda, 
 J. Hasegawa, M. Ishida, T. Nakajima, Y. Honda, O. Kitao, H. Nakai, 
 T. Vreven, K. Throssell, J. A. Montgomery, Jr., J. E. Peralta, 
 F. Ogliaro, M. J. Bearpark, J. J. Heyd, E. N. Brothers, K. N. Kudin, 
 V. N. Staroverov, T. A. Keith, R. Kobayashi, J. Normand, 
 K. Raghavachari, A. P. Rendell, J. C. Burant, S. S. Iyengar, 
 J. Tomasi, M. Cossi, J. M. Millam, M. Klene, C. Adamo, R. Cammi, 
 J. W. Ochterski, R. L. Martin, K. Morokuma, O. Farkas, 
 J. B. Foresman, and D. J. Fox, Gaussian, Inc., Wallingford CT, 2019.
 
 ******************************************
 Gaussian 16:  ES64L-G16RevC.01  3-Jul-2019
                26-Dec-2024 
 ******************************************
 %nprocshared=16
 Will use up to   16 processors via shared memory.
 %mem=48000MB
 %chk=WWVWWECUZUPLCL-UHFFFAOYSA-N1-1.chk
 -----------------------------------------------
 #T CCSD(T)/cc-pVTZ symm=veryloose geom=allcheck
 -----------------------------------------------
 Structure from the checkpoint file:  "WWVWWECUZUPLCL-UHFFFAOYSA-N1-1.chk"
 ------
 C1#CC1
 ------
 Charge =  0 Multiplicity = 1
 Z-Matrix found in chk file.
 C,0,0.,0.664449,-0.619294
 C,0,0.,-0.664449,-0.619294
 C,0,0.,0.,0.768173
 H,0,0.,-0.89954,1.411246
 H,0,0.,0.89954,1.411246
 Recover connectivity data from disk.
                    Distance matrix (angstroms):
                    1          2          3          4          5
     1  C    0.000000
     2  C    1.328898   0.000000
     3  C    1.538362   1.538362   0.000000
     4  H    2.563036   2.044104   1.105764   0.000000
     5  H    2.044104   2.563036   1.105764   1.799080   0.000000
 Framework group  C2V[C2(C),SGV(C2H2)]
 Deg. of freedom     4
                         Standard orientation:                         
 ---------------------------------------------------------------------
 Center     Atomic      Atomic             Coordinates (Angstroms)
 Number     Number       Type             X           Y           Z
 ---------------------------------------------------------------------
      1          6           0       -0.000000    0.664449   -0.619294
      2          6           0       -0.000000   -0.664449   -0.619294
      3          6           0        0.000000    0.000000    0.768173
      4          1           0        0.000000   -0.899540    1.411246
      5          1           0        0.000000    0.899540    1.411246
 ---------------------------------------------------------------------
 Rotational constants (GHZ):          41.3336177          25.1510074          15.6364291
   118 basis functions,   190 primitive gaussians,   135 cartesian basis functions
    10 alpha electrons       10 beta electrons
       nuclear repulsion energy        50.7235930737 Hartrees.
 NAtoms=    5 NActive=    5 NUniq=    3 SFac= 2.78D+00 NAtFMM=   60 NAOKFM=F Big=F
 ExpMin= 1.03D-01 ExpMax= 8.24D+03 ExpMxC= 2.81D+02 IAcc=3 IRadAn=         5 AccDes= 0.00D+00
 Harris functional with IExCor=  205 and IRadAn=       5 diagonalized for initial guess.
 HarFok:  IExCor=  205 AccDes= 0.00D+00 IRadAn=         5 IDoV= 1 UseB2=F ITyADJ=14
 ICtDFT=  3500011 ScaDFX=  1.000000  1.000000  1.000000  1.000000
 FoFCou: FMM=F IPFlag=           0 FMFlag=      100000 FMFlg1=           0
         NFxFlg=           0 DoJE=T BraDBF=F KetDBF=T FulRan=T
         wScrn=  0.000000 ICntrl=       500 IOpCl=  0 I1Cent=   200000004 NGrid=           0
         NMat0=    1 NMatS0=      1 NMatT0=    0 NMatD0=    1 NMtDS0=    0 NMtDT0=    0
 Petite list used in FoFCou.
 Initial guess orbital symmetries:
       Occupied  (A1) (A1) (B2) (A1) (A1) (B2) (A1) (B1) (B2) (A1)
       Virtual   (B1) (B2) (A2) (A1) (B2) (A1) (B2) (A1) (B1) (A1)
                 (A1) (B1) (B2) (A1) (A2) (B2) (A1) (B2) (A2) (A1)
                 (B1) (B2) (A1) (B1) (B2) (B2) (A2) (B1) (A1) (A1)
                 (B2) (A1) (B2) (A2) (B1) (A1) (B2) (A2) (B2) (A1)
                 (A1) (B2) (B1) (A1) (B1) (A1) (B1) (A2) (A1) (B2)
                 (A1) (B1) (B2) (B1) (B2) (A1) (A2) (A1) (B2) (A1)
                 (A2) (B1) (B2) (A1) (B2) (A1) (B2) (A2) (A1) (B1)
                 (B2) (A2) (B1) (A2) (B2) (B2) (A1) (A2) (B1) (B2)
                 (A1) (B1) (A2) (B2) (A1) (A1) (B1) (A1) (B1) (B2)
                 (A1) (A2) (B2) (A1) (B2) (A2) (A1) (B2) (B1) (A1)
                 (B2) (A2) (A1) (B2) (B2) (A1) (A1) (B2)
 The electronic state of the initial guess is 1-A1.
 SCF Done:  E(RHF) =  -114.565323435     A.U. after   11 cycles
            NFock= 11  Conv=0.79D-08     -V/T= 2.0016
 ExpMin= 1.03D-01 ExpMax= 8.24D+03 ExpMxC= 2.81D+02 IAcc=3 IRadAn=         5 AccDes= 0.00D+00
 HarFok:  IExCor=  205 AccDes= 0.00D+00 IRadAn=         5 IDoV=-2 UseB2=F ITyADJ=14
 ICtDFT= 12500011 ScaDFX=  1.000000  1.000000  1.000000  1.000000
 NROrb=    115 NOA=     7 NOB=     7 NVA=   108 NVB=   108

 **** Warning!!: The largest alpha MO coefficient is  0.11320822D+02

 Semi-Direct transformation.
 ModeAB=           4 MOrb=             7 LenV=    6290936451
 LASXX=      1300318 LTotXX=     1300318 LenRXX=     2640362
 LTotAB=     1340044 MaxLAS=     4205320 LenRXY=           0
 NonZer=     3940680 LenScr=     6649344 LnRSAI=     4205320
 LnScr1=     7073280 LExtra=           0 Total=     20568306
 MaxDsk=          -1 SrtSym=           T ITran=            4
 JobTyp=0 Pass  1:  I=   1 to   7.
 (rs|ai) integrals will be sorted in core.
 ANorm=    0.1080869023D+01
 E2 =    -0.4426216519D+00 EUMP2 =    -0.11500794508638D+03
 CIDS: In Core Option IDoMem=           1.
 Produce multiple copies of IABC intergrals
 MP4(R+Q)=  0.15468595D-01
 E3=       -0.15482488D-01        EUMP3=      -0.11502342757D+03
 E4(DQ)=    0.29284848D-02        UMP4(DQ)=   -0.11502049909D+03
 E4(SDQ)=  -0.20215529D-02        UMP4(SDQ)=  -0.11502544913D+03
 DE(Corr)= -0.44248755     E(Corr)=     -115.00781098    
 NORM(A)=   0.10830259D+01
 DE(Corr)= -0.45761883     E(CORR)=     -115.02294226     Delta=-1.51D-02
 NORM(A)=   0.10916528D+01
 DE(Corr)= -0.45839255     E(CORR)=     -115.02371598     Delta=-7.74D-04
 NORM(A)=   0.10934525D+01
 DE(Corr)= -0.45966920     E(CORR)=     -115.02499264     Delta=-1.28D-03
 NORM(A)=   0.10939926D+01
 DE(Corr)= -0.45978156     E(CORR)=     -115.02510500     Delta=-1.12D-04
 NORM(A)=   0.10941320D+01
 DE(Corr)= -0.45979729     E(CORR)=     -115.02512073     Delta=-1.57D-05
 NORM(A)=   0.10941337D+01
 DE(Corr)= -0.45979966     E(CORR)=     -115.02512309     Delta=-2.37D-06
 NORM(A)=   0.10941392D+01
 DE(Corr)= -0.45979719     E(CORR)=     -115.02512063     Delta= 2.46D-06
 NORM(A)=   0.10941391D+01
 DE(Corr)= -0.45979883     E(CORR)=     -115.02512227     Delta=-1.64D-06
 NORM(A)=   0.10941401D+01
 DE(Corr)= -0.45979874     E(CORR)=     -115.02512218     Delta= 9.01D-08
 NORM(A)=   0.10941405D+01
 Wavefunction amplitudes converged. E(Corr)=     -115.02512218    
 Largest amplitude= 9.84D-02
 Time for triples=      109.99 seconds.
 T4(CCSD)= -0.28230440D-01
 T5(CCSD)=  0.70800681D-03
 CCSD(T)= -0.11505264461D+03
 Discarding MO integrals.

 **********************************************************************

            Population analysis using the SCF Density.

 **********************************************************************

 Orbital symmetries:
       Occupied  (A1) (A1) (B2) (A1) (A1) (B2) (A1) (B2) (B1) (A1)
       Virtual   (B1) (B2) (A1) (A2) (B2) (A1) (B2) (A1) (B1) (A1)
                 (A1) (B2) (B1) (A1) (A2) (B2) (A1) (B2) (A2) (A1)
                 (B1) (B2) (A1) (B2) (B1) (B2) (A2) (B1) (A1) (A1)
                 (B2) (A1) (B2) (A2) (B1) (A1) (B2) (A2) (A1) (B2)
                 (A1) (B2) (A1) (B1) (A1) (B1) (B1) (A1) (A2) (B2)
                 (A1) (B2) (B1) (B1) (B2) (A2) (A1) (A1) (B2) (A1)
                 (A2) (B1) (B2) (A1) (B2) (A1) (B2) (B1) (A1) (A2)
                 (B2) (A2) (B1) (A2) (B2) (A2) (A1) (B2) (B1) (B2)
                 (A1) (B1) (A2) (B2) (A1) (A1) (B1) (A1) (B2) (B1)
                 (A2) (A1) (B2) (A1) (B2) (A2) (A1) (B2) (B1) (A1)
                 (B2) (A2) (A1) (B2) (B2) (A1) (A1) (B2)
 The electronic state is 1-A1.
 Alpha  occ. eigenvalues --  -11.35575 -11.28199 -11.28003  -1.19856  -0.88056
 Alpha  occ. eigenvalues --   -0.72335  -0.55724  -0.46988  -0.46972  -0.41850
 Alpha virt. eigenvalues --    0.05892   0.12464   0.13681   0.16747   0.23115
 Alpha virt. eigenvalues --    0.27842   0.32242   0.36785   0.39759   0.42154
 Alpha virt. eigenvalues --    0.47290   0.49427   0.50103   0.54899   0.55816
 Alpha virt. eigenvalues --    0.60648   0.61837   0.65536   0.72250   0.73126
 Alpha virt. eigenvalues --    0.79048   0.83727   0.86508   0.89618   0.93061
 Alpha virt. eigenvalues --    1.02868   1.10418   1.14118   1.16309   1.30857
 Alpha virt. eigenvalues --    1.31846   1.33896   1.36145   1.37793   1.37950
 Alpha virt. eigenvalues --    1.43130   1.46153   1.47466   1.55588   1.57304
 Alpha virt. eigenvalues --    1.69325   1.77074   2.27687   2.28350   2.37755
 Alpha virt. eigenvalues --    2.42251   2.46443   2.54802   2.58317   2.67677
 Alpha virt. eigenvalues --    2.75329   2.75720   2.76061   2.84669   2.87777
 Alpha virt. eigenvalues --    2.90821   2.93692   2.99953   3.04032   3.08019
 Alpha virt. eigenvalues --    3.09439   3.11064   3.16380   3.21098   3.30229
 Alpha virt. eigenvalues --    3.30919   3.34496   3.37779   3.38926   3.40294
 Alpha virt. eigenvalues --    3.49004   3.51290   3.52295   3.52950   3.59220
 Alpha virt. eigenvalues --    3.66112   3.67021   3.68085   3.78867   3.81962
 Alpha virt. eigenvalues --    3.86834   3.93941   3.97457   4.06037   4.11307
 Alpha virt. eigenvalues --    4.13856   4.28422   4.35403   4.39512   4.41221
 Alpha virt. eigenvalues --    4.45955   4.47026   4.52587   4.69322   4.78011
 Alpha virt. eigenvalues --    4.81910   5.01684   5.05843   5.16123   5.28877
 Alpha virt. eigenvalues --    5.32574   5.34771   5.60065   6.02701   6.47292
 Alpha virt. eigenvalues --    7.28956  11.70320  12.52355
          Condensed to atoms (all electrons):
 Mulliken charges:
               1
     1  C   -0.069592
     2  C   -0.069592
     3  C   -0.278342
     4  H    0.208763
     5  H    0.208763
 Sum of Mulliken charges =   0.00000
 Mulliken charges with hydrogens summed into heavy atoms:
               1
     1  C   -0.069592
     2  C   -0.069592
     3  C    0.139184
 Electronic spatial extent (au):  <R**2>=            110.2882
 Charge=              0.0000 electrons
 Dipole moment (field-independent basis, Debye):
    X=              0.0000    Y=              0.0000    Z=              3.1588  Tot=              3.1588
 Unable to Open any file for archive entry.
 1\1\GINC-GPU\SP\RCCSD(T)-FC\CC-pVTZ\C3H2\XUHJ\26-Dec-2024\0\\#T CCSD(T
 )/cc-pVTZ symm=veryloose geom=allcheck\\C1#CC1\\0,1\C,0,0.,0.664449,-0
 .619294\C,0,0.,-0.664449,-0.619294\C,0,0.,0.,0.768173\H,0,0.,-0.89954,
 1.411246\H,0,0.,0.89954,1.411246\\Version=ES64L-G16RevC.01\State=1-A1\
 HF=-114.5653234\MP2=-115.0079451\MP3=-115.0234276\MP4D=-115.0359677\MP
 4DQ=-115.0204991\MP4SDQ=-115.0254491\CCSD=-115.0251222\CCSD(T)=-115.05
 26446\RMSD=7.933e-09\PG=C02V [C2(C1),SGV(C2H2)]\\@
 The archive entry for this job was punched.


 THERE IS AN OLD, OLD RECIPE IN MAINE FOR STEWING COOT. PLACE THE
 BIRD IN A KETTLE OF WATER WITH A RED BUILDING BRICK FREE OF MORTAR AND
 BLEMISHES. PARBOIL THE COOT AND BRICK TOGETHER FOR THREE HOURS.
 POUR OFF THE WATER, REFILL THE KETTLE, AND AGAIN PARBOIL FOR THREE HOURS.
 ONCE AGAIN POUR OFF THE WATER, FOR THE LAST TIME ADD FRESH WATER,
 AND LET THE COOT AND BRICK SIMMER TOGETHER OVERNIGHT. IN THE MORNING,
 THROW AWAY THE COOT AND EAT THE BRICK.
 Job cpu time:       0 days  0 hours  4 minutes  6.5 seconds.
 Elapsed time:       0 days  0 hours  0 minutes 16.2 seconds.
 File lengths (MBytes):  RWF=    170 Int=      0 D2E=      0 Chk=      2 Scr=      1
 Normal termination of Gaussian 16 at Thu Dec 26 14:41:08 2024.
