%nprocshared=16
%mem=48000MB
%chk=WWVWWECUZUPLCL-UHFFFAOYSA-N1-1.chk
#T CCSD(T)/cc-pVDZ symm=veryloose 

C1#CC1

0 1
C         0.000000       0.664449      -0.619294
C        -0.000000      -0.664449      -0.619294
C         0.000000      -0.000000       0.768173
H         0.000000      -0.899540       1.411246
H         0.000000       0.899540       1.411246


--link1--
%nprocshared=16
%mem=48000MB
%chk=WWVWWECUZUPLCL-UHFFFAOYSA-N1-1.chk
#T CCSD(T)/cc-pVTZ symm=veryloose geom=allcheck 

