 Entering Gaussian System, Link 0=g16
 Initial command:
 /home/software/g16/l1.exe "/home/software/g16tmp/Gau-112243.inp" -scrdir="/home/software/g16tmp/"
 Default is to use a total of   8 processors:
                                8 via shared-memory
                                1 via Linda
 Entering Link 1 = /home/software/g16/l1.exe PID=    112244.
  
 Copyright (c) 1988-2019, Gaussian, Inc.  All Rights Reserved.
  
 This is part of the Gaussian(R) 16 program.  It is based on
 the Gaussian(R) 09 system (copyright 2009, Gaussian, Inc.),
 the Gaussian(R) 03 system (copyright 2003, Gaussian, Inc.),
 the Gaussian(R) 98 system (copyright 1998, Gaussian, Inc.),
 the Gaussian(R) 94 system (copyright 1995, Gaussian, Inc.),
 the Gaussian 92(TM) system (copyright 1992, Gaussian, Inc.),
 the Gaussian 90(TM) system (copyright 1990, Gaussian, Inc.),
 the Gaussian 88(TM) system (copyright 1988, Gaussian, Inc.),
 the Gaussian 86(TM) system (copyright 1986, Carnegie Mellon
 University), and the Gaussian 82(TM) system (copyright 1983,
 Carnegie Mellon University). Gaussian is a federally registered
 trademark of Gaussian, Inc.
  
 This software contains proprietary and confidential information,
 including trade secrets, belonging to Gaussian, Inc.
  
 This software is provided under written license and may be
 used, copied, transmitted, or stored only in accord with that
 written license.
  
 The following legend is applicable only to US Government
 contracts under FAR:
  
                    RESTRICTED RIGHTS LEGEND
  
 Use, reproduction and disclosure by the US Government is
 subject to restrictions as set forth in subparagraphs (a)
 and (c) of the Commercial Computer Software - Restricted
 Rights clause in FAR 52.227-19.
  
 Gaussian, Inc.
 340 Quinnipiac St., Bldg. 40, Wallingford CT 06492
  
  
 ---------------------------------------------------------------
 Warning -- This program may not be used in any manner that
 competes with the business of Gaussian, Inc. or will provide
 assistance to any competitor of Gaussian, Inc.  The licensee
 of this program is prohibited from giving any competitor of
 Gaussian, Inc. access to this program.  By using this program,
 the user acknowledges that Gaussian, Inc. is engaged in the
 business of creating and licensing software in the field of
 computational chemistry and represents and warrants to the
 licensee that it is not a competitor of Gaussian, Inc. and that
 it will not use this program in any manner prohibited above.
 ---------------------------------------------------------------
  

 Cite this work as:
 Gaussian 16, Revision C.01,
 M. J. Frisch, G. W. Trucks, H. B. Schlegel, G. E. Scuseria, 
 M. A. Robb, J. R. Cheeseman, G. Scalmani, V. Barone, 
 G. A. Petersson, H. Nakatsuji, X. Li, M. Caricato, A. V. Marenich, 
 J. Bloino, B. G. Janesko, R. Gomperts, B. Mennucci, H. P. Hratchian, 
 J. V. Ortiz, A. F. Izmaylov, J. L. Sonnenberg, D. Williams-Young, 
 F. Ding, F. Lipparini, F. Egidi, J. Goings, B. Peng, A. Petrone, 
 T. Henderson, D. Ranasinghe, V. G. Zakrzewski, J. Gao, N. Rega, 
 G. Zheng, W. Liang, M. Hada, M. Ehara, K. Toyota, R. Fukuda, 
 J. Hasegawa, M. Ishida, T. Nakajima, Y. Honda, O. Kitao, H. Nakai, 
 T. Vreven, K. Throssell, J. A. Montgomery, Jr., J. E. Peralta, 
 F. Ogliaro, M. J. Bearpark, J. J. Heyd, E. N. Brothers, K. N. Kudin, 
 V. N. Staroverov, T. A. Keith, R. Kobayashi, J. Normand, 
 K. Raghavachari, A. P. Rendell, J. C. Burant, S. S. Iyengar, 
 J. Tomasi, M. Cossi, J. M. Millam, M. Klene, C. Adamo, R. Cammi, 
 J. W. Ochterski, R. L. Martin, K. Morokuma, O. Farkas, 
 J. B. Foresman, and D. J. Fox, Gaussian, Inc., Wallingford CT, 2019.
 
 ******************************************
 Gaussian 16:  ES64L-G16RevC.01  3-Jul-2019
                20-Dec-2023 
 ******************************************
 %nprocshared=16
 Will use up to   16 processors via shared memory.
 %mem=16000MB
 %chk=XOBKSJJDNFUZPF-UHFFFAOYSA-N.chk
 ---------------------------------
 #T CCSD(T)/cc-pVDZ symm=veryloose
 ---------------------------------
 ----
 CCOC
 ----
 Symbolic Z-matrix:
 Charge =  0 Multiplicity = 1
 C                    -1.44293  -1.17474   0. 
 C                     0.       -0.70282   0. 
 O                     0.02069   0.70351   0. 
 C                     1.30984   1.24635   0. 
 H                    -1.49203  -2.27787   0. 
 H                    -1.97038  -0.79809  -0.89347 
 H                    -1.97038  -0.79809   0.89347 
 H                     0.53696  -1.09583  -0.89271 
 H                     0.53696  -1.09583   0.89271 
 H                     1.21213   2.34466   0. 
 H                     1.88989   0.94014  -0.89883 
 H                     1.88989   0.94014   0.89883 
 
                    Distance matrix (angstroms):
                    1          2          3          4          5
     1  C    0.000000
     2  C    1.518142   0.000000
     3  O    2.381176   1.406478   0.000000
     4  C    3.665978   2.348386   1.398780   0.000000
     5  H    1.104222   2.169551   3.343194   4.502287   0.000000
     6  H    1.103790   2.165584   2.649044   3.967095   1.793559
     7  H    1.103790   2.165584   2.649044   3.967095   1.793559
     8  H    2.173277   1.113429   2.073908   2.622986   2.512166
     9  H    2.173277   1.113429   2.073908   2.622986   2.512166
    10  H    4.408575   3.279690   2.028032   1.102648   5.355397
    11  H    4.048241   2.660613   2.087533   1.112709   4.754032
    12  H    4.048241   2.660613   2.087533   1.112709   4.754032
                    6          7          8          9         10
     6  H    0.000000
     7  H    1.786932   0.000000
     8  H    2.524959   3.092872   0.000000
     9  H    3.092872   2.524959   1.785428   0.000000
    10  H    4.561091   4.561091   3.617973   3.617973   0.000000
    11  H    4.233569   4.597327   2.444500   3.030707   1.799981
    12  H    4.597327   4.233569   3.030707   2.444500   1.799981
                   11         12
    11  H    0.000000
    12  H    1.797668   0.000000
 Framework group  CS[SG(C3H2O),X(H6)]
 Deg. of freedom    18
                         Standard orientation:                         
 ---------------------------------------------------------------------
 Center     Atomic      Atomic             Coordinates (Angstroms)
 Number     Number       Type             X           Y           Z
 ---------------------------------------------------------------------
      1          6           0       -1.442928    1.174743    0.000000
      2          6           0        0.000000    0.702817    0.000000
      3          8           0        0.020687   -0.703509    0.000000
      4          6           0        1.309839   -1.246346    0.000000
      5          1           0       -1.492029    2.277873    0.000000
      6          1           0       -1.970380    0.798092    0.893466
      7          1           0       -1.970380    0.798092   -0.893466
      8          1           0        0.536963    1.095828    0.892714
      9          1           0        0.536963    1.095828   -0.892714
     10          1           0        1.212134   -2.344657    0.000000
     11          1           0        1.889885   -0.940135    0.898834
     12          1           0        1.889885   -0.940135   -0.898834
 ---------------------------------------------------------------------
 Rotational constants (GHZ):          28.2646383           4.1439644           3.8831103
    96 basis functions,   188 primitive gaussians,   100 cartesian basis functions
    17 alpha electrons       17 beta electrons
       nuclear repulsion energy       133.3935583830 Hartrees.
 NAtoms=   12 NActive=   12 NUniq=    9 SFac= 1.78D+00 NAtFMM=   60 NAOKFM=F Big=F
 ExpMin= 1.22D-01 ExpMax= 1.17D+04 ExpMxC= 4.01D+02 IAcc=3 IRadAn=         5 AccDes= 0.00D+00
 Harris functional with IExCor=  205 and IRadAn=       5 diagonalized for initial guess.
 HarFok:  IExCor=  205 AccDes= 0.00D+00 IRadAn=         5 IDoV= 1 UseB2=F ITyADJ=14
 ICtDFT=  3500011 ScaDFX=  1.000000  1.000000  1.000000  1.000000
 FoFCou: FMM=F IPFlag=           0 FMFlag=      100000 FMFlg1=           0
         NFxFlg=           0 DoJE=T BraDBF=F KetDBF=T FulRan=T
         wScrn=  0.000000 ICntrl=       500 IOpCl=  0 I1Cent=   200000004 NGrid=           0
         NMat0=    1 NMatS0=      1 NMatT0=    0 NMatD0=    1 NMtDS0=    0 NMtDT0=    0
 Petite list used in FoFCou.
 Initial guess orbital symmetries:
       Occupied  (A') (A') (A') (A') (A') (A') (A') (A') (A') (A")
                 (A') (A") (A') (A') (A") (A') (A")
       Virtual   (A') (A') (A') (A") (A') (A') (A') (A") (A') (A")
                 (A') (A') (A") (A') (A") (A') (A') (A') (A") (A")
                 (A') (A') (A') (A") (A') (A") (A') (A') (A') (A")
                 (A') (A') (A") (A') (A") (A') (A") (A') (A') (A')
                 (A") (A") (A') (A") (A") (A') (A") (A') (A") (A')
                 (A') (A') (A") (A") (A') (A') (A') (A") (A') (A')
                 (A') (A") (A') (A") (A') (A') (A") (A') (A') (A')
                 (A') (A") (A') (A") (A") (A') (A") (A') (A')
 The electronic state of the initial guess is 1-A'.
 SCF Done:  E(RHF) =  -193.118068507     A.U. after   11 cycles
            NFock= 11  Conv=0.61D-08     -V/T= 2.0017
 ExpMin= 1.22D-01 ExpMax= 1.17D+04 ExpMxC= 4.01D+02 IAcc=3 IRadAn=         5 AccDes= 0.00D+00
 HarFok:  IExCor=  205 AccDes= 0.00D+00 IRadAn=         5 IDoV=-2 UseB2=F ITyADJ=14
 ICtDFT= 12500011 ScaDFX=  1.000000  1.000000  1.000000  1.000000
 NROrb=     92 NOA=    13 NOB=    13 NVA=    79 NVB=    79
 Semi-Direct transformation.
 ModeAB=           4 MOrb=            13 LenV=    2096758868
 LASXX=      2287112 LTotXX=     2287112 LenRXX=     4654596
 LTotAB=     2367484 MaxLAS=     4616560 LenRXY=           0
 NonZer=     6941708 LenScr=    10616832 LnRSAI=     4616560
 LnScr1=     7340032 LExtra=           0 Total=     27228020
 MaxDsk=          -1 SrtSym=           T ITran=            4
 JobTyp=0 Pass  1:  I=   1 to  13.
 (rs|ai) integrals will be sorted in core.
 ANorm=    0.1092839582D+01
 E2 =    -0.6218563817D+00 EUMP2 =    -0.19373992488918D+03
 CIDS: In Core Option IDoMem=           1.
 Produce multiple copies of IABC intergrals
 MP4(R+Q)=  0.10547015D-01
 E3=       -0.42745613D-01        EUMP3=      -0.19378267050D+03
 E4(DQ)=   -0.51273171D-02        UMP4(DQ)=   -0.19378779782D+03
 E4(SDQ)=  -0.92247879D-02        UMP4(SDQ)=  -0.19379189529D+03
 DE(Corr)= -0.65391408     E(Corr)=     -193.77198258    
 NORM(A)=   0.11060259D+01
 DE(Corr)= -0.67026164     E(CORR)=     -193.78833015     Delta=-1.63D-02
 NORM(A)=   0.11132816D+01
 DE(Corr)= -0.67287921     E(CORR)=     -193.79094772     Delta=-2.62D-03
 NORM(A)=   0.11145175D+01
 DE(Corr)= -0.67402312     E(CORR)=     -193.79209162     Delta=-1.14D-03
 NORM(A)=   0.11147744D+01
 DE(Corr)= -0.67413656     E(CORR)=     -193.79220507     Delta=-1.13D-04
 NORM(A)=   0.11148300D+01
 DE(Corr)= -0.67414902     E(CORR)=     -193.79221753     Delta=-1.25D-05
 NORM(A)=   0.11148314D+01
 DE(Corr)= -0.67414857     E(CORR)=     -193.79221708     Delta= 4.56D-07
 NORM(A)=   0.11148330D+01
 DE(Corr)= -0.67414751     E(CORR)=     -193.79221602     Delta= 1.06D-06
 NORM(A)=   0.11148345D+01
 DE(Corr)= -0.67414791     E(CORR)=     -193.79221642     Delta=-4.01D-07
 NORM(A)=   0.11148351D+01
 DE(Corr)= -0.67414807     E(CORR)=     -193.79221657     Delta=-1.55D-07
 NORM(A)=   0.11148354D+01
 DE(Corr)= -0.67414821     E(CORR)=     -193.79221672     Delta=-1.49D-07
 NORM(A)=   0.11148355D+01
 DE(Corr)= -0.67414826     E(CORR)=     -193.79221677     Delta=-4.81D-08
 NORM(A)=   0.11148356D+01
 Wavefunction amplitudes converged. E(Corr)=     -193.79221677    
 Largest amplitude= 1.91D-02
 Time for triples=       46.88 seconds.
 T4(CCSD)= -0.18562489D-01
 T5(CCSD)=  0.68938523D-03
 CCSD(T)= -0.19381008987D+03
 Discarding MO integrals.

 **********************************************************************

            Population analysis using the SCF Density.

 **********************************************************************

 Orbital symmetries:
       Occupied  (A') (A') (A') (A') (A') (A') (A') (A') (A") (A')
                 (A') (A") (A') (A') (A") (A') (A")
       Virtual   (A') (A') (A") (A') (A') (A') (A") (A") (A') (A')
                 (A') (A') (A") (A") (A') (A') (A') (A") (A') (A")
                 (A') (A') (A") (A') (A") (A') (A') (A') (A') (A")
                 (A') (A') (A") (A') (A') (A") (A") (A') (A') (A')
                 (A") (A") (A") (A') (A") (A') (A") (A') (A") (A')
                 (A') (A") (A") (A') (A') (A') (A') (A") (A') (A')
                 (A') (A") (A') (A") (A') (A') (A") (A') (A') (A')
                 (A') (A") (A') (A") (A") (A') (A") (A') (A')
 The electronic state is 1-A'.
 Alpha  occ. eigenvalues --  -20.55108 -11.27946 -11.27803 -11.22353  -1.37714
 Alpha  occ. eigenvalues --   -1.02171  -0.90928  -0.82430  -0.66381  -0.65244
 Alpha  occ. eigenvalues --   -0.62289  -0.57507  -0.53079  -0.50417  -0.49574
 Alpha  occ. eigenvalues --   -0.46924  -0.41391
 Alpha virt. eigenvalues --    0.18467   0.20523   0.23962   0.24541   0.26322
 Alpha virt. eigenvalues --    0.27796   0.28288   0.30045   0.31694   0.40088
 Alpha virt. eigenvalues --    0.42896   0.58972   0.59594   0.64859   0.65566
 Alpha virt. eigenvalues --    0.70323   0.74429   0.75908   0.83533   0.84070
 Alpha virt. eigenvalues --    0.86166   0.86933   0.88170   0.89143   0.89886
 Alpha virt. eigenvalues --    0.90210   0.92183   0.93663   1.11350   1.12754
 Alpha virt. eigenvalues --    1.13105   1.17553   1.23347   1.40525   1.45607
 Alpha virt. eigenvalues --    1.46247   1.49021   1.54484   1.55360   1.66214
 Alpha virt. eigenvalues --    1.66695   1.68228   1.81287   1.84128   1.86107
 Alpha virt. eigenvalues --    1.88005   1.90062   1.91851   1.92220   1.94533
 Alpha virt. eigenvalues --    1.97571   1.97653   1.98794   2.02147   2.08704
 Alpha virt. eigenvalues --    2.11144   2.14872   2.21435   2.28929   2.32441
 Alpha virt. eigenvalues --    2.35209   2.35747   2.44538   2.49605   2.52577
 Alpha virt. eigenvalues --    2.56110   2.72289   2.72522   2.73608   2.75545
 Alpha virt. eigenvalues --    2.78943   2.79955   2.86929   2.89780   3.34874
 Alpha virt. eigenvalues --    3.38914   3.47352   3.64751   3.74416
          Condensed to atoms (all electrons):
 Mulliken charges:
               1
     1  C   -0.057042
     2  C    0.151867
     3  O   -0.475085
     4  C    0.164486
     5  H    0.029291
     6  H    0.044094
     7  H    0.044094
     8  H    0.013250
     9  H    0.013250
    10  H    0.044418
    11  H    0.013687
    12  H    0.013687
 Sum of Mulliken charges =  -0.00000
 Mulliken charges with hydrogens summed into heavy atoms:
               1
     1  C    0.060437
     2  C    0.178368
     3  O   -0.475085
     4  C    0.236279
 Electronic spatial extent (au):  <R**2>=            370.2471
 Charge=             -0.0000 electrons
 Dipole moment (field-independent basis, Debye):
    X=              1.0558    Y=              0.7375    Z=              0.0000  Tot=              1.2879
 Unable to Open any file for archive entry.
 1\1\GINC-NODE05\SP\RCCSD(T)-FC\CC-pVDZ\C3H8O1\XUHJ\20-Dec-2023\0\\#T C
 CSD(T)/cc-pVDZ symm=veryloose\\CCOC\\0,1\C,0,-1.442928,-1.174743,0.\C,
 0,0.,-0.702817,0.\O,0,0.020687,0.703509,0.\C,0,1.309839,1.246346,0.\H,
 0,-1.492029,-2.277873,0.\H,0,-1.97038,-0.798092,-0.893466\H,0,-1.97038
 ,-0.798092,0.893466\H,0,0.536963,-1.095828,-0.892714\H,0,0.536963,-1.0
 95828,0.892714\H,0,1.212134,2.344657,0.\H,0,1.889885,0.940135,-0.89883
 4\H,0,1.889885,0.940135,0.898834\\Version=ES64L-G16RevC.01\State=1-A'\
 HF=-193.1180685\MP2=-193.7399249\MP3=-193.7826705\MP4D=-193.7983448\MP
 4DQ=-193.7877978\MP4SDQ=-193.7918953\CCSD=-193.7922168\CCSD(T)=-193.81
 00899\RMSD=6.099e-09\PG=CS [SG(C3H2O1),X(H6)]\\@
 The archive entry for this job was punched.


 ALMOST ANYTHING IS EASIER TO GET INTO THAN OUT OF.

                         -- AGNES ALLEN'S LAW FROM
                PAUL DICKSON'S "THE OFFICIAL RULES"
 Job cpu time:       0 days  0 hours  3 minutes  2.0 seconds.
 Elapsed time:       0 days  0 hours  0 minutes 12.5 seconds.
 File lengths (MBytes):  RWF=    237 Int=      0 D2E=      0 Chk=      2 Scr=      2
 Normal termination of Gaussian 16 at Wed Dec 20 01:38:40 2023.
 Initial command:
 /home/software/g16/l1.exe "/home/software/g16tmp/Gau-112243.inp" -scrdir="/home/software/g16tmp/"
 Default is to use a total of   8 processors:
                                8 via shared-memory
                                1 via Linda
 Entering Link 1 = /home/software/g16/l1.exe PID=    113091.
  
 Copyright (c) 1988-2019, Gaussian, Inc.  All Rights Reserved.
  
 This is part of the Gaussian(R) 16 program.  It is based on
 the Gaussian(R) 09 system (copyright 2009, Gaussian, Inc.),
 the Gaussian(R) 03 system (copyright 2003, Gaussian, Inc.),
 the Gaussian(R) 98 system (copyright 1998, Gaussian, Inc.),
 the Gaussian(R) 94 system (copyright 1995, Gaussian, Inc.),
 the Gaussian 92(TM) system (copyright 1992, Gaussian, Inc.),
 the Gaussian 90(TM) system (copyright 1990, Gaussian, Inc.),
 the Gaussian 88(TM) system (copyright 1988, Gaussian, Inc.),
 the Gaussian 86(TM) system (copyright 1986, Carnegie Mellon
 University), and the Gaussian 82(TM) system (copyright 1983,
 Carnegie Mellon University). Gaussian is a federally registered
 trademark of Gaussian, Inc.
  
 This software contains proprietary and confidential information,
 including trade secrets, belonging to Gaussian, Inc.
  
 This software is provided under written license and may be
 used, copied, transmitted, or stored only in accord with that
 written license.
  
 The following legend is applicable only to US Government
 contracts under FAR:
  
                    RESTRICTED RIGHTS LEGEND
  
 Use, reproduction and disclosure by the US Government is
 subject to restrictions as set forth in subparagraphs (a)
 and (c) of the Commercial Computer Software - Restricted
 Rights clause in FAR 52.227-19.
  
 Gaussian, Inc.
 340 Quinnipiac St., Bldg. 40, Wallingford CT 06492
  
  
 ---------------------------------------------------------------
 Warning -- This program may not be used in any manner that
 competes with the business of Gaussian, Inc. or will provide
 assistance to any competitor of Gaussian, Inc.  The licensee
 of this program is prohibited from giving any competitor of
 Gaussian, Inc. access to this program.  By using this program,
 the user acknowledges that Gaussian, Inc. is engaged in the
 business of creating and licensing software in the field of
 computational chemistry and represents and warrants to the
 licensee that it is not a competitor of Gaussian, Inc. and that
 it will not use this program in any manner prohibited above.
 ---------------------------------------------------------------
  

 Cite this work as:
 Gaussian 16, Revision C.01,
 M. J. Frisch, G. W. Trucks, H. B. Schlegel, G. E. Scuseria, 
 M. A. Robb, J. R. Cheeseman, G. Scalmani, V. Barone, 
 G. A. Petersson, H. Nakatsuji, X. Li, M. Caricato, A. V. Marenich, 
 J. Bloino, B. G. Janesko, R. Gomperts, B. Mennucci, H. P. Hratchian, 
 J. V. Ortiz, A. F. Izmaylov, J. L. Sonnenberg, D. Williams-Young, 
 F. Ding, F. Lipparini, F. Egidi, J. Goings, B. Peng, A. Petrone, 
 T. Henderson, D. Ranasinghe, V. G. Zakrzewski, J. Gao, N. Rega, 
 G. Zheng, W. Liang, M. Hada, M. Ehara, K. Toyota, R. Fukuda, 
 J. Hasegawa, M. Ishida, T. Nakajima, Y. Honda, O. Kitao, H. Nakai, 
 T. Vreven, K. Throssell, J. A. Montgomery, Jr., J. E. Peralta, 
 F. Ogliaro, M. J. Bearpark, J. J. Heyd, E. N. Brothers, K. N. Kudin, 
 V. N. Staroverov, T. A. Keith, R. Kobayashi, J. Normand, 
 K. Raghavachari, A. P. Rendell, J. C. Burant, S. S. Iyengar, 
 J. Tomasi, M. Cossi, J. M. Millam, M. Klene, C. Adamo, R. Cammi, 
 J. W. Ochterski, R. L. Martin, K. Morokuma, O. Farkas, 
 J. B. Foresman, and D. J. Fox, Gaussian, Inc., Wallingford CT, 2019.
 
 ******************************************
 Gaussian 16:  ES64L-G16RevC.01  3-Jul-2019
                20-Dec-2023 
 ******************************************
 %nprocshared=16
 Will use up to   16 processors via shared memory.
 %mem=16000MB
 %chk=XOBKSJJDNFUZPF-UHFFFAOYSA-N.chk
 -----------------------------------------------
 #T CCSD(T)/cc-pVTZ symm=veryloose geom=allcheck
 -----------------------------------------------
 Structure from the checkpoint file:  "XOBKSJJDNFUZPF-UHFFFAOYSA-N.chk"
 ----
 CCOC
 ----
 Charge =  0 Multiplicity = 1
 Z-Matrix found in chk file.
 C,0,-1.442928,-1.174743,0.
 C,0,0.,-0.702817,0.
 O,0,0.020687,0.703509,0.
 C,0,1.309839,1.246346,0.
 H,0,-1.492029,-2.277873,0.
 H,0,-1.97038,-0.798092,-0.893466
 H,0,-1.97038,-0.798092,0.893466
 H,0,0.536963,-1.095828,-0.892714
 H,0,0.536963,-1.095828,0.892714
 H,0,1.212134,2.344657,0.
 H,0,1.889885,0.940135,-0.898834
 H,0,1.889885,0.940135,0.898834
 Recover connectivity data from disk.
                    Distance matrix (angstroms):
                    1          2          3          4          5
     1  C    0.000000
     2  C    1.518142   0.000000
     3  O    2.381176   1.406478   0.000000
     4  C    3.665978   2.348386   1.398780   0.000000
     5  H    1.104222   2.169551   3.343194   4.502287   0.000000
     6  H    1.103790   2.165584   2.649044   3.967095   1.793559
     7  H    1.103790   2.165584   2.649044   3.967095   1.793559
     8  H    2.173277   1.113429   2.073908   2.622986   2.512166
     9  H    2.173277   1.113429   2.073908   2.622986   2.512166
    10  H    4.408575   3.279690   2.028032   1.102648   5.355397
    11  H    4.048241   2.660613   2.087533   1.112709   4.754032
    12  H    4.048241   2.660613   2.087533   1.112709   4.754032
                    6          7          8          9         10
     6  H    0.000000
     7  H    1.786932   0.000000
     8  H    2.524959   3.092872   0.000000
     9  H    3.092872   2.524959   1.785428   0.000000
    10  H    4.561091   4.561091   3.617973   3.617973   0.000000
    11  H    4.233569   4.597327   2.444500   3.030707   1.799981
    12  H    4.597327   4.233569   3.030707   2.444500   1.799981
                   11         12
    11  H    0.000000
    12  H    1.797668   0.000000
 Framework group  CS[SG(C3H2O),X(H6)]
 Deg. of freedom    18
                         Standard orientation:                         
 ---------------------------------------------------------------------
 Center     Atomic      Atomic             Coordinates (Angstroms)
 Number     Number       Type             X           Y           Z
 ---------------------------------------------------------------------
      1          6           0       -1.442928    1.174743    0.000000
      2          6           0        0.000000    0.702817    0.000000
      3          8           0        0.020687   -0.703509    0.000000
      4          6           0        1.309839   -1.246346    0.000000
      5          1           0       -1.492029    2.277873    0.000000
      6          1           0       -1.970380    0.798092    0.893466
      7          1           0       -1.970380    0.798092   -0.893466
      8          1           0        0.536963    1.095828    0.892714
      9          1           0        0.536963    1.095828   -0.892714
     10          1           0        1.212134   -2.344657    0.000000
     11          1           0        1.889885   -0.940135    0.898834
     12          1           0        1.889885   -0.940135   -0.898834
 ---------------------------------------------------------------------
 Rotational constants (GHZ):          28.2646383           4.1439644           3.8831103
   232 basis functions,   344 primitive gaussians,   260 cartesian basis functions
    17 alpha electrons       17 beta electrons
       nuclear repulsion energy       133.3935583830 Hartrees.
 NAtoms=   12 NActive=   12 NUniq=    9 SFac= 1.78D+00 NAtFMM=   60 NAOKFM=F Big=F
 ExpMin= 1.03D-01 ExpMax= 1.53D+04 ExpMxC= 5.22D+02 IAcc=3 IRadAn=         5 AccDes= 0.00D+00
 Harris functional with IExCor=  205 and IRadAn=       5 diagonalized for initial guess.
 HarFok:  IExCor=  205 AccDes= 0.00D+00 IRadAn=         5 IDoV= 1 UseB2=F ITyADJ=14
 ICtDFT=  3500011 ScaDFX=  1.000000  1.000000  1.000000  1.000000
 FoFCou: FMM=F IPFlag=           0 FMFlag=      100000 FMFlg1=           0
         NFxFlg=           0 DoJE=T BraDBF=F KetDBF=T FulRan=T
         wScrn=  0.000000 ICntrl=       500 IOpCl=  0 I1Cent=   200000004 NGrid=           0
         NMat0=    1 NMatS0=      1 NMatT0=    0 NMatD0=    1 NMtDS0=    0 NMtDT0=    0
 Petite list used in FoFCou.
 Initial guess orbital symmetries:
       Occupied  (A') (A') (A') (A') (A') (A') (A') (A') (A') (A")
                 (A') (A") (A') (A') (A") (A') (A")
       Virtual   (A') (A') (A') (A") (A') (A') (A') (A") (A') (A")
                 (A') (A') (A") (A") (A') (A') (A") (A') (A') (A')
                 (A") (A') (A') (A") (A') (A') (A") (A") (A') (A')
                 (A') (A') (A') (A") (A") (A') (A") (A') (A') (A")
                 (A") (A') (A') (A") (A") (A') (A") (A') (A') (A")
                 (A') (A') (A") (A") (A') (A') (A") (A') (A') (A')
                 (A") (A") (A') (A') (A") (A') (A") (A') (A') (A')
                 (A') (A") (A') (A') (A") (A') (A') (A") (A') (A")
                 (A") (A') (A') (A') (A') (A") (A') (A') (A') (A")
                 (A') (A') (A') (A") (A') (A") (A") (A") (A') (A")
                 (A") (A') (A') (A") (A') (A") (A') (A") (A') (A")
                 (A') (A") (A') (A") (A') (A') (A") (A') (A") (A")
                 (A") (A') (A') (A") (A') (A") (A") (A') (A') (A")
                 (A') (A') (A") (A') (A') (A") (A') (A") (A') (A')
                 (A") (A") (A') (A') (A') (A') (A") (A') (A") (A')
                 (A") (A') (A') (A") (A") (A') (A') (A") (A') (A")
                 (A') (A") (A') (A') (A') (A") (A') (A") (A') (A')
                 (A") (A') (A') (A") (A") (A') (A') (A") (A') (A")
                 (A') (A") (A') (A') (A") (A") (A') (A') (A") (A')
                 (A') (A') (A") (A') (A") (A') (A") (A') (A") (A')
                 (A") (A") (A") (A') (A') (A') (A') (A") (A") (A')
                 (A') (A') (A') (A') (A')
 The electronic state of the initial guess is 1-A'.
 SCF Done:  E(RHF) =  -193.177587750     A.U. after   11 cycles
            NFock= 11  Conv=0.32D-08     -V/T= 2.0021
 ExpMin= 1.03D-01 ExpMax= 1.53D+04 ExpMxC= 5.22D+02 IAcc=3 IRadAn=         5 AccDes= 0.00D+00
 HarFok:  IExCor=  205 AccDes= 0.00D+00 IRadAn=         5 IDoV=-2 UseB2=F ITyADJ=14
 ICtDFT= 12500011 ScaDFX=  1.000000  1.000000  1.000000  1.000000
 NROrb=    228 NOA=    13 NOB=    13 NVA=   215 NVB=   215

 **** Warning!!: The largest alpha MO coefficient is  0.11159026D+02

 Semi-Direct transformation.
 ModeAB=           4 MOrb=            13 LenV=    2095697348
 LASXX=     37177305 LTotXX=    37177305 LenRXX=    74867170
 LTotAB=    37689865 MaxLAS=    71002620 LenRXY=           0
 NonZer=   112044475 LenScr=   168427520 LnRSAI=    71002620
 LnScr1=   106954752 LExtra=           0 Total=    421252062
 MaxDsk=          -1 SrtSym=           T ITran=            4
 JobTyp=0 Pass  1:  I=   1 to  13.
 (rs|ai) integrals will be sorted in core.
 ANorm=    0.1104050142D+01
 E2 =    -0.7722779259D+00 EUMP2 =    -0.19394986567586D+03
 CIDS: In Core Option IDoMem=           1.
 Produce multiple copies of IABC intergrals
 MP4(R+Q)=  0.16539008D-01
 E3=       -0.35274090D-01        EUMP3=      -0.19398513977D+03
 E4(DQ)=   -0.27526784D-03        UMP4(DQ)=   -0.19398541503D+03
 E4(SDQ)=  -0.61836317D-02        UMP4(SDQ)=  -0.19399132340D+03
 DE(Corr)= -0.79076266     E(Corr)=     -193.96835041    
 NORM(A)=   0.11130173D+01
 DE(Corr)= -0.80951618     E(CORR)=     -193.98710393     Delta=-1.88D-02
 NORM(A)=   0.11208585D+01
 DE(Corr)= -0.81128095     E(CORR)=     -193.98886870     Delta=-1.76D-03
 NORM(A)=   0.11222274D+01
 DE(Corr)= -0.81259300     E(CORR)=     -193.99018075     Delta=-1.31D-03
 NORM(A)=   0.11225084D+01
 DE(Corr)= -0.81271374     E(CORR)=     -193.99030149     Delta=-1.21D-04
 NORM(A)=   0.11225748D+01
 DE(Corr)= -0.81272594     E(CORR)=     -193.99031369     Delta=-1.22D-05
 NORM(A)=   0.11225770D+01
 DE(Corr)= -0.81272644     E(CORR)=     -193.99031419     Delta=-5.04D-07
 NORM(A)=   0.11225766D+01
 DE(Corr)= -0.81272561     E(CORR)=     -193.99031336     Delta= 8.28D-07
 NORM(A)=   0.11225780D+01
 DE(Corr)= -0.81272555     E(CORR)=     -193.99031330     Delta= 6.02D-08
 NORM(A)=   0.11225785D+01
 Wavefunction amplitudes converged. E(Corr)=     -193.99031330    
 Largest amplitude= 1.51D-02
 Time for triples=     3521.36 seconds.
 T4(CCSD)= -0.31059813D-01
 T5(CCSD)=  0.97830793D-03
 CCSD(T)= -0.19402039481D+03
 Discarding MO integrals.

 **********************************************************************

            Population analysis using the SCF Density.

 **********************************************************************

 Orbital symmetries:
       Occupied  (A') (A') (A') (A') (A') (A') (A') (A') (A") (A')
                 (A') (A") (A') (A') (A") (A') (A")
       Virtual   (A') (A') (A') (A") (A') (A') (A") (A") (A') (A')
                 (A') (A') (A") (A") (A') (A") (A') (A') (A') (A")
                 (A') (A') (A') (A") (A') (A') (A") (A') (A") (A')
                 (A') (A') (A') (A") (A') (A") (A') (A") (A') (A")
                 (A") (A') (A') (A") (A") (A') (A") (A') (A") (A')
                 (A') (A") (A') (A') (A") (A') (A") (A') (A') (A')
                 (A") (A") (A') (A') (A") (A") (A') (A') (A') (A')
                 (A") (A') (A') (A') (A") (A') (A") (A') (A') (A")
                 (A") (A') (A') (A') (A') (A") (A') (A') (A') (A")
                 (A') (A') (A') (A") (A") (A") (A') (A") (A") (A')
                 (A") (A') (A") (A') (A") (A') (A') (A") (A') (A')
                 (A") (A") (A") (A') (A') (A") (A') (A') (A") (A")
                 (A") (A') (A") (A') (A') (A") (A") (A') (A') (A")
                 (A') (A') (A") (A') (A') (A") (A") (A') (A') (A')
                 (A") (A") (A') (A') (A') (A') (A") (A') (A") (A")
                 (A') (A') (A") (A") (A') (A') (A") (A') (A') (A")
                 (A') (A") (A') (A') (A') (A") (A') (A") (A') (A')
                 (A") (A') (A") (A") (A') (A') (A') (A") (A') (A")
                 (A') (A") (A') (A") (A') (A") (A') (A') (A") (A')
                 (A') (A") (A') (A') (A") (A') (A") (A') (A") (A')
                 (A") (A") (A") (A') (A') (A') (A') (A") (A") (A')
                 (A') (A') (A') (A') (A')
 The electronic state is 1-A'.
 Alpha  occ. eigenvalues --  -20.55226 -11.27597 -11.27198 -11.21731  -1.37691
 Alpha  occ. eigenvalues --   -1.02150  -0.90936  -0.82493  -0.66614  -0.65437
 Alpha  occ. eigenvalues --   -0.62483  -0.57657  -0.53230  -0.50557  -0.49727
 Alpha  occ. eigenvalues --   -0.47258  -0.41742
 Alpha virt. eigenvalues --    0.14193   0.15991   0.19509   0.19670   0.21788
 Alpha virt. eigenvalues --    0.23030   0.23781   0.25488   0.26175   0.33360
 Alpha virt. eigenvalues --    0.34841   0.37623   0.39397   0.41073   0.45118
 Alpha virt. eigenvalues --    0.47591   0.52203   0.54586   0.57182   0.58509
 Alpha virt. eigenvalues --    0.61901   0.63079   0.63324   0.63531   0.64580
 Alpha virt. eigenvalues --    0.66112   0.66380   0.68091   0.69599   0.70415
 Alpha virt. eigenvalues --    0.75636   0.80732   0.81971   0.88754   0.91972
 Alpha virt. eigenvalues --    0.93581   0.95895   0.97405   1.03708   1.06807
 Alpha virt. eigenvalues --    1.08338   1.12901   1.14980   1.17390   1.18562
 Alpha virt. eigenvalues --    1.21242   1.22048   1.24221   1.27155   1.27624
 Alpha virt. eigenvalues --    1.28933   1.31899   1.33035   1.35550   1.36750
 Alpha virt. eigenvalues --    1.40606   1.40846   1.42588   1.46433   1.48938
 Alpha virt. eigenvalues --    1.50047   1.52881   1.54170   1.56404   1.58651
 Alpha virt. eigenvalues --    1.59248   1.60006   1.63169   1.67124   1.75088
 Alpha virt. eigenvalues --    1.75258   1.77537   1.88021   1.95734   2.20900
 Alpha virt. eigenvalues --    2.21971   2.30813   2.32346   2.46434   2.50149
 Alpha virt. eigenvalues --    2.52745   2.59050   2.61591   2.62720   2.68474
 Alpha virt. eigenvalues --    2.70017   2.74500   2.79656   2.82964   2.88257
 Alpha virt. eigenvalues --    2.89915   2.96193   3.04763   3.05638   3.08036
 Alpha virt. eigenvalues --    3.08809   3.09975   3.12742   3.13632   3.16065
 Alpha virt. eigenvalues --    3.22641   3.22812   3.25628   3.26104   3.28061
 Alpha virt. eigenvalues --    3.29363   3.31439   3.32978   3.33011   3.38994
 Alpha virt. eigenvalues --    3.39123   3.40503   3.44104   3.45761   3.48694
 Alpha virt. eigenvalues --    3.54426   3.54441   3.57398   3.60090   3.61646
 Alpha virt. eigenvalues --    3.63525   3.69649   3.71682   3.72854   3.73843
 Alpha virt. eigenvalues --    3.74239   3.76120   3.76449   3.79836   3.80342
 Alpha virt. eigenvalues --    3.83747   3.87419   3.90400   3.92992   3.96674
 Alpha virt. eigenvalues --    3.96910   4.05808   4.07435   4.10422   4.11825
 Alpha virt. eigenvalues --    4.12249   4.16153   4.16853   4.18410   4.22894
 Alpha virt. eigenvalues --    4.26645   4.27183   4.31816   4.33348   4.35798
 Alpha virt. eigenvalues --    4.36412   4.36876   4.38095   4.38930   4.41447
 Alpha virt. eigenvalues --    4.45938   4.49807   4.51454   4.53919   4.60040
 Alpha virt. eigenvalues --    4.61067   4.63531   4.69821   4.74844   4.78370
 Alpha virt. eigenvalues --    4.80293   4.87704   4.94657   4.98532   5.05522
 Alpha virt. eigenvalues --    5.09378   5.13439   5.14591   5.17217   5.17989
 Alpha virt. eigenvalues --    5.20925   5.27349   5.29343   5.31618   5.33420
 Alpha virt. eigenvalues --    5.39694   5.43298   5.49724   5.53046   5.54867
 Alpha virt. eigenvalues --    5.55284   5.58153   5.63616   5.64210   5.68563
 Alpha virt. eigenvalues --    5.71022   5.81167   5.84223   5.90328   5.90506
 Alpha virt. eigenvalues --    6.09779   6.19604   6.21761   6.23889   6.25276
 Alpha virt. eigenvalues --    6.28099   6.45539   6.56058   6.68737   6.83315
 Alpha virt. eigenvalues --    6.90742   7.30251   7.34699   7.52051   7.85720
 Alpha virt. eigenvalues --    7.89032  11.16301  13.02440  13.67972  13.97642
          Condensed to atoms (all electrons):
 Mulliken charges:
               1
     1  C   -0.257472
     2  C    0.090784
     3  O   -0.348865
     4  C   -0.047959
     5  H    0.078831
     6  H    0.092903
     7  H    0.092903
     8  H    0.046867
     9  H    0.046867
    10  H    0.100883
    11  H    0.052130
    12  H    0.052130
 Sum of Mulliken charges =  -0.00000
 Mulliken charges with hydrogens summed into heavy atoms:
               1
     1  C    0.007164
     2  C    0.184517
     3  O   -0.348865
     4  C    0.157183
 Electronic spatial extent (au):  <R**2>=            370.5163
 Charge=             -0.0000 electrons
 Dipole moment (field-independent basis, Debye):
    X=              1.0120    Y=              0.7420    Z=             -0.0000  Tot=              1.2549
 Unable to Open any file for archive entry.
 1\1\GINC-NODE05\SP\RCCSD(T)-FC\CC-pVTZ\C3H8O1\XUHJ\20-Dec-2023\0\\#T C
 CSD(T)/cc-pVTZ symm=veryloose geom=allcheck\\CCOC\\0,1\C,0,-1.442928,-
 1.174743,0.\C,0,0.,-0.702817,0.\O,0,0.020687,0.703509,0.\C,0,1.309839,
 1.246346,0.\H,0,-1.492029,-2.277873,0.\H,0,-1.97038,-0.798092,-0.89346
 6\H,0,-1.97038,-0.798092,0.893466\H,0,0.536963,-1.095828,-0.892714\H,0
 ,0.536963,-1.095828,0.892714\H,0,1.212134,2.344657,0.\H,0,1.889885,0.9
 40135,-0.898834\H,0,1.889885,0.940135,0.898834\\Version=ES64L-G16RevC.
 01\State=1-A'\HF=-193.1775877\MP2=-193.9498657\MP3=-193.9851398\MP4D=-
 194.001954\MP4DQ=-193.985415\MP4SDQ=-193.9913234\CCSD=-193.9903133\CCS
 D(T)=-194.0203948\RMSD=3.220e-09\PG=CS [SG(C3H2O1),X(H6)]\\@
 The archive entry for this job was punched.


 I think that all right-thinking people in this
 country are sick and tired of being told that
 ordinary, decent people are fed up in this country
 with being sick and tired.  I'm certainly not!
 But I'm sick and tired of being told that I am!
                               -- Monty Python
 Job cpu time:       0 days  1 hours 32 minutes 20.8 seconds.
 Elapsed time:       0 days  0 hours  5 minutes 55.1 seconds.
 File lengths (MBytes):  RWF=   3312 Int=      0 D2E=      0 Chk=      6 Scr=      2
 Normal termination of Gaussian 16 at Wed Dec 20 01:44:46 2023.
