%nprocshared=16
%mem=56000MB
%chk=YNPNZTXNASCQKK-UHFFFAOYSA-N.chk
#T CCSD(T)/cc-pVDZ symm=veryloose

c1ccc2c(c1)ccc1ccccc12

0 1
C        -0.000000       3.564824      -0.298913
C        -0.000000       2.883680      -1.532782
C         0.000000       1.498566      -1.567687
C        -0.000000       0.728751      -0.379216
C        -0.000000       1.424624       0.868195
C        -0.000000       2.840703       0.879706
C        -0.000000       0.681258       2.097056
C        -0.000000      -0.681258       2.097056
C        -0.000000      -1.424624       0.868195
C        -0.000000      -2.840703       0.879706
C        -0.000000      -3.564824      -0.298913
C        -0.000000      -2.883680      -1.532782
C        -0.000000      -1.498566      -1.567687
C        -0.000000      -0.728751      -0.379216
H        -0.000000       4.658515      -0.275436
H        -0.000000       3.449639      -2.469033
H         0.000000       0.999994      -2.538497
H        -0.000000       3.356051       1.845257
H        -0.000000       1.237302       3.039548
H        -0.000000      -1.237302       3.039548
H        -0.000000      -3.356051       1.845257
H        -0.000000      -4.658515      -0.275436
H        -0.000000      -3.449639      -2.469033
H        -0.000000      -0.999994      -2.538497


--link1--
%nprocshared=16
%mem=56000MB
%chk=YNPNZTXNASCQKK-UHFFFAOYSA-N.chk
#T CCSD(T)/cc-pVTZ symm=veryloose geom=allcheck

