 Entering Gaussian System, Link 0=g16
 Initial command:
 /opt/g16/l1.exe "/tmp/Gau-2262129.inp" -scrdir="/tmp/"
 Entering Link 1 = /opt/g16/l1.exe PID=   2262131.
  
 Copyright (c) 1988-2019, Gaussian, Inc.  All Rights Reserved.
  
 This is part of the Gaussian(R) 16 program.  It is based on
 the Gaussian(R) 09 system (copyright 2009, Gaussian, Inc.),
 the Gaussian(R) 03 system (copyright 2003, Gaussian, Inc.),
 the Gaussian(R) 98 system (copyright 1998, Gaussian, Inc.),
 the Gaussian(R) 94 system (copyright 1995, Gaussian, Inc.),
 the Gaussian 92(TM) system (copyright 1992, Gaussian, Inc.),
 the Gaussian 90(TM) system (copyright 1990, Gaussian, Inc.),
 the Gaussian 88(TM) system (copyright 1988, Gaussian, Inc.),
 the Gaussian 86(TM) system (copyright 1986, Carnegie Mellon
 University), and the Gaussian 82(TM) system (copyright 1983,
 Carnegie Mellon University). Gaussian is a federally registered
 trademark of Gaussian, Inc.
  
 This software contains proprietary and confidential information,
 including trade secrets, belonging to Gaussian, Inc.
  
 This software is provided under written license and may be
 used, copied, transmitted, or stored only in accord with that
 written license.
  
 The following legend is applicable only to US Government
 contracts under FAR:
  
                    RESTRICTED RIGHTS LEGEND
  
 Use, reproduction and disclosure by the US Government is
 subject to restrictions as set forth in subparagraphs (a)
 and (c) of the Commercial Computer Software - Restricted
 Rights clause in FAR 52.227-19.
  
 Gaussian, Inc.
 340 Quinnipiac St., Bldg. 40, Wallingford CT 06492
  
  
 ---------------------------------------------------------------
 Warning -- This program may not be used in any manner that
 competes with the business of Gaussian, Inc. or will provide
 assistance to any competitor of Gaussian, Inc.  The licensee
 of this program is prohibited from giving any competitor of
 Gaussian, Inc. access to this program.  By using this program,
 the user acknowledges that Gaussian, Inc. is engaged in the
 business of creating and licensing software in the field of
 computational chemistry and represents and warrants to the
 licensee that it is not a competitor of Gaussian, Inc. and that
 it will not use this program in any manner prohibited above.
 ---------------------------------------------------------------
  

 Cite this work as:
 Gaussian 16, Revision C.01,
 M. J. Frisch, G. W. Trucks, H. B. Schlegel, G. E. Scuseria, 
 M. A. Robb, J. R. Cheeseman, G. Scalmani, V. Barone, 
 G. A. Petersson, H. Nakatsuji, X. Li, M. Caricato, A. V. Marenich, 
 J. Bloino, B. G. Janesko, R. Gomperts, B. Mennucci, H. P. Hratchian, 
 J. V. Ortiz, A. F. Izmaylov, J. L. Sonnenberg, D. Williams-Young, 
 F. Ding, F. Lipparini, F. Egidi, J. Goings, B. Peng, A. Petrone, 
 T. Henderson, D. Ranasinghe, V. G. Zakrzewski, J. Gao, N. Rega, 
 G. Zheng, W. Liang, M. Hada, M. Ehara, K. Toyota, R. Fukuda, 
 J. Hasegawa, M. Ishida, T. Nakajima, Y. Honda, O. Kitao, H. Nakai, 
 T. Vreven, K. Throssell, J. A. Montgomery, Jr., J. E. Peralta, 
 F. Ogliaro, M. J. Bearpark, J. J. Heyd, E. N. Brothers, K. N. Kudin, 
 V. N. Staroverov, T. A. Keith, R. Kobayashi, J. Normand, 
 K. Raghavachari, A. P. Rendell, J. C. Burant, S. S. Iyengar, 
 J. Tomasi, M. Cossi, J. M. Millam, M. Klene, C. Adamo, R. Cammi, 
 J. W. Ochterski, R. L. Martin, K. Morokuma, O. Farkas, 
 J. B. Foresman, and D. J. Fox, Gaussian, Inc., Wallingford CT, 2019.
 
 ******************************************
 Gaussian 16:  ES64L-G16RevC.01  3-Jul-2019
                 6-Nov-2024 
 ******************************************
 %nprocshared=16
 Will use up to   16 processors via shared memory.
 %mem=1600MB
 ------------------------------------------------------------------
 #T ROMP2/cc-pVDZ symm=veryloose scf(nodiis,maxcyc=3000,vshift=300)
 ------------------------------------------------------------------
 ------
 [C]C-2
 ------
 Symbolic Z-matrix:
 Charge =  0 Multiplicity = 2
 C                    -0.86905  -0.12158   0.34483 
 C                     0.47646   0.05299  -0.15029 
 H                     0.1831    0.4139   -1.17542 
 H                     1.08646  -0.86628  -0.30058 
 H                     1.08599   0.86389   0.30872 
 
                    Distance matrix (angstroms):
                    1          2          3          4          5
     1  C    0.000000
     2  C    1.444305   0.000000
     3  H    1.924819   1.125706   0.000000
     4  H    2.189784   1.113437   1.794506   0.000000
     5  H    2.189663   1.113448   1.794543   1.834318   0.000000
 This structure is nearly, but not quite of a higher symmetry.
 Consider Symm=Loose if the higher symmetry is desired.
 Framework group  C1[X(C2H3)]
 Deg. of freedom     9
                         Standard orientation:                         
 ---------------------------------------------------------------------
 Center     Atomic      Atomic             Coordinates (Angstroms)
 Number     Number       Type             X           Y           Z
 ---------------------------------------------------------------------
      1          6           0       -0.375915    0.189580    0.843616
      2          6           0        0.234488   -0.097415   -0.433514
      3          1           0       -0.728303   -0.225779   -1.002522
      4          1           0        0.788820   -1.058431   -0.527884
      5          1           0        0.788043    0.731221   -0.930208
 ---------------------------------------------------------------------
 Rotational constants (GHZ):         156.2454770          29.0191053          28.7606024
    43 basis functions,    87 primitive gaussians,    45 cartesian basis functions
     8 alpha electrons        7 beta electrons
       nuclear repulsion energy        27.1414121722 Hartrees.
 NAtoms=    5 NActive=    5 NUniq=    5 SFac= 1.00D+00 NAtFMM=   60 NAOKFM=F Big=F
 ExpMin= 1.22D-01 ExpMax= 6.67D+03 ExpMxC= 2.28D+02 IAcc=3 IRadAn=         5 AccDes= 0.00D+00
 Harris functional with IExCor=  205 and IRadAn=       5 diagonalized for initial guess.
 HarFok:  IExCor=  205 AccDes= 0.00D+00 IRadAn=         5 IDoV= 1 UseB2=F ITyADJ=14
 ICtDFT=  3500011 ScaDFX=  1.000000  1.000000  1.000000  1.000000
 FoFCou: FMM=F IPFlag=           0 FMFlag=      100000 FMFlg1=           0
         NFxFlg=           0 DoJE=T BraDBF=F KetDBF=T FulRan=T
         wScrn=  0.000000 ICntrl=       500 IOpCl=  0 I1Cent=   200000004 NGrid=           0
         NMat0=    1 NMatS0=      1 NMatT0=    0 NMatD0=    1 NMtDS0=    0 NMtDT0=    0
 Petite list used in FoFCou.
 SCF Done:  E(ROHF) =  -77.3269854024     A.U. after   19 cycles
            NFock= 19  Conv=0.87D-08     -V/T= 2.0010
 <Sx>= 0.0000 <Sy>= 0.0000 <Sz>= 0.5000 <S**2>= 0.7500 S= 0.5000
 <L.S>=  0.00000000000    
 Annihilation of the first spin contaminant:
 S**2 before annihilation     0.7500,   after     0.7500
 GenMOA:  NOpAll=  1 NOp2=1 NOpUse=  1 JSym2X=0
 <Sx>= 0.0000 <Sy>= 0.0000 <Sz>= 0.5000 <S**2>= 0.7500 S= 0.5000
 ExpMin= 1.22D-01 ExpMax= 6.67D+03 ExpMxC= 2.28D+02 IAcc=3 IRadAn=         5 AccDes= 0.00D+00
 HarFok:  IExCor=  205 AccDes= 0.00D+00 IRadAn=         5 IDoV=-2 UseB2=F ITyADJ=14
 ICtDFT= 12500011 ScaDFX=  1.000000  1.000000  1.000000  1.000000
 NROrb=     41 NOA=     6 NOB=     5 NVA=    35 NVB=    36
 Singles contribution to E2=   -0.2737388529D-02
 ANorm=    0.1041270316D+01
 E2 =    -0.2291400749D+00 EUMP2 =    -0.77556125477217D+02

 **********************************************************************

            Population analysis using the SCF Density.

 **********************************************************************

 Orbital symmetries:
       Occupied  (A) (A) (A) (A) (A) (A) (A) (A)
       Virtual   (A) (A) (A) (A) (A) (A) (A) (A) (A) (A) (A) (A)
                 (A) (A) (A) (A) (A) (A) (A) (A) (A) (A) (A) (A)
                 (A) (A) (A) (A) (A) (A) (A) (A) (A) (A) (A)
 The electronic state is 2-A.
 Alpha  occ. eigenvalues --  -11.28795 -11.25397  -1.05376  -0.74910  -0.61060
 Alpha  occ. eigenvalues --   -0.58037  -0.44881  -0.35441
 Alpha virt. eigenvalues --    0.08816   0.18276   0.23833   0.24819   0.37915
 Alpha virt. eigenvalues --    0.59198   0.62128   0.65172   0.69862   0.75693
 Alpha virt. eigenvalues --    0.77568   0.82533   0.84532   0.87852   0.99525
 Alpha virt. eigenvalues --    1.10836   1.11106   1.36523   1.39296   1.40940
 Alpha virt. eigenvalues --    1.61938   1.63574   1.71176   1.85520   1.87588
 Alpha virt. eigenvalues --    1.96522   2.02518   2.09691   2.22985   2.28419
 Alpha virt. eigenvalues --    2.40335   2.47318   2.64966   2.72420   2.77804
          Condensed to atoms (all electrons):
          Atomic-Atomic Spin Densities.
 Mulliken charges and spin densities:
               1          2
     1  C   -0.115812   0.948780
     2  C   -0.100863   0.011748
     3  H    0.082154  -0.000013
     4  H    0.067260   0.019743
     5  H    0.067260   0.019743
 Sum of Mulliken charges =  -0.00000   1.00000
 Mulliken charges and spin densities with hydrogens summed into heavy atoms:
               1          2
     1  C   -0.115812   0.948780
     2  C    0.115812   0.051220
 Electronic spatial extent (au):  <R**2>=             76.3620
 Charge=             -0.0000 electrons
 Dipole moment (field-independent basis, Debye):
    X=              0.9141    Y=             -0.4856    Z=             -2.1606  Tot=              2.3957
                          Isotropic Fermi Contact Couplings
        Atom                 a.u.       MegaHertz       Gauss      10(-4) cm-1
     1  C(13)              0.00000       0.00000       0.00000       0.00000
     2  C(13)              0.00000       0.00000       0.00000       0.00000
     3  H(1)               0.00000       0.00000       0.00000       0.00000
     4  H(1)               0.01160      51.84683      18.50024      17.29424
     5  H(1)               0.01160      51.84877      18.50093      17.29489
 --------------------------------------------------------
       Center         ----  Spin Dipole Couplings  ----
                      3XX-RR        3YY-RR        3ZZ-RR
 --------------------------------------------------------
     1   Atom       -0.601767      1.114940     -0.513173
     2   Atom       -0.021802     -0.006446      0.028248
     3   Atom       -0.013060     -0.009848      0.022908
     4   Atom       -0.001696     -0.000115      0.001810
     5   Atom       -0.001708     -0.006915      0.008623
 --------------------------------------------------------
                        XY            XZ            YZ
 --------------------------------------------------------
     1   Atom       -0.000873     -0.000380     -0.385816
     2   Atom       -0.007806     -0.034677      0.008203
     3   Atom        0.001715      0.007626      0.007764
     4   Atom       -0.010748     -0.011163      0.009254
     5   Atom        0.004938     -0.014685     -0.005129
 --------------------------------------------------------


 ---------------------------------------------------------------------------------
              Anisotropic Spin Dipole Couplings in Principal Axis System
 ---------------------------------------------------------------------------------

       Atom             a.u.   MegaHertz   Gauss  10(-4) cm-1        Axes

              Baa    -0.6019   -80.773   -28.822   -26.943  0.9610  0.0611  0.2696
     1 C(13)  Bbb    -0.5998   -80.489   -28.720   -26.848 -0.2765  0.2108  0.9376
              Bcc     1.2017   161.262    57.542    53.791 -0.0004  0.9756 -0.2195
 
              Baa    -0.0399    -5.349    -1.909    -1.784  0.8915  0.0998  0.4419
     2 C(13)  Bbb    -0.0083    -1.112    -0.397    -0.371 -0.0004  0.9756 -0.2195
              Bcc     0.0482     6.461     2.306     2.155 -0.4530  0.1955  0.8698
 
              Baa    -0.0146    -7.798    -2.783    -2.601  0.9808 -0.0426 -0.1905
     3 H(1)   Bbb    -0.0116    -6.187    -2.208    -2.064 -0.0003  0.9756 -0.2195
              Bcc     0.0262    13.985     4.990     4.665  0.1952  0.2153  0.9568
 
              Baa    -0.0124    -6.615    -2.360    -2.207  0.8197  0.4556  0.3472
     4 H(1)   Bbb    -0.0084    -4.489    -1.602    -1.497  0.0817 -0.6929  0.7164
              Bcc     0.0208    11.104     3.962     3.704 -0.5670  0.5588  0.6052
 
              Baa    -0.0124    -6.616    -2.361    -2.207  0.8199 -0.2625  0.5087
     5 H(1)   Bbb    -0.0084    -4.489    -1.602    -1.497  0.0811  0.9329  0.3508
              Bcc     0.0208    11.106     3.963     3.704 -0.5667 -0.2463  0.7863
 

 ---------------------------------------------------------------------------------

 Unable to Open any file for archive entry.
 1\1\GINC-NODE01\SP\ROMP2-FC\CC-pVDZ\C2H3(2)\XUHJ\06-Nov-2024\0\\#T ROM
 P2/cc-pVDZ symm=veryloose scf(nodiis,maxcyc=3000,vshift=300)\\[C]C-2\\
 0,2\C,0,-0.869051,-0.121575,0.344834\C,0,0.47646,0.052991,-0.150287\H,
 0,0.1831,0.413897,-1.175421\H,0,1.086456,-0.86628,-0.30058\H,0,1.08599
 1,0.863885,0.308723\\Version=ES64L-G16RevC.01\State=2-A\HF=-77.3269854
 \MP2=-77.5561255\RMSD=8.721e-09\PG=C01 [X(C2H3)]\\@
 The archive entry for this job was punched.


 IN THE UNIVERSE THE DIFFICULT THINGS ARE DONE AS IF THEY WERE EASY.

                                                          -- LAO-TSU
 Job cpu time:       0 days  0 hours  0 minutes  9.8 seconds.
 Elapsed time:       0 days  0 hours  0 minutes  0.6 seconds.
 File lengths (MBytes):  RWF=      6 Int=      0 D2E=      0 Chk=      1 Scr=      1
 Normal termination of Gaussian 16 at Wed Nov  6 14:36:46 2024.
