%nprocshared=8
%mem=10400MB
#T MP2/cc-pVDZ symm=veryloose

c1ccc2cc3cc4c(ccc5c6ccccc6ccc45)cc3cc2c1

0 1
C        -1.395348      -6.971402      -0.000000
C         0.035202      -6.957574      -0.000000
C         0.718362      -5.769147      -0.000000
C         0.021722      -4.516286      -0.000000
C         0.691834      -3.290383       0.000000
C        -0.001822      -2.064409      -0.000000
C         0.673077      -0.818824       0.000000
C        -0.000000       0.398152       0.000000
C        -1.450584       0.372671      -0.000000
C        -2.160576       1.621392      -0.000000
C        -1.503331       2.812182      -0.000000
C        -0.062832       2.891145       0.000000
C         0.616598       4.170389       0.000000
C        -0.070074       5.414928       0.000000
C         0.612778       6.617012       0.000000
C         2.025532       6.640113       0.000000
C         2.725158       5.450406       0.000000
C         2.047484       4.203952       0.000000
C         2.766558       2.973893       0.000000
C         2.111913       1.771469       0.000000
C         0.686103       1.692071       0.000000
C        -2.129630      -0.840438      -0.000000
C        -1.450251      -2.079767      -0.000000
C        -2.122592      -3.317491      -0.000000
C        -1.429454      -4.530293      -0.000000
C        -2.101611      -5.796599      -0.000000
H        -1.923024      -7.929757      -0.000000
H         0.581387      -7.905482      -0.000000
H         1.812731      -5.756024       0.000000
H         1.786571      -3.280429       0.000000
H         1.763695      -0.849744       0.000000
H        -3.254399       1.595245      -0.000000
H        -2.089177       3.731495      -0.000000
H        -1.160410       5.437664      -0.000000
H         0.053313       7.557143       0.000000
H         2.558043       7.595636       0.000000
H         3.819610       5.449539       0.000000
H         3.860304       3.004933       0.000000
H         2.703445       0.855426       0.000000
H        -3.224172      -0.837282      -0.000000
H        -3.217207      -3.326549      -0.000000
H        -3.196012      -5.804771      -0.000000


