 Entering Gaussian System, Link 0=g16
 Initial command:
 /home/software/g16/l1.exe "/home/software/g16tmp/Gau-149472.inp" -scrdir="/home/software/g16tmp/"
 Default is to use a total of   8 processors:
                                8 via shared-memory
                                1 via Linda
 Entering Link 1 = /home/software/g16/l1.exe PID=    149473.
  
 Copyright (c) 1988-2019, Gaussian, Inc.  All Rights Reserved.
  
 This is part of the Gaussian(R) 16 program.  It is based on
 the Gaussian(R) 09 system (copyright 2009, Gaussian, Inc.),
 the Gaussian(R) 03 system (copyright 2003, Gaussian, Inc.),
 the Gaussian(R) 98 system (copyright 1998, Gaussian, Inc.),
 the Gaussian(R) 94 system (copyright 1995, Gaussian, Inc.),
 the Gaussian 92(TM) system (copyright 1992, Gaussian, Inc.),
 the Gaussian 90(TM) system (copyright 1990, Gaussian, Inc.),
 the Gaussian 88(TM) system (copyright 1988, Gaussian, Inc.),
 the Gaussian 86(TM) system (copyright 1986, Carnegie Mellon
 University), and the Gaussian 82(TM) system (copyright 1983,
 Carnegie Mellon University). Gaussian is a federally registered
 trademark of Gaussian, Inc.
  
 This software contains proprietary and confidential information,
 including trade secrets, belonging to Gaussian, Inc.
  
 This software is provided under written license and may be
 used, copied, transmitted, or stored only in accord with that
 written license.
  
 The following legend is applicable only to US Government
 contracts under FAR:
  
                    RESTRICTED RIGHTS LEGEND
  
 Use, reproduction and disclosure by the US Government is
 subject to restrictions as set forth in subparagraphs (a)
 and (c) of the Commercial Computer Software - Restricted
 Rights clause in FAR 52.227-19.
  
 Gaussian, Inc.
 340 Quinnipiac St., Bldg. 40, Wallingford CT 06492
  
  
 ---------------------------------------------------------------
 Warning -- This program may not be used in any manner that
 competes with the business of Gaussian, Inc. or will provide
 assistance to any competitor of Gaussian, Inc.  The licensee
 of this program is prohibited from giving any competitor of
 Gaussian, Inc. access to this program.  By using this program,
 the user acknowledges that Gaussian, Inc. is engaged in the
 business of creating and licensing software in the field of
 computational chemistry and represents and warrants to the
 licensee that it is not a competitor of Gaussian, Inc. and that
 it will not use this program in any manner prohibited above.
 ---------------------------------------------------------------
  

 Cite this work as:
 Gaussian 16, Revision C.01,
 M. J. Frisch, G. W. Trucks, H. B. Schlegel, G. E. Scuseria, 
 M. A. Robb, J. R. Cheeseman, G. Scalmani, V. Barone, 
 G. A. Petersson, H. Nakatsuji, X. Li, M. Caricato, A. V. Marenich, 
 J. Bloino, B. G. Janesko, R. Gomperts, B. Mennucci, H. P. Hratchian, 
 J. V. Ortiz, A. F. Izmaylov, J. L. Sonnenberg, D. Williams-Young, 
 F. Ding, F. Lipparini, F. Egidi, J. Goings, B. Peng, A. Petrone, 
 T. Henderson, D. Ranasinghe, V. G. Zakrzewski, J. Gao, N. Rega, 
 G. Zheng, W. Liang, M. Hada, M. Ehara, K. Toyota, R. Fukuda, 
 J. Hasegawa, M. Ishida, T. Nakajima, Y. Honda, O. Kitao, H. Nakai, 
 T. Vreven, K. Throssell, J. A. Montgomery, Jr., J. E. Peralta, 
 F. Ogliaro, M. J. Bearpark, J. J. Heyd, E. N. Brothers, K. N. Kudin, 
 V. N. Staroverov, T. A. Keith, R. Kobayashi, J. Normand, 
 K. Raghavachari, A. P. Rendell, J. C. Burant, S. S. Iyengar, 
 J. Tomasi, M. Cossi, J. M. Millam, M. Klene, C. Adamo, R. Cammi, 
 J. W. Ochterski, R. L. Martin, K. Morokuma, O. Farkas, 
 J. B. Foresman, and D. J. Fox, Gaussian, Inc., Wallingford CT, 2019.
 
 ******************************************
 Gaussian 16:  ES64L-G16RevC.01  3-Jul-2019
                20-Dec-2023 
 ******************************************
 %nprocshared=16
 Will use up to   16 processors via shared memory.
 %mem=960MB
 -----------------------------
 #T MP2/cc-pVDZ symm=veryloose
 -----------------------------
 ---
 CCC
 ---
 Symbolic Z-matrix:
 Charge =  0 Multiplicity = 1
 C                     0.        1.27647  -0.25917 
 C                     0.        0.        0.58496 
 C                     0.       -1.27647  -0.25917 
 H                     0.        2.18248   0.37321 
 H                    -0.89143   1.32272  -0.91232 
 H                     0.89143   1.32272  -0.91232 
 H                    -0.88337   0.        1.25154 
 H                     0.88337   0.        1.25154 
 H                    -0.89143  -1.32272  -0.91232 
 H                     0.       -2.18248   0.37321 
 H                     0.89143  -1.32272  -0.91232 
 
                    Distance matrix (angstroms):
                    1          2          3          4          5
     1  C    0.000000
     2  C    1.530340   0.000000
     3  C    2.552948   1.530340   0.000000
     4  H    1.104875   2.192727   3.516285   0.000000
     5  H    1.106070   2.187712   2.824372   1.785052   0.000000
     6  H    1.106070   2.187712   2.824372   1.785052   1.782864
     7  H    2.166094   1.106645   2.166094   2.512969   2.536125
     8  H    2.166094   1.106645   2.166094   2.512969   3.095444
     9  H    2.824372   2.187712   1.106070   3.838447   2.645446
    10  H    3.516285   2.192727   1.104875   4.364958   3.838447
    11  H    2.824372   2.187712   1.106070   3.838447   3.190139
                    6          7          8          9         10
     6  H    0.000000
     7  H    3.095444   0.000000
     8  H    2.536125   1.766734   0.000000
     9  H    3.190139   2.536125   3.095444   0.000000
    10  H    3.838447   2.512969   2.512969   1.785052   0.000000
    11  H    2.645446   3.095444   2.536125   1.782864   1.785052
                   11
    11  H    0.000000
 Framework group  C2V[C2(C),SGV(C2H2),SGV'(H2),X(H4)]
 Deg. of freedom     9
                         Standard orientation:                         
 ---------------------------------------------------------------------
 Center     Atomic      Atomic             Coordinates (Angstroms)
 Number     Number       Type             X           Y           Z
 ---------------------------------------------------------------------
      1          6           0        0.000000    1.276474   -0.259168
      2          6           0       -0.000000   -0.000000    0.584962
      3          6           0       -0.000000   -1.276474   -0.259168
      4          1           0        0.000000    2.182479    0.373212
      5          1           0       -0.891432    1.322723   -0.912315
      6          1           0        0.891432    1.322723   -0.912315
      7          1           0       -0.883367    0.000000    1.251540
      8          1           0        0.883367   -0.000000    1.251540
      9          1           0       -0.891432   -1.322723   -0.912315
     10          1           0       -0.000000   -2.182479    0.373212
     11          1           0        0.891432   -1.322723   -0.912315
 ---------------------------------------------------------------------
 Rotational constants (GHZ):          29.2392081           8.3484395           7.4029430
    82 basis functions,   155 primitive gaussians,    85 cartesian basis functions
    13 alpha electrons       13 beta electrons
       nuclear repulsion energy        82.0381541730 Hartrees.
 NAtoms=   11 NActive=   11 NUniq=    5 SFac= 4.00D+00 NAtFMM=   60 NAOKFM=F Big=F
 ExpMin= 1.22D-01 ExpMax= 6.67D+03 ExpMxC= 2.28D+02 IAcc=3 IRadAn=         5 AccDes= 0.00D+00
 Harris functional with IExCor=  205 and IRadAn=       5 diagonalized for initial guess.
 HarFok:  IExCor=  205 AccDes= 0.00D+00 IRadAn=         5 IDoV= 1 UseB2=F ITyADJ=14
 ICtDFT=  3500011 ScaDFX=  1.000000  1.000000  1.000000  1.000000
 FoFCou: FMM=F IPFlag=           0 FMFlag=      100000 FMFlg1=           0
         NFxFlg=           0 DoJE=T BraDBF=F KetDBF=T FulRan=T
         wScrn=  0.000000 ICntrl=       500 IOpCl=  0 I1Cent=   200000004 NGrid=           0
         NMat0=    1 NMatS0=      1 NMatT0=    0 NMatD0=    1 NMtDS0=    0 NMtDT0=    0
 Petite list used in FoFCou.
 Initial guess orbital symmetries:
       Occupied  (B2) (A1) (A1) (A1) (B2) (A1) (B1) (A1) (B2) (A2)
                 (B2) (A1) (B1)
       Virtual   (A1) (B1) (A1) (B2) (A1) (B2) (B1) (A2) (A1) (B2)
                 (A1) (B1) (B2) (A2) (A1) (A1) (B2) (B1) (B2) (A1)
                 (B2) (B1) (A2) (B1) (A1) (A1) (B2) (A2) (A1) (A1)
                 (B2) (A2) (B1) (B2) (A1) (B1) (A2) (A1) (B2) (A1)
                 (B1) (A2) (B2) (B1) (A1) (B2) (A1) (B1) (A2) (B1)
                 (B2) (A1) (B2) (A2) (A1) (B2) (A1) (B1) (A1) (A2)
                 (B2) (A1) (B1) (B2) (B2) (A1) (A1) (A2) (B1)
 The electronic state of the initial guess is 1-A1.
 SCF Done:  E(RHF) =  -118.271714822     A.U. after   10 cycles
            NFock= 10  Conv=0.91D-08     -V/T= 2.0027
 ExpMin= 1.22D-01 ExpMax= 6.67D+03 ExpMxC= 2.28D+02 IAcc=3 IRadAn=         5 AccDes= 0.00D+00
 HarFok:  IExCor=  205 AccDes= 0.00D+00 IRadAn=         5 IDoV=-2 UseB2=F ITyADJ=14
 ICtDFT= 12500011 ScaDFX=  1.000000  1.000000  1.000000  1.000000
 NROrb=     79 NOA=    10 NOB=    10 NVA=    69 NVB=    69
 ANorm=    0.1073882336D+01
 E2 =    -0.4464081594D+00 EUMP2 =    -0.11871812298118D+03

 **********************************************************************

            Population analysis using the SCF Density.

 **********************************************************************

 Orbital symmetries:
       Occupied  (A1) (B2) (A1) (A1) (B2) (A1) (B1) (A1) (B2) (A2)
                 (B2) (A1) (B1)
       Virtual   (A1) (B2) (A1) (B1) (A1) (B1) (B2) (A2) (A1) (B2)
                 (A1) (B1) (A2) (B2) (A1) (B2) (B1) (A1) (B2) (B2)
                 (B1) (A2) (B1) (A1) (A1) (A1) (B2) (A1) (A2) (A1)
                 (B2) (A2) (B1) (B2) (A1) (A1) (B1) (A2) (A1) (B2)
                 (B1) (A2) (B1) (B2) (A1) (A2) (B1) (B2) (A1) (B1)
                 (B2) (A1) (B2) (A2) (A1) (B2) (A1) (B1) (A1) (B2)
                 (A2) (A1) (B1) (B2) (B2) (A1) (A1) (A2) (B1)
 The electronic state is 1-A1.
 Alpha  occ. eigenvalues --  -11.22640 -11.22159 -11.22154  -1.04951  -0.92127
 Alpha  occ. eigenvalues --   -0.79512  -0.61822  -0.59302  -0.54628  -0.52586
 Alpha  occ. eigenvalues --   -0.47405  -0.47230  -0.46324
 Alpha virt. eigenvalues --    0.18157   0.22843   0.23193   0.23357   0.26374
 Alpha virt. eigenvalues --    0.28248   0.29049   0.30208   0.36980   0.42436
 Alpha virt. eigenvalues --    0.57197   0.59667   0.61559   0.61611   0.63824
 Alpha virt. eigenvalues --    0.80400   0.81492   0.84724   0.87046   0.88715
 Alpha virt. eigenvalues --    0.89245   0.89307   0.89449   0.90575   0.90605
 Alpha virt. eigenvalues --    0.94130   0.96194   1.12549   1.12604   1.19212
 Alpha virt. eigenvalues --    1.36240   1.46278   1.46660   1.50929   1.60369
 Alpha virt. eigenvalues --    1.68070   1.68553   1.69014   1.84627   1.86676
 Alpha virt. eigenvalues --    1.87781   1.90007   1.93056   1.93268   1.95889
 Alpha virt. eigenvalues --    1.96072   1.96267   1.96572   1.97690   2.02777
 Alpha virt. eigenvalues --    2.10571   2.12306   2.29170   2.30441   2.32029
 Alpha virt. eigenvalues --    2.32699   2.46519   2.49640   2.57344   2.57468
 Alpha virt. eigenvalues --    2.58349   2.71794   2.74274   2.74399   2.79892
 Alpha virt. eigenvalues --    2.88127   2.95865   2.96541   3.01892
          Condensed to atoms (all electrons):
 Mulliken charges:
               1
     1  C   -0.062038
     2  C   -0.118893
     3  C   -0.062038
     4  H    0.032617
     5  H    0.030395
     6  H    0.030395
     7  H    0.028079
     8  H    0.028079
     9  H    0.030395
    10  H    0.032617
    11  H    0.030395
 Sum of Mulliken charges =  -0.00000
 Mulliken charges with hydrogens summed into heavy atoms:
               1
     1  C    0.031368
     2  C   -0.062736
     3  C    0.031368
 Electronic spatial extent (au):  <R**2>=            229.2302
 Charge=             -0.0000 electrons
 Dipole moment (field-independent basis, Debye):
    X=              0.0000    Y=             -0.0000    Z=              0.0668  Tot=              0.0668
 Unable to Open any file for archive entry.
 1\1\GINC-NODE05\SP\RMP2-FC\CC-pVDZ\C3H8\XUHJ\20-Dec-2023\0\\#T MP2/cc-
 pVDZ symm=veryloose\\CCC\\0,1\C,0,0.,1.276474,-0.259168\C,0,0.,0.,0.58
 4962\C,0,0.,-1.276474,-0.259168\H,0,0.,2.182479,0.373212\H,0,-0.891432
 ,1.322723,-0.912315\H,0,0.891432,1.322723,-0.912315\H,0,-0.883367,0.,1
 .25154\H,0,0.883367,0.,1.25154\H,0,-0.891432,-1.322723,-0.912315\H,0,0
 .,-2.182479,0.373212\H,0,0.891432,-1.322723,-0.912315\\Version=ES64L-G
 16RevC.01\State=1-A1\HF=-118.2717148\MP2=-118.718123\RMSD=9.148e-09\PG
 =C02V [C2(C1),SGV(C2H2),SGV'(H2),X(H4)]\\@
 The archive entry for this job was punched.


 IT'S WHAT YOU LEARN AFTER YOU KNOW IT ALL
 THAT COUNTS.
 Job cpu time:       0 days  0 hours  0 minutes 13.2 seconds.
 Elapsed time:       0 days  0 hours  0 minutes  1.1 seconds.
 File lengths (MBytes):  RWF=     22 Int=      0 D2E=      0 Chk=      2 Scr=      2
 Normal termination of Gaussian 16 at Wed Dec 20 12:21:18 2023.
