 Entering Gaussian System, Link 0=g16
 Initial command:
 /home/software/g16/l1.exe "/home/software/g16tmp/Gau-151144.inp" -scrdir="/home/software/g16tmp/"
 Default is to use a total of   8 processors:
                                8 via shared-memory
                                1 via Linda
 Entering Link 1 = /home/software/g16/l1.exe PID=    151147.
  
 Copyright (c) 1988-2019, Gaussian, Inc.  All Rights Reserved.
  
 This is part of the Gaussian(R) 16 program.  It is based on
 the Gaussian(R) 09 system (copyright 2009, Gaussian, Inc.),
 the Gaussian(R) 03 system (copyright 2003, Gaussian, Inc.),
 the Gaussian(R) 98 system (copyright 1998, Gaussian, Inc.),
 the Gaussian(R) 94 system (copyright 1995, Gaussian, Inc.),
 the Gaussian 92(TM) system (copyright 1992, Gaussian, Inc.),
 the Gaussian 90(TM) system (copyright 1990, Gaussian, Inc.),
 the Gaussian 88(TM) system (copyright 1988, Gaussian, Inc.),
 the Gaussian 86(TM) system (copyright 1986, Carnegie Mellon
 University), and the Gaussian 82(TM) system (copyright 1983,
 Carnegie Mellon University). Gaussian is a federally registered
 trademark of Gaussian, Inc.
  
 This software contains proprietary and confidential information,
 including trade secrets, belonging to Gaussian, Inc.
  
 This software is provided under written license and may be
 used, copied, transmitted, or stored only in accord with that
 written license.
  
 The following legend is applicable only to US Government
 contracts under FAR:
  
                    RESTRICTED RIGHTS LEGEND
  
 Use, reproduction and disclosure by the US Government is
 subject to restrictions as set forth in subparagraphs (a)
 and (c) of the Commercial Computer Software - Restricted
 Rights clause in FAR 52.227-19.
  
 Gaussian, Inc.
 340 Quinnipiac St., Bldg. 40, Wallingford CT 06492
  
  
 ---------------------------------------------------------------
 Warning -- This program may not be used in any manner that
 competes with the business of Gaussian, Inc. or will provide
 assistance to any competitor of Gaussian, Inc.  The licensee
 of this program is prohibited from giving any competitor of
 Gaussian, Inc. access to this program.  By using this program,
 the user acknowledges that Gaussian, Inc. is engaged in the
 business of creating and licensing software in the field of
 computational chemistry and represents and warrants to the
 licensee that it is not a competitor of Gaussian, Inc. and that
 it will not use this program in any manner prohibited above.
 ---------------------------------------------------------------
  

 Cite this work as:
 Gaussian 16, Revision C.01,
 M. J. Frisch, G. W. Trucks, H. B. Schlegel, G. E. Scuseria, 
 M. A. Robb, J. R. Cheeseman, G. Scalmani, V. Barone, 
 G. A. Petersson, H. Nakatsuji, X. Li, M. Caricato, A. V. Marenich, 
 J. Bloino, B. G. Janesko, R. Gomperts, B. Mennucci, H. P. Hratchian, 
 J. V. Ortiz, A. F. Izmaylov, J. L. Sonnenberg, D. Williams-Young, 
 F. Ding, F. Lipparini, F. Egidi, J. Goings, B. Peng, A. Petrone, 
 T. Henderson, D. Ranasinghe, V. G. Zakrzewski, J. Gao, N. Rega, 
 G. Zheng, W. Liang, M. Hada, M. Ehara, K. Toyota, R. Fukuda, 
 J. Hasegawa, M. Ishida, T. Nakajima, Y. Honda, O. Kitao, H. Nakai, 
 T. Vreven, K. Throssell, J. A. Montgomery, Jr., J. E. Peralta, 
 F. Ogliaro, M. J. Bearpark, J. J. Heyd, E. N. Brothers, K. N. Kudin, 
 V. N. Staroverov, T. A. Keith, R. Kobayashi, J. Normand, 
 K. Raghavachari, A. P. Rendell, J. C. Burant, S. S. Iyengar, 
 J. Tomasi, M. Cossi, J. M. Millam, M. Klene, C. Adamo, R. Cammi, 
 J. W. Ochterski, R. L. Martin, K. Morokuma, O. Farkas, 
 J. B. Foresman, and D. J. Fox, Gaussian, Inc., Wallingford CT, 2019.
 
 ******************************************
 Gaussian 16:  ES64L-G16RevC.01  3-Jul-2019
                20-Dec-2023 
 ******************************************
 %nprocshared=16
 Will use up to   16 processors via shared memory.
 %mem=1280MB
 -----------------------------
 #T MP2/cc-pVDZ symm=veryloose
 -----------------------------
 ----
 CCCO
 ----
 Symbolic Z-matrix:
 Charge =  0 Multiplicity = 1
 C                     1.53917  -0.51729   0.12655 
 C                     0.63508   0.64675  -0.28157 
 C                    -0.77418   0.54172   0.28529 
 O                    -1.37624  -0.63731  -0.21728 
 H                     2.54416  -0.42061  -0.32122 
 H                     1.10413  -1.47619  -0.20086 
 H                     1.66156  -0.55945   1.22526 
 H                     0.56021   0.69566  -1.38396 
 H                     1.07007   1.60795   0.05126 
 H                    -1.35756   1.44291  -0.00248 
 H                    -0.72382   0.52306   1.39663 
 H                    -2.24928  -0.74201   0.1919 
 
                    Distance matrix (angstroms):
                    1          2          3          4          5
     1  C    0.000000
     2  C    1.529352   0.000000
     3  C    2.549165   1.522619   0.000000
     4  O    2.938059   2.387119   1.416034   0.000000
     5  H    1.104475   2.187562   3.507892   3.927759   0.000000
     6  H    1.102706   2.175643   2.799348   2.618438   1.789537
     7  H    1.106303   2.186112   2.833530   3.363799   1.786016
     8  H    2.170542   1.106020   2.142594   2.624458   2.512280
     9  H    2.177689   1.106288   2.143093   3.331316   2.535099
    10  H    3.499998   2.163872   1.111432   2.091355   4.335629
    11  H    2.795804   2.162928   1.112631   2.092073   3.810673
    12  H    3.795669   3.236104   1.957704   0.969844   4.831531
                    6          7          8          9         10
     6  H    0.000000
     7  H    1.784643   0.000000
     8  H    2.532297   3.097787   0.000000
     9  H    3.094614   2.534902   1.775409   0.000000
    10  H    3.823660   3.825152   2.478850   2.433819   0.000000
    11  H    3.144896   2.625113   3.067610   2.490996   1.790321
    12  H    3.455236   4.049173   3.527532   4.069414   2.367868
                   11         12
    11  H    0.000000
    12  H    2.319217   0.000000
 Framework group  C1[X(C3H8O)]
 Deg. of freedom    30
                         Standard orientation:                         
 ---------------------------------------------------------------------
 Center     Atomic      Atomic             Coordinates (Angstroms)
 Number     Number       Type             X           Y           Z
 ---------------------------------------------------------------------
      1          6           0        1.539166   -0.517285    0.126554
      2          6           0        0.635081    0.646754   -0.281565
      3          6           0       -0.774177    0.541719    0.285294
      4          8           0       -1.376236   -0.637306   -0.217277
      5          1           0        2.544163   -0.420608   -0.321217
      6          1           0        1.104130   -1.476193   -0.200858
      7          1           0        1.661556   -0.559447    1.225257
      8          1           0        0.560211    0.695659   -1.383964
      9          1           0        1.070067    1.607946    0.051256
     10          1           0       -1.357555    1.442905   -0.002482
     11          1           0       -0.723824    0.523055    1.396628
     12          1           0       -2.249281   -0.742007    0.191901
 ---------------------------------------------------------------------
 Rotational constants (GHZ):          14.3128858           5.1231942           4.3156460
    96 basis functions,   188 primitive gaussians,   100 cartesian basis functions
    17 alpha electrons       17 beta electrons
       nuclear repulsion energy       132.3242786373 Hartrees.
 NAtoms=   12 NActive=   12 NUniq=   12 SFac= 1.00D+00 NAtFMM=   60 NAOKFM=F Big=F
 ExpMin= 1.22D-01 ExpMax= 1.17D+04 ExpMxC= 4.01D+02 IAcc=3 IRadAn=         5 AccDes= 0.00D+00
 Harris functional with IExCor=  205 and IRadAn=       5 diagonalized for initial guess.
 HarFok:  IExCor=  205 AccDes= 0.00D+00 IRadAn=         5 IDoV= 1 UseB2=F ITyADJ=14
 ICtDFT=  3500011 ScaDFX=  1.000000  1.000000  1.000000  1.000000
 FoFCou: FMM=F IPFlag=           0 FMFlag=      100000 FMFlg1=           0
         NFxFlg=           0 DoJE=T BraDBF=F KetDBF=T FulRan=T
         wScrn=  0.000000 ICntrl=       500 IOpCl=  0 I1Cent=   200000004 NGrid=           0
         NMat0=    1 NMatS0=      1 NMatT0=    0 NMatD0=    1 NMtDS0=    0 NMtDT0=    0
 Petite list used in FoFCou.
 SCF Done:  E(RHF) =  -193.128899271     A.U. after   11 cycles
            NFock= 11  Conv=0.84D-08     -V/T= 2.0017
 ExpMin= 1.22D-01 ExpMax= 1.17D+04 ExpMxC= 4.01D+02 IAcc=3 IRadAn=         5 AccDes= 0.00D+00
 HarFok:  IExCor=  205 AccDes= 0.00D+00 IRadAn=         5 IDoV=-2 UseB2=F ITyADJ=14
 ICtDFT= 12500011 ScaDFX=  1.000000  1.000000  1.000000  1.000000
 NROrb=     92 NOA=    13 NOB=    13 NVA=    79 NVB=    79
 ANorm=    0.1093587170D+01
 E2 =    -0.6255898873D+00 EUMP2 =    -0.19375448915869D+03

 **********************************************************************

            Population analysis using the SCF Density.

 **********************************************************************

 Orbital symmetries:
       Occupied  (A) (A) (A) (A) (A) (A) (A) (A) (A) (A) (A) (A)
                 (A) (A) (A) (A) (A)
       Virtual   (A) (A) (A) (A) (A) (A) (A) (A) (A) (A) (A) (A)
                 (A) (A) (A) (A) (A) (A) (A) (A) (A) (A) (A) (A)
                 (A) (A) (A) (A) (A) (A) (A) (A) (A) (A) (A) (A)
                 (A) (A) (A) (A) (A) (A) (A) (A) (A) (A) (A) (A)
                 (A) (A) (A) (A) (A) (A) (A) (A) (A) (A) (A) (A)
                 (A) (A) (A) (A) (A) (A) (A) (A) (A) (A) (A) (A)
                 (A) (A) (A) (A) (A) (A) (A)
 The electronic state is 1-A.
 Alpha  occ. eigenvalues --  -20.55129 -11.27763 -11.22414 -11.21623  -1.35295
 Alpha  occ. eigenvalues --   -1.04239  -0.91110  -0.78910  -0.69598  -0.63487
 Alpha  occ. eigenvalues --   -0.57862  -0.57474  -0.53127  -0.49502  -0.47651
 Alpha  occ. eigenvalues --   -0.46110  -0.43196
 Alpha virt. eigenvalues --    0.17865   0.21308   0.22815   0.23293   0.26242
 Alpha virt. eigenvalues --    0.27189   0.28994   0.30341   0.37891   0.39064
 Alpha virt. eigenvalues --    0.42430   0.59414   0.61666   0.62105   0.66497
 Alpha virt. eigenvalues --    0.73337   0.77740   0.80637   0.83489   0.86282
 Alpha virt. eigenvalues --    0.87180   0.88859   0.89672   0.90053   0.91231
 Alpha virt. eigenvalues --    0.91636   0.93871   0.95963   1.13384   1.14626
 Alpha virt. eigenvalues --    1.16977   1.26222   1.31697   1.36892   1.44285
 Alpha virt. eigenvalues --    1.46335   1.46738   1.54221   1.60217   1.62752
 Alpha virt. eigenvalues --    1.69915   1.70295   1.79079   1.86149   1.86796
 Alpha virt. eigenvalues --    1.88824   1.90689   1.92799   1.94177   1.94802
 Alpha virt. eigenvalues --    1.96242   1.98153   1.99644   2.01173   2.05695
 Alpha virt. eigenvalues --    2.09837   2.17602   2.20619   2.27364   2.31861
 Alpha virt. eigenvalues --    2.36243   2.40007   2.47723   2.51526   2.55790
 Alpha virt. eigenvalues --    2.56817   2.61036   2.70695   2.74358   2.78540
 Alpha virt. eigenvalues --    2.85251   2.89705   2.93624   2.99066   3.32405
 Alpha virt. eigenvalues --    3.40956   3.46807   3.61776   4.11232
          Condensed to atoms (all electrons):
 Mulliken charges:
               1
     1  C   -0.060490
     2  C   -0.104196
     3  C    0.181290
     4  O   -0.383349
     5  H    0.030943
     6  H    0.053058
     7  H    0.024739
     8  H    0.038176
     9  H    0.023176
    10  H    0.017290
    11  H    0.011610
    12  H    0.167752
 Sum of Mulliken charges =  -0.00000
 Mulliken charges with hydrogens summed into heavy atoms:
               1
     1  C    0.048251
     2  C   -0.042844
     3  C    0.210191
     4  O   -0.215597
 Electronic spatial extent (au):  <R**2>=            341.1567
 Charge=             -0.0000 electrons
 Dipole moment (field-independent basis, Debye):
    X=             -0.7909    Y=              0.9336    Z=              1.0400  Tot=              1.6059
 Unable to Open any file for archive entry.
 1\1\GINC-NODE05\SP\RMP2-FC\CC-pVDZ\C3H8O1\XUHJ\20-Dec-2023\0\\#T MP2/c
 c-pVDZ symm=veryloose\\CCCO\\0,1\C,0,1.539166,-0.517285,0.126554\C,0,0
 .635081,0.646754,-0.281565\C,0,-0.774177,0.541719,0.285294\O,0,-1.3762
 36,-0.637306,-0.217277\H,0,2.544163,-0.420608,-0.321217\H,0,1.10413,-1
 .476193,-0.200858\H,0,1.661556,-0.559447,1.225257\H,0,0.560211,0.69565
 9,-1.383964\H,0,1.070067,1.607946,0.051256\H,0,-1.357555,1.442905,-0.0
 02482\H,0,-0.723824,0.523055,1.396628\H,0,-2.249281,-0.742007,0.191901
 \\Version=ES64L-G16RevC.01\State=1-A\HF=-193.1288993\MP2=-193.7544892\
 RMSD=8.378e-09\PG=C01 [X(C3H8O1)]\\@
 The archive entry for this job was punched.


 HE THAT WALD REACHE THE SWEITE ROSE
 SULD NOW AND THEN BE SCRATCHED WT THE SCHARPE BREERES.
 -- PROVERBS AND REASONS OF THE YEAR 1585
           AS REPRINTED IN PAISLEY MAGAZINE 1828.
 Job cpu time:       0 days  0 hours  0 minutes 16.8 seconds.
 Elapsed time:       0 days  0 hours  0 minutes  1.4 seconds.
 File lengths (MBytes):  RWF=     22 Int=      0 D2E=      0 Chk=      2 Scr=      2
 Normal termination of Gaussian 16 at Wed Dec 20 12:21:23 2023.
