%nprocshared=16
%mem=1280MB
#T MP2/cc-pVDZ symm=veryloose

CCCO

0 1
C         1.539166      -0.517285       0.126554
C         0.635081       0.646754      -0.281565
C        -0.774177       0.541719       0.285294
O        -1.376236      -0.637306      -0.217277
H         2.544163      -0.420608      -0.321217
H         1.104130      -1.476193      -0.200858
H         1.661556      -0.559447       1.225257
H         0.560211       0.695659      -1.383964
H         1.070067       1.607946       0.051256
H        -1.357555       1.442905      -0.002482
H        -0.723824       0.523055       1.396628
H        -2.249281      -0.742007       0.191901


