 Entering Gaussian System, Link 0=g16
 Initial command:
 /opt/g16/l1.exe "/tmp/Gau-598562.inp" -scrdir="/tmp/"
 Entering Link 1 = /opt/g16/l1.exe PID=    598564.
  
 Copyright (c) 1988-2019, Gaussian, Inc.  All Rights Reserved.
  
 This is part of the Gaussian(R) 16 program.  It is based on
 the Gaussian(R) 09 system (copyright 2009, Gaussian, Inc.),
 the Gaussian(R) 03 system (copyright 2003, Gaussian, Inc.),
 the Gaussian(R) 98 system (copyright 1998, Gaussian, Inc.),
 the Gaussian(R) 94 system (copyright 1995, Gaussian, Inc.),
 the Gaussian 92(TM) system (copyright 1992, Gaussian, Inc.),
 the Gaussian 90(TM) system (copyright 1990, Gaussian, Inc.),
 the Gaussian 88(TM) system (copyright 1988, Gaussian, Inc.),
 the Gaussian 86(TM) system (copyright 1986, Carnegie Mellon
 University), and the Gaussian 82(TM) system (copyright 1983,
 Carnegie Mellon University). Gaussian is a federally registered
 trademark of Gaussian, Inc.
  
 This software contains proprietary and confidential information,
 including trade secrets, belonging to Gaussian, Inc.
  
 This software is provided under written license and may be
 used, copied, transmitted, or stored only in accord with that
 written license.
  
 The following legend is applicable only to US Government
 contracts under FAR:
  
                    RESTRICTED RIGHTS LEGEND
  
 Use, reproduction and disclosure by the US Government is
 subject to restrictions as set forth in subparagraphs (a)
 and (c) of the Commercial Computer Software - Restricted
 Rights clause in FAR 52.227-19.
  
 Gaussian, Inc.
 340 Quinnipiac St., Bldg. 40, Wallingford CT 06492
  
  
 ---------------------------------------------------------------
 Warning -- This program may not be used in any manner that
 competes with the business of Gaussian, Inc. or will provide
 assistance to any competitor of Gaussian, Inc.  The licensee
 of this program is prohibited from giving any competitor of
 Gaussian, Inc. access to this program.  By using this program,
 the user acknowledges that Gaussian, Inc. is engaged in the
 business of creating and licensing software in the field of
 computational chemistry and represents and warrants to the
 licensee that it is not a competitor of Gaussian, Inc. and that
 it will not use this program in any manner prohibited above.
 ---------------------------------------------------------------
  

 Cite this work as:
 Gaussian 16, Revision C.01,
 M. J. Frisch, G. W. Trucks, H. B. Schlegel, G. E. Scuseria, 
 M. A. Robb, J. R. Cheeseman, G. Scalmani, V. Barone, 
 G. A. Petersson, H. Nakatsuji, X. Li, M. Caricato, A. V. Marenich, 
 J. Bloino, B. G. Janesko, R. Gomperts, B. Mennucci, H. P. Hratchian, 
 J. V. Ortiz, A. F. Izmaylov, J. L. Sonnenberg, D. Williams-Young, 
 F. Ding, F. Lipparini, F. Egidi, J. Goings, B. Peng, A. Petrone, 
 T. Henderson, D. Ranasinghe, V. G. Zakrzewski, J. Gao, N. Rega, 
 G. Zheng, W. Liang, M. Hada, M. Ehara, K. Toyota, R. Fukuda, 
 J. Hasegawa, M. Ishida, T. Nakajima, Y. Honda, O. Kitao, H. Nakai, 
 T. Vreven, K. Throssell, J. A. Montgomery, Jr., J. E. Peralta, 
 F. Ogliaro, M. J. Bearpark, J. J. Heyd, E. N. Brothers, K. N. Kudin, 
 V. N. Staroverov, T. A. Keith, R. Kobayashi, J. Normand, 
 K. Raghavachari, A. P. Rendell, J. C. Burant, S. S. Iyengar, 
 J. Tomasi, M. Cossi, J. M. Millam, M. Klene, C. Adamo, R. Cammi, 
 J. W. Ochterski, R. L. Martin, K. Morokuma, O. Farkas, 
 J. B. Foresman, and D. J. Fox, Gaussian, Inc., Wallingford CT, 2019.
 
 ******************************************
 Gaussian 16:  ES64L-G16RevC.01  3-Jul-2019
                 5-Nov-2024 
 ******************************************
 %nprocshared=16
 Will use up to   16 processors via shared memory.
 %mem=2400MB
 -----------------------------
 #T MP2/cc-pVDZ symm=veryloose
 -----------------------------
 ------
 C1=CO1
 ------
 Symbolic Z-matrix:
 Charge =  0 Multiplicity = 1
 O                     0.        0.        0.87517 
 C                     0.        0.63495  -0.45359 
 C                     0.       -0.63495  -0.45359 
 H                     0.        1.66759  -0.77915 
 H                     0.       -1.66759  -0.77915 
 
                    Distance matrix (angstroms):
                    1          2          3          4          5
     1  O    0.000000
     2  C    1.472663   0.000000
     3  C    1.472663   1.269896   0.000000
     4  H    2.348960   1.082748   2.325442   0.000000
     5  H    2.348960   2.325442   1.082748   3.335184   0.000000
 Framework group  C2V[C2(O),SGV(C2H2)]
 Deg. of freedom     4
                         Standard orientation:                         
 ---------------------------------------------------------------------
 Center     Atomic      Atomic             Coordinates (Angstroms)
 Number     Number       Type             X           Y           Z
 ---------------------------------------------------------------------
      1          8           0        0.000000   -0.000000    0.875165
      2          6           0        0.000000    0.634948   -0.453585
      3          6           0       -0.000000   -0.634948   -0.453585
      4          1           0        0.000000    1.667592   -0.779147
      5          1           0       -0.000000   -1.667592   -0.779147
 ---------------------------------------------------------------------
 Rotational constants (GHZ):          33.0722439          27.5327835          15.0246765
    52 basis functions,   113 primitive gaussians,    55 cartesian basis functions
    11 alpha electrons       11 beta electrons
       nuclear repulsion energy        61.8562625732 Hartrees.
 NAtoms=    5 NActive=    5 NUniq=    3 SFac= 2.78D+00 NAtFMM=   60 NAOKFM=F Big=F
 ExpMin= 1.22D-01 ExpMax= 1.17D+04 ExpMxC= 4.01D+02 IAcc=3 IRadAn=         5 AccDes= 0.00D+00
 Harris functional with IExCor=  205 and IRadAn=       5 diagonalized for initial guess.
 HarFok:  IExCor=  205 AccDes= 0.00D+00 IRadAn=         5 IDoV= 1 UseB2=F ITyADJ=14
 ICtDFT=  3500011 ScaDFX=  1.000000  1.000000  1.000000  1.000000
 FoFCou: FMM=F IPFlag=           0 FMFlag=      100000 FMFlg1=           0
         NFxFlg=           0 DoJE=T BraDBF=F KetDBF=T FulRan=T
         wScrn=  0.000000 ICntrl=       500 IOpCl=  0 I1Cent=   200000004 NGrid=           0
         NMat0=    1 NMatS0=      1 NMatT0=    0 NMatD0=    1 NMtDS0=    0 NMtDT0=    0
 Petite list used in FoFCou.
 Initial guess orbital symmetries:
       Occupied  (A1) (A1) (B2) (A1) (A1) (B2) (A1) (B1) (A1) (B2)
                 (B1)
       Virtual   (A2) (A1) (B2) (B2) (A1) (B2) (A1) (B1) (A1) (B2)
                 (A2) (B2) (A1) (A1) (B2) (A1) (B1) (B1) (B2) (A1)
                 (B1) (B2) (A2) (A1) (B2) (A2) (B2) (A1) (B1) (A1)
                 (A1) (B2) (A2) (B2) (A1) (A2) (B1) (A1) (B2) (A1)
                 (B2)
 The electronic state of the initial guess is 1-A1.
 SCF Done:  E(RHF) =  -151.594192130     A.U. after   11 cycles
            NFock= 11  Conv=0.53D-08     -V/T= 2.0009
 ExpMin= 1.22D-01 ExpMax= 1.17D+04 ExpMxC= 4.01D+02 IAcc=3 IRadAn=         5 AccDes= 0.00D+00
 HarFok:  IExCor=  205 AccDes= 0.00D+00 IRadAn=         5 IDoV=-2 UseB2=F ITyADJ=14
 ICtDFT= 12500011 ScaDFX=  1.000000  1.000000  1.000000  1.000000
 NROrb=     49 NOA=     8 NOB=     8 NVA=    41 NVB=    41

 **** Warning!!: The largest alpha MO coefficient is  0.10763441D+02

 ANorm=    0.1073349034D+01
 E2 =    -0.4435170465D+00 EUMP2 =    -0.15203770917617D+03

 **********************************************************************

            Population analysis using the SCF Density.

 **********************************************************************

 Orbital symmetries:
       Occupied  (A1) (A1) (B2) (A1) (A1) (B2) (A1) (B1) (B2) (A1)
                 (B1)
       Virtual   (A2) (B2) (A1) (A1) (B2) (B2) (A1) (B1) (A1) (B2)
                 (A2) (B2) (A1) (A1) (B2) (A1) (B1) (B1) (B2) (A1)
                 (B1) (B2) (A2) (A1) (B2) (A2) (B2) (B1) (A1) (A1)
                 (A1) (B2) (A2) (B2) (A1) (A2) (A1) (B1) (B2) (A1)
                 (B2)
 The electronic state is 1-A1.
 Alpha  occ. eigenvalues --  -20.55927 -11.31146 -11.30908  -1.38944  -0.95441
 Alpha  occ. eigenvalues --   -0.81316  -0.71343  -0.58252  -0.51705  -0.50883
 Alpha  occ. eigenvalues --   -0.32804
 Alpha virt. eigenvalues --    0.14767   0.18530   0.20156   0.27507   0.29929
 Alpha virt. eigenvalues --    0.48798   0.52349   0.63440   0.71081   0.71556
 Alpha virt. eigenvalues --    0.77281   0.87205   0.90243   0.94403   1.16512
 Alpha virt. eigenvalues --    1.17279   1.18314   1.21414   1.32478   1.35085
 Alpha virt. eigenvalues --    1.40588   1.45840   1.46813   1.61463   1.70005
 Alpha virt. eigenvalues --    1.70315   1.82761   1.97318   1.97683   2.18995
 Alpha virt. eigenvalues --    2.35377   2.37416   2.52563   2.60593   2.93453
 Alpha virt. eigenvalues --    3.12823   3.25137   3.25724   3.39120   3.58341
 Alpha virt. eigenvalues --    3.66682
          Condensed to atoms (all electrons):
 Mulliken charges:
               1
     1  O   -0.408224
     2  C    0.127673
     3  C    0.127673
     4  H    0.076439
     5  H    0.076439
 Sum of Mulliken charges =  -0.00000
 Mulliken charges with hydrogens summed into heavy atoms:
               1
     1  O   -0.408224
     2  C    0.204112
     3  C    0.204112
 Electronic spatial extent (au):  <R**2>=            108.3432
 Charge=             -0.0000 electrons
 Dipole moment (field-independent basis, Debye):
    X=             -0.0000    Y=             -0.0000    Z=             -2.6515  Tot=              2.6515
 Unable to Open any file for archive entry.
 1\1\GINC-NODE01\SP\RMP2-FC\CC-pVDZ\C2H2O1\XUHJ\05-Nov-2024\0\\#T MP2/c
 c-pVDZ symm=veryloose\\C1=CO1\\0,1\O,0,0.,0.,0.875165\C,0,0.,0.634948,
 -0.453585\C,0,0.,-0.634948,-0.453585\H,0,0.,1.667592,-0.779147\H,0,0.,
 -1.667592,-0.779147\\Version=ES64L-G16RevC.01\State=1-A1\HF=-151.59419
 21\MP2=-152.0377092\RMSD=5.324e-09\PG=C02V [C2(O1),SGV(C2H2)]\\@
 The archive entry for this job was punched.


 DEPRESSION IS WAITING FOR YOUR SHIP TO COME IN,
 AND FINDING OUT IT'S THE TITANIC.
 Job cpu time:       0 days  0 hours  0 minutes  7.4 seconds.
 Elapsed time:       0 days  0 hours  0 minutes  0.5 seconds.
 File lengths (MBytes):  RWF=      6 Int=      0 D2E=      0 Chk=      1 Scr=      1
 Normal termination of Gaussian 16 at Tue Nov  5 18:56:31 2024.
