 Entering Gaussian System, Link 0=g16
 Initial command:
 /opt/g16/l1.exe "/tmp/Gau-148764.inp" -scrdir="/tmp/"
 Default is to use a total of   8 processors:
                                8 via shared-memory
                                1 via Linda
 Entering Link 1 = /opt/g16/l1.exe PID=    148765.
  
 Copyright (c) 1988-2019, Gaussian, Inc.  All Rights Reserved.
  
 This is part of the Gaussian(R) 16 program.  It is based on
 the Gaussian(R) 09 system (copyright 2009, Gaussian, Inc.),
 the Gaussian(R) 03 system (copyright 2003, Gaussian, Inc.),
 the Gaussian(R) 98 system (copyright 1998, Gaussian, Inc.),
 the Gaussian(R) 94 system (copyright 1995, Gaussian, Inc.),
 the Gaussian 92(TM) system (copyright 1992, Gaussian, Inc.),
 the Gaussian 90(TM) system (copyright 1990, Gaussian, Inc.),
 the Gaussian 88(TM) system (copyright 1988, Gaussian, Inc.),
 the Gaussian 86(TM) system (copyright 1986, Carnegie Mellon
 University), and the Gaussian 82(TM) system (copyright 1983,
 Carnegie Mellon University). Gaussian is a federally registered
 trademark of Gaussian, Inc.
  
 This software contains proprietary and confidential information,
 including trade secrets, belonging to Gaussian, Inc.
  
 This software is provided under written license and may be
 used, copied, transmitted, or stored only in accord with that
 written license.
  
 The following legend is applicable only to US Government
 contracts under FAR:
  
                    RESTRICTED RIGHTS LEGEND
  
 Use, reproduction and disclosure by the US Government is
 subject to restrictions as set forth in subparagraphs (a)
 and (c) of the Commercial Computer Software - Restricted
 Rights clause in FAR 52.227-19.
  
 Gaussian, Inc.
 340 Quinnipiac St., Bldg. 40, Wallingford CT 06492
  
  
 ---------------------------------------------------------------
 Warning -- This program may not be used in any manner that
 competes with the business of Gaussian, Inc. or will provide
 assistance to any competitor of Gaussian, Inc.  The licensee
 of this program is prohibited from giving any competitor of
 Gaussian, Inc. access to this program.  By using this program,
 the user acknowledges that Gaussian, Inc. is engaged in the
 business of creating and licensing software in the field of
 computational chemistry and represents and warrants to the
 licensee that it is not a competitor of Gaussian, Inc. and that
 it will not use this program in any manner prohibited above.
 ---------------------------------------------------------------
  

 Cite this work as:
 Gaussian 16, Revision C.01,
 M. J. Frisch, G. W. Trucks, H. B. Schlegel, G. E. Scuseria, 
 M. A. Robb, J. R. Cheeseman, G. Scalmani, V. Barone, 
 G. A. Petersson, H. Nakatsuji, X. Li, M. Caricato, A. V. Marenich, 
 J. Bloino, B. G. Janesko, R. Gomperts, B. Mennucci, H. P. Hratchian, 
 J. V. Ortiz, A. F. Izmaylov, J. L. Sonnenberg, D. Williams-Young, 
 F. Ding, F. Lipparini, F. Egidi, J. Goings, B. Peng, A. Petrone, 
 T. Henderson, D. Ranasinghe, V. G. Zakrzewski, J. Gao, N. Rega, 
 G. Zheng, W. Liang, M. Hada, M. Ehara, K. Toyota, R. Fukuda, 
 J. Hasegawa, M. Ishida, T. Nakajima, Y. Honda, O. Kitao, H. Nakai, 
 T. Vreven, K. Throssell, J. A. Montgomery, Jr., J. E. Peralta, 
 F. Ogliaro, M. J. Bearpark, J. J. Heyd, E. N. Brothers, K. N. Kudin, 
 V. N. Staroverov, T. A. Keith, R. Kobayashi, J. Normand, 
 K. Raghavachari, A. P. Rendell, J. C. Burant, S. S. Iyengar, 
 J. Tomasi, M. Cossi, J. M. Millam, M. Klene, C. Adamo, R. Cammi, 
 J. W. Ochterski, R. L. Martin, K. Morokuma, O. Farkas, 
 J. B. Foresman, and D. J. Fox, Gaussian, Inc., Wallingford CT, 2019.
 
 ******************************************
 Gaussian 16:  ES64L-G16RevC.01  3-Jul-2019
                14-Sep-2024 
 ******************************************
 %nprocshared=8
 Will use up to    8 processors via shared memory.
 %mem=3600MB
 -----------------------------
 #T MP2/cc-pVDZ symm=veryloose
 -----------------------------
 ---------------
 C1=c2ccccc2=CC1
 ---------------
 Symbolic Z-matrix:
 Charge =  0 Multiplicity = 1
 C                     0.       -1.18736   1.54521 
 C                     0.       -0.74197   0.25376 
 C                     0.       -1.44287  -1.00792 
 C                     0.       -0.72626  -2.16732 
 C                     0.        0.72626  -2.16732 
 C                     0.        1.44287  -1.00792 
 C                     0.        0.74197   0.25376 
 C                     0.        1.18736   1.54521 
 C                     0.        0.        2.46405 
 H                     0.       -2.22678   1.87828 
 H                     0.       -2.53705  -1.01975 
 H                     0.       -1.24449  -3.13135 
 H                     0.        1.24449  -3.13135 
 H                     0.        2.53705  -1.01975 
 H                     0.        2.22678   1.87828 
 H                    -0.88252   0.        3.13832 
 H                     0.88252   0.        3.13832 
 
                    Distance matrix (angstroms):
                    1          2          3          4          5
     1  C    0.000000
     2  C    1.366090   0.000000
     3  C    2.565882   1.443296   0.000000
     4  C    3.741058   2.421138   1.362996   0.000000
     5  C    4.176699   2.831493   2.459539   1.452512   0.000000
     6  C    3.665591   2.522970   2.885742   2.459539   1.362996
     7  C    2.321667   1.483942   2.522970   2.831493   2.421138
     8  C    2.374712   2.321667   3.665591   4.176699   3.741058
     9  C    1.501357   2.331495   3.759842   4.687966   4.687966
    10  H    1.091483   2.200841   2.990758   4.314910   5.008722
    11  H    2.898400   2.200947   1.094246   2.143805   3.459205
    12  H    4.676906   3.422207   2.132676   1.094491   2.193897
    13  H    5.271059   3.924921   3.425035   2.193897   1.094491
    14  H    4.522197   3.517648   3.979942   3.459205   2.143805
    15  H    3.430344   3.384158   4.668668   5.008722   4.314910
    16  H    2.174089   3.106453   4.477951   5.427355   5.427355
    17  H    2.174089   3.106453   4.477951   5.427355   5.427355
                    6          7          8          9         10
     6  C    0.000000
     7  C    1.443296   0.000000
     8  C    2.565882   1.366090   0.000000
     9  C    3.759842   2.331495   1.501357   0.000000
    10  H    4.668668   3.384158   3.430344   2.302537   0.000000
    11  H    3.979942   3.517648   4.522197   4.309698   2.914593
    12  H    3.425035   3.924921   5.271059   5.732118   5.105020
    13  H    2.132676   3.422207   4.676906   5.732118   6.094756
    14  H    1.094246   2.200947   2.898400   4.309698   5.576082
    15  H    2.990758   2.200841   1.091483   2.302537   4.453560
    16  H    4.477951   3.106453   2.174089   1.110624   2.706493
    17  H    4.477951   3.106453   2.174089   1.110624   2.706493
                   11         12         13         14         15
    11  H    0.000000
    12  H    2.475791   0.000000
    13  H    4.331155   2.488982   0.000000
    14  H    5.074106   4.331155   2.475791   0.000000
    15  H    5.576082   6.094756   5.105020   2.914593   0.000000
    16  H    4.950262   6.452626   6.452626   4.950262   2.706493
    17  H    4.950262   6.452626   6.452626   4.950262   2.706493
                   16         17
    16  H    0.000000
    17  H    1.765032   0.000000
 Framework group  C2V[C2(C),SGV(C8H6),SGV'(H2)]
 Deg. of freedom    16
                         Standard orientation:                         
 ---------------------------------------------------------------------
 Center     Atomic      Atomic             Coordinates (Angstroms)
 Number     Number       Type             X           Y           Z
 ---------------------------------------------------------------------
      1          6           0        0.000000    1.187356    1.545209
      2          6           0        0.000000    0.741971    0.253763
      3          6           0        0.000000    1.442871   -1.007919
      4          6           0        0.000000    0.726256   -2.167324
      5          6           0       -0.000000   -0.726256   -2.167324
      6          6           0       -0.000000   -1.442871   -1.007919
      7          6           0       -0.000000   -0.741971    0.253763
      8          6           0       -0.000000   -1.187356    1.545209
      9          6           0        0.000000    0.000000    2.464045
     10          1           0        0.000000    2.226780    1.878276
     11          1           0        0.000000    2.537053   -1.019755
     12          1           0        0.000000    1.244491   -3.131348
     13          1           0       -0.000000   -1.244491   -3.131348
     14          1           0       -0.000000   -2.537053   -1.019755
     15          1           0       -0.000000   -2.226780    1.878276
     16          1           0        0.882516   -0.000000    3.138324
     17          1           0       -0.882516    0.000000    3.138324
 ---------------------------------------------------------------------
 Rotational constants (GHZ):           3.6799758           1.5833049           1.1146798
   166 basis functions,   353 primitive gaussians,   175 cartesian basis functions
    31 alpha electrons       31 beta electrons
       nuclear repulsion energy       392.2874165729 Hartrees.
 NAtoms=   17 NActive=   17 NUniq=    9 SFac= 3.57D+00 NAtFMM=   60 NAOKFM=F Big=F
 ExpMin= 1.22D-01 ExpMax= 6.67D+03 ExpMxC= 2.28D+02 IAcc=3 IRadAn=         5 AccDes= 0.00D+00
 Harris functional with IExCor=  205 and IRadAn=       5 diagonalized for initial guess.
 HarFok:  IExCor=  205 AccDes= 0.00D+00 IRadAn=         5 IDoV= 1 UseB2=F ITyADJ=14
 ICtDFT=  3500011 ScaDFX=  1.000000  1.000000  1.000000  1.000000
 FoFCou: FMM=F IPFlag=           0 FMFlag=      100000 FMFlg1=           0
         NFxFlg=           0 DoJE=T BraDBF=F KetDBF=T FulRan=T
         wScrn=  0.000000 ICntrl=       500 IOpCl=  0 I1Cent=   200000004 NGrid=           0
         NMat0=    1 NMatS0=      1 NMatT0=    0 NMatD0=    1 NMtDS0=    0 NMtDT0=    0
 Petite list used in FoFCou.
 Initial guess orbital symmetries:
       Occupied  (A1) (B2) (A1) (A1) (B2) (A1) (B2) (A1) (B2) (A1)
                 (A1) (B2) (A1) (B2) (A1) (B2) (A1) (A1) (A1) (B2)
                 (B2) (B1) (A1) (B2) (A1) (B2) (B1) (A1) (A2) (B1)
                 (A2)
       Virtual   (B1) (A2) (B1) (A1) (A2) (A1) (B2) (A1) (B2) (B1)
                 (A1) (B2) (B2) (A1) (B2) (A1) (A1) (B2) (A1) (B2)
                 (A1) (B2) (B1) (B2) (A1) (A1) (B2) (B2) (B1) (A2)
                 (A1) (B2) (A1) (B1) (A1) (A2) (B1) (A1) (B1) (A2)
                 (B2) (A1) (B2) (A1) (B2) (B1) (A1) (A2) (A1) (B2)
                 (B1) (B2) (B2) (A1) (A2) (B1) (A1) (B2) (B1) (A2)
                 (A1) (B2) (A2) (B1) (B2) (A1) (B2) (A1) (A1) (A1)
                 (B2) (B1) (A1) (A2) (B2) (A2) (A1) (A1) (B1) (A2)
                 (B2) (A1) (B2) (B1) (A1) (B1) (A1) (B2) (B2) (A2)
                 (B1) (A2) (A1) (A1) (B1) (B2) (B1) (B2) (A1) (A1)
                 (B2) (A2) (A1) (B2) (B2) (A2) (B2) (B1) (B2) (A1)
                 (A1) (B1) (B2) (A2) (A1) (A1) (B2) (A2) (A2) (B2)
                 (A1) (B2) (A1) (A1) (A1) (B2) (B1) (A1) (B2) (B2)
                 (B2) (A1) (A1) (B2) (B2)
 The electronic state of the initial guess is 1-A1.
 SCF Done:  E(RHF) =  -345.447054744     A.U. after   13 cycles
            NFock= 13  Conv=0.61D-08     -V/T= 2.0014
 ExpMin= 1.22D-01 ExpMax= 6.67D+03 ExpMxC= 2.28D+02 IAcc=3 IRadAn=         5 AccDes= 0.00D+00
 HarFok:  IExCor=  205 AccDes= 0.00D+00 IRadAn=         5 IDoV=-2 UseB2=F ITyADJ=14
 ICtDFT= 12500011 ScaDFX=  1.000000  1.000000  1.000000  1.000000
 NROrb=    157 NOA=    22 NOB=    22 NVA=   135 NVB=   135

 **** Warning!!: The largest alpha MO coefficient is  0.11829463D+02

 ANorm=    0.1204714066D+01
 E2 =    -0.1178068710D+01 EUMP2 =    -0.34662512345420D+03

 **********************************************************************

            Population analysis using the SCF Density.

 **********************************************************************

 Orbital symmetries:
       Occupied  (A1) (B2) (A1) (B2) (A1) (A1) (B2) (B2) (A1) (A1)
                 (A1) (B2) (A1) (B2) (A1) (B2) (A1) (A1) (A1) (B2)
                 (B2) (B1) (A1) (B2) (A1) (B2) (B1) (A1) (A2) (B1)
                 (A2)
       Virtual   (B1) (A1) (A2) (B1) (A1) (B2) (A1) (B2) (B1) (A1)
                 (B2) (A2) (B2) (A1) (B2) (A1) (B2) (A1) (A1) (A1)
                 (B2) (A1) (B2) (B1) (A1) (B2) (B1) (B2) (A2) (B2)
                 (A1) (B1) (B2) (A2) (A1) (A1) (B1) (B1) (A2) (B2)
                 (A1) (A1) (A1) (B1) (B2) (A1) (B2) (A2) (A1) (B2)
                 (B1) (B2) (A1) (B2) (A2) (A1) (B1) (B2) (B1) (A2)
                 (A1) (B2) (B2) (A2) (B1) (A1) (B2) (A1) (A1) (A1)
                 (B2) (B1) (A1) (A2) (B2) (A2) (A1) (A1) (B1) (A2)
                 (B2) (A1) (B1) (B2) (A1) (B1) (A1) (B2) (A2) (B1)
                 (A2) (B2) (B2) (A1) (B1) (A1) (B2) (B1) (A1) (A2)
                 (A1) (B2) (B2) (A1) (B2) (B1) (A2) (B2) (B2) (A1)
                 (B2) (A1) (B1) (A2) (A1) (A1) (B2) (A2) (A2) (A1)
                 (B2) (B2) (A1) (A1) (A1) (B2) (B1) (A1) (B2) (B2)
                 (B2) (A1) (A1) (B2) (B2)
 The electronic state is 1-A1.
 Alpha  occ. eigenvalues --  -11.24438 -11.24372 -11.24229 -11.24213 -11.23994
 Alpha  occ. eigenvalues --  -11.23739 -11.23668 -11.23283 -11.23279  -1.17110
 Alpha  occ. eigenvalues --   -1.09543  -1.03010  -0.96174  -0.93755  -0.83247
 Alpha  occ. eigenvalues --   -0.76926  -0.76087  -0.67988  -0.64176  -0.63811
 Alpha  occ. eigenvalues --   -0.59033  -0.58908  -0.55746  -0.52978  -0.51176
 Alpha  occ. eigenvalues --   -0.49546  -0.48958  -0.46650  -0.37706  -0.36790
 Alpha  occ. eigenvalues --   -0.25522
 Alpha virt. eigenvalues --    0.06405   0.19078   0.19114   0.19416   0.20178
 Alpha virt. eigenvalues --    0.20974   0.23033   0.24291   0.25995   0.26261
 Alpha virt. eigenvalues --    0.27353   0.36059   0.36347   0.37988   0.39818
 Alpha virt. eigenvalues --    0.45696   0.46353   0.48058   0.53112   0.58666
 Alpha virt. eigenvalues --    0.60280   0.63637   0.65485   0.67489   0.67934
 Alpha virt. eigenvalues --    0.68511   0.71040   0.71052   0.71865   0.72414
 Alpha virt. eigenvalues --    0.73526   0.75028   0.75940   0.77080   0.77085
 Alpha virt. eigenvalues --    0.80375   0.83579   0.84716   0.86616   0.87087
 Alpha virt. eigenvalues --    0.87438   0.88238   0.90537   0.91433   0.92573
 Alpha virt. eigenvalues --    0.93618   0.95446   0.95978   0.96869   1.01113
 Alpha virt. eigenvalues --    1.09103   1.10179   1.11741   1.13713   1.14438
 Alpha virt. eigenvalues --    1.15791   1.15794   1.16940   1.23593   1.24244
 Alpha virt. eigenvalues --    1.24249   1.24886   1.29136   1.30734   1.30739
 Alpha virt. eigenvalues --    1.35026   1.35110   1.39870   1.45285   1.51501
 Alpha virt. eigenvalues --    1.52829   1.57422   1.57921   1.59928   1.60515
 Alpha virt. eigenvalues --    1.67762   1.69169   1.72579   1.73038   1.74194
 Alpha virt. eigenvalues --    1.80779   1.83258   1.83369   1.84390   1.86117
 Alpha virt. eigenvalues --    1.88360   1.91510   1.92262   1.92869   1.93178
 Alpha virt. eigenvalues --    1.96469   1.97127   2.00157   2.00924   2.01834
 Alpha virt. eigenvalues --    2.03223   2.06105   2.06581   2.10747   2.11874
 Alpha virt. eigenvalues --    2.12175   2.12725   2.15227   2.17164   2.18022
 Alpha virt. eigenvalues --    2.23663   2.24397   2.24605   2.27854   2.30374
 Alpha virt. eigenvalues --    2.35760   2.38224   2.38277   2.39436   2.44088
 Alpha virt. eigenvalues --    2.50032   2.57020   2.58919   2.59390   2.65087
 Alpha virt. eigenvalues --    2.68862   2.71350   2.72001   2.74246   2.81152
 Alpha virt. eigenvalues --    2.84913   2.88824   2.94558   2.98738   3.03967
 Alpha virt. eigenvalues --    3.11840   3.17665   3.30225   3.33540   3.86081
          Condensed to atoms (all electrons):
 Mulliken charges:
               1
     1  C   -0.132501
     2  C   -0.027078
     3  C    0.010030
     4  C   -0.028642
     5  C   -0.028642
     6  C    0.010030
     7  C   -0.027078
     8  C   -0.132501
     9  C    0.080839
    10  H    0.017907
    11  H    0.019848
    12  H    0.031029
    13  H    0.031029
    14  H    0.019848
    15  H    0.017907
    16  H    0.068987
    17  H    0.068987
 Sum of Mulliken charges =  -0.00000
 Mulliken charges with hydrogens summed into heavy atoms:
               1
     1  C   -0.114594
     2  C   -0.027078
     3  C    0.029878
     4  C    0.002387
     5  C    0.002387
     6  C    0.029878
     7  C   -0.027078
     8  C   -0.114594
     9  C    0.218813
 Electronic spatial extent (au):  <R**2>=           1060.3745
 Charge=             -0.0000 electrons
 Dipole moment (field-independent basis, Debye):
    X=             -0.0000    Y=             -0.0000    Z=              0.3109  Tot=              0.3109
 Unable to Open any file for archive entry.
 1\1\GINC-NODE01\SP\RMP2-FC\CC-pVDZ\C9H8\XUHJ\14-Sep-2024\0\\#T MP2/cc-
 pVDZ symm=veryloose\\C1=c2ccccc2=CC1\\0,1\C,0,0.,-1.187356,1.545209\C,
 0,0.,-0.741971,0.253763\C,0,0.,-1.442871,-1.007919\C,0,0.,-0.726256,-2
 .167324\C,0,0.,0.726256,-2.167324\C,0,0.,1.442871,-1.007919\C,0,0.,0.7
 41971,0.253763\C,0,0.,1.187356,1.545209\C,0,0.,0.,2.464045\H,0,0.,-2.2
 2678,1.878276\H,0,0.,-2.537053,-1.019755\H,0,0.,-1.244491,-3.131348\H,
 0,0.,1.244491,-3.131348\H,0,0.,2.537053,-1.019755\H,0,0.,2.22678,1.878
 276\H,0,-0.882516,0.,3.138324\H,0,0.882516,0.,3.138324\\Version=ES64L-
 G16RevC.01\State=1-A1\HF=-345.4470547\MP2=-346.6251235\RMSD=6.094e-09\
 PG=C02V [C2(C1),SGV(C8H6),SGV'(H2)]\\@
 The archive entry for this job was punched.


 FIREWORKS ENDED
 AND SPECTATORS GONE AWAY....
 AH, HOW VAST AND DARK
                     SHIKI
 Job cpu time:       0 days  0 hours  1 minutes  5.4 seconds.
 Elapsed time:       0 days  0 hours  0 minutes  9.6 seconds.
 File lengths (MBytes):  RWF=     14 Int=      0 D2E=      0 Chk=      3 Scr=      1
 Normal termination of Gaussian 16 at Sat Sep 14 10:21:32 2024.
