 Entering Gaussian System, Link 0=g16
 Initial command:
 /home/software/g16/l1.exe "/home/software/g16tmp/Gau-153247.inp" -scrdir="/home/software/g16tmp/"
 Default is to use a total of   8 processors:
                                8 via shared-memory
                                1 via Linda
 Entering Link 1 = /home/software/g16/l1.exe PID=    153248.
  
 Copyright (c) 1988-2019, Gaussian, Inc.  All Rights Reserved.
  
 This is part of the Gaussian(R) 16 program.  It is based on
 the Gaussian(R) 09 system (copyright 2009, Gaussian, Inc.),
 the Gaussian(R) 03 system (copyright 2003, Gaussian, Inc.),
 the Gaussian(R) 98 system (copyright 1998, Gaussian, Inc.),
 the Gaussian(R) 94 system (copyright 1995, Gaussian, Inc.),
 the Gaussian 92(TM) system (copyright 1992, Gaussian, Inc.),
 the Gaussian 90(TM) system (copyright 1990, Gaussian, Inc.),
 the Gaussian 88(TM) system (copyright 1988, Gaussian, Inc.),
 the Gaussian 86(TM) system (copyright 1986, Carnegie Mellon
 University), and the Gaussian 82(TM) system (copyright 1983,
 Carnegie Mellon University). Gaussian is a federally registered
 trademark of Gaussian, Inc.
  
 This software contains proprietary and confidential information,
 including trade secrets, belonging to Gaussian, Inc.
  
 This software is provided under written license and may be
 used, copied, transmitted, or stored only in accord with that
 written license.
  
 The following legend is applicable only to US Government
 contracts under FAR:
  
                    RESTRICTED RIGHTS LEGEND
  
 Use, reproduction and disclosure by the US Government is
 subject to restrictions as set forth in subparagraphs (a)
 and (c) of the Commercial Computer Software - Restricted
 Rights clause in FAR 52.227-19.
  
 Gaussian, Inc.
 340 Quinnipiac St., Bldg. 40, Wallingford CT 06492
  
  
 ---------------------------------------------------------------
 Warning -- This program may not be used in any manner that
 competes with the business of Gaussian, Inc. or will provide
 assistance to any competitor of Gaussian, Inc.  The licensee
 of this program is prohibited from giving any competitor of
 Gaussian, Inc. access to this program.  By using this program,
 the user acknowledges that Gaussian, Inc. is engaged in the
 business of creating and licensing software in the field of
 computational chemistry and represents and warrants to the
 licensee that it is not a competitor of Gaussian, Inc. and that
 it will not use this program in any manner prohibited above.
 ---------------------------------------------------------------
  

 Cite this work as:
 Gaussian 16, Revision C.01,
 M. J. Frisch, G. W. Trucks, H. B. Schlegel, G. E. Scuseria, 
 M. A. Robb, J. R. Cheeseman, G. Scalmani, V. Barone, 
 G. A. Petersson, H. Nakatsuji, X. Li, M. Caricato, A. V. Marenich, 
 J. Bloino, B. G. Janesko, R. Gomperts, B. Mennucci, H. P. Hratchian, 
 J. V. Ortiz, A. F. Izmaylov, J. L. Sonnenberg, D. Williams-Young, 
 F. Ding, F. Lipparini, F. Egidi, J. Goings, B. Peng, A. Petrone, 
 T. Henderson, D. Ranasinghe, V. G. Zakrzewski, J. Gao, N. Rega, 
 G. Zheng, W. Liang, M. Hada, M. Ehara, K. Toyota, R. Fukuda, 
 J. Hasegawa, M. Ishida, T. Nakajima, Y. Honda, O. Kitao, H. Nakai, 
 T. Vreven, K. Throssell, J. A. Montgomery, Jr., J. E. Peralta, 
 F. Ogliaro, M. J. Bearpark, J. J. Heyd, E. N. Brothers, K. N. Kudin, 
 V. N. Staroverov, T. A. Keith, R. Kobayashi, J. Normand, 
 K. Raghavachari, A. P. Rendell, J. C. Burant, S. S. Iyengar, 
 J. Tomasi, M. Cossi, J. M. Millam, M. Klene, C. Adamo, R. Cammi, 
 J. W. Ochterski, R. L. Martin, K. Morokuma, O. Farkas, 
 J. B. Foresman, and D. J. Fox, Gaussian, Inc., Wallingford CT, 2019.
 
 ******************************************
 Gaussian 16:  ES64L-G16RevC.01  3-Jul-2019
                20-Dec-2023 
 ******************************************
 %nprocshared=16
 Will use up to   16 processors via shared memory.
 %mem=640MB
 -----------------------------
 #T MP2/cc-pVDZ symm=veryloose
 -----------------------------
 ------
 [CH2]O
 ------
 Symbolic Z-matrix:
 Charge =  0 Multiplicity = 2
 C                    -0.68152  -0.02979  -0.0742 
 O                     0.6675    0.12631   0.02808 
 H                    -1.12499  -0.99732   0.20077 
 H                    -1.23558   0.89629   0.10635 
 H                     1.1097   -0.73068  -0.08659 
 
                    Distance matrix (angstroms):
                    1          2          3          4          5
     1  C    0.000000
     2  O    1.361873   0.000000
     3  H    1.099266   2.122591   0.000000
     4  H    1.094171   2.054442   1.899190   0.000000
     5  H    1.923509   0.971143   2.268813   2.860878   0.000000
 Framework group  C1[X(CH3O)]
 Deg. of freedom     9
                         Standard orientation:                         
 ---------------------------------------------------------------------
 Center     Atomic      Atomic             Coordinates (Angstroms)
 Number     Number       Type             X           Y           Z
 ---------------------------------------------------------------------
      1          6           0       -0.681524   -0.029791   -0.074198
      2          8           0        0.667502    0.126307    0.028082
      3          1           0       -1.124990   -0.997322    0.200770
      4          1           0       -1.235582    0.896293    0.106353
      5          1           0        1.109700   -0.730682   -0.086592
 ---------------------------------------------------------------------
 Rotational constants (GHZ):         188.7472845          29.9339445          26.1675804
    43 basis functions,    87 primitive gaussians,    45 cartesian basis functions
     9 alpha electrons        8 beta electrons
       nuclear repulsion energy        35.2030877763 Hartrees.
 NAtoms=    5 NActive=    5 NUniq=    5 SFac= 1.00D+00 NAtFMM=   60 NAOKFM=F Big=F
 ExpMin= 1.22D-01 ExpMax= 1.17D+04 ExpMxC= 4.01D+02 IAcc=3 IRadAn=         5 AccDes= 0.00D+00
 Harris functional with IExCor=  205 and IRadAn=       5 diagonalized for initial guess.
 HarFok:  IExCor=  205 AccDes= 0.00D+00 IRadAn=         5 IDoV= 1 UseB2=F ITyADJ=14
 ICtDFT=  3500011 ScaDFX=  1.000000  1.000000  1.000000  1.000000
 FoFCou: FMM=F IPFlag=           0 FMFlag=      100000 FMFlg1=           0
         NFxFlg=           0 DoJE=T BraDBF=F KetDBF=T FulRan=T
         wScrn=  0.000000 ICntrl=       500 IOpCl=  0 I1Cent=   200000004 NGrid=           0
         NMat0=    1 NMatS0=      1 NMatT0=    0 NMatD0=    1 NMtDS0=    0 NMtDT0=    0
 Petite list used in FoFCou.
 Initial guess <Sx>= 0.0000 <Sy>= 0.0000 <Sz>= 0.5000 <S**2>= 0.7500 S= 0.5000
 SCF Done:  E(UHF) =  -114.423431051     A.U. after   15 cycles
            NFock= 15  Conv=0.51D-08     -V/T= 2.0010
 <Sx>= 0.0000 <Sy>= 0.0000 <Sz>= 0.5000 <S**2>= 0.7604 S= 0.5052
 <L.S>=  0.00000000000    
 Annihilation of the first spin contaminant:
 S**2 before annihilation     0.7604,   after     0.7501
 ExpMin= 1.22D-01 ExpMax= 1.17D+04 ExpMxC= 4.01D+02 IAcc=3 IRadAn=         5 AccDes= 0.00D+00
 HarFok:  IExCor=  205 AccDes= 0.00D+00 IRadAn=         5 IDoV=-2 UseB2=F ITyADJ=14
 ICtDFT= 12500011 ScaDFX=  1.000000  1.000000  1.000000  1.000000
 NROrb=     41 NOA=     7 NOB=     6 NVA=    34 NVB=    35
 (S**2,0)=  0.76037D+00           (S**2,1)=  0.75234D+00
 E(PUHF)=      -0.11442636595D+03        E(PMP2)=      -0.11473509738D+03
 ANorm=    0.1043036217D+01
 E2 =    -0.3098633524D+00 EUMP2 =    -0.11473329440306D+03

 **********************************************************************

            Population analysis using the SCF Density.

 **********************************************************************

 Orbital symmetries:
 Alpha Orbitals:
       Occupied  (A) (A) (A) (A) (A) (A) (A) (A) (A)
       Virtual   (A) (A) (A) (A) (A) (A) (A) (A) (A) (A) (A) (A)
                 (A) (A) (A) (A) (A) (A) (A) (A) (A) (A) (A) (A)
                 (A) (A) (A) (A) (A) (A) (A) (A) (A) (A)
 Beta  Orbitals:
       Occupied  (A) (A) (A) (A) (A) (A) (A) (A)
       Virtual   (A) (A) (A) (A) (A) (A) (A) (A) (A) (A) (A) (A)
                 (A) (A) (A) (A) (A) (A) (A) (A) (A) (A) (A) (A)
                 (A) (A) (A) (A) (A) (A) (A) (A) (A) (A) (A)
 The electronic state is 2-A.
 Alpha  occ. eigenvalues --  -20.58103 -11.28170  -1.39204  -0.91463  -0.70841
 Alpha  occ. eigenvalues --   -0.61970  -0.60033  -0.51247  -0.33477
 Alpha virt. eigenvalues --    0.18187   0.21805   0.26730   0.38556   0.65339
 Alpha virt. eigenvalues --    0.68603   0.69972   0.76582   0.80998   0.89806
 Alpha virt. eigenvalues --    1.00418   1.14673   1.21210   1.23931   1.34275
 Alpha virt. eigenvalues --    1.39103   1.59259   1.61414   1.69828   1.76525
 Alpha virt. eigenvalues --    1.82352   1.98082   2.04168   2.12095   2.16747
 Alpha virt. eigenvalues --    2.39799   2.46724   2.71643   2.83066   3.23993
 Alpha virt. eigenvalues --    3.32627   3.46817   3.65894   4.07057
  Beta  occ. eigenvalues --  -20.57397 -11.25663  -1.37060  -0.84855  -0.69171
  Beta  occ. eigenvalues --   -0.60539  -0.51897  -0.49500
  Beta virt. eigenvalues --    0.17363   0.18685   0.23009   0.27693   0.40469
  Beta virt. eigenvalues --    0.70033   0.72104   0.78557   0.79047   0.82083
  Beta virt. eigenvalues --    0.91233   1.03468   1.18959   1.24294   1.25729
  Beta virt. eigenvalues --    1.37252   1.41451   1.60008   1.62532   1.71086
  Beta virt. eigenvalues --    1.80428   1.83332   2.00035   2.06078   2.13380
  Beta virt. eigenvalues --    2.18435   2.40577   2.47405   2.72436   2.83854
  Beta virt. eigenvalues --    3.25970   3.34405   3.48398   3.66592   4.07566
          Condensed to atoms (all electrons):
          Atomic-Atomic Spin Densities.
 Mulliken charges and spin densities:
               1          2
     1  C    0.044223   1.059547
     2  O   -0.315349   0.071582
     3  H    0.037829  -0.058578
     4  H    0.055391  -0.065453
     5  H    0.177906  -0.007098
 Sum of Mulliken charges =   0.00000   1.00000
 Mulliken charges and spin densities with hydrogens summed into heavy atoms:
               1          2
     1  C    0.137443   0.935516
     2  O   -0.137443   0.064484
 Electronic spatial extent (au):  <R**2>=             73.0656
 Charge=              0.0000 electrons
 Dipole moment (field-independent basis, Debye):
    X=             -0.2499    Y=             -1.5648    Z=              0.1131  Tot=              1.5887
 Unable to Open any file for archive entry.
 1\1\GINC-NODE05\SP\UMP2-FC\CC-pVDZ\C1H3O1(2)\XUHJ\20-Dec-2023\0\\#T MP
 2/cc-pVDZ symm=veryloose\\[CH2]O\\0,2\C,0,-0.681524,-0.029791,-0.07419
 8\O,0,0.667502,0.126307,0.028082\H,0,-1.12499,-0.997322,0.20077\H,0,-1
 .235582,0.896293,0.106353\H,0,1.1097,-0.730682,-0.086592\\Version=ES64
 L-G16RevC.01\State=2-A\HF=-114.4234311\MP2=-114.7332944\PUHF=-114.4263
 659\PMP2-0=-114.7350974\S2=0.760372\S2-1=0.752337\S2A=0.750074\RMSD=5.
 069e-09\PG=C01 [X(C1H3O1)]\\@
 The archive entry for this job was punched.


 ANYONE WHO IS NOT SHOCKED BY QUANTUM THEORY HAS
 NOT UNDERSTOOD IT. -- NIELS BOHR(1885-1962)
 Job cpu time:       0 days  0 hours  0 minutes 10.5 seconds.
 Elapsed time:       0 days  0 hours  0 minutes  0.9 seconds.
 File lengths (MBytes):  RWF=     17 Int=      0 D2E=      0 Chk=      2 Scr=      2
 Normal termination of Gaussian 16 at Wed Dec 20 12:21:26 2023.
