 Entering Gaussian System, Link 0=g16
 Initial command:
 /home/software/g16/l1.exe "/home/software/g16tmp/Gau-153799.inp" -scrdir="/home/software/g16tmp/"
 Default is to use a total of   8 processors:
                                8 via shared-memory
                                1 via Linda
 Entering Link 1 = /home/software/g16/l1.exe PID=    153800.
  
 Copyright (c) 1988-2019, Gaussian, Inc.  All Rights Reserved.
  
 This is part of the Gaussian(R) 16 program.  It is based on
 the Gaussian(R) 09 system (copyright 2009, Gaussian, Inc.),
 the Gaussian(R) 03 system (copyright 2003, Gaussian, Inc.),
 the Gaussian(R) 98 system (copyright 1998, Gaussian, Inc.),
 the Gaussian(R) 94 system (copyright 1995, Gaussian, Inc.),
 the Gaussian 92(TM) system (copyright 1992, Gaussian, Inc.),
 the Gaussian 90(TM) system (copyright 1990, Gaussian, Inc.),
 the Gaussian 88(TM) system (copyright 1988, Gaussian, Inc.),
 the Gaussian 86(TM) system (copyright 1986, Carnegie Mellon
 University), and the Gaussian 82(TM) system (copyright 1983,
 Carnegie Mellon University). Gaussian is a federally registered
 trademark of Gaussian, Inc.
  
 This software contains proprietary and confidential information,
 including trade secrets, belonging to Gaussian, Inc.
  
 This software is provided under written license and may be
 used, copied, transmitted, or stored only in accord with that
 written license.
  
 The following legend is applicable only to US Government
 contracts under FAR:
  
                    RESTRICTED RIGHTS LEGEND
  
 Use, reproduction and disclosure by the US Government is
 subject to restrictions as set forth in subparagraphs (a)
 and (c) of the Commercial Computer Software - Restricted
 Rights clause in FAR 52.227-19.
  
 Gaussian, Inc.
 340 Quinnipiac St., Bldg. 40, Wallingford CT 06492
  
  
 ---------------------------------------------------------------
 Warning -- This program may not be used in any manner that
 competes with the business of Gaussian, Inc. or will provide
 assistance to any competitor of Gaussian, Inc.  The licensee
 of this program is prohibited from giving any competitor of
 Gaussian, Inc. access to this program.  By using this program,
 the user acknowledges that Gaussian, Inc. is engaged in the
 business of creating and licensing software in the field of
 computational chemistry and represents and warrants to the
 licensee that it is not a competitor of Gaussian, Inc. and that
 it will not use this program in any manner prohibited above.
 ---------------------------------------------------------------
  

 Cite this work as:
 Gaussian 16, Revision C.01,
 M. J. Frisch, G. W. Trucks, H. B. Schlegel, G. E. Scuseria, 
 M. A. Robb, J. R. Cheeseman, G. Scalmani, V. Barone, 
 G. A. Petersson, H. Nakatsuji, X. Li, M. Caricato, A. V. Marenich, 
 J. Bloino, B. G. Janesko, R. Gomperts, B. Mennucci, H. P. Hratchian, 
 J. V. Ortiz, A. F. Izmaylov, J. L. Sonnenberg, D. Williams-Young, 
 F. Ding, F. Lipparini, F. Egidi, J. Goings, B. Peng, A. Petrone, 
 T. Henderson, D. Ranasinghe, V. G. Zakrzewski, J. Gao, N. Rega, 
 G. Zheng, W. Liang, M. Hada, M. Ehara, K. Toyota, R. Fukuda, 
 J. Hasegawa, M. Ishida, T. Nakajima, Y. Honda, O. Kitao, H. Nakai, 
 T. Vreven, K. Throssell, J. A. Montgomery, Jr., J. E. Peralta, 
 F. Ogliaro, M. J. Bearpark, J. J. Heyd, E. N. Brothers, K. N. Kudin, 
 V. N. Staroverov, T. A. Keith, R. Kobayashi, J. Normand, 
 K. Raghavachari, A. P. Rendell, J. C. Burant, S. S. Iyengar, 
 J. Tomasi, M. Cossi, J. M. Millam, M. Klene, C. Adamo, R. Cammi, 
 J. W. Ochterski, R. L. Martin, K. Morokuma, O. Farkas, 
 J. B. Foresman, and D. J. Fox, Gaussian, Inc., Wallingford CT, 2019.
 
 ******************************************
 Gaussian 16:  ES64L-G16RevC.01  3-Jul-2019
                20-Dec-2023 
 ******************************************
 %nprocshared=16
 Will use up to   16 processors via shared memory.
 %mem=960MB
 -----------------------------
 #T MP2/cc-pVDZ symm=veryloose
 -----------------------------
 -----
 C=C=O
 -----
 Symbolic Z-matrix:
 Charge =  0 Multiplicity = 1
 C                     0.        0.       -1.21325 
 C                     0.        0.        0.1055 
 O                     0.        0.        1.26995 
 H                     0.       -0.94927  -1.75654 
 H                     0.        0.94927  -1.75654 
 
                    Distance matrix (angstroms):
                    1          2          3          4          5
     1  C    0.000000
     2  C    1.318749   0.000000
     3  O    2.483197   1.164448   0.000000
     4  H    1.093744   2.090045   3.171862   0.000000
     5  H    1.093744   2.090045   3.171862   1.898544   0.000000
 Framework group  C2V[C2(CCO),SGV(H2)]
 Deg. of freedom     4
                         Standard orientation:                         
 ---------------------------------------------------------------------
 Center     Atomic      Atomic             Coordinates (Angstroms)
 Number     Number       Type             X           Y           Z
 ---------------------------------------------------------------------
      1          6           0        0.000000    0.000000   -1.213250
      2          6           0       -0.000000    0.000000    0.105499
      3          8           0       -0.000000    0.000000    1.269947
      4          1           0        0.000000    0.949272   -1.756535
      5          1           0       -0.000000   -0.949272   -1.756535
 ---------------------------------------------------------------------
 Rotational constants (GHZ):         278.2407395          10.2046665           9.8436442
    52 basis functions,   113 primitive gaussians,    55 cartesian basis functions
    11 alpha electrons       11 beta electrons
       nuclear repulsion energy        58.2803151031 Hartrees.
 NAtoms=    5 NActive=    5 NUniq=    4 SFac= 1.56D+00 NAtFMM=   60 NAOKFM=F Big=F
 ExpMin= 1.22D-01 ExpMax= 1.17D+04 ExpMxC= 4.01D+02 IAcc=3 IRadAn=         5 AccDes= 0.00D+00
 Harris functional with IExCor=  205 and IRadAn=       5 diagonalized for initial guess.
 HarFok:  IExCor=  205 AccDes= 0.00D+00 IRadAn=         5 IDoV= 1 UseB2=F ITyADJ=14
 ICtDFT=  3500011 ScaDFX=  1.000000  1.000000  1.000000  1.000000
 FoFCou: FMM=F IPFlag=           0 FMFlag=      100000 FMFlg1=           0
         NFxFlg=           0 DoJE=T BraDBF=F KetDBF=T FulRan=T
         wScrn=  0.000000 ICntrl=       500 IOpCl=  0 I1Cent=   200000004 NGrid=           0
         NMat0=    1 NMatS0=      1 NMatT0=    0 NMatD0=    1 NMtDS0=    0 NMtDT0=    0
 Petite list used in FoFCou.
 Initial guess orbital symmetries:
       Occupied  (A1) (A1) (A1) (A1) (A1) (A1) (A1) (B2) (B1) (B2)
                 (B1)
       Virtual   (B2) (B1) (A1) (B2) (A1) (A1) (B1) (A1) (B2) (A1)
                 (B1) (B2) (B2) (A1) (A1) (A2) (A1) (B1) (A1) (B2)
                 (B1) (A1) (A2) (B2) (B2) (A1) (B1) (A1) (B1) (A1)
                 (A2) (B2) (A1) (A1) (B2) (A2) (A1) (A1) (B1) (B2)
                 (A1)
 The electronic state of the initial guess is 1-A1.
 SCF Done:  E(RHF) =  -151.739333497     A.U. after   12 cycles
            NFock= 12  Conv=0.57D-08     -V/T= 2.0020
 ExpMin= 1.22D-01 ExpMax= 1.17D+04 ExpMxC= 4.01D+02 IAcc=3 IRadAn=         5 AccDes= 0.00D+00
 HarFok:  IExCor=  205 AccDes= 0.00D+00 IRadAn=         5 IDoV=-2 UseB2=F ITyADJ=14
 ICtDFT= 12500011 ScaDFX=  1.000000  1.000000  1.000000  1.000000
 NROrb=     49 NOA=     8 NOB=     8 NVA=    41 NVB=    41
 ANorm=    0.1070987229D+01
 E2 =    -0.4376169328D+00 EUMP2 =    -0.15217695043008D+03

 **********************************************************************

            Population analysis using the SCF Density.

 **********************************************************************

 Orbital symmetries:
       Occupied  (A1) (A1) (A1) (A1) (A1) (A1) (A1) (B2) (B1) (B2)
                 (B1)
       Virtual   (B2) (A1) (B1) (B2) (A1) (A1) (B1) (B2) (A1) (A1)
                 (B1) (B2) (B2) (A1) (A1) (A2) (A1) (B1) (B2) (A1)
                 (B1) (A1) (A2) (B2) (B2) (A1) (B1) (A1) (B1) (A2)
                 (A1) (B2) (A1) (A1) (B2) (A2) (A1) (A1) (B1) (B2)
                 (A1)
 The electronic state is 1-A1.
 Alpha  occ. eigenvalues --  -20.63374 -11.39325 -11.24822  -1.47433  -1.04776
 Alpha  occ. eigenvalues --   -0.75658  -0.67429  -0.64832  -0.63922  -0.55484
 Alpha  occ. eigenvalues --   -0.36136
 Alpha virt. eigenvalues --    0.13141   0.19148   0.22214   0.26613   0.35993
 Alpha virt. eigenvalues --    0.42631   0.64369   0.67120   0.67584   0.69399
 Alpha virt. eigenvalues --    0.75944   0.83869   0.91017   0.95907   1.02614
 Alpha virt. eigenvalues --    1.12197   1.19335   1.27252   1.30302   1.32218
 Alpha virt. eigenvalues --    1.35132   1.35509   1.38287   1.67477   1.69843
 Alpha virt. eigenvalues --    1.78132   1.86413   2.02786   2.15165   2.16718
 Alpha virt. eigenvalues --    2.17267   2.32734   2.49655   2.82341   2.86169
 Alpha virt. eigenvalues --    2.97201   2.99380   3.16191   3.59128   3.74745
 Alpha virt. eigenvalues --    3.88640
          Condensed to atoms (all electrons):
 Mulliken charges:
               1
     1  C   -0.241810
     2  C    0.235749
     3  O   -0.209565
     4  H    0.107813
     5  H    0.107813
 Sum of Mulliken charges =   0.00000
 Mulliken charges with hydrogens summed into heavy atoms:
               1
     1  C   -0.026184
     2  C    0.235749
     3  O   -0.209565
 Electronic spatial extent (au):  <R**2>=            145.4718
 Charge=              0.0000 electrons
 Dipole moment (field-independent basis, Debye):
    X=             -0.0000    Y=              0.0000    Z=             -1.6463  Tot=              1.6463
 Unable to Open any file for archive entry.
 1\1\GINC-NODE05\SP\RMP2-FC\CC-pVDZ\C2H2O1\XUHJ\20-Dec-2023\0\\#T MP2/c
 c-pVDZ symm=veryloose\\C=C=O\\0,1\C,0,0.,0.,-1.21325\C,0,0.,0.,0.10549
 9\O,0,0.,0.,1.269947\H,0,0.,-0.949272,-1.756535\H,0,0.,0.949272,-1.756
 535\\Version=ES64L-G16RevC.01\State=1-A1\HF=-151.7393335\MP2=-152.1769
 504\RMSD=5.661e-09\PG=C02V [C2(C1C1O1),SGV(H2)]\\@
 The archive entry for this job was punched.


 IT IS UNWORTHY OF EXCELLENT MEN TO LOSE HOURS LIKE SLAVES IN THE LABOR
 OF CALCULATION WHICH COULD BE SAFELY RELEGATED TO ANYONE ELSE
 IF A MACHINE WERE USED.
    -- G.W. VON LEIBNIZ
 Job cpu time:       0 days  0 hours  0 minutes 10.2 seconds.
 Elapsed time:       0 days  0 hours  0 minutes  0.8 seconds.
 File lengths (MBytes):  RWF=     17 Int=      0 D2E=      0 Chk=      2 Scr=      2
 Normal termination of Gaussian 16 at Wed Dec 20 12:21:27 2023.
