%nprocshared=8
%mem=10400MB
#T MP2/cc-pVDZ symm=veryloose

c1ccc2cc3c(ccc4c5cc6ccccc6cc5ccc34)cc2c1

0 1
C        -5.048772      -4.869467      -0.000000
C        -3.829732      -5.608954      -0.000000
C        -2.620509      -4.955924      -0.000000
C        -2.556849      -3.528272      -0.000000
C        -1.332663      -2.835894      -0.000000
C        -1.259890      -1.438114      -0.000000
C        -2.500660      -0.699417       0.000000
C        -2.449382       0.732156       0.000000
C        -1.259890       1.398232       0.000000
C        -0.001019       0.705363       0.000000
C         1.259890       1.438114      -0.000000
C         1.332663       2.835894      -0.000000
C         2.556849       3.528272      -0.000000
C         2.620509       4.955924      -0.000000
C         3.829732       5.608954      -0.000000
C         5.048772       4.869467      -0.000000
C         5.027840       3.495438       0.000000
C         3.789892       2.782142       0.000000
C         3.721858       1.380286       0.000000
C         2.500660       0.699417      -0.000000
C         2.449382      -0.732156      -0.000000
C         1.259890      -1.398232       0.000000
C         0.001019      -0.705363       0.000000
C        -3.721858      -1.380286       0.000000
C        -3.789892      -2.782142       0.000000
C        -5.027840      -3.495438       0.000000
H        -6.003092      -5.404416      -0.000000
H        -3.863226      -6.702430      -0.000000
H        -1.683451      -5.521604      -0.000000
H        -0.422028      -3.436794      -0.000000
H        -3.392303       1.287108       0.000000
H        -1.272308       2.488410       0.000000
H         0.422028       3.436794      -0.000000
H         1.683451       5.521604      -0.000000
H         3.863226       6.702430      -0.000000
H         6.003092       5.404416      -0.000000
H         5.961295       2.924088       0.000000
H         4.650862       0.801244      -0.000000
H         3.392303      -1.287108       0.000000
H         1.272308      -2.488410       0.000000
H        -4.650862      -0.801244       0.000000
H        -5.961295      -2.924088       0.000000


