 Entering Gaussian System, Link 0=g16
 Initial command:
 /opt/g16/l1.exe "/tmp/Gau-2064323.inp" -scrdir="/tmp/"
 Entering Link 1 = /opt/g16/l1.exe PID=   2064325.
  
 Copyright (c) 1988-2019, Gaussian, Inc.  All Rights Reserved.
  
 This is part of the Gaussian(R) 16 program.  It is based on
 the Gaussian(R) 09 system (copyright 2009, Gaussian, Inc.),
 the Gaussian(R) 03 system (copyright 2003, Gaussian, Inc.),
 the Gaussian(R) 98 system (copyright 1998, Gaussian, Inc.),
 the Gaussian(R) 94 system (copyright 1995, Gaussian, Inc.),
 the Gaussian 92(TM) system (copyright 1992, Gaussian, Inc.),
 the Gaussian 90(TM) system (copyright 1990, Gaussian, Inc.),
 the Gaussian 88(TM) system (copyright 1988, Gaussian, Inc.),
 the Gaussian 86(TM) system (copyright 1986, Carnegie Mellon
 University), and the Gaussian 82(TM) system (copyright 1983,
 Carnegie Mellon University). Gaussian is a federally registered
 trademark of Gaussian, Inc.
  
 This software contains proprietary and confidential information,
 including trade secrets, belonging to Gaussian, Inc.
  
 This software is provided under written license and may be
 used, copied, transmitted, or stored only in accord with that
 written license.
  
 The following legend is applicable only to US Government
 contracts under FAR:
  
                    RESTRICTED RIGHTS LEGEND
  
 Use, reproduction and disclosure by the US Government is
 subject to restrictions as set forth in subparagraphs (a)
 and (c) of the Commercial Computer Software - Restricted
 Rights clause in FAR 52.227-19.
  
 Gaussian, Inc.
 340 Quinnipiac St., Bldg. 40, Wallingford CT 06492
  
  
 ---------------------------------------------------------------
 Warning -- This program may not be used in any manner that
 competes with the business of Gaussian, Inc. or will provide
 assistance to any competitor of Gaussian, Inc.  The licensee
 of this program is prohibited from giving any competitor of
 Gaussian, Inc. access to this program.  By using this program,
 the user acknowledges that Gaussian, Inc. is engaged in the
 business of creating and licensing software in the field of
 computational chemistry and represents and warrants to the
 licensee that it is not a competitor of Gaussian, Inc. and that
 it will not use this program in any manner prohibited above.
 ---------------------------------------------------------------
  

 Cite this work as:
 Gaussian 16, Revision C.01,
 M. J. Frisch, G. W. Trucks, H. B. Schlegel, G. E. Scuseria, 
 M. A. Robb, J. R. Cheeseman, G. Scalmani, V. Barone, 
 G. A. Petersson, H. Nakatsuji, X. Li, M. Caricato, A. V. Marenich, 
 J. Bloino, B. G. Janesko, R. Gomperts, B. Mennucci, H. P. Hratchian, 
 J. V. Ortiz, A. F. Izmaylov, J. L. Sonnenberg, D. Williams-Young, 
 F. Ding, F. Lipparini, F. Egidi, J. Goings, B. Peng, A. Petrone, 
 T. Henderson, D. Ranasinghe, V. G. Zakrzewski, J. Gao, N. Rega, 
 G. Zheng, W. Liang, M. Hada, M. Ehara, K. Toyota, R. Fukuda, 
 J. Hasegawa, M. Ishida, T. Nakajima, Y. Honda, O. Kitao, H. Nakai, 
 T. Vreven, K. Throssell, J. A. Montgomery, Jr., J. E. Peralta, 
 F. Ogliaro, M. J. Bearpark, J. J. Heyd, E. N. Brothers, K. N. Kudin, 
 V. N. Staroverov, T. A. Keith, R. Kobayashi, J. Normand, 
 K. Raghavachari, A. P. Rendell, J. C. Burant, S. S. Iyengar, 
 J. Tomasi, M. Cossi, J. M. Millam, M. Klene, C. Adamo, R. Cammi, 
 J. W. Ochterski, R. L. Martin, K. Morokuma, O. Farkas, 
 J. B. Foresman, and D. J. Fox, Gaussian, Inc., Wallingford CT, 2019.
 
 ******************************************
 Gaussian 16:  ES64L-G16RevC.01  3-Jul-2019
                 6-Nov-2024 
 ******************************************
 %nprocshared=16
 Will use up to   16 processors via shared memory.
 %mem=2400MB
 -------------------------------
 #T ROMP2/cc-pVDZ symm=veryloose
 -------------------------------
 --------
 C#C[CH2]
 --------
 Symbolic Z-matrix:
 Charge =  0 Multiplicity = 2
 C                     0.        0.        1.34726 
 C                     0.        0.        0.11487 
 C                     0.        0.       -1.25842 
 H                     0.        0.        2.42159 
 H                     0.       -0.94044  -1.82192 
 H                     0.        0.94044  -1.82192 
 
                    Distance matrix (angstroms):
                    1          2          3          4          5
     1  C    0.000000
     2  C    1.232387   0.000000
     3  C    2.605676   1.373289   0.000000
     4  H    1.074334   2.306721   3.680010   0.000000
     5  H    3.305768   2.153040   1.096341   4.346470   0.000000
     6  H    3.305768   2.153040   1.096341   4.346470   1.880886
                    6
     6  H    0.000000
 Framework group  C2V[C2(CCCH),SGV(H2)]
 Deg. of freedom     5
                         Standard orientation:                         
 ---------------------------------------------------------------------
 Center     Atomic      Atomic             Coordinates (Angstroms)
 Number     Number       Type             X           Y           Z
 ---------------------------------------------------------------------
      1          6           0       -0.000000    0.000000    1.347257
      2          6           0       -0.000000    0.000000    0.114870
      3          6           0        0.000000    0.000000   -1.258419
      4          1           0       -0.000000    0.000000    2.421591
      5          1           0        0.000000    0.940443   -1.821918
      6          1           0       -0.000000   -0.940443   -1.821918
 ---------------------------------------------------------------------
 Rotational constants (GHZ):         283.4895825           9.4452769           9.1407271
    57 basis functions,   120 primitive gaussians,    60 cartesian basis functions
    11 alpha electrons       10 beta electrons
       nuclear repulsion energy        53.0231612634 Hartrees.
 NAtoms=    6 NActive=    6 NUniq=    5 SFac= 1.44D+00 NAtFMM=   60 NAOKFM=F Big=F
 ExpMin= 1.22D-01 ExpMax= 6.67D+03 ExpMxC= 2.28D+02 IAcc=3 IRadAn=         5 AccDes= 0.00D+00
 Harris functional with IExCor=  205 and IRadAn=       5 diagonalized for initial guess.
 HarFok:  IExCor=  205 AccDes= 0.00D+00 IRadAn=         5 IDoV= 1 UseB2=F ITyADJ=14
 ICtDFT=  3500011 ScaDFX=  1.000000  1.000000  1.000000  1.000000
 FoFCou: FMM=F IPFlag=           0 FMFlag=      100000 FMFlg1=           0
         NFxFlg=           0 DoJE=T BraDBF=F KetDBF=T FulRan=T
         wScrn=  0.000000 ICntrl=       500 IOpCl=  0 I1Cent=   200000004 NGrid=           0
         NMat0=    1 NMatS0=      1 NMatT0=    0 NMatD0=    1 NMtDS0=    0 NMtDT0=    0
 Petite list used in FoFCou.
 Initial guess orbital symmetries:
       Occupied  (A1) (A1) (A1) (A1) (A1) (A1) (A1) (B2) (B1) (B2)
                 (B1)
       Virtual   (B2) (B1) (A1) (A1) (B2) (A1) (A1) (A1) (B1) (B2)
                 (A1) (B1) (B2) (B2) (B1) (A1) (B2) (A1) (A1) (A2)
                 (B1) (A1) (A1) (A2) (A1) (B2) (A1) (B1) (A2) (A1)
                 (B2) (B2) (A1) (B1) (A1) (B1) (B2) (A2) (A1) (A1)
                 (B2) (B1) (A1) (A1) (B2) (A1)
 The electronic state of the initial guess is 2-B1.
 SCF Done:  E(ROHF) =  -115.242614791     A.U. after   15 cycles
            NFock= 15  Conv=0.49D-08     -V/T= 2.0022
 <Sx>= 0.0000 <Sy>= 0.0000 <Sz>= 0.5000 <S**2>= 0.7500 S= 0.5000
 <L.S>=  0.00000000000    
 Annihilation of the first spin contaminant:
 S**2 before annihilation     0.7500,   after     0.7500
 GenMOA:  NOpAll=  4 NOp2=4 NOpUse=  4 JSym2X=1
 <Sx>= 0.0000 <Sy>= 0.0000 <Sz>= 0.5000 <S**2>= 0.7500 S= 0.5000
 ExpMin= 1.22D-01 ExpMax= 6.67D+03 ExpMxC= 2.28D+02 IAcc=3 IRadAn=         5 AccDes= 0.00D+00
 HarFok:  IExCor=  205 AccDes= 0.00D+00 IRadAn=         5 IDoV=-2 UseB2=F ITyADJ=14
 ICtDFT= 12500011 ScaDFX=  1.000000  1.000000  1.000000  1.000000
 NROrb=     54 NOA=     8 NOB=     7 NVA=    46 NVB=    47

 **** Warning!!: The largest alpha MO coefficient is  0.19587583D+02


 **** Warning!!: The largest beta MO coefficient is  0.20609808D+02

 Singles contribution to E2=   -0.4306152337D-02
 ANorm=    0.1074724655D+01
 E2 =    -0.3786559237D+00 EUMP2 =    -0.11562127071470D+03

 **********************************************************************

            Population analysis using the SCF Density.

 **********************************************************************

 Orbital symmetries:
       Occupied  (A1) (A1) (A1) (A1) (A1) (A1) (A1) (B2) (B1) (B2)
                 (B1)
       Virtual   (B2) (A1) (A1) (B1) (B2) (A1) (A1) (A1) (B1) (B2)
                 (A1) (B1) (B2) (B2) (A1) (B1) (B2) (A1) (A1) (A2)
                 (B1) (A1) (A2) (A1) (A1) (B2) (A1) (B1) (A1) (A2)
                 (B2) (B2) (A1) (B1) (A1) (B1) (A2) (B2) (A1) (A1)
                 (B2) (B1) (A1) (A1) (B2) (A1)
 The electronic state is 2-B1.
 Alpha  occ. eigenvalues --  -11.27337 -11.25247 -11.24784  -1.07452  -0.95680
 Alpha  occ. eigenvalues --   -0.72662  -0.65191  -0.61839  -0.49261  -0.38643
 Alpha  occ. eigenvalues --   -0.31835
 Alpha virt. eigenvalues --    0.18439   0.19376   0.20600   0.23791   0.27553
 Alpha virt. eigenvalues --    0.41558   0.49793   0.57229   0.64287   0.66281
 Alpha virt. eigenvalues --    0.67315   0.70583   0.82255   0.83630   0.83926
 Alpha virt. eigenvalues --    0.86807   0.95153   0.95954   1.10225   1.11764
 Alpha virt. eigenvalues --    1.20444   1.21419   1.28220   1.28996   1.36957
 Alpha virt. eigenvalues --    1.45061   1.52976   1.58944   1.62231   1.65159
 Alpha virt. eigenvalues --    1.71052   1.76943   1.81433   1.87450   2.03117
 Alpha virt. eigenvalues --    2.10154   2.16003   2.20611   2.31532   2.52052
 Alpha virt. eigenvalues --    2.61916   2.69846   2.84711   3.00308   3.15999
 Alpha virt. eigenvalues --    3.50583
          Condensed to atoms (all electrons):
          Atomic-Atomic Spin Densities.
 Mulliken charges and spin densities:
               1          2
     1  C   -0.319599   0.167705
     2  C    0.110930   0.015967
     3  C   -0.037118   0.804849
     4  H    0.060713   0.001283
     5  H    0.092538   0.005098
     6  H    0.092538   0.005098
 Sum of Mulliken charges =   0.00000   1.00000
 Mulliken charges and spin densities with hydrogens summed into heavy atoms:
               1          2
     1  C   -0.258887   0.168988
     2  C    0.110930   0.015967
     3  C    0.147957   0.815045
 Electronic spatial extent (au):  <R**2>=            162.0973
 Charge=              0.0000 electrons
 Dipole moment (field-independent basis, Debye):
    X=             -0.0000    Y=              0.0000    Z=             -0.3275  Tot=              0.3275
                          Isotropic Fermi Contact Couplings
        Atom                 a.u.       MegaHertz       Gauss      10(-4) cm-1
     1  C(13)             -0.00000      -0.00000      -0.00000      -0.00000
     2  C(13)             -0.00000      -0.00000      -0.00000      -0.00000
     3  C(13)             -0.00000      -0.00000      -0.00000      -0.00000
     4  H(1)              -0.00000      -0.00000      -0.00000      -0.00000
     5  H(1)               0.00000       0.00000       0.00000       0.00000
     6  H(1)               0.00000       0.00000       0.00000       0.00000
 --------------------------------------------------------
       Center         ----  Spin Dipole Couplings  ----
                      3XX-RR        3YY-RR        3ZZ-RR
 --------------------------------------------------------
     1   Atom        0.191209     -0.105652     -0.085557
     2   Atom       -0.014813     -0.042489      0.057302
     3   Atom        0.931905     -0.468269     -0.463636
     4   Atom       -0.001327     -0.014762      0.016089
     5   Atom        0.000595      0.024349     -0.024945
     6   Atom        0.000595      0.024349     -0.024945
 --------------------------------------------------------
                        XY            XZ            YZ
 --------------------------------------------------------
     1   Atom        0.000000      0.000000     -0.000000
     2   Atom        0.000000      0.000000     -0.000000
     3   Atom       -0.000000     -0.000000      0.000000
     4   Atom        0.000000      0.000000      0.000000
     5   Atom        0.000000     -0.000000     -0.047784
     6   Atom       -0.000000     -0.000000      0.047784
 --------------------------------------------------------


 ---------------------------------------------------------------------------------
              Anisotropic Spin Dipole Couplings in Principal Axis System
 ---------------------------------------------------------------------------------

       Atom             a.u.   MegaHertz   Gauss  10(-4) cm-1        Axes

              Baa    -0.1057   -14.178    -5.059    -4.729 -0.0000  1.0000 -0.0000
     1 C(13)  Bbb    -0.0856   -11.481    -4.097    -3.830  0.0000  0.0000  1.0000
              Bcc     0.1912    25.658     9.156     8.559  1.0000 -0.0000  0.0000
 
              Baa    -0.0425    -5.702    -2.035    -1.902 -0.0000  1.0000 -0.0000
     2 C(13)  Bbb    -0.0148    -1.988    -0.709    -0.663  1.0000  0.0000  0.0000
              Bcc     0.0573     7.689     2.744     2.565  0.0000  0.0000  1.0000
 
              Baa    -0.4683   -62.837   -22.422   -20.960  0.0000  1.0000  0.0000
     3 C(13)  Bbb    -0.4636   -62.216   -22.200   -20.753  0.0000  0.0000  1.0000
              Bcc     0.9319   125.053    44.622    41.713  1.0000  0.0000  0.0000
 
              Baa    -0.0148    -7.876    -2.811    -2.627 -0.0000  1.0000  0.0000
     4 H(1)   Bbb    -0.0013    -0.708    -0.253    -0.236  1.0000  0.0000 -0.0000
              Bcc     0.0161     8.585     3.063     2.864  0.0000  0.0000  1.0000
 
              Baa    -0.0541   -28.846   -10.293    -9.622  0.0000  0.5204  0.8539
     5 H(1)   Bbb     0.0006     0.318     0.113     0.106  1.0000 -0.0000  0.0000
              Bcc     0.0535    28.528    10.180     9.516  0.0000  0.8539 -0.5204
 
              Baa    -0.0541   -28.846   -10.293    -9.622 -0.0000 -0.5204  0.8539
     6 H(1)   Bbb     0.0006     0.318     0.113     0.106  1.0000  0.0000  0.0000
              Bcc     0.0535    28.528    10.180     9.516 -0.0000  0.8539  0.5204
 

 ---------------------------------------------------------------------------------

 Unable to Open any file for archive entry.
 1\1\GINC-NODE01\SP\ROMP2-FC\CC-pVDZ\C3H3(2)\XUHJ\06-Nov-2024\0\\#T ROM
 P2/cc-pVDZ symm=veryloose\\C#C[CH2]\\0,2\C,0,0.,0.,1.347257\C,0,0.,0.,
 0.11487\C,0,0.,0.,-1.258419\H,0,0.,0.,2.421591\H,0,0.,-0.940443,-1.821
 918\H,0,0.,0.940443,-1.821918\\Version=ES64L-G16RevC.01\State=2-B1\HF=
 -115.2426148\MP2=-115.6212707\RMSD=4.863e-09\PG=C02V [C2(C1C1C1H1),SGV
 (H2)]\\@
 The archive entry for this job was punched.


 REALITY IS FOR PEOPLE WHO CAN'T FACE SCIENCE FICTION.
 Job cpu time:       0 days  0 hours  0 minutes 10.8 seconds.
 Elapsed time:       0 days  0 hours  0 minutes  0.7 seconds.
 File lengths (MBytes):  RWF=      6 Int=      0 D2E=      0 Chk=      1 Scr=      1
 Normal termination of Gaussian 16 at Wed Nov  6 12:29:01 2024.
