 Entering Gaussian System, Link 0=g16
 Initial command:
 /opt/g16/l1.exe "/tmp/Gau-2065001.inp" -scrdir="/tmp/"
 Entering Link 1 = /opt/g16/l1.exe PID=   2065003.
  
 Copyright (c) 1988-2019, Gaussian, Inc.  All Rights Reserved.
  
 This is part of the Gaussian(R) 16 program.  It is based on
 the Gaussian(R) 09 system (copyright 2009, Gaussian, Inc.),
 the Gaussian(R) 03 system (copyright 2003, Gaussian, Inc.),
 the Gaussian(R) 98 system (copyright 1998, Gaussian, Inc.),
 the Gaussian(R) 94 system (copyright 1995, Gaussian, Inc.),
 the Gaussian 92(TM) system (copyright 1992, Gaussian, Inc.),
 the Gaussian 90(TM) system (copyright 1990, Gaussian, Inc.),
 the Gaussian 88(TM) system (copyright 1988, Gaussian, Inc.),
 the Gaussian 86(TM) system (copyright 1986, Carnegie Mellon
 University), and the Gaussian 82(TM) system (copyright 1983,
 Carnegie Mellon University). Gaussian is a federally registered
 trademark of Gaussian, Inc.
  
 This software contains proprietary and confidential information,
 including trade secrets, belonging to Gaussian, Inc.
  
 This software is provided under written license and may be
 used, copied, transmitted, or stored only in accord with that
 written license.
  
 The following legend is applicable only to US Government
 contracts under FAR:
  
                    RESTRICTED RIGHTS LEGEND
  
 Use, reproduction and disclosure by the US Government is
 subject to restrictions as set forth in subparagraphs (a)
 and (c) of the Commercial Computer Software - Restricted
 Rights clause in FAR 52.227-19.
  
 Gaussian, Inc.
 340 Quinnipiac St., Bldg. 40, Wallingford CT 06492
  
  
 ---------------------------------------------------------------
 Warning -- This program may not be used in any manner that
 competes with the business of Gaussian, Inc. or will provide
 assistance to any competitor of Gaussian, Inc.  The licensee
 of this program is prohibited from giving any competitor of
 Gaussian, Inc. access to this program.  By using this program,
 the user acknowledges that Gaussian, Inc. is engaged in the
 business of creating and licensing software in the field of
 computational chemistry and represents and warrants to the
 licensee that it is not a competitor of Gaussian, Inc. and that
 it will not use this program in any manner prohibited above.
 ---------------------------------------------------------------
  

 Cite this work as:
 Gaussian 16, Revision C.01,
 M. J. Frisch, G. W. Trucks, H. B. Schlegel, G. E. Scuseria, 
 M. A. Robb, J. R. Cheeseman, G. Scalmani, V. Barone, 
 G. A. Petersson, H. Nakatsuji, X. Li, M. Caricato, A. V. Marenich, 
 J. Bloino, B. G. Janesko, R. Gomperts, B. Mennucci, H. P. Hratchian, 
 J. V. Ortiz, A. F. Izmaylov, J. L. Sonnenberg, D. Williams-Young, 
 F. Ding, F. Lipparini, F. Egidi, J. Goings, B. Peng, A. Petrone, 
 T. Henderson, D. Ranasinghe, V. G. Zakrzewski, J. Gao, N. Rega, 
 G. Zheng, W. Liang, M. Hada, M. Ehara, K. Toyota, R. Fukuda, 
 J. Hasegawa, M. Ishida, T. Nakajima, Y. Honda, O. Kitao, H. Nakai, 
 T. Vreven, K. Throssell, J. A. Montgomery, Jr., J. E. Peralta, 
 F. Ogliaro, M. J. Bearpark, J. J. Heyd, E. N. Brothers, K. N. Kudin, 
 V. N. Staroverov, T. A. Keith, R. Kobayashi, J. Normand, 
 K. Raghavachari, A. P. Rendell, J. C. Burant, S. S. Iyengar, 
 J. Tomasi, M. Cossi, J. M. Millam, M. Klene, C. Adamo, R. Cammi, 
 J. W. Ochterski, R. L. Martin, K. Morokuma, O. Farkas, 
 J. B. Foresman, and D. J. Fox, Gaussian, Inc., Wallingford CT, 2019.
 
 ******************************************
 Gaussian 16:  ES64L-G16RevC.01  3-Jul-2019
                 6-Nov-2024 
 ******************************************
 %nprocshared=16
 Will use up to   16 processors via shared memory.
 %mem=2400MB
 -------------------------------
 #T ROMP2/cc-pVDZ symm=veryloose
 -------------------------------
 ------
 C=C[O]
 ------
 Symbolic Z-matrix:
 Charge =  0 Multiplicity = 2
 C                    -1.05506  -0.53992   0. 
 C                     0.        0.4267    0. 
 O                     1.19363   0.12731   0. 
 H                    -2.10741  -0.23473   0. 
 H                    -0.79856  -1.60549   0. 
 H                    -0.31274   1.50112   0. 
 
                    Distance matrix (angstroms):
                    1          2          3          4          5
     1  C    0.000000
     2  C    1.430909   0.000000
     3  O    2.345590   1.230605   0.000000
     4  H    1.095715   2.208770   3.320835   0.000000
     5  H    1.096000   2.183456   2.640344   1.895270   0.000000
     6  H    2.171845   1.119014   2.038750   2.496808   3.144369
                    6
     6  H    0.000000
 Framework group  CS[SG(C2H3O)]
 Deg. of freedom     9
                         Standard orientation:                         
 ---------------------------------------------------------------------
 Center     Atomic      Atomic             Coordinates (Angstroms)
 Number     Number       Type             X           Y           Z
 ---------------------------------------------------------------------
      1          6           0       -1.055056   -0.539924    0.000000
      2          6           0        0.000000    0.426697    0.000000
      3          8           0        1.193631    0.127307    0.000000
      4          1           0       -2.107410   -0.234732    0.000000
      5          1           0       -0.798564   -1.605488    0.000000
      6          1           0       -0.312735    1.501122    0.000000
 ---------------------------------------------------------------------
 Rotational constants (GHZ):          66.9900739          11.3702604           9.7204101
    57 basis functions,   120 primitive gaussians,    60 cartesian basis functions
    12 alpha electrons       11 beta electrons
       nuclear repulsion energy        63.3828710899 Hartrees.
 NAtoms=    6 NActive=    6 NUniq=    6 SFac= 1.00D+00 NAtFMM=   60 NAOKFM=F Big=F
 ExpMin= 1.22D-01 ExpMax= 1.17D+04 ExpMxC= 4.01D+02 IAcc=3 IRadAn=         5 AccDes= 0.00D+00
 Harris functional with IExCor=  205 and IRadAn=       5 diagonalized for initial guess.
 HarFok:  IExCor=  205 AccDes= 0.00D+00 IRadAn=         5 IDoV= 1 UseB2=F ITyADJ=14
 ICtDFT=  3500011 ScaDFX=  1.000000  1.000000  1.000000  1.000000
 FoFCou: FMM=F IPFlag=           0 FMFlag=      100000 FMFlg1=           0
         NFxFlg=           0 DoJE=T BraDBF=F KetDBF=T FulRan=T
         wScrn=  0.000000 ICntrl=       500 IOpCl=  0 I1Cent=   200000004 NGrid=           0
         NMat0=    1 NMatS0=      1 NMatT0=    0 NMatD0=    1 NMtDS0=    0 NMtDT0=    0
 Petite list used in FoFCou.
 Initial guess orbital symmetries:
       Occupied  (A') (A') (A') (A') (A') (A') (A') (A') (A') (A")
                 (A') (A")
       Virtual   (A") (A') (A') (A') (A') (A') (A') (A") (A') (A')
                 (A") (A') (A') (A') (A') (A') (A") (A") (A') (A")
                 (A') (A') (A") (A') (A') (A') (A') (A") (A') (A")
                 (A') (A") (A') (A") (A') (A') (A') (A') (A') (A')
                 (A") (A') (A") (A') (A')
 The electronic state of the initial guess is 2-A".
 SCF Done:  E(ROHF) =  -152.297416785     A.U. after   14 cycles
            NFock= 14  Conv=0.32D-08     -V/T= 2.0015
 <Sx>= 0.0000 <Sy>= 0.0000 <Sz>= 0.5000 <S**2>= 0.7500 S= 0.5000
 <L.S>=  0.00000000000    
 Annihilation of the first spin contaminant:
 S**2 before annihilation     0.7500,   after     0.7500
 GenMOA:  NOpAll=  2 NOp2=2 NOpUse=  2 JSym2X=1
 <Sx>= 0.0000 <Sy>= 0.0000 <Sz>= 0.5000 <S**2>= 0.7500 S= 0.5000
 ExpMin= 1.22D-01 ExpMax= 1.17D+04 ExpMxC= 4.01D+02 IAcc=3 IRadAn=         5 AccDes= 0.00D+00
 HarFok:  IExCor=  205 AccDes= 0.00D+00 IRadAn=         5 IDoV=-2 UseB2=F ITyADJ=14
 ICtDFT= 12500011 ScaDFX=  1.000000  1.000000  1.000000  1.000000
 NROrb=     54 NOA=     9 NOB=     8 NVA=    45 NVB=    46
 Singles contribution to E2=   -0.3169679349D-02
 ANorm=    0.1068174378D+01
 E2 =    -0.4333015412D+00 EUMP2 =    -0.15273071832633D+03

 **********************************************************************

            Population analysis using the SCF Density.

 **********************************************************************

 Orbital symmetries:
       Occupied  (A') (A') (A') (A') (A') (A') (A') (A') (A') (A")
                 (A') (A")
       Virtual   (A") (A') (A') (A') (A') (A') (A') (A") (A') (A')
                 (A") (A') (A') (A') (A') (A') (A") (A') (A") (A')
                 (A") (A') (A") (A') (A') (A') (A") (A') (A') (A")
                 (A') (A") (A') (A") (A') (A') (A') (A') (A') (A')
                 (A") (A') (A") (A') (A')
 The electronic state is 2-A".
 Alpha  occ. eigenvalues --  -20.55877 -11.33996 -11.28284  -1.38515  -1.04103
 Alpha  occ. eigenvalues --   -0.79935  -0.68624  -0.63665  -0.58137  -0.56163
 Alpha  occ. eigenvalues --   -0.43561  -0.39293
 Alpha virt. eigenvalues --    0.16973   0.19024   0.20987   0.25295   0.38839
 Alpha virt. eigenvalues --    0.43330   0.62740   0.63294   0.65656   0.68862
 Alpha virt. eigenvalues --    0.72540   0.83976   0.85997   0.90368   0.94250
 Alpha virt. eigenvalues --    1.02362   1.10045   1.15238   1.17118   1.26240
 Alpha virt. eigenvalues --    1.30821   1.37751   1.39310   1.57412   1.67832
 Alpha virt. eigenvalues --    1.75309   1.79322   1.81565   1.85949   1.91017
 Alpha virt. eigenvalues --    2.01652   2.04453   2.15087   2.18061   2.28068
 Alpha virt. eigenvalues --    2.44425   2.53760   2.66850   2.86322   2.99483
 Alpha virt. eigenvalues --    3.04927   3.23418   3.43160   3.78088   3.83992
          Condensed to atoms (all electrons):
          Atomic-Atomic Spin Densities.
 Mulliken charges and spin densities:
               1          2
     1  C   -0.070945   0.847304
     2  C    0.218636   0.039267
     3  O   -0.338958   0.103767
     4  H    0.077501   0.004931
     5  H    0.089473   0.004565
     6  H    0.024292   0.000166
 Sum of Mulliken charges =   0.00000   1.00000
 Mulliken charges and spin densities with hydrogens summed into heavy atoms:
               1          2
     1  C    0.096029   0.856799
     2  C    0.242929   0.039433
     3  O   -0.338958   0.103767
 Electronic spatial extent (au):  <R**2>=            151.3709
 Charge=              0.0000 electrons
 Dipole moment (field-independent basis, Debye):
    X=             -3.2960    Y=              0.1348    Z=              0.0000  Tot=              3.2987
                          Isotropic Fermi Contact Couplings
        Atom                 a.u.       MegaHertz       Gauss      10(-4) cm-1
     1  C(13)              0.00000       0.00000       0.00000       0.00000
     2  C(13)             -0.00000      -0.00000      -0.00000      -0.00000
     3  O(17)              0.00000      -0.00000      -0.00000      -0.00000
     4  H(1)              -0.00000      -0.00000      -0.00000      -0.00000
     5  H(1)               0.00000       0.00000       0.00000       0.00000
     6  H(1)               0.00000       0.00000       0.00000       0.00000
 --------------------------------------------------------
       Center         ----  Spin Dipole Couplings  ----
                      3XX-RR        3YY-RR        3ZZ-RR
 --------------------------------------------------------
     1   Atom       -0.475697     -0.476433      0.952130
     2   Atom        0.007027     -0.019005      0.011979
     3   Atom       -0.177590     -0.199152      0.376741
     4   Atom        0.049087     -0.048878     -0.000209
     5   Atom       -0.049324      0.050708     -0.001384
     6   Atom       -0.008512      0.018004     -0.009492
 --------------------------------------------------------
                        XY            XZ            YZ
 --------------------------------------------------------
     1   Atom        0.004735      0.000000      0.000000
     2   Atom        0.035459      0.000000      0.000000
     3   Atom        0.005462      0.000000      0.000000
     4   Atom       -0.027171      0.000000      0.000000
     5   Atom       -0.022432      0.000000      0.000000
     6   Atom        0.007472      0.000000      0.000000
 --------------------------------------------------------


 ---------------------------------------------------------------------------------
              Anisotropic Spin Dipole Couplings in Principal Axis System
 ---------------------------------------------------------------------------------

       Atom             a.u.   MegaHertz   Gauss  10(-4) cm-1        Axes

              Baa    -0.4808   -64.521   -23.023   -21.522 -0.6792  0.7340  0.0000
     1 C(13)  Bbb    -0.4713   -63.246   -22.568   -21.097  0.7340  0.6792  0.0000
              Bcc     0.9521   127.767    45.590    42.618  0.0000  0.0000  1.0000
 
              Baa    -0.0438    -5.872    -2.095    -1.959 -0.5725  0.8199  0.0000
     2 C(13)  Bbb     0.0120     1.607     0.574     0.536  0.0000  0.0000  1.0000
              Bcc     0.0318     4.265     1.522     1.423  0.8199  0.5725  0.0000
 
              Baa    -0.2005    14.505     5.176     4.838 -0.2323  0.9726  0.0000
     3 O(17)  Bbb    -0.1763    12.756     4.552     4.255  0.9726  0.2323  0.0000
              Bcc     0.3767   -27.261    -9.727    -9.093  0.0000  0.0000  1.0000
 
              Baa    -0.0559   -29.831   -10.644    -9.950  0.2505  0.9681  0.0000
     4 H(1)   Bbb    -0.0002    -0.112    -0.040    -0.037  0.0000  0.0000  1.0000
              Bcc     0.0561    29.942    10.684     9.988  0.9681 -0.2505 -0.0000
 
              Baa    -0.0541   -28.878   -10.304    -9.633  0.9779  0.2092  0.0000
     5 H(1)   Bbb    -0.0014    -0.738    -0.264    -0.246  0.0000  0.0000  1.0000
              Bcc     0.0555    29.616    10.568     9.879 -0.2092  0.9779  0.0000
 
              Baa    -0.0105    -5.588    -1.994    -1.864  0.9673 -0.2538 -0.0000
     6 H(1)   Bbb    -0.0095    -5.065    -1.807    -1.689  0.0000  0.0000  1.0000
              Bcc     0.0200    10.652     3.801     3.553  0.2538  0.9673  0.0000
 

 ---------------------------------------------------------------------------------

 Unable to Open any file for archive entry.
 1\1\GINC-NODE01\SP\ROMP2-FC\CC-pVDZ\C2H3O1(2)\XUHJ\06-Nov-2024\0\\#T R
 OMP2/cc-pVDZ symm=veryloose\\C=C[O]\\0,2\C,0,-1.055056,-0.539924,0.\C,
 0,0.,0.426697,0.\O,0,1.193631,0.127308,0.\H,0,-2.10741,-0.234733,0.\H,
 0,-0.798563,-1.605488,0.\H,0,-0.312735,1.501122,0.\\Version=ES64L-G16R
 evC.01\State=2-A"\HF=-152.2974168\MP2=-152.7307183\RMSD=3.162e-09\PG=C
 S [SG(C2H3O1)]\\@
 The archive entry for this job was punched.


 Happiness is a conscious choice, not an automatic response.
 -- Mildred Barthel
 Job cpu time:       0 days  0 hours  0 minutes 11.1 seconds.
 Elapsed time:       0 days  0 hours  0 minutes  0.7 seconds.
 File lengths (MBytes):  RWF=      6 Int=      0 D2E=      0 Chk=      1 Scr=      1
 Normal termination of Gaussian 16 at Wed Nov  6 12:29:07 2024.
