 Entering Gaussian System, Link 0=g16
 Initial command:
 /opt/g16/l1.exe "/tmp/Gau-2107880.inp" -scrdir="/tmp/"
 Entering Link 1 = /opt/g16/l1.exe PID=   2107882.
  
 Copyright (c) 1988-2019, Gaussian, Inc.  All Rights Reserved.
  
 This is part of the Gaussian(R) 16 program.  It is based on
 the Gaussian(R) 09 system (copyright 2009, Gaussian, Inc.),
 the Gaussian(R) 03 system (copyright 2003, Gaussian, Inc.),
 the Gaussian(R) 98 system (copyright 1998, Gaussian, Inc.),
 the Gaussian(R) 94 system (copyright 1995, Gaussian, Inc.),
 the Gaussian 92(TM) system (copyright 1992, Gaussian, Inc.),
 the Gaussian 90(TM) system (copyright 1990, Gaussian, Inc.),
 the Gaussian 88(TM) system (copyright 1988, Gaussian, Inc.),
 the Gaussian 86(TM) system (copyright 1986, Carnegie Mellon
 University), and the Gaussian 82(TM) system (copyright 1983,
 Carnegie Mellon University). Gaussian is a federally registered
 trademark of Gaussian, Inc.
  
 This software contains proprietary and confidential information,
 including trade secrets, belonging to Gaussian, Inc.
  
 This software is provided under written license and may be
 used, copied, transmitted, or stored only in accord with that
 written license.
  
 The following legend is applicable only to US Government
 contracts under FAR:
  
                    RESTRICTED RIGHTS LEGEND
  
 Use, reproduction and disclosure by the US Government is
 subject to restrictions as set forth in subparagraphs (a)
 and (c) of the Commercial Computer Software - Restricted
 Rights clause in FAR 52.227-19.
  
 Gaussian, Inc.
 340 Quinnipiac St., Bldg. 40, Wallingford CT 06492
  
  
 ---------------------------------------------------------------
 Warning -- This program may not be used in any manner that
 competes with the business of Gaussian, Inc. or will provide
 assistance to any competitor of Gaussian, Inc.  The licensee
 of this program is prohibited from giving any competitor of
 Gaussian, Inc. access to this program.  By using this program,
 the user acknowledges that Gaussian, Inc. is engaged in the
 business of creating and licensing software in the field of
 computational chemistry and represents and warrants to the
 licensee that it is not a competitor of Gaussian, Inc. and that
 it will not use this program in any manner prohibited above.
 ---------------------------------------------------------------
  

 Cite this work as:
 Gaussian 16, Revision C.01,
 M. J. Frisch, G. W. Trucks, H. B. Schlegel, G. E. Scuseria, 
 M. A. Robb, J. R. Cheeseman, G. Scalmani, V. Barone, 
 G. A. Petersson, H. Nakatsuji, X. Li, M. Caricato, A. V. Marenich, 
 J. Bloino, B. G. Janesko, R. Gomperts, B. Mennucci, H. P. Hratchian, 
 J. V. Ortiz, A. F. Izmaylov, J. L. Sonnenberg, D. Williams-Young, 
 F. Ding, F. Lipparini, F. Egidi, J. Goings, B. Peng, A. Petrone, 
 T. Henderson, D. Ranasinghe, V. G. Zakrzewski, J. Gao, N. Rega, 
 G. Zheng, W. Liang, M. Hada, M. Ehara, K. Toyota, R. Fukuda, 
 J. Hasegawa, M. Ishida, T. Nakajima, Y. Honda, O. Kitao, H. Nakai, 
 T. Vreven, K. Throssell, J. A. Montgomery, Jr., J. E. Peralta, 
 F. Ogliaro, M. J. Bearpark, J. J. Heyd, E. N. Brothers, K. N. Kudin, 
 V. N. Staroverov, T. A. Keith, R. Kobayashi, J. Normand, 
 K. Raghavachari, A. P. Rendell, J. C. Burant, S. S. Iyengar, 
 J. Tomasi, M. Cossi, J. M. Millam, M. Klene, C. Adamo, R. Cammi, 
 J. W. Ochterski, R. L. Martin, K. Morokuma, O. Farkas, 
 J. B. Foresman, and D. J. Fox, Gaussian, Inc., Wallingford CT, 2019.
 
 ******************************************
 Gaussian 16:  ES64L-G16RevC.01  3-Jul-2019
                13-Jan-2025 
 ******************************************
 %nprocshared=16
 Will use up to   16 processors via shared memory.
 %mem=3200MB
 -----------------------------
 #T MP2/cc-pVDZ symm=veryloose
 -----------------------------
 -------
 O=C=C=O
 -------
 Symbolic Z-matrix:
 Charge =  0 Multiplicity = 1
 C                     0.        0.        0.64841 
 C                     0.        0.       -0.64841 
 O                     0.        0.        1.83778 
 O                     0.        0.       -1.83778 
 
                    Distance matrix (angstroms):
                    1          2          3          4
     1  C    0.000000
     2  C    1.296826   0.000000
     3  O    1.189368   2.486194   0.000000
     4  O    2.486194   1.189368   3.675562   0.000000
 Framework group  D*H[C*(OC.CO)]
 Deg. of freedom     2
                         Standard orientation:                         
 ---------------------------------------------------------------------
 Center     Atomic      Atomic             Coordinates (Angstroms)
 Number     Number       Type             X           Y           Z
 ---------------------------------------------------------------------
      1          6           0        0.000000    0.000000    0.648413
      2          6           0        0.000000    0.000000   -0.648413
      3          8           0        0.000000    0.000000    1.837781
      4          8           0        0.000000    0.000000   -1.837781
 ---------------------------------------------------------------------
 Rotational constants (GHZ):           0.0000000           4.2780061           4.2780061
    56 basis functions,   132 primitive gaussians,    60 cartesian basis functions
    14 alpha electrons       14 beta electrons
       nuclear repulsion energy        87.0500544635 Hartrees.
 NAtoms=    4 NActive=    4 NUniq=    2 SFac= 4.00D+00 NAtFMM=   60 NAOKFM=F Big=F
 ExpMin= 1.52D-01 ExpMax= 1.17D+04 ExpMxC= 4.01D+02 IAcc=3 IRadAn=         5 AccDes= 0.00D+00
 Harris functional with IExCor=  205 and IRadAn=       5 diagonalized for initial guess.
 HarFok:  IExCor=  205 AccDes= 0.00D+00 IRadAn=         5 IDoV= 1 UseB2=F ITyADJ=14
 ICtDFT=  3500011 ScaDFX=  1.000000  1.000000  1.000000  1.000000
 FoFCou: FMM=F IPFlag=           0 FMFlag=      100000 FMFlg1=           0
         NFxFlg=           0 DoJE=T BraDBF=F KetDBF=T FulRan=T
         wScrn=  0.000000 ICntrl=       500 IOpCl=  0 I1Cent=   200000004 NGrid=           0
         NMat0=    1 NMatS0=      1 NMatT0=    0 NMatD0=    1 NMtDS0=    0 NMtDT0=    0
 Petite list used in FoFCou.
 Initial guess orbital symmetries:
       Occupied  (SGU) (SGG) (SGG) (SGU) (SGG) (SGU) (SGG) (SGU)
                 (SGG) (PIU) (PIU) (PIG) (PIG) (PIU)
       Virtual   (PIU) (PIG) (PIG) (SGU) (SGG) (SGU) (PIU) (PIU)
                 (SGG) (PIG) (PIG) (SGG) (SGU) (SGG) (PIU) (PIU)
                 (DLTG) (DLTG) (SGU) (PIG) (PIG) (PIU) (PIU) (SGU)
                 (DLTU) (DLTU) (PIG) (PIG) (SGG) (SGU) (DLTG) (DLTG)
                 (SGG) (DLTU) (DLTU) (SGU) (PIU) (PIU) (SGG) (PIG)
                 (PIG) (SGU)
 SCF Done:  E(RHF) =  -225.346626177     A.U. after   11 cycles
            NFock= 11  Conv=0.28D-08     -V/T= 2.0017
 ExpMin= 1.52D-01 ExpMax= 1.17D+04 ExpMxC= 4.01D+02 IAcc=3 IRadAn=         5 AccDes= 0.00D+00
 HarFok:  IExCor=  205 AccDes= 0.00D+00 IRadAn=         5 IDoV=-2 UseB2=F ITyADJ=14
 ICtDFT= 12500011 ScaDFX=  1.000000  1.000000  1.000000  1.000000
 NROrb=     52 NOA=    10 NOB=    10 NVA=    42 NVB=    42

 **** Warning!!: The largest alpha MO coefficient is  0.10728010D+02

 ANorm=    0.1096790168D+01
 E2 =    -0.6073852920D+00 EUMP2 =    -0.22595401146895D+03

 **********************************************************************

            Population analysis using the SCF Density.

 **********************************************************************

 Orbital symmetries:
       Occupied  (SGU) (SGG) (SGG) (SGU) (SGG) (SGU) (SGG) (SGU)
                 (SGG) (PIU) (PIU) (?A) (?A) (?B)
       Virtual   (?B) (?A) (SGU) (?A) (SGG) (SGU) (?B) (?B) (SGG)
                 (PIG) (PIG) (SGG) (SGU) (?C) (?C) (?C) (?B) (?B)
                 (SGU) (PIG) (PIG) (?B) (?B) (SGU) (DLTU) (DLTU)
                 (PIG) (PIG) (SGG) (SGU) (?D) (?D) (?D) (DLTU)
                 (DLTU) (SGU) (PIU) (PIU) (PIG) (PIG) (SGG) (SGU)
 Unable to determine electronic state:  an orbital has unidentified symmetry.
 Alpha  occ. eigenvalues --  -20.65988 -20.65988 -11.40707 -11.40518  -1.47733
 Alpha  occ. eigenvalues --   -1.46863  -1.06446  -0.76203  -0.73576  -0.68932
 Alpha  occ. eigenvalues --   -0.63599  -0.62666  -0.56343  -0.35403
 Alpha virt. eigenvalues --   -0.01005   0.25469   0.26191   0.30745   0.34593
 Alpha virt. eigenvalues --    0.51346   0.59687   0.59721   0.67696   0.72087
 Alpha virt. eigenvalues --    0.73059   0.95038   1.01201   1.13979   1.14032
 Alpha virt. eigenvalues --    1.17825   1.23014   1.23907   1.26064   1.33151
 Alpha virt. eigenvalues --    1.33890   1.36986   1.37119   1.45915   1.49527
 Alpha virt. eigenvalues --    1.49543   2.05166   2.06241   2.12288   2.16215
 Alpha virt. eigenvalues --    2.92382   2.92438   2.92931   2.96273   2.96276
 Alpha virt. eigenvalues --    3.29955   3.33048   3.34144   3.79588   3.81166
 Alpha virt. eigenvalues --    3.83141   3.86685
          Condensed to atoms (all electrons):
 Mulliken charges:
               1
     1  C    0.177207
     2  C    0.177207
     3  O   -0.177207
     4  O   -0.177207
 Sum of Mulliken charges =  -0.00000
 Mulliken charges with hydrogens summed into heavy atoms:
               1
     1  C    0.177207
     2  C    0.177207
     3  O   -0.177207
     4  O   -0.177207
 Electronic spatial extent (au):  <R**2>=            262.6383
 Charge=             -0.0000 electrons
 Dipole moment (field-independent basis, Debye):
    X=             -0.0000    Y=              0.0000    Z=             -0.0000  Tot=              0.0000
 Unable to Open any file for archive entry.
 1\1\GINC-NODE01\SP\RMP2-FC\CC-pVDZ\C2O2\XUHJ\13-Jan-2025\0\\#T MP2/cc-
 pVDZ symm=veryloose\\O=C=C=O\\0,1\C,0,0.,0.,0.648413\C,0,0.,0.,-0.6484
 13\O,0,0.,0.,1.837781\O,0,0.,0.,-1.837781\\Version=ES64L-G16RevC.01\HF
 =-225.3466262\MP2=-225.9540115\RMSD=2.803e-09\PG=D*H [C*(O1C1.C1O1)]\\
 @
 The archive entry for this job was punched.


 THE 2ND LAW OF THERMODYNAMICS HAS THE SAME
 DEGREE OF TRUTH AS THE STATEMENT THAT IF YOU THROW
 A TUMBLERFULL OF WATER INTO THE SEA, YOU CANNOT GET
 THE SAME TUMBLERFULL OF WATER OUT AGAIN.
          - J.C. MAXWELL, LETTER TO LORD RAYLEIGH, DECEMBER 6,1870
 Job cpu time:       0 days  0 hours  0 minutes  6.9 seconds.
 Elapsed time:       0 days  0 hours  0 minutes  0.4 seconds.
 File lengths (MBytes):  RWF=      6 Int=      0 D2E=      0 Chk=      1 Scr=      1
 Normal termination of Gaussian 16 at Mon Jan 13 11:30:18 2025.
