 Entering Gaussian System, Link 0=g16
 Initial command:
 /home/software/g16/l1.exe "/home/software/g16tmp/Gau-156856.inp" -scrdir="/home/software/g16tmp/"
 Default is to use a total of   8 processors:
                                8 via shared-memory
                                1 via Linda
 Entering Link 1 = /home/software/g16/l1.exe PID=    156857.
  
 Copyright (c) 1988-2019, Gaussian, Inc.  All Rights Reserved.
  
 This is part of the Gaussian(R) 16 program.  It is based on
 the Gaussian(R) 09 system (copyright 2009, Gaussian, Inc.),
 the Gaussian(R) 03 system (copyright 2003, Gaussian, Inc.),
 the Gaussian(R) 98 system (copyright 1998, Gaussian, Inc.),
 the Gaussian(R) 94 system (copyright 1995, Gaussian, Inc.),
 the Gaussian 92(TM) system (copyright 1992, Gaussian, Inc.),
 the Gaussian 90(TM) system (copyright 1990, Gaussian, Inc.),
 the Gaussian 88(TM) system (copyright 1988, Gaussian, Inc.),
 the Gaussian 86(TM) system (copyright 1986, Carnegie Mellon
 University), and the Gaussian 82(TM) system (copyright 1983,
 Carnegie Mellon University). Gaussian is a federally registered
 trademark of Gaussian, Inc.
  
 This software contains proprietary and confidential information,
 including trade secrets, belonging to Gaussian, Inc.
  
 This software is provided under written license and may be
 used, copied, transmitted, or stored only in accord with that
 written license.
  
 The following legend is applicable only to US Government
 contracts under FAR:
  
                    RESTRICTED RIGHTS LEGEND
  
 Use, reproduction and disclosure by the US Government is
 subject to restrictions as set forth in subparagraphs (a)
 and (c) of the Commercial Computer Software - Restricted
 Rights clause in FAR 52.227-19.
  
 Gaussian, Inc.
 340 Quinnipiac St., Bldg. 40, Wallingford CT 06492
  
  
 ---------------------------------------------------------------
 Warning -- This program may not be used in any manner that
 competes with the business of Gaussian, Inc. or will provide
 assistance to any competitor of Gaussian, Inc.  The licensee
 of this program is prohibited from giving any competitor of
 Gaussian, Inc. access to this program.  By using this program,
 the user acknowledges that Gaussian, Inc. is engaged in the
 business of creating and licensing software in the field of
 computational chemistry and represents and warrants to the
 licensee that it is not a competitor of Gaussian, Inc. and that
 it will not use this program in any manner prohibited above.
 ---------------------------------------------------------------
  

 Cite this work as:
 Gaussian 16, Revision C.01,
 M. J. Frisch, G. W. Trucks, H. B. Schlegel, G. E. Scuseria, 
 M. A. Robb, J. R. Cheeseman, G. Scalmani, V. Barone, 
 G. A. Petersson, H. Nakatsuji, X. Li, M. Caricato, A. V. Marenich, 
 J. Bloino, B. G. Janesko, R. Gomperts, B. Mennucci, H. P. Hratchian, 
 J. V. Ortiz, A. F. Izmaylov, J. L. Sonnenberg, D. Williams-Young, 
 F. Ding, F. Lipparini, F. Egidi, J. Goings, B. Peng, A. Petrone, 
 T. Henderson, D. Ranasinghe, V. G. Zakrzewski, J. Gao, N. Rega, 
 G. Zheng, W. Liang, M. Hada, M. Ehara, K. Toyota, R. Fukuda, 
 J. Hasegawa, M. Ishida, T. Nakajima, Y. Honda, O. Kitao, H. Nakai, 
 T. Vreven, K. Throssell, J. A. Montgomery, Jr., J. E. Peralta, 
 F. Ogliaro, M. J. Bearpark, J. J. Heyd, E. N. Brothers, K. N. Kudin, 
 V. N. Staroverov, T. A. Keith, R. Kobayashi, J. Normand, 
 K. Raghavachari, A. P. Rendell, J. C. Burant, S. S. Iyengar, 
 J. Tomasi, M. Cossi, J. M. Millam, M. Klene, C. Adamo, R. Cammi, 
 J. W. Ochterski, R. L. Martin, K. Morokuma, O. Farkas, 
 J. B. Foresman, and D. J. Fox, Gaussian, Inc., Wallingford CT, 2019.
 
 ******************************************
 Gaussian 16:  ES64L-G16RevC.01  3-Jul-2019
                20-Dec-2023 
 ******************************************
 %nprocshared=16
 Will use up to   16 processors via shared memory.
 %mem=640MB
 -----------------------------
 #T MP2/cc-pVDZ symm=veryloose
 -----------------------------
 ----
 C[O]
 ----
 Symbolic Z-matrix:
 Charge =  0 Multiplicity = 2
 C                    -0.28653  -0.22959   0.43187 
 O                     0.42236   0.31234  -0.58812 
 H                    -0.14492   0.28817   1.4096 
 H                    -0.15097  -1.33034   0.54507 
 H                    -1.36378  -0.07899   0.15908 
 
                    Distance matrix (angstroms):
                    1          2          3          4          5
     1  C    0.000000
     2  O    1.355200   0.000000
     3  H    1.115381   2.076836   0.000000
     4  H    1.114823   2.076340   1.834937   0.000000
     5  H    1.121410   1.975272   1.784431   1.784869   0.000000
 This structure is nearly, but not quite of a higher symmetry.
 Consider Symm=Loose if the higher symmetry is desired.
 Framework group  C1[X(CH3O)]
 Deg. of freedom     9
                         Standard orientation:                         
 ---------------------------------------------------------------------
 Center     Atomic      Atomic             Coordinates (Angstroms)
 Number     Number       Type             X           Y           Z
 ---------------------------------------------------------------------
      1          6           0        0.168177   -0.473994    0.261465
      2          8           0       -0.207237    0.666060   -0.367746
      3          1           0        0.722146   -0.305973    1.214861
      4          1           0        0.714749   -1.194210   -0.390747
      5          1           0       -0.788067   -0.984330    0.549067
 ---------------------------------------------------------------------
 Rotational constants (GHZ):         154.7277476          28.1448142          27.9469968
    43 basis functions,    87 primitive gaussians,    45 cartesian basis functions
     9 alpha electrons        8 beta electrons
       nuclear repulsion energy        34.3708785609 Hartrees.
 NAtoms=    5 NActive=    5 NUniq=    5 SFac= 1.00D+00 NAtFMM=   60 NAOKFM=F Big=F
 ExpMin= 1.22D-01 ExpMax= 1.17D+04 ExpMxC= 4.01D+02 IAcc=3 IRadAn=         5 AccDes= 0.00D+00
 Harris functional with IExCor=  205 and IRadAn=       5 diagonalized for initial guess.
 HarFok:  IExCor=  205 AccDes= 0.00D+00 IRadAn=         5 IDoV= 1 UseB2=F ITyADJ=14
 ICtDFT=  3500011 ScaDFX=  1.000000  1.000000  1.000000  1.000000
 FoFCou: FMM=F IPFlag=           0 FMFlag=      100000 FMFlg1=           0
         NFxFlg=           0 DoJE=T BraDBF=F KetDBF=T FulRan=T
         wScrn=  0.000000 ICntrl=       500 IOpCl=  0 I1Cent=   200000004 NGrid=           0
         NMat0=    1 NMatS0=      1 NMatT0=    0 NMatD0=    1 NMtDS0=    0 NMtDT0=    0
 Petite list used in FoFCou.
 Initial guess <Sx>= 0.0000 <Sy>= 0.0000 <Sz>= 0.5000 <S**2>= 0.7500 S= 0.5000
 SCF Done:  E(UHF) =  -114.428491001     A.U. after   21 cycles
            NFock= 21  Conv=0.22D-08     -V/T= 2.0006
 <Sx>= 0.0000 <Sy>= 0.0000 <Sz>= 0.5000 <S**2>= 0.7581 S= 0.5041
 <L.S>=  0.00000000000    
 Annihilation of the first spin contaminant:
 S**2 before annihilation     0.7581,   after     0.7500
 ExpMin= 1.22D-01 ExpMax= 1.17D+04 ExpMxC= 4.01D+02 IAcc=3 IRadAn=         5 AccDes= 0.00D+00
 HarFok:  IExCor=  205 AccDes= 0.00D+00 IRadAn=         5 IDoV=-2 UseB2=F ITyADJ=14
 ICtDFT= 12500011 ScaDFX=  1.000000  1.000000  1.000000  1.000000
 NROrb=     41 NOA=     7 NOB=     6 NVA=    34 NVB=    35
 (S**2,0)=  0.75815D+00           (S**2,1)=  0.75162D+00
 E(PUHF)=      -0.11443188030D+03        E(PMP2)=      -0.11471860334D+03
 ANorm=    0.1040419035D+01
 E2 =    -0.2880763466D+00 EUMP2 =    -0.11471656734729D+03

 **********************************************************************

            Population analysis using the SCF Density.

 **********************************************************************

 Orbital symmetries:
 Alpha Orbitals:
       Occupied  (A) (A) (A) (A) (A) (A) (A) (A) (A)
       Virtual   (A) (A) (A) (A) (A) (A) (A) (A) (A) (A) (A) (A)
                 (A) (A) (A) (A) (A) (A) (A) (A) (A) (A) (A) (A)
                 (A) (A) (A) (A) (A) (A) (A) (A) (A) (A)
 Beta  Orbitals:
       Occupied  (A) (A) (A) (A) (A) (A) (A) (A)
       Virtual   (A) (A) (A) (A) (A) (A) (A) (A) (A) (A) (A) (A)
                 (A) (A) (A) (A) (A) (A) (A) (A) (A) (A) (A) (A)
                 (A) (A) (A) (A) (A) (A) (A) (A) (A) (A) (A)
 The electronic state is 2-A.
 Alpha  occ. eigenvalues --  -20.61545 -11.29093  -1.40821  -0.91399  -0.69948
 Alpha  occ. eigenvalues --   -0.64870  -0.62573  -0.50616  -0.46957
 Alpha virt. eigenvalues --    0.18654   0.25118   0.26031   0.32177   0.59818
 Alpha virt. eigenvalues --    0.64174   0.75654   0.82667   0.83744   0.85046
 Alpha virt. eigenvalues --    1.08584   1.10911   1.12984   1.20612   1.30335
 Alpha virt. eigenvalues --    1.32344   1.64509   1.81081   1.83400   1.86866
 Alpha virt. eigenvalues --    1.89479   1.92874   1.98898   2.24236   2.29589
 Alpha virt. eigenvalues --    2.36907   2.65565   2.65789   2.68691   2.97778
 Alpha virt. eigenvalues --    2.98718   3.32337   3.42041   3.59308
  Beta  occ. eigenvalues --  -20.57535 -11.29413  -1.27960  -0.88343  -0.63321
  Beta  occ. eigenvalues --   -0.59183  -0.57321  -0.43734
  Beta virt. eigenvalues --    0.12550   0.18790   0.26014   0.26854   0.33522
  Beta virt. eigenvalues --    0.61808   0.64654   0.76576   0.82822   0.83563
  Beta virt. eigenvalues --    0.86498   1.10605   1.13765   1.19002   1.22268
  Beta virt. eigenvalues --    1.33641   1.40213   1.65071   1.82413   1.83852
  Beta virt. eigenvalues --    1.87873   1.89695   1.94306   2.01418   2.25891
  Beta virt. eigenvalues --    2.30561   2.38489   2.66886   2.67429   2.69422
  Beta virt. eigenvalues --    3.07697   3.08391   3.41447   3.43551   3.63586
          Condensed to atoms (all electrons):
          Atomic-Atomic Spin Densities.
 Mulliken charges and spin densities:
               1          2
     1  C    0.116501  -0.135467
     2  O   -0.244701   1.001053
     3  H    0.034677   0.019791
     4  H    0.034678   0.019620
     5  H    0.058845   0.095003
 Sum of Mulliken charges =  -0.00000   1.00000
 Mulliken charges and spin densities with hydrogens summed into heavy atoms:
               1          2
     1  C    0.244701  -0.001053
     2  O   -0.244701   1.001053
 Electronic spatial extent (au):  <R**2>=             74.3243
 Charge=             -0.0000 electrons
 Dipole moment (field-independent basis, Debye):
    X=              0.3728    Y=             -1.6031    Z=              0.8856  Tot=              1.8690
 Unable to Open any file for archive entry.
 1\1\GINC-NODE05\SP\UMP2-FC\CC-pVDZ\C1H3O1(2)\XUHJ\20-Dec-2023\0\\#T MP
 2/cc-pVDZ symm=veryloose\\C[O]\\0,2\C,0,-0.286527,-0.22959,0.431867\O,
 0,0.422355,0.312336,-0.588118\H,0,-0.144924,0.288167,1.409595\H,0,-0.1
 50974,-1.330336,0.545068\H,0,-1.363776,-0.078985,0.159078\\Version=ES6
 4L-G16RevC.01\State=2-A\HF=-114.428491\MP2=-114.7165673\PUHF=-114.4318
 803\PMP2-0=-114.7186033\S2=0.758148\S2-1=0.751618\S2A=0.750049\RMSD=2.
 194e-09\PG=C01 [X(C1H3O1)]\\@
 The archive entry for this job was punched.


  ON THE CHOICE OF THE CORRECT LANGUAGE -
 I SPEAK SPANISH TO GOD, ITALIAN TO WOMEN,
 FRENCH TO MEN, AND GERMAN TO MY HORSE.
          -- CHARLES V
 Job cpu time:       0 days  0 hours  0 minutes 10.1 seconds.
 Elapsed time:       0 days  0 hours  0 minutes  0.8 seconds.
 File lengths (MBytes):  RWF=     17 Int=      0 D2E=      0 Chk=      2 Scr=      2
 Normal termination of Gaussian 16 at Wed Dec 20 12:21:35 2023.
