%nprocshared=32
%mem=32000MB
#T MP2/cc-pVDZ symm=veryloose 

c1ccc2cc3c(cc2c1)-c1cccc2cccc-3c12

0 1
C         0.000000       0.708017      -5.040526
C        -0.000000      -0.708017      -5.040526
C        -0.000000      -1.402274      -3.846410
C        -0.000000      -0.719358      -2.601102
C        -0.000000      -1.422375      -1.359394
C        -0.000000      -0.725718      -0.175056
C         0.000000       0.725718      -0.175056
C         0.000000       1.422375      -1.359394
C         0.000000       0.719358      -2.601102
C         0.000000       1.402274      -3.846410
C         0.000000       1.176095       1.230002
C         0.000000       2.403494       1.867210
C         0.000000       2.434664       3.291154
C         0.000000       1.280384       4.061773
C         0.000000       0.000000       3.434691
C        -0.000000      -1.280384       4.061773
C        -0.000000      -2.434664       3.291154
C        -0.000000      -2.403494       1.867210
C        -0.000000      -1.176095       1.230002
C         0.000000       0.000000       2.027795
H         0.000000       1.250985      -5.990306
H        -0.000000      -1.250985      -5.990306
H        -0.000000      -2.496830      -3.843681
H        -0.000000      -2.516650      -1.370385
H         0.000000       2.516650      -1.370385
H         0.000000       2.496830      -3.843681
H         0.000000       3.341799       1.305025
H         0.000000       3.407508       3.792156
H         0.000000       1.350321       5.153836
H        -0.000000      -1.350321       5.153836
H        -0.000000      -3.407508       3.792156
H        -0.000000      -3.341799       1.305025


