%nprocshared=8
%mem=10400MB
#T MP2/cc-pVDZ symm=veryloose

c1ccc2cc3c(ccc4cc5c(ccc6ccccc65)cc43)cc2c1

0 1
C        -3.884571       5.665611      -0.000000
C        -4.688670       4.491552      -0.000000
C        -4.101436       3.246658      -0.000000
C        -2.682104       3.106975      -0.000000
C        -2.051916       1.844436      -0.000000
C        -0.666672       1.700615       0.000000
C         0.143005       2.895581       0.000000
C         1.582007       2.776697       0.000000
C         2.193393       1.564503       0.000000
C         1.433193       0.337084       0.000000
C         2.083329      -0.902591       0.000000
C         1.388237      -2.120630       0.000000
C        -0.043729      -2.064525      -0.000000
C        -0.800392      -3.287040      -0.000000
C        -0.181119      -4.499498      -0.000000
C         1.253828      -4.605740      -0.000000
C         1.884688      -5.871887      -0.000000
C         3.264833      -5.983284       0.000000
C         4.055430      -4.817975       0.000000
C         3.457322      -3.566813       0.000000
C         2.050591      -3.421284       0.000000
C        -0.693927      -0.818332      -0.000000
C         0.000000       0.393072       0.000000
C        -0.469381       4.147797       0.000000
C        -1.870199       4.294239       0.000000
C        -2.511732       5.567981       0.000000
H        -4.365067       6.648476      -0.000000
H        -5.778726       4.584204      -0.000000
H        -4.717592       2.341992      -0.000000
H        -2.696319       0.962860      -0.000000
H         2.173194       3.697399       0.000000
H         3.285358       1.493267       0.000000
H         3.175030      -0.895900       0.000000
H        -1.892656      -3.220326      -0.000000
H        -0.768104      -5.422969      -0.000000
H         1.257995      -6.769177      -0.000000
H         3.739045      -6.969048       0.000000
H         5.146496      -4.897463       0.000000
H         4.095558      -2.681372       0.000000
H        -1.785793      -0.825053      -0.000000
H         0.157457       5.045267       0.000000
H        -1.889927       6.468628       0.000000


