 Entering Gaussian System, Link 0=g16
 Initial command:
 /home/software/g16/l1.exe "/home/software/g16tmp/Gau-150840.inp" -scrdir="/home/software/g16tmp/"
 Default is to use a total of   8 processors:
                                8 via shared-memory
                                1 via Linda
 Entering Link 1 = /home/software/g16/l1.exe PID=    150841.
  
 Copyright (c) 1988-2019, Gaussian, Inc.  All Rights Reserved.
  
 This is part of the Gaussian(R) 16 program.  It is based on
 the Gaussian(R) 09 system (copyright 2009, Gaussian, Inc.),
 the Gaussian(R) 03 system (copyright 2003, Gaussian, Inc.),
 the Gaussian(R) 98 system (copyright 1998, Gaussian, Inc.),
 the Gaussian(R) 94 system (copyright 1995, Gaussian, Inc.),
 the Gaussian 92(TM) system (copyright 1992, Gaussian, Inc.),
 the Gaussian 90(TM) system (copyright 1990, Gaussian, Inc.),
 the Gaussian 88(TM) system (copyright 1988, Gaussian, Inc.),
 the Gaussian 86(TM) system (copyright 1986, Carnegie Mellon
 University), and the Gaussian 82(TM) system (copyright 1983,
 Carnegie Mellon University). Gaussian is a federally registered
 trademark of Gaussian, Inc.
  
 This software contains proprietary and confidential information,
 including trade secrets, belonging to Gaussian, Inc.
  
 This software is provided under written license and may be
 used, copied, transmitted, or stored only in accord with that
 written license.
  
 The following legend is applicable only to US Government
 contracts under FAR:
  
                    RESTRICTED RIGHTS LEGEND
  
 Use, reproduction and disclosure by the US Government is
 subject to restrictions as set forth in subparagraphs (a)
 and (c) of the Commercial Computer Software - Restricted
 Rights clause in FAR 52.227-19.
  
 Gaussian, Inc.
 340 Quinnipiac St., Bldg. 40, Wallingford CT 06492
  
  
 ---------------------------------------------------------------
 Warning -- This program may not be used in any manner that
 competes with the business of Gaussian, Inc. or will provide
 assistance to any competitor of Gaussian, Inc.  The licensee
 of this program is prohibited from giving any competitor of
 Gaussian, Inc. access to this program.  By using this program,
 the user acknowledges that Gaussian, Inc. is engaged in the
 business of creating and licensing software in the field of
 computational chemistry and represents and warrants to the
 licensee that it is not a competitor of Gaussian, Inc. and that
 it will not use this program in any manner prohibited above.
 ---------------------------------------------------------------
  

 Cite this work as:
 Gaussian 16, Revision C.01,
 M. J. Frisch, G. W. Trucks, H. B. Schlegel, G. E. Scuseria, 
 M. A. Robb, J. R. Cheeseman, G. Scalmani, V. Barone, 
 G. A. Petersson, H. Nakatsuji, X. Li, M. Caricato, A. V. Marenich, 
 J. Bloino, B. G. Janesko, R. Gomperts, B. Mennucci, H. P. Hratchian, 
 J. V. Ortiz, A. F. Izmaylov, J. L. Sonnenberg, D. Williams-Young, 
 F. Ding, F. Lipparini, F. Egidi, J. Goings, B. Peng, A. Petrone, 
 T. Henderson, D. Ranasinghe, V. G. Zakrzewski, J. Gao, N. Rega, 
 G. Zheng, W. Liang, M. Hada, M. Ehara, K. Toyota, R. Fukuda, 
 J. Hasegawa, M. Ishida, T. Nakajima, Y. Honda, O. Kitao, H. Nakai, 
 T. Vreven, K. Throssell, J. A. Montgomery, Jr., J. E. Peralta, 
 F. Ogliaro, M. J. Bearpark, J. J. Heyd, E. N. Brothers, K. N. Kudin, 
 V. N. Staroverov, T. A. Keith, R. Kobayashi, J. Normand, 
 K. Raghavachari, A. P. Rendell, J. C. Burant, S. S. Iyengar, 
 J. Tomasi, M. Cossi, J. M. Millam, M. Klene, C. Adamo, R. Cammi, 
 J. W. Ochterski, R. L. Martin, K. Morokuma, O. Farkas, 
 J. B. Foresman, and D. J. Fox, Gaussian, Inc., Wallingford CT, 2019.
 
 ******************************************
 Gaussian 16:  ES64L-G16RevC.01  3-Jul-2019
                20-Dec-2023 
 ******************************************
 %nprocshared=16
 Will use up to   16 processors via shared memory.
 %mem=1280MB
 -----------------------------
 #T MP2/cc-pVDZ symm=veryloose
 -----------------------------
 -----
 CC=CC
 -----
 Symbolic Z-matrix:
 Charge =  0 Multiplicity = 1
 C                     0.       -1.96625   0. 
 C                     0.41666  -0.52404   0. 
 C                    -0.41666   0.52404   0. 
 C                     0.        1.96625   0. 
 H                     0.39412  -2.49958  -0.88689 
 H                    -1.0992   -2.07133   0. 
 H                     0.39412  -2.49958   0.88689 
 H                     1.50035  -0.33189   0. 
 H                    -1.50035   0.33189   0. 
 H                     1.0992    2.07133   0. 
 H                    -0.39412   2.49958   0.88689 
 H                    -0.39412   2.49958  -0.88689 
 
                    Distance matrix (angstroms):
                    1          2          3          4          5
     1  C    0.000000
     2  C    1.501188   0.000000
     3  C    2.524910   1.338999   0.000000
     4  C    3.932500   2.524910   1.501188   0.000000
     5  H    1.107400   2.165596   3.253646   4.570066   0.000000
     6  H    1.104215   2.166092   2.683627   4.184536   1.788844
     7  H    1.107400   2.165596   3.253646   4.570066   1.773774
     8  H    2.218593   1.100586   2.099416   2.744540   2.590204
     9  H    2.744540   2.099416   1.100586   2.218593   3.520338
    10  H    4.184536   2.683627   2.166092   1.104215   4.709241
    11  H    4.570066   3.253646   2.165596   1.107400   5.362754
    12  H    4.570066   3.253646   2.165596   1.107400   5.060914
                    6          7          8          9         10
     6  H    0.000000
     7  H    1.788844   0.000000
     8  H    3.127827   2.590204   0.000000
     9  H    2.436478   3.520338   3.073232   0.000000
    10  H    4.689851   4.709241   2.436478   3.127827   0.000000
    11  H    4.709241   5.060914   3.520338   2.590204   1.788844
    12  H    4.709241   5.362754   3.520338   2.590204   1.788844
                   11         12
    11  H    0.000000
    12  H    1.773774   0.000000
 Framework group  C2H[SGH(C4H4),X(H4)]
 Deg. of freedom    10
                         Standard orientation:                         
 ---------------------------------------------------------------------
 Center     Atomic      Atomic             Coordinates (Angstroms)
 Number     Number       Type             X           Y           Z
 ---------------------------------------------------------------------
      1          6           0        0.545742    1.888996    0.000000
      2          6           0        0.545742    0.387808    0.000000
      3          6           0       -0.545742   -0.387808    0.000000
      4          6           0       -0.545742   -1.888996    0.000000
      5          1           0        1.072402    2.291979    0.886887
      6          1           0       -0.481106    2.295041    0.000000
      7          1           0        1.072402    2.291979   -0.886887
      8          1           0        1.533515   -0.097574    0.000000
      9          1           0       -1.533515    0.097574    0.000000
     10          1           0        0.481106   -2.295041    0.000000
     11          1           0       -1.072402   -2.291979   -0.886887
     12          1           0       -1.072402   -2.291979    0.886887
 ---------------------------------------------------------------------
 Rotational constants (GHZ):          34.4340127           3.6925122           3.4805512
    96 basis functions,   188 primitive gaussians,   100 cartesian basis functions
    16 alpha electrons       16 beta electrons
       nuclear repulsion energy       115.2062898524 Hartrees.
 NAtoms=   12 NActive=   12 NUniq=    5 SFac= 4.00D+00 NAtFMM=   60 NAOKFM=F Big=F
 ExpMin= 1.22D-01 ExpMax= 6.67D+03 ExpMxC= 2.28D+02 IAcc=3 IRadAn=         5 AccDes= 0.00D+00
 Harris functional with IExCor=  205 and IRadAn=       5 diagonalized for initial guess.
 HarFok:  IExCor=  205 AccDes= 0.00D+00 IRadAn=         5 IDoV= 1 UseB2=F ITyADJ=14
 ICtDFT=  3500011 ScaDFX=  1.000000  1.000000  1.000000  1.000000
 FoFCou: FMM=F IPFlag=           0 FMFlag=      100000 FMFlg1=           0
         NFxFlg=           0 DoJE=T BraDBF=F KetDBF=T FulRan=T
         wScrn=  0.000000 ICntrl=       500 IOpCl=  0 I1Cent=   200000004 NGrid=           0
         NMat0=    1 NMatS0=      1 NMatT0=    0 NMatD0=    1 NMtDS0=    0 NMtDT0=    0
 Petite list used in FoFCou.
 Initial guess orbital symmetries:
       Occupied  (BU) (AG) (AG) (BU) (AG) (BU) (AG) (BU) (BU) (AG)
                 (AU) (BG) (AG) (BU) (AG) (AU)
       Virtual   (BG) (AG) (BU) (BU) (BG) (AG) (AU) (BU) (AG) (BU)
                 (AG) (BU) (AG) (BU) (AU) (BG) (AG) (BU) (BG) (BU)
                 (AG) (AU) (AG) (BU) (AG) (AU) (BU) (BG) (BU) (AG)
                 (BU) (AG) (BG) (AU) (AU) (AG) (BU) (AG) (BU) (AG)
                 (BG) (BU) (AU) (AG) (AU) (BG) (BU) (BG) (AG) (BG)
                 (BU) (AU) (AG) (BU) (AG) (BU) (AU) (BU) (AG) (BG)
                 (BG) (AG) (BU) (AG) (AU) (BU) (BU) (AG) (AU) (BU)
                 (BG) (AG) (AG) (BU) (BG) (AU) (AG) (BU) (BU) (AG)
 The electronic state of the initial guess is 1-AG.
 SCF Done:  E(RHF) =  -156.122554964     A.U. after   10 cycles
            NFock= 10  Conv=0.38D-08     -V/T= 2.0024
 ExpMin= 1.22D-01 ExpMax= 6.67D+03 ExpMxC= 2.28D+02 IAcc=3 IRadAn=         5 AccDes= 0.00D+00
 HarFok:  IExCor=  205 AccDes= 0.00D+00 IRadAn=         5 IDoV=-2 UseB2=F ITyADJ=14
 ICtDFT= 12500011 ScaDFX=  1.000000  1.000000  1.000000  1.000000
 NROrb=     92 NOA=    12 NOB=    12 NVA=    80 NVB=    80
 ANorm=    0.1096110100D+01
 E2 =    -0.5623523958D+00 EUMP2 =    -0.15668490735995D+03

 **********************************************************************

            Population analysis using the SCF Density.

 **********************************************************************

 Orbital symmetries:
       Occupied  (AG) (BU) (AG) (BU) (AG) (BU) (AG) (BU) (BU) (AG)
                 (AU) (BG) (BU) (AG) (AG) (AU)
       Virtual   (BG) (AG) (BU) (BU) (AG) (BG) (AU) (AG) (BU) (BU)
                 (AG) (BU) (AG) (BU) (BG) (AU) (AG) (BU) (BU) (AG)
                 (AU) (BG) (AG) (BU) (AU) (BG) (BU) (AG) (BU) (AG)
                 (BU) (AG) (BG) (AU) (AU) (AG) (BU) (AG) (BU) (AG)
                 (BG) (BU) (AU) (AU) (BG) (AG) (BU) (BG) (AG) (BG)
                 (BU) (AU) (AG) (BU) (AG) (AU) (BU) (BU) (AG) (BG)
                 (BG) (AG) (BU) (AG) (AU) (BU) (BU) (AU) (AG) (BG)
                 (BU) (AG) (AG) (BU) (BG) (AU) (AG) (BU) (BU) (AG)
 The electronic state is 1-AG.
 Alpha  occ. eigenvalues --  -11.23043 -11.22940 -11.22915 -11.22856  -1.07344
 Alpha  occ. eigenvalues --   -0.97960  -0.87386  -0.73826  -0.60242  -0.60043
 Alpha  occ. eigenvalues --   -0.56473  -0.54762  -0.51676  -0.50520  -0.47717
 Alpha  occ. eigenvalues --   -0.33955
 Alpha virt. eigenvalues --    0.18469   0.19823   0.20253   0.21258   0.26532
 Alpha virt. eigenvalues --    0.26637   0.27152   0.28621   0.29285   0.40015
 Alpha virt. eigenvalues --    0.42296   0.54080   0.58254   0.60804   0.61229
 Alpha virt. eigenvalues --    0.64915   0.71262   0.76014   0.77715   0.78214
 Alpha virt. eigenvalues --    0.78274   0.82936   0.86618   0.86713   0.87166
 Alpha virt. eigenvalues --    0.89367   0.89588   0.92016   0.92119   0.93625
 Alpha virt. eigenvalues --    0.99984   1.01472   1.12745   1.14284   1.29672
 Alpha virt. eigenvalues --    1.29974   1.30207   1.34253   1.42635   1.44784
 Alpha virt. eigenvalues --    1.51172   1.59058   1.66950   1.68278   1.68343
 Alpha virt. eigenvalues --    1.70277   1.80703   1.84459   1.86757   1.88494
 Alpha virt. eigenvalues --    1.90759   1.92081   1.92933   1.95213   1.99354
 Alpha virt. eigenvalues --    1.99408   2.01045   2.04922   2.08301   2.11419
 Alpha virt. eigenvalues --    2.15471   2.28648   2.32312   2.35185   2.35403
 Alpha virt. eigenvalues --    2.39577   2.46045   2.50823   2.51617   2.58537
 Alpha virt. eigenvalues --    2.58556   2.63055   2.73057   2.73353   2.80039
 Alpha virt. eigenvalues --    2.84872   2.90427   2.90640   3.10493   3.25633
          Condensed to atoms (all electrons):
 Mulliken charges:
               1
     1  C    0.000453
     2  C   -0.134858
     3  C   -0.134858
     4  C    0.000453
     5  H    0.042620
     6  H    0.031946
     7  H    0.042620
     8  H    0.017219
     9  H    0.017219
    10  H    0.031946
    11  H    0.042620
    12  H    0.042620
 Sum of Mulliken charges =   0.00000
 Mulliken charges with hydrogens summed into heavy atoms:
               1
     1  C    0.117639
     2  C   -0.117639
     3  C   -0.117639
     4  C    0.117639
 Electronic spatial extent (au):  <R**2>=            403.1803
 Charge=              0.0000 electrons
 Dipole moment (field-independent basis, Debye):
    X=             -0.0000    Y=             -0.0000    Z=              0.0000  Tot=              0.0000
 Unable to Open any file for archive entry.
 1\1\GINC-NODE05\SP\RMP2-FC\CC-pVDZ\C4H8\XUHJ\20-Dec-2023\0\\#T MP2/cc-
 pVDZ symm=veryloose\\CC=CC\\0,1\C,0,0.,-1.96625,0.\C,0,0.416662,-0.524
 044,0.\C,0,-0.416662,0.524044,0.\C,0,0.,1.96625,0.\H,0,0.394117,-2.499
 577,-0.886887\H,0,-1.099203,-2.071335,0.\H,0,0.394117,-2.499577,0.8868
 87\H,0,1.500345,-0.331894,0.\H,0,-1.500345,0.331894,0.\H,0,1.099203,2.
 071335,0.\H,0,-0.394117,2.499577,0.886887\H,0,-0.394117,2.499577,-0.88
 6887\\Version=ES64L-G16RevC.01\State=1-AG\HF=-156.122555\MP2=-156.6849
 074\RMSD=3.804e-09\PG=C02H [SGH(C4H4),X(H4)]\\@
 The archive entry for this job was punched.


 WORK FAITHFULLY FOR EIGHT HOURS A DAY AND DON'T WORRY.
 IN TIME YOU MAY BECOME BOSS AND WORK TWELVE HOURS A DAY
 AND HAVE ALL THE WORRY.
 Job cpu time:       0 days  0 hours  0 minutes 14.7 seconds.
 Elapsed time:       0 days  0 hours  0 minutes  1.1 seconds.
 File lengths (MBytes):  RWF=     22 Int=      0 D2E=      0 Chk=      2 Scr=      2
 Normal termination of Gaussian 16 at Wed Dec 20 12:21:22 2023.
