%nprocshared=16
%mem=5760MB
#T MP2/cc-pVDZ symm=veryloose

c1ccc2cc3cc4ccccc4cc3cc2c1

0 1
C         4.894909       0.716042       0.000000
C         4.894909      -0.716042       0.000000
C         3.714374      -1.410751       0.000000
C         2.453177      -0.726326       0.000000
C         1.236404      -1.407851       0.000000
C        -0.000000      -0.726534       0.000000
C        -1.236404      -1.407851      -0.000000
C        -2.453177      -0.726326      -0.000000
C        -3.714374      -1.410751      -0.000000
C        -4.894909      -0.716042       0.000000
C        -4.894909       0.716042      -0.000000
C        -3.714374       1.410751       0.000000
C        -2.453177       0.726326       0.000000
C        -1.236404       1.407851       0.000000
C         0.000000       0.726534      -0.000000
C         1.236404       1.407851      -0.000000
C         2.453177       0.726326      -0.000000
C         3.714374       1.410751      -0.000000
H         5.848560       1.252207       0.000000
H         5.848560      -1.252207       0.000000
H         3.711934      -2.505165       0.000000
H         1.236352      -2.502473       0.000000
H        -1.236352      -2.502473      -0.000000
H        -3.711934      -2.505165      -0.000000
H        -5.848560      -1.252207       0.000000
H        -5.848560       1.252207      -0.000000
H        -3.711934       2.505165       0.000000
H        -1.236352       2.502473      -0.000000
H         1.236352       2.502473      -0.000000
H         3.711934       2.505165      -0.000000


