%nprocshared=8
%mem=10400MB
#T MP2/cc-pVDZ symm=veryloose

c1ccc2c(c1)ccc1cc3c(ccc4c5ccccc5ccc34)cc12

0 1
C         4.250327       5.330304       0.000000
C         2.855674       5.518233       0.000000
C         2.002440       4.423979       0.000000
C         2.499431       3.101058       0.000000
C         3.913961       2.916096       0.000000
C         4.765831       4.044359       0.000000
C         4.459782       1.582741      -0.000000
C         3.653049       0.487719      -0.000000
C         2.219138       0.616291      -0.000000
C         1.400741      -0.520622      -0.000000
C         0.000000      -0.444227      -0.000000
C        -0.586800       0.865574       0.000000
C        -2.013338       0.983034       0.000000
C        -2.815340      -0.120580       0.000000
C        -2.274636      -1.451412      -0.000000
C        -3.139133      -2.616700      -0.000000
C        -4.556749      -2.530915      -0.000000
C        -5.349652      -3.664300      -0.000000
C        -4.763562      -4.949040      -0.000000
C        -3.388002      -5.069122      -0.000000
C        -2.554322      -3.921861      -0.000000
C        -1.132733      -4.043895      -0.000000
C        -0.326981      -2.938785      -0.000000
C        -0.867291      -1.614904      -0.000000
C         0.233749       2.005516       0.000000
C         1.628649       1.926673       0.000000
H         4.921634       6.193992       0.000000
H         2.439801       6.530055       0.000000
H         0.925232       4.600291       0.000000
H         5.848418       3.883436       0.000000
H         5.548263       1.470505      -0.000000
H         4.081883      -0.519064      -0.000000
H         1.899248      -1.491214      -0.000000
H        -2.454598       1.984358       0.000000
H        -3.896487       0.019789       0.000000
H        -5.045197      -1.555718       0.000000
H        -6.438933      -3.562727      -0.000000
H        -5.397087      -5.840813      -0.000000
H        -2.916950      -6.057021      -0.000000
H        -0.692852      -5.045792      -0.000000
H         0.754406      -3.079513      -0.000000
H        -0.262188       2.978141       0.000000


