 Entering Gaussian System, Link 0=g16
 Initial command:
 /home/software/g16/l1.exe "/home/software/g16tmp/Gau-155162.inp" -scrdir="/home/software/g16tmp/"
 Default is to use a total of   8 processors:
                                8 via shared-memory
                                1 via Linda
 Entering Link 1 = /home/software/g16/l1.exe PID=    155163.
  
 Copyright (c) 1988-2019, Gaussian, Inc.  All Rights Reserved.
  
 This is part of the Gaussian(R) 16 program.  It is based on
 the Gaussian(R) 09 system (copyright 2009, Gaussian, Inc.),
 the Gaussian(R) 03 system (copyright 2003, Gaussian, Inc.),
 the Gaussian(R) 98 system (copyright 1998, Gaussian, Inc.),
 the Gaussian(R) 94 system (copyright 1995, Gaussian, Inc.),
 the Gaussian 92(TM) system (copyright 1992, Gaussian, Inc.),
 the Gaussian 90(TM) system (copyright 1990, Gaussian, Inc.),
 the Gaussian 88(TM) system (copyright 1988, Gaussian, Inc.),
 the Gaussian 86(TM) system (copyright 1986, Carnegie Mellon
 University), and the Gaussian 82(TM) system (copyright 1983,
 Carnegie Mellon University). Gaussian is a federally registered
 trademark of Gaussian, Inc.
  
 This software contains proprietary and confidential information,
 including trade secrets, belonging to Gaussian, Inc.
  
 This software is provided under written license and may be
 used, copied, transmitted, or stored only in accord with that
 written license.
  
 The following legend is applicable only to US Government
 contracts under FAR:
  
                    RESTRICTED RIGHTS LEGEND
  
 Use, reproduction and disclosure by the US Government is
 subject to restrictions as set forth in subparagraphs (a)
 and (c) of the Commercial Computer Software - Restricted
 Rights clause in FAR 52.227-19.
  
 Gaussian, Inc.
 340 Quinnipiac St., Bldg. 40, Wallingford CT 06492
  
  
 ---------------------------------------------------------------
 Warning -- This program may not be used in any manner that
 competes with the business of Gaussian, Inc. or will provide
 assistance to any competitor of Gaussian, Inc.  The licensee
 of this program is prohibited from giving any competitor of
 Gaussian, Inc. access to this program.  By using this program,
 the user acknowledges that Gaussian, Inc. is engaged in the
 business of creating and licensing software in the field of
 computational chemistry and represents and warrants to the
 licensee that it is not a competitor of Gaussian, Inc. and that
 it will not use this program in any manner prohibited above.
 ---------------------------------------------------------------
  

 Cite this work as:
 Gaussian 16, Revision C.01,
 M. J. Frisch, G. W. Trucks, H. B. Schlegel, G. E. Scuseria, 
 M. A. Robb, J. R. Cheeseman, G. Scalmani, V. Barone, 
 G. A. Petersson, H. Nakatsuji, X. Li, M. Caricato, A. V. Marenich, 
 J. Bloino, B. G. Janesko, R. Gomperts, B. Mennucci, H. P. Hratchian, 
 J. V. Ortiz, A. F. Izmaylov, J. L. Sonnenberg, D. Williams-Young, 
 F. Ding, F. Lipparini, F. Egidi, J. Goings, B. Peng, A. Petrone, 
 T. Henderson, D. Ranasinghe, V. G. Zakrzewski, J. Gao, N. Rega, 
 G. Zheng, W. Liang, M. Hada, M. Ehara, K. Toyota, R. Fukuda, 
 J. Hasegawa, M. Ishida, T. Nakajima, Y. Honda, O. Kitao, H. Nakai, 
 T. Vreven, K. Throssell, J. A. Montgomery, Jr., J. E. Peralta, 
 F. Ogliaro, M. J. Bearpark, J. J. Heyd, E. N. Brothers, K. N. Kudin, 
 V. N. Staroverov, T. A. Keith, R. Kobayashi, J. Normand, 
 K. Raghavachari, A. P. Rendell, J. C. Burant, S. S. Iyengar, 
 J. Tomasi, M. Cossi, J. M. Millam, M. Klene, C. Adamo, R. Cammi, 
 J. W. Ochterski, R. L. Martin, K. Morokuma, O. Farkas, 
 J. B. Foresman, and D. J. Fox, Gaussian, Inc., Wallingford CT, 2019.
 
 ******************************************
 Gaussian 16:  ES64L-G16RevC.01  3-Jul-2019
                20-Dec-2023 
 ******************************************
 %nprocshared=16
 Will use up to   16 processors via shared memory.
 %mem=960MB
 -----------------------------
 #T MP2/cc-pVDZ symm=veryloose
 -----------------------------
 -----
 C[C]C
 -----
 Symbolic Z-matrix:
 Charge =  0 Multiplicity = 3
 C                     0.        1.35115  -0.10349 
 C                     0.        0.        0.4744 
 C                     0.       -1.35115  -0.10349 
 H                     0.        2.13001   0.68225 
 H                    -0.89465   1.53634  -0.74212 
 H                     0.89465   1.53634  -0.74212 
 H                     0.       -2.13001   0.68225 
 H                     0.89465  -1.53634  -0.74212 
 H                    -0.89465  -1.53634  -0.74212 
 
                    Distance matrix (angstroms):
                    1          2          3          4          5
     1  C    0.000000
     2  C    1.469542   0.000000
     3  C    2.702296   1.469542   0.000000
     4  H    1.106353   2.140126   3.568731   0.000000
     5  H    1.114688   2.154210   3.089627   1.783723   0.000000
     6  H    1.114688   2.154210   3.089627   1.783723   1.789294
     7  H    3.568731   2.140126   1.106353   4.260016   4.033769
     8  H    3.089627   2.154210   1.114688   4.033769   3.555682
     9  H    3.089627   2.154210   1.114688   4.033769   3.072670
                    6          7          8          9
     6  H    0.000000
     7  H    4.033769   0.000000
     8  H    3.072670   1.783723   0.000000
     9  H    3.555682   1.783723   1.789294   0.000000
 Framework group  C2V[C2(C),SGV(C2H2),X(H4)]
 Deg. of freedom     7
                         Standard orientation:                         
 ---------------------------------------------------------------------
 Center     Atomic      Atomic             Coordinates (Angstroms)
 Number     Number       Type             X           Y           Z
 ---------------------------------------------------------------------
      1          6           0        0.000000    1.351148   -0.103513
      2          6           0       -0.000000   -0.000000    0.474374
      3          6           0       -0.000000   -1.351148   -0.103513
      4          1           0        0.000000    2.130008    0.682231
      5          1           0       -0.894647    1.536335   -0.742138
      6          1           0        0.894647    1.536335   -0.742138
      7          1           0       -0.000000   -2.130008    0.682231
      8          1           0        0.894647   -1.536335   -0.742138
      9          1           0       -0.894647   -1.536335   -0.742138
 ---------------------------------------------------------------------
 Rotational constants (GHZ):          54.4449380           7.6920938           7.3745407
    72 basis functions,   141 primitive gaussians,    75 cartesian basis functions
    13 alpha electrons       11 beta electrons
       nuclear repulsion energy        67.9318506476 Hartrees.
 NAtoms=    9 NActive=    9 NUniq=    4 SFac= 4.00D+00 NAtFMM=   60 NAOKFM=F Big=F
 ExpMin= 1.22D-01 ExpMax= 6.67D+03 ExpMxC= 2.28D+02 IAcc=3 IRadAn=         5 AccDes= 0.00D+00
 Harris functional with IExCor=  205 and IRadAn=       5 diagonalized for initial guess.
 HarFok:  IExCor=  205 AccDes= 0.00D+00 IRadAn=         5 IDoV= 1 UseB2=F ITyADJ=14
 ICtDFT=  3500011 ScaDFX=  1.000000  1.000000  1.000000  1.000000
 FoFCou: FMM=F IPFlag=           0 FMFlag=      100000 FMFlg1=           0
         NFxFlg=           0 DoJE=T BraDBF=F KetDBF=T FulRan=T
         wScrn=  0.000000 ICntrl=       500 IOpCl=  0 I1Cent=   200000004 NGrid=           0
         NMat0=    1 NMatS0=      1 NMatT0=    0 NMatD0=    1 NMtDS0=    0 NMtDT0=    0
 Petite list used in FoFCou.
 Initial guess orbital symmetries:
 Alpha Orbitals:
       Occupied  (B2) (A1) (A1) (A1) (B2) (A1) (B2) (A1) (B1) (A2)
                 (B2) (A1) (B1)
       Virtual   (A1) (B2) (A1) (B1) (A2) (B2) (A1) (B2) (A1) (B2)
                 (A2) (A1) (B1) (A1) (B2) (B1) (B1) (B2) (A1) (A2)
                 (B2) (A1) (B2) (A1) (A2) (B1) (A1) (B2) (A1) (B2)
                 (A2) (B1) (A1) (B1) (A2) (B2) (A1) (A1) (A2) (B2)
                 (B1) (B2) (B1) (A1) (B2) (A1) (A2) (B2) (A1) (A2)
                 (B1) (A1) (B2) (A1) (B2) (B1) (B2) (A2) (A1)
 Beta  Orbitals:
       Occupied  (B2) (A1) (A1) (A1) (B2) (A1) (B2) (A1) (B1) (A2)
                 (B2)
       Virtual   (A1) (B1) (A1) (B2) (A1) (B1) (A2) (B2) (A1) (B2)
                 (A1) (B2) (A2) (A1) (B1) (A1) (B2) (B1) (B1) (B2)
                 (A1) (A2) (B2) (A1) (B2) (A1) (A2) (B1) (A1) (B2)
                 (A1) (B2) (A2) (B1) (A1) (B1) (A2) (B2) (A1) (A1)
                 (A2) (B2) (B1) (B2) (B1) (A1) (B2) (A1) (A2) (B2)
                 (A1) (A2) (B1) (A1) (B2) (A1) (B2) (B1) (B2) (A2)
                 (A1)
 The electronic state of the initial guess is 3-B1.
 Initial guess <Sx>= 0.0000 <Sy>= 0.0000 <Sz>= 1.0000 <S**2>= 2.0000 S= 1.0000
 SCF Done:  E(UHF) =  -117.013870577     A.U. after   14 cycles
            NFock= 14  Conv=0.46D-08     -V/T= 2.0015
 <Sx>= 0.0000 <Sy>= 0.0000 <Sz>= 1.0000 <S**2>= 2.0209 S= 1.0070
 <L.S>=  0.00000000000    
 Annihilation of the first spin contaminant:
 S**2 before annihilation     2.0209,   after     2.0002
 ExpMin= 1.22D-01 ExpMax= 6.67D+03 ExpMxC= 2.28D+02 IAcc=3 IRadAn=         5 AccDes= 0.00D+00
 HarFok:  IExCor=  205 AccDes= 0.00D+00 IRadAn=         5 IDoV=-2 UseB2=F ITyADJ=14
 ICtDFT= 12500011 ScaDFX=  1.000000  1.000000  1.000000  1.000000
 NROrb=     69 NOA=    10 NOB=     8 NVA=    59 NVB=    61
 (S**2,0)=  0.20209D+01           (S**2,1)=  0.20065D+01
 E(PUHF)=      -0.11701751635D+03        E(PMP2)=      -0.11739299323D+03
 ANorm=    0.1062921492D+01
 E2 =    -0.3767249037D+00 EUMP2 =    -0.11739059548104D+03

 **********************************************************************

            Population analysis using the SCF Density.

 **********************************************************************

 Orbital symmetries:
 Alpha Orbitals:
       Occupied  (A1) (B2) (A1) (A1) (B2) (A1) (B1) (A1) (B2) (A2)
                 (B2) (A1) (B1)
       Virtual   (A1) (B2) (A1) (B1) (B2) (A2) (A1) (B2) (A1) (B2)
                 (A2) (B1) (A1) (A1) (B1) (B2) (B1) (A1) (A2) (B2)
                 (A1) (B2) (B2) (A1) (A2) (B1) (A1) (B2) (A1) (B2)
                 (A2) (A1) (B1) (B1) (A2) (B2) (A1) (A2) (A1) (B2)
                 (B1) (B1) (B2) (A1) (B2) (A1) (A2) (B2) (A1) (A2)
                 (B1) (B2) (A1) (A1) (B2) (B1) (B2) (A2) (A1)
 Beta  Orbitals:
       Occupied  (B2) (A1) (A1) (A1) (B2) (A1) (A1) (B1) (B2) (A2)
                 (B2)
       Virtual   (A1) (B1) (A1) (B2) (A1) (B1) (B2) (A2) (A1) (B2)
                 (A1) (A2) (B2) (A1) (B1) (B2) (A1) (B1) (A2) (A1)
                 (B2) (B1) (A1) (B2) (B2) (A1) (A2) (B1) (A1) (B2)
                 (A1) (B2) (A2) (A1) (B1) (A2) (B1) (B2) (A1) (A2)
                 (A1) (B2) (B1) (B1) (B2) (A1) (B2) (A1) (A2) (B2)
                 (A1) (A2) (B1) (B2) (A1) (A1) (B2) (B1) (B2) (A2)
                 (A1)
 The electronic state is 3-B1.
 Alpha  occ. eigenvalues --  -11.24219 -11.23503 -11.23497  -1.07095  -0.94752
 Alpha  occ. eigenvalues --   -0.76279  -0.60598  -0.60157  -0.57325  -0.54289
 Alpha  occ. eigenvalues --   -0.52079  -0.38158  -0.33344
 Alpha virt. eigenvalues --    0.18333   0.22231   0.25009   0.25732   0.27589
 Alpha virt. eigenvalues --    0.27849   0.35227   0.45881   0.56446   0.62606
 Alpha virt. eigenvalues --    0.63158   0.66631   0.68122   0.70063   0.76881
 Alpha virt. eigenvalues --    0.78210   0.85633   0.87231   0.87238   0.87553
 Alpha virt. eigenvalues --    0.89007   0.92661   0.93646   1.02492   1.12502
 Alpha virt. eigenvalues --    1.13763   1.24838   1.33124   1.37655   1.50942
 Alpha virt. eigenvalues --    1.61041   1.62904   1.62936   1.67597   1.67640
 Alpha virt. eigenvalues --    1.83590   1.85642   1.90304   1.90358   1.93031
 Alpha virt. eigenvalues --    1.95587   1.97368   1.99912   2.04840   2.17262
 Alpha virt. eigenvalues --    2.25595   2.26300   2.31018   2.31754   2.47940
 Alpha virt. eigenvalues --    2.49781   2.64258   2.67625   2.69191   2.71049
 Alpha virt. eigenvalues --    2.74910   2.76848   2.87423   2.89645
  Beta  occ. eigenvalues --  -11.23868 -11.23866 -11.19272  -1.00422  -0.94275
  Beta  occ. eigenvalues --   -0.66277  -0.55877  -0.55758  -0.54903  -0.52903
  Beta  occ. eigenvalues --   -0.50791
  Beta virt. eigenvalues --    0.14283   0.17405   0.19725   0.22594   0.26372
  Beta virt. eigenvalues --    0.27505   0.27750   0.28532   0.38409   0.48279
  Beta virt. eigenvalues --    0.58237   0.64864   0.65405   0.70599   0.72492
  Beta virt. eigenvalues --    0.79246   0.83835   0.84481   0.87393   0.87767
  Beta virt. eigenvalues --    0.87967   0.89901   0.91196   0.93837   0.96840
  Beta virt. eigenvalues --    1.06306   1.14691   1.21182   1.28818   1.33630
  Beta virt. eigenvalues --    1.44526   1.51577   1.65557   1.66229   1.68325
  Beta virt. eigenvalues --    1.68396   1.69567   1.86329   1.86868   1.91030
  Beta virt. eigenvalues --    1.92820   1.93504   1.97865   1.98456   2.00781
  Beta virt. eigenvalues --    2.08147   2.19414   2.27398   2.27805   2.31453
  Beta virt. eigenvalues --    2.32517   2.49729   2.50889   2.66392   2.68115
  Beta virt. eigenvalues --    2.71247   2.71631   2.75382   2.77179   2.88398
  Beta virt. eigenvalues --    2.90619
          Condensed to atoms (all electrons):
          Atomic-Atomic Spin Densities.
 Mulliken charges and spin densities:
               1          2
     1  C   -0.026450  -0.204582
     2  C   -0.221120   2.065069
     3  C   -0.026450  -0.204582
     4  H    0.053511   0.026691
     5  H    0.041749   0.072679
     6  H    0.041749   0.072679
     7  H    0.053511   0.026691
     8  H    0.041749   0.072679
     9  H    0.041749   0.072679
 Sum of Mulliken charges =  -0.00000   2.00000
 Mulliken charges and spin densities with hydrogens summed into heavy atoms:
               1          2
     1  C    0.110560  -0.032534
     2  C   -0.221120   2.065069
     3  C    0.110560  -0.032534
 Electronic spatial extent (au):  <R**2>=            217.8752
 Charge=             -0.0000 electrons
 Dipole moment (field-independent basis, Debye):
    X=              0.0000    Y=              0.0000    Z=             -0.5572  Tot=              0.5572
 Unable to Open any file for archive entry.
 1\1\GINC-NODE05\SP\UMP2-FC\CC-pVDZ\C3H6(3)\XUHJ\20-Dec-2023\0\\#T MP2/
 cc-pVDZ symm=veryloose\\C[C]C\\0,3\C,0,0.,1.351148,-0.103492\C,0,0.,0.
 ,0.474395\C,0,0.,-1.351148,-0.103492\H,0,0.,2.130008,0.682252\H,0,-0.8
 94647,1.536335,-0.742117\H,0,0.894647,1.536335,-0.742117\H,0,0.,-2.130
 008,0.682252\H,0,0.894647,-1.536335,-0.742117\H,0,-0.894647,-1.536335,
 -0.742117\\Version=ES64L-G16RevC.01\State=3-B1\HF=-117.0138706\MP2=-11
 7.3905955\PUHF=-117.0175164\PMP2-0=-117.3929932\S2=2.020932\S2-1=2.006
 5\S2A=2.000223\RMSD=4.620e-09\PG=C02V [C2(C1),SGV(C2H2),X(H4)]\\@
 The archive entry for this job was punched.


  THE LARGE PRINT GIVETH,
  AND THE SMALL PRINT TAKETH AWAY.

                     -- TOM WAITS
 Job cpu time:       0 days  0 hours  0 minutes 15.6 seconds.
 Elapsed time:       0 days  0 hours  0 minutes  1.2 seconds.
 File lengths (MBytes):  RWF=     22 Int=      0 D2E=      0 Chk=      2 Scr=      2
 Normal termination of Gaussian 16 at Wed Dec 20 12:21:29 2023.
