%nprocshared=8
%mem=8800MB
#T MP2/cc-pVDZ symm=veryloose

c1ccc2c(c1)ccc1c3ccccc3c3ccccc3c21

0 1
C         4.829881      -0.250200       0.384083
C         4.136249       0.906564       0.801817
C         2.763573       0.995345       0.656813
C         2.001225      -0.063665       0.087522
C         2.703504      -1.273037      -0.224716
C         4.116105      -1.325959      -0.104038
C         1.957121      -2.429071      -0.592510
C         0.590551      -2.419182      -0.541372
C        -0.142348      -1.226073      -0.249971
C        -1.594604      -1.258495      -0.077403
C        -2.313033      -2.478287      -0.060602
C        -3.670634      -2.520919       0.213331
C        -4.363449      -1.331270       0.490741
C        -3.686407      -0.122565       0.465515
C        -2.306334      -0.050726       0.166574
C        -1.606691       1.225191       0.036156
C        -2.309339       2.451784       0.001144
C        -1.669896       3.652935      -0.260519
C        -0.295004       3.655403      -0.543003
C         0.420465       2.469637      -0.490069
C        -0.192214       1.238665      -0.143013
C         0.561186      -0.014394      -0.090878
H         5.917771      -0.305776       0.484402
H         4.684306       1.734574       1.261211
H         2.254470       1.878522       1.040797
H         4.627795      -2.253734      -0.378280
H         2.494769      -3.343901      -0.859005
H         0.052588      -3.341765      -0.759169
H        -1.792900      -3.419339      -0.240013
H        -4.193886      -3.481424       0.227449
H        -5.431085      -1.355201       0.727601
H        -4.240261       0.790083       0.688958
H        -3.390519       2.459287       0.143608
H        -2.244359       4.583338      -0.290514
H         0.210422       4.583398      -0.825981
H         1.471433       2.481847      -0.774664


