 Entering Gaussian System, Link 0=g16
 Initial command:
 /home/software/g16/l1.exe "/home/software/g16tmp/Gau-149168.inp" -scrdir="/home/software/g16tmp/"
 Default is to use a total of   8 processors:
                                8 via shared-memory
                                1 via Linda
 Entering Link 1 = /home/software/g16/l1.exe PID=    149169.
  
 Copyright (c) 1988-2019, Gaussian, Inc.  All Rights Reserved.
  
 This is part of the Gaussian(R) 16 program.  It is based on
 the Gaussian(R) 09 system (copyright 2009, Gaussian, Inc.),
 the Gaussian(R) 03 system (copyright 2003, Gaussian, Inc.),
 the Gaussian(R) 98 system (copyright 1998, Gaussian, Inc.),
 the Gaussian(R) 94 system (copyright 1995, Gaussian, Inc.),
 the Gaussian 92(TM) system (copyright 1992, Gaussian, Inc.),
 the Gaussian 90(TM) system (copyright 1990, Gaussian, Inc.),
 the Gaussian 88(TM) system (copyright 1988, Gaussian, Inc.),
 the Gaussian 86(TM) system (copyright 1986, Carnegie Mellon
 University), and the Gaussian 82(TM) system (copyright 1983,
 Carnegie Mellon University). Gaussian is a federally registered
 trademark of Gaussian, Inc.
  
 This software contains proprietary and confidential information,
 including trade secrets, belonging to Gaussian, Inc.
  
 This software is provided under written license and may be
 used, copied, transmitted, or stored only in accord with that
 written license.
  
 The following legend is applicable only to US Government
 contracts under FAR:
  
                    RESTRICTED RIGHTS LEGEND
  
 Use, reproduction and disclosure by the US Government is
 subject to restrictions as set forth in subparagraphs (a)
 and (c) of the Commercial Computer Software - Restricted
 Rights clause in FAR 52.227-19.
  
 Gaussian, Inc.
 340 Quinnipiac St., Bldg. 40, Wallingford CT 06492
  
  
 ---------------------------------------------------------------
 Warning -- This program may not be used in any manner that
 competes with the business of Gaussian, Inc. or will provide
 assistance to any competitor of Gaussian, Inc.  The licensee
 of this program is prohibited from giving any competitor of
 Gaussian, Inc. access to this program.  By using this program,
 the user acknowledges that Gaussian, Inc. is engaged in the
 business of creating and licensing software in the field of
 computational chemistry and represents and warrants to the
 licensee that it is not a competitor of Gaussian, Inc. and that
 it will not use this program in any manner prohibited above.
 ---------------------------------------------------------------
  

 Cite this work as:
 Gaussian 16, Revision C.01,
 M. J. Frisch, G. W. Trucks, H. B. Schlegel, G. E. Scuseria, 
 M. A. Robb, J. R. Cheeseman, G. Scalmani, V. Barone, 
 G. A. Petersson, H. Nakatsuji, X. Li, M. Caricato, A. V. Marenich, 
 J. Bloino, B. G. Janesko, R. Gomperts, B. Mennucci, H. P. Hratchian, 
 J. V. Ortiz, A. F. Izmaylov, J. L. Sonnenberg, D. Williams-Young, 
 F. Ding, F. Lipparini, F. Egidi, J. Goings, B. Peng, A. Petrone, 
 T. Henderson, D. Ranasinghe, V. G. Zakrzewski, J. Gao, N. Rega, 
 G. Zheng, W. Liang, M. Hada, M. Ehara, K. Toyota, R. Fukuda, 
 J. Hasegawa, M. Ishida, T. Nakajima, Y. Honda, O. Kitao, H. Nakai, 
 T. Vreven, K. Throssell, J. A. Montgomery, Jr., J. E. Peralta, 
 F. Ogliaro, M. J. Bearpark, J. J. Heyd, E. N. Brothers, K. N. Kudin, 
 V. N. Staroverov, T. A. Keith, R. Kobayashi, J. Normand, 
 K. Raghavachari, A. P. Rendell, J. C. Burant, S. S. Iyengar, 
 J. Tomasi, M. Cossi, J. M. Millam, M. Klene, C. Adamo, R. Cammi, 
 J. W. Ochterski, R. L. Martin, K. Morokuma, O. Farkas, 
 J. B. Foresman, and D. J. Fox, Gaussian, Inc., Wallingford CT, 2019.
 
 ******************************************
 Gaussian 16:  ES64L-G16RevC.01  3-Jul-2019
                20-Dec-2023 
 ******************************************
 %nprocshared=16
 Will use up to   16 processors via shared memory.
 %mem=1280MB
 -----------------------------
 #T MP2/cc-pVDZ symm=veryloose
 -----------------------------
 ------
 CC(C)O
 ------
 Symbolic Z-matrix:
 Charge =  0 Multiplicity = 1
 C                     1.33441  -0.53987   0.08887 
 C                     0.0033    0.04483  -0.3618 
 C                    -1.19057  -0.79009   0.10219 
 O                    -0.06052   1.36517   0.16345 
 H                     1.48085  -1.55263  -0.32558 
 H                     1.36995  -0.59901   1.19157 
 H                     2.16577   0.10344  -0.2462 
 H                    -0.00436   0.08368  -1.4734 
 H                    -1.20873  -0.84832   1.20542 
 H                    -1.14827  -1.81631  -0.30537 
 H                    -2.14316  -0.33731  -0.23325 
 H                    -0.91077   1.75582  -0.09639 
 
                    Distance matrix (angstroms):
                    1          2          3          4          5
     1  C    0.000000
     2  C    1.522119   0.000000
     3  C    2.537383   1.528943   0.000000
     4  O    2.362324   1.422416   2.434317   0.000000
     5  H    1.104035   2.176313   2.810859   3.335943   0.000000
     6  H    1.104852   2.166839   2.789172   2.638417   1.795389
     7  H    1.103298   2.166352   3.490665   2.591549   1.793869
     8  H    2.149843   1.112308   2.157089   2.079578   2.490153
     9  H    2.794533   2.173220   1.104917   2.702522   3.173936
    10  H    2.819293   2.189313   1.105000   3.394818   2.642382
    11  H    3.498325   2.183987   1.106775   2.719041   3.823473
    12  H    3.216414   1.957916   2.568918   0.971103   4.088784
                    6          7          8          9         10
     6  H    0.000000
     7  H    1.787160   0.000000
     8  H    3.075196   2.493163   0.000000
     9  H    2.590739   3.794772   3.081430   0.000000
    10  H    3.172385   3.830369   2.506545   1.795314   0.000000
    11  H    3.800061   4.331424   2.507916   1.789985   1.783942
    12  H    3.522167   3.495404   2.348140   2.926601   3.586104
                   11         12
    11  H    0.000000
    12  H    2.432834   0.000000
 Framework group  C1[X(C3H8O)]
 Deg. of freedom    30
                         Standard orientation:                         
 ---------------------------------------------------------------------
 Center     Atomic      Atomic             Coordinates (Angstroms)
 Number     Number       Type             X           Y           Z
 ---------------------------------------------------------------------
      1          6           0       -1.334414   -0.539868   -0.088870
      2          6           0       -0.003295    0.044827    0.361796
      3          6           0        1.190567   -0.790085   -0.102190
      4          8           0        0.060517    1.365172   -0.163452
      5          1           0       -1.480850   -1.552627    0.325580
      6          1           0       -1.369947   -0.599007   -1.191566
      7          1           0       -2.165767    0.103439    0.246204
      8          1           0        0.004363    0.083684    1.473399
      9          1           0        1.208731   -0.848316   -1.205422
     10          1           0        1.148265   -1.816306    0.305370
     11          1           0        2.143155   -0.337306    0.233246
     12          1           0        0.910765    1.755817    0.096385
 ---------------------------------------------------------------------
 Rotational constants (GHZ):           8.6718848           7.9941185           4.7550835
    96 basis functions,   188 primitive gaussians,   100 cartesian basis functions
    17 alpha electrons       17 beta electrons
       nuclear repulsion energy       134.3748800181 Hartrees.
 NAtoms=   12 NActive=   12 NUniq=   12 SFac= 1.00D+00 NAtFMM=   60 NAOKFM=F Big=F
 ExpMin= 1.22D-01 ExpMax= 1.17D+04 ExpMxC= 4.01D+02 IAcc=3 IRadAn=         5 AccDes= 0.00D+00
 Harris functional with IExCor=  205 and IRadAn=       5 diagonalized for initial guess.
 HarFok:  IExCor=  205 AccDes= 0.00D+00 IRadAn=         5 IDoV= 1 UseB2=F ITyADJ=14
 ICtDFT=  3500011 ScaDFX=  1.000000  1.000000  1.000000  1.000000
 FoFCou: FMM=F IPFlag=           0 FMFlag=      100000 FMFlg1=           0
         NFxFlg=           0 DoJE=T BraDBF=F KetDBF=T FulRan=T
         wScrn=  0.000000 ICntrl=       500 IOpCl=  0 I1Cent=   200000004 NGrid=           0
         NMat0=    1 NMatS0=      1 NMatT0=    0 NMatD0=    1 NMtDS0=    0 NMtDT0=    0
 Petite list used in FoFCou.
 SCF Done:  E(RHF) =  -193.133465722     A.U. after   12 cycles
            NFock= 12  Conv=0.37D-08     -V/T= 2.0017
 ExpMin= 1.22D-01 ExpMax= 1.17D+04 ExpMxC= 4.01D+02 IAcc=3 IRadAn=         5 AccDes= 0.00D+00
 HarFok:  IExCor=  205 AccDes= 0.00D+00 IRadAn=         5 IDoV=-2 UseB2=F ITyADJ=14
 ICtDFT= 12500011 ScaDFX=  1.000000  1.000000  1.000000  1.000000
 NROrb=     92 NOA=    13 NOB=    13 NVA=    79 NVB=    79
 ANorm=    0.1093906450D+01
 E2 =    -0.6268795929D+00 EUMP2 =    -0.19376034531496D+03

 **********************************************************************

            Population analysis using the SCF Density.

 **********************************************************************

 Orbital symmetries:
       Occupied  (A) (A) (A) (A) (A) (A) (A) (A) (A) (A) (A) (A)
                 (A) (A) (A) (A) (A)
       Virtual   (A) (A) (A) (A) (A) (A) (A) (A) (A) (A) (A) (A)
                 (A) (A) (A) (A) (A) (A) (A) (A) (A) (A) (A) (A)
                 (A) (A) (A) (A) (A) (A) (A) (A) (A) (A) (A) (A)
                 (A) (A) (A) (A) (A) (A) (A) (A) (A) (A) (A) (A)
                 (A) (A) (A) (A) (A) (A) (A) (A) (A) (A) (A) (A)
                 (A) (A) (A) (A) (A) (A) (A) (A) (A) (A) (A) (A)
                 (A) (A) (A) (A) (A) (A) (A)
 The electronic state is 1-A.
 Alpha  occ. eigenvalues --  -20.54859 -11.28152 -11.22718 -11.22032  -1.35230
 Alpha  occ. eigenvalues --   -1.03714  -0.93411  -0.79288  -0.68817  -0.62228
 Alpha  occ. eigenvalues --   -0.59939  -0.53998  -0.52832  -0.52323  -0.50515
 Alpha  occ. eigenvalues --   -0.46674  -0.42892
 Alpha virt. eigenvalues --    0.17278   0.21818   0.22935   0.24396   0.24672
 Alpha virt. eigenvalues --    0.26722   0.29087   0.30267   0.37020   0.40436
 Alpha virt. eigenvalues --    0.42662   0.56883   0.59826   0.66181   0.66817
 Alpha virt. eigenvalues --    0.72594   0.77787   0.79032   0.81962   0.84749
 Alpha virt. eigenvalues --    0.87469   0.88098   0.88425   0.90024   0.90882
 Alpha virt. eigenvalues --    0.91147   0.92912   0.95835   1.12939   1.14598
 Alpha virt. eigenvalues --    1.15387   1.26088   1.32737   1.36422   1.40903
 Alpha virt. eigenvalues --    1.46895   1.53069   1.57445   1.60187   1.67470
 Alpha virt. eigenvalues --    1.67833   1.68429   1.70156   1.80942   1.84445
 Alpha virt. eigenvalues --    1.86455   1.87653   1.91735   1.93884   1.97645
 Alpha virt. eigenvalues --    1.98077   1.99316   2.00512   2.02484   2.09303
 Alpha virt. eigenvalues --    2.14590   2.20442   2.23234   2.27821   2.28845
 Alpha virt. eigenvalues --    2.36162   2.43311   2.49708   2.51921   2.53131
 Alpha virt. eigenvalues --    2.57764   2.64579   2.71477   2.74655   2.75305
 Alpha virt. eigenvalues --    2.79797   2.85964   2.89963   2.95018   3.32167
 Alpha virt. eigenvalues --    3.41524   3.46967   3.65202   4.11986
          Condensed to atoms (all electrons):
 Mulliken charges:
               1
     1  C   -0.021407
     2  C    0.064387
     3  C   -0.040280
     4  O   -0.381839
     5  H    0.027346
     6  H    0.038298
     7  H    0.044044
     8  H    0.009730
     9  H    0.041115
    10  H    0.032206
    11  H    0.021933
    12  H    0.164466
 Sum of Mulliken charges =   0.00000
 Mulliken charges with hydrogens summed into heavy atoms:
               1
     1  C    0.088281
     2  C    0.074117
     3  C    0.054975
     4  O   -0.217373
 Electronic spatial extent (au):  <R**2>=            319.9936
 Charge=              0.0000 electrons
 Dipole moment (field-independent basis, Debye):
    X=              1.1937    Y=             -0.7453    Z=              0.8739  Tot=              1.6566
 Unable to Open any file for archive entry.
 1\1\GINC-NODE05\SP\RMP2-FC\CC-pVDZ\C3H8O1\XUHJ\20-Dec-2023\0\\#T MP2/c
 c-pVDZ symm=veryloose\\CC(C)O\\0,1\C,0,1.334414,-0.539868,0.08887\C,0,
 0.003295,0.044827,-0.361796\C,0,-1.190567,-0.790085,0.10219\O,0,-0.060
 517,1.365172,0.163452\H,0,1.48085,-1.552627,-0.32558\H,0,1.369947,-0.5
 99007,1.191566\H,0,2.165767,0.103439,-0.246204\H,0,-0.004363,0.083684,
 -1.473399\H,0,-1.208731,-0.848316,1.205422\H,0,-1.148265,-1.816306,-0.
 30537\H,0,-2.143155,-0.337306,-0.233246\H,0,-0.910765,1.755817,-0.0963
 85\\Version=ES64L-G16RevC.01\State=1-A\HF=-193.1334657\MP2=-193.760345
 3\RMSD=3.706e-09\PG=C01 [X(C3H8O1)]\\@
 The archive entry for this job was punched.


 IT'S WHAT YOU LEARN AFTER YOU KNOW IT ALL
 THAT COUNTS.
 Job cpu time:       0 days  0 hours  0 minutes 17.5 seconds.
 Elapsed time:       0 days  0 hours  0 minutes  1.5 seconds.
 File lengths (MBytes):  RWF=     22 Int=      0 D2E=      0 Chk=      2 Scr=      2
 Normal termination of Gaussian 16 at Wed Dec 20 12:21:18 2023.
