%nprocshared=8
%mem=10400MB
#T MP2/cc-pVDZ symm=veryloose

c1ccc2c(c1)ccc1cc3cc4c(ccc5ccccc54)cc3cc12

0 1
C         0.898043       6.784103       0.000000
C         1.950759       5.852660       0.000000
C         1.679549       4.490469       0.000000
C         0.355207       4.001243       0.000000
C        -0.708372       4.950489       0.000000
C        -0.412750       6.331476       0.000000
C        -2.077736       4.493549       0.000000
C        -2.383207       3.170226       0.000000
C        -1.352598       2.161853       0.000000
C        -1.679549       0.808766       0.000000
C        -0.692505      -0.199980      -0.000000
C        -1.012647      -1.577659      -0.000000
C        -0.037798      -2.569489      -0.000000
C         1.352598      -2.161853       0.000000
C         2.383207      -3.170226       0.000000
C         2.077736      -4.493549       0.000000
C         0.708372      -4.950489       0.000000
C         0.412750      -6.331476       0.000000
C        -0.898043      -6.784103       0.000000
C        -1.950759      -5.852660       0.000000
C        -1.679549      -4.490469       0.000000
C        -0.355207      -4.001243       0.000000
C         1.679549      -0.808766       0.000000
C         0.692505       0.199980      -0.000000
C         1.012647       1.577659      -0.000000
C         0.037798       2.569489      -0.000000
H         1.111589       7.856927       0.000000
H         2.988614       6.198432       0.000000
H         2.517984       3.791640       0.000000
H        -1.242687       7.044989       0.000000
H        -2.871671       5.246602       0.000000
H        -3.426295       2.839670       0.000000
H        -2.734668       0.517147       0.000000
H        -2.071365      -1.843998      -0.000000
H         3.426295      -2.839670       0.000000
H         2.871671      -5.246602       0.000000
H         1.242687      -7.044989       0.000000
H        -1.111589      -7.856927       0.000000
H        -2.988614      -6.198432       0.000000
H        -2.517984      -3.791640       0.000000
H         2.734668      -0.517147      -0.000000
H         2.071365       1.843998      -0.000000


