 Entering Gaussian System, Link 0=g16
 Initial command:
 /home/software/g16/l1.exe "/home/software/g16tmp/Gau-152207.inp" -scrdir="/home/software/g16tmp/"
 Default is to use a total of   8 processors:
                                8 via shared-memory
                                1 via Linda
 Entering Link 1 = /home/software/g16/l1.exe PID=    152236.
  
 Copyright (c) 1988-2019, Gaussian, Inc.  All Rights Reserved.
  
 This is part of the Gaussian(R) 16 program.  It is based on
 the Gaussian(R) 09 system (copyright 2009, Gaussian, Inc.),
 the Gaussian(R) 03 system (copyright 2003, Gaussian, Inc.),
 the Gaussian(R) 98 system (copyright 1998, Gaussian, Inc.),
 the Gaussian(R) 94 system (copyright 1995, Gaussian, Inc.),
 the Gaussian 92(TM) system (copyright 1992, Gaussian, Inc.),
 the Gaussian 90(TM) system (copyright 1990, Gaussian, Inc.),
 the Gaussian 88(TM) system (copyright 1988, Gaussian, Inc.),
 the Gaussian 86(TM) system (copyright 1986, Carnegie Mellon
 University), and the Gaussian 82(TM) system (copyright 1983,
 Carnegie Mellon University). Gaussian is a federally registered
 trademark of Gaussian, Inc.
  
 This software contains proprietary and confidential information,
 including trade secrets, belonging to Gaussian, Inc.
  
 This software is provided under written license and may be
 used, copied, transmitted, or stored only in accord with that
 written license.
  
 The following legend is applicable only to US Government
 contracts under FAR:
  
                    RESTRICTED RIGHTS LEGEND
  
 Use, reproduction and disclosure by the US Government is
 subject to restrictions as set forth in subparagraphs (a)
 and (c) of the Commercial Computer Software - Restricted
 Rights clause in FAR 52.227-19.
  
 Gaussian, Inc.
 340 Quinnipiac St., Bldg. 40, Wallingford CT 06492
  
  
 ---------------------------------------------------------------
 Warning -- This program may not be used in any manner that
 competes with the business of Gaussian, Inc. or will provide
 assistance to any competitor of Gaussian, Inc.  The licensee
 of this program is prohibited from giving any competitor of
 Gaussian, Inc. access to this program.  By using this program,
 the user acknowledges that Gaussian, Inc. is engaged in the
 business of creating and licensing software in the field of
 computational chemistry and represents and warrants to the
 licensee that it is not a competitor of Gaussian, Inc. and that
 it will not use this program in any manner prohibited above.
 ---------------------------------------------------------------
  

 Cite this work as:
 Gaussian 16, Revision C.01,
 M. J. Frisch, G. W. Trucks, H. B. Schlegel, G. E. Scuseria, 
 M. A. Robb, J. R. Cheeseman, G. Scalmani, V. Barone, 
 G. A. Petersson, H. Nakatsuji, X. Li, M. Caricato, A. V. Marenich, 
 J. Bloino, B. G. Janesko, R. Gomperts, B. Mennucci, H. P. Hratchian, 
 J. V. Ortiz, A. F. Izmaylov, J. L. Sonnenberg, D. Williams-Young, 
 F. Ding, F. Lipparini, F. Egidi, J. Goings, B. Peng, A. Petrone, 
 T. Henderson, D. Ranasinghe, V. G. Zakrzewski, J. Gao, N. Rega, 
 G. Zheng, W. Liang, M. Hada, M. Ehara, K. Toyota, R. Fukuda, 
 J. Hasegawa, M. Ishida, T. Nakajima, Y. Honda, O. Kitao, H. Nakai, 
 T. Vreven, K. Throssell, J. A. Montgomery, Jr., J. E. Peralta, 
 F. Ogliaro, M. J. Bearpark, J. J. Heyd, E. N. Brothers, K. N. Kudin, 
 V. N. Staroverov, T. A. Keith, R. Kobayashi, J. Normand, 
 K. Raghavachari, A. P. Rendell, J. C. Burant, S. S. Iyengar, 
 J. Tomasi, M. Cossi, J. M. Millam, M. Klene, C. Adamo, R. Cammi, 
 J. W. Ochterski, R. L. Martin, K. Morokuma, O. Farkas, 
 J. B. Foresman, and D. J. Fox, Gaussian, Inc., Wallingford CT, 2019.
 
 ******************************************
 Gaussian 16:  ES64L-G16RevC.01  3-Jul-2019
                20-Dec-2023 
 ******************************************
 %nprocshared=16
 Will use up to   16 processors via shared memory.
 %mem=960MB
 -----------------------------
 #T MP2/cc-pVDZ symm=veryloose
 -----------------------------
 -----
 [C]CC
 -----
 Symbolic Z-matrix:
 Charge =  0 Multiplicity = 4
 C                     1.48043   0.28021   0. 
 C                     0.        0.55733   0. 
 C                    -0.85973  -0.71386   0. 
 H                    -0.23679   1.17717  -0.88984 
 H                    -0.23679   1.17717   0.88984 
 H                    -0.6598   -1.32902  -0.89376 
 H                    -1.931    -0.43837   0. 
 H                    -0.6598   -1.32902   0.89376 
 
                    Distance matrix (angstroms):
                    1          2          3          4          5
     1  C    0.000000
     2  C    1.506141   0.000000
     3  C    2.542540   1.534620   0.000000
     4  H    2.131942   1.109992   2.180793   0.000000
     5  H    2.131942   1.109992   2.180793   1.779678   0.000000
     6  H    2.822941   2.189171   1.103273   2.541643   3.105023
     7  H    3.486285   2.172597   1.106122   2.504423   2.504423
     8  H    2.822941   2.189171   1.103273   3.105023   2.541643
                    6          7          8
     6  H    0.000000
     7  H    1.791095   0.000000
     8  H    1.787524   1.791095   0.000000
 Framework group  CS[SG(C3H),X(H4)]
 Deg. of freedom    11
                         Standard orientation:                         
 ---------------------------------------------------------------------
 Center     Atomic      Atomic             Coordinates (Angstroms)
 Number     Number       Type             X           Y           Z
 ---------------------------------------------------------------------
      1          6           0       -1.480427    0.280207    0.000000
      2          6           0        0.000000    0.557330    0.000000
      3          6           0        0.859732   -0.713858    0.000000
      4          1           0        0.236787    1.177169    0.889839
      5          1           0        0.236787    1.177169   -0.889839
      6          1           0        0.659799   -1.329022    0.893762
      7          1           0        1.930999   -0.438370    0.000000
      8          1           0        0.659799   -1.329022   -0.893762
 ---------------------------------------------------------------------
 Rotational constants (GHZ):          37.4149824          10.1463751           8.8812660
    67 basis functions,   134 primitive gaussians,    70 cartesian basis functions
    13 alpha electrons       10 beta electrons
       nuclear repulsion energy        62.6787670161 Hartrees.
 NAtoms=    8 NActive=    8 NUniq=    6 SFac= 1.78D+00 NAtFMM=   60 NAOKFM=F Big=F
 ExpMin= 1.22D-01 ExpMax= 6.67D+03 ExpMxC= 2.28D+02 IAcc=3 IRadAn=         5 AccDes= 0.00D+00
 Harris functional with IExCor=  205 and IRadAn=       5 diagonalized for initial guess.
 HarFok:  IExCor=  205 AccDes= 0.00D+00 IRadAn=         5 IDoV= 1 UseB2=F ITyADJ=14
 ICtDFT=  3500011 ScaDFX=  1.000000  1.000000  1.000000  1.000000
 FoFCou: FMM=F IPFlag=           0 FMFlag=      100000 FMFlg1=           0
         NFxFlg=           0 DoJE=T BraDBF=F KetDBF=T FulRan=T
         wScrn=  0.000000 ICntrl=       500 IOpCl=  0 I1Cent=   200000004 NGrid=           0
         NMat0=    1 NMatS0=      1 NMatT0=    0 NMatD0=    1 NMtDS0=    0 NMtDT0=    0
 Petite list used in FoFCou.
 Initial guess orbital symmetries:
 Alpha Orbitals:
       Occupied  (A') (A') (A') (A') (A') (A') (A") (A') (A') (A")
                 (A') (A') (A")
       Virtual   (A') (A") (A') (A') (A") (A') (A') (A") (A') (A')
                 (A') (A') (A") (A') (A') (A") (A") (A') (A') (A")
                 (A') (A') (A') (A") (A') (A") (A') (A') (A") (A")
                 (A') (A") (A') (A') (A') (A") (A") (A') (A") (A')
                 (A') (A") (A') (A') (A') (A") (A') (A") (A') (A')
                 (A') (A") (A') (A")
 Beta  Orbitals:
       Occupied  (A') (A') (A') (A') (A') (A') (A") (A') (A') (A")
       Virtual   (A') (A') (A") (A') (A") (A') (A') (A") (A') (A')
                 (A") (A') (A') (A') (A') (A") (A') (A') (A") (A")
                 (A') (A') (A") (A') (A') (A') (A") (A') (A") (A')
                 (A') (A") (A") (A') (A") (A') (A') (A') (A") (A")
                 (A') (A") (A') (A') (A") (A') (A') (A') (A") (A')
                 (A") (A') (A') (A') (A") (A') (A")
 The electronic state of the initial guess is 4-A".
 Initial guess <Sx>= 0.0000 <Sy>= 0.0000 <Sz>= 1.5000 <S**2>= 3.7500 S= 1.5000
 SCF Done:  E(UHF) =  -116.360855388     A.U. after   16 cycles
            NFock= 16  Conv=0.40D-08     -V/T= 2.0015
 <Sx>= 0.0000 <Sy>= 0.0000 <Sz>= 1.5000 <S**2>= 3.7571 S= 1.5018
 <L.S>=  0.00000000000    
 Annihilation of the first spin contaminant:
 S**2 before annihilation     3.7571,   after     3.7500
 ExpMin= 1.22D-01 ExpMax= 6.67D+03 ExpMxC= 2.28D+02 IAcc=3 IRadAn=         5 AccDes= 0.00D+00
 HarFok:  IExCor=  205 AccDes= 0.00D+00 IRadAn=         5 IDoV=-2 UseB2=F ITyADJ=14
 ICtDFT= 12500011 ScaDFX=  1.000000  1.000000  1.000000  1.000000
 NROrb=     64 NOA=    10 NOB=     7 NVA=    54 NVB=    57
 (S**2,0)=  0.37571D+01           (S**2,1)=  0.37520D+01
 E(PUHF)=      -0.11636190254D+03        E(PMP2)=      -0.11670532682D+03
 ANorm=    0.1058226493D+01
 E2 =    -0.3437975094D+00 EUMP2 =    -0.11670465289756D+03

 **********************************************************************

            Population analysis using the SCF Density.

 **********************************************************************

 Orbital symmetries:
 Alpha Orbitals:
       Occupied  (A') (A') (A') (A') (A') (A') (A") (A') (A') (A")
                 (A') (A') (A")
       Virtual   (A') (A') (A") (A') (A") (A') (A') (A") (A') (A')
                 (A') (A") (A') (A') (A") (A') (A") (A') (A") (A')
                 (A') (A') (A") (A') (A') (A") (A') (A') (A") (A')
                 (A") (A") (A') (A') (A") (A') (A") (A') (A") (A')
                 (A') (A") (A') (A') (A') (A") (A') (A") (A') (A')
                 (A') (A") (A') (A")
 Beta  Orbitals:
       Occupied  (A') (A') (A') (A') (A') (A') (A") (A') (A') (A")
       Virtual   (A') (A') (A") (A') (A') (A") (A') (A") (A') (A')
                 (A") (A') (A') (A') (A") (A') (A") (A') (A') (A")
                 (A') (A") (A') (A') (A') (A') (A") (A') (A") (A')
                 (A') (A") (A") (A') (A") (A') (A") (A') (A') (A")
                 (A') (A") (A') (A') (A") (A') (A') (A') (A") (A')
                 (A") (A') (A') (A') (A") (A') (A")
 The electronic state is 4-A".
 Alpha  occ. eigenvalues --  -11.27478 -11.26272 -11.23459  -1.07552  -0.92470
 Alpha  occ. eigenvalues --   -0.78353  -0.62822  -0.59136  -0.54221  -0.51431
 Alpha  occ. eigenvalues --   -0.49077  -0.38488  -0.38262
 Alpha virt. eigenvalues --    0.18815   0.23152   0.23876   0.26241   0.28255
 Alpha virt. eigenvalues --    0.35786   0.38353   0.59074   0.59664   0.62539
 Alpha virt. eigenvalues --    0.64498   0.67518   0.69845   0.74231   0.77348
 Alpha virt. eigenvalues --    0.82749   0.86437   0.87889   0.88528   0.88546
 Alpha virt. eigenvalues --    0.92133   1.02189   1.10249   1.10274   1.28082
 Alpha virt. eigenvalues --    1.33808   1.36672   1.44052   1.44977   1.64368
 Alpha virt. eigenvalues --    1.64577   1.67868   1.80355   1.86690   1.88808
 Alpha virt. eigenvalues --    1.89234   1.91480   1.94222   1.94959   1.97177
 Alpha virt. eigenvalues --    2.00273   2.03764   2.17562   2.30376   2.31393
 Alpha virt. eigenvalues --    2.34939   2.44001   2.51265   2.55785   2.72684
 Alpha virt. eigenvalues --    2.79412   2.82233   2.85684   2.92180
  Beta  occ. eigenvalues --  -11.26166 -11.23255 -11.20051  -1.03358  -0.85863
  Beta  occ. eigenvalues --   -0.62680  -0.60718  -0.52956  -0.50954  -0.49594
  Beta virt. eigenvalues --    0.07904   0.16737   0.19134   0.21887   0.24203
  Beta virt. eigenvalues --    0.24282   0.27004   0.29843   0.38468   0.42849
  Beta virt. eigenvalues --    0.59837   0.61451   0.67033   0.72904   0.79486
  Beta virt. eigenvalues --    0.81550   0.84718   0.84896   0.87279   0.87386
  Beta virt. eigenvalues --    0.89229   0.89637   0.91528   0.93257   1.07930
  Beta virt. eigenvalues --    1.13447   1.14860   1.33070   1.44694   1.48096
  Beta virt. eigenvalues --    1.49100   1.51814   1.67450   1.68396   1.72644
  Beta virt. eigenvalues --    1.84315   1.89149   1.90643   1.90866   1.92289
  Beta virt. eigenvalues --    1.96390   1.96547   1.99110   2.03879   2.06484
  Beta virt. eigenvalues --    2.21968   2.30683   2.33922   2.36633   2.44884
  Beta virt. eigenvalues --    2.51908   2.56426   2.72749   2.80249   2.82685
  Beta virt. eigenvalues --    2.85979   2.92633
          Condensed to atoms (all electrons):
          Atomic-Atomic Spin Densities.
 Mulliken charges and spin densities:
               1          2
     1  C   -0.126917   2.952605
     2  C   -0.052917  -0.093780
     3  C   -0.057324   0.040554
     4  H    0.056696   0.047461
     5  H    0.056696   0.047461
     6  H    0.043690  -0.001240
     7  H    0.036385   0.008179
     8  H    0.043690  -0.001240
 Sum of Mulliken charges =   0.00000   3.00000
 Mulliken charges and spin densities with hydrogens summed into heavy atoms:
               1          2
     1  C   -0.126917   2.952605
     2  C    0.060475   0.001141
     3  C    0.066442   0.046254
 Electronic spatial extent (au):  <R**2>=            178.9934
 Charge=              0.0000 electrons
 Dipole moment (field-independent basis, Debye):
    X=              0.9379    Y=              0.0980    Z=              0.0000  Tot=              0.9430
 Unable to Open any file for archive entry.
 1\1\GINC-NODE05\SP\UMP2-FC\CC-pVDZ\C3H5(4)\XUHJ\20-Dec-2023\0\\#T MP2/
 cc-pVDZ symm=veryloose\\[C]CC\\0,4\C,0,1.480427,0.280207,0.\C,0,0.,0.5
 5733,0.\C,0,-0.859732,-0.713858,0.\H,0,-0.236787,1.177169,-0.889839\H,
 0,-0.236787,1.177169,0.889839\H,0,-0.659799,-1.329022,-0.893762\H,0,-1
 .930999,-0.43837,0.\H,0,-0.659799,-1.329022,0.893762\\Version=ES64L-G1
 6RevC.01\State=4-A"\HF=-116.3608554\MP2=-116.7046529\PUHF=-116.3619025
 \PMP2-0=-116.7053268\S2=3.757102\S2-1=3.752032\S2A=3.750015\RMSD=4.008
 e-09\PG=CS [SG(C3H1),X(H4)]\\@
 The archive entry for this job was punched.


       THE DEATH-KNELL OF THE ATOM

 SO THE ATOMS IN TURN, WE NOW CLEARLY DISCERN,
 FLY TO BITS WITH THE UTMOST FACILITY;
 THEY WEND ON THEIR WAY, AND, IN SPLITTING, DISPLAY
 AN ABSOLUTE LACK OF STABILITY.

          SIR WM. RAMSAY, 1905
 Job cpu time:       0 days  0 hours  0 minutes 14.9 seconds.
 Elapsed time:       0 days  0 hours  0 minutes  1.2 seconds.
 File lengths (MBytes):  RWF=     22 Int=      0 D2E=      0 Chk=      2 Scr=      2
 Normal termination of Gaussian 16 at Wed Dec 20 12:21:25 2023.
