%nprocshared=16
%mem=960MB
#T MP2/cc-pVDZ symm=veryloose

COC

0 1
C         0.000000       1.168456      -0.189559
O         0.000000       0.000000       0.579886
C        -0.000000      -1.168456      -0.189559
H         0.000000       2.027023       0.502202
H        -0.899054       1.236571      -0.842198
H         0.899054       1.236571      -0.842198
H        -0.000000      -2.027023       0.502202
H         0.899054      -1.236571      -0.842198
H        -0.899054      -1.236571      -0.842198


