 Entering Gaussian System, Link 0=g16
 Initial command:
 /home/software/g16/l1.exe "/home/software/g16tmp/Gau-153953.inp" -scrdir="/home/software/g16tmp/"
 Default is to use a total of   8 processors:
                                8 via shared-memory
                                1 via Linda
 Entering Link 1 = /home/software/g16/l1.exe PID=    153954.
  
 Copyright (c) 1988-2019, Gaussian, Inc.  All Rights Reserved.
  
 This is part of the Gaussian(R) 16 program.  It is based on
 the Gaussian(R) 09 system (copyright 2009, Gaussian, Inc.),
 the Gaussian(R) 03 system (copyright 2003, Gaussian, Inc.),
 the Gaussian(R) 98 system (copyright 1998, Gaussian, Inc.),
 the Gaussian(R) 94 system (copyright 1995, Gaussian, Inc.),
 the Gaussian 92(TM) system (copyright 1992, Gaussian, Inc.),
 the Gaussian 90(TM) system (copyright 1990, Gaussian, Inc.),
 the Gaussian 88(TM) system (copyright 1988, Gaussian, Inc.),
 the Gaussian 86(TM) system (copyright 1986, Carnegie Mellon
 University), and the Gaussian 82(TM) system (copyright 1983,
 Carnegie Mellon University). Gaussian is a federally registered
 trademark of Gaussian, Inc.
  
 This software contains proprietary and confidential information,
 including trade secrets, belonging to Gaussian, Inc.
  
 This software is provided under written license and may be
 used, copied, transmitted, or stored only in accord with that
 written license.
  
 The following legend is applicable only to US Government
 contracts under FAR:
  
                    RESTRICTED RIGHTS LEGEND
  
 Use, reproduction and disclosure by the US Government is
 subject to restrictions as set forth in subparagraphs (a)
 and (c) of the Commercial Computer Software - Restricted
 Rights clause in FAR 52.227-19.
  
 Gaussian, Inc.
 340 Quinnipiac St., Bldg. 40, Wallingford CT 06492
  
  
 ---------------------------------------------------------------
 Warning -- This program may not be used in any manner that
 competes with the business of Gaussian, Inc. or will provide
 assistance to any competitor of Gaussian, Inc.  The licensee
 of this program is prohibited from giving any competitor of
 Gaussian, Inc. access to this program.  By using this program,
 the user acknowledges that Gaussian, Inc. is engaged in the
 business of creating and licensing software in the field of
 computational chemistry and represents and warrants to the
 licensee that it is not a competitor of Gaussian, Inc. and that
 it will not use this program in any manner prohibited above.
 ---------------------------------------------------------------
  

 Cite this work as:
 Gaussian 16, Revision C.01,
 M. J. Frisch, G. W. Trucks, H. B. Schlegel, G. E. Scuseria, 
 M. A. Robb, J. R. Cheeseman, G. Scalmani, V. Barone, 
 G. A. Petersson, H. Nakatsuji, X. Li, M. Caricato, A. V. Marenich, 
 J. Bloino, B. G. Janesko, R. Gomperts, B. Mennucci, H. P. Hratchian, 
 J. V. Ortiz, A. F. Izmaylov, J. L. Sonnenberg, D. Williams-Young, 
 F. Ding, F. Lipparini, F. Egidi, J. Goings, B. Peng, A. Petrone, 
 T. Henderson, D. Ranasinghe, V. G. Zakrzewski, J. Gao, N. Rega, 
 G. Zheng, W. Liang, M. Hada, M. Ehara, K. Toyota, R. Fukuda, 
 J. Hasegawa, M. Ishida, T. Nakajima, Y. Honda, O. Kitao, H. Nakai, 
 T. Vreven, K. Throssell, J. A. Montgomery, Jr., J. E. Peralta, 
 F. Ogliaro, M. J. Bearpark, J. J. Heyd, E. N. Brothers, K. N. Kudin, 
 V. N. Staroverov, T. A. Keith, R. Kobayashi, J. Normand, 
 K. Raghavachari, A. P. Rendell, J. C. Burant, S. S. Iyengar, 
 J. Tomasi, M. Cossi, J. M. Millam, M. Klene, C. Adamo, R. Cammi, 
 J. W. Ochterski, R. L. Martin, K. Morokuma, O. Farkas, 
 J. B. Foresman, and D. J. Fox, Gaussian, Inc., Wallingford CT, 2019.
 
 ******************************************
 Gaussian 16:  ES64L-G16RevC.01  3-Jul-2019
                20-Dec-2023 
 ******************************************
 %nprocshared=16
 Will use up to   16 processors via shared memory.
 %mem=960MB
 -----------------------------
 #T MP2/cc-pVDZ symm=veryloose
 -----------------------------
 ---
 COC
 ---
 Symbolic Z-matrix:
 Charge =  0 Multiplicity = 1
 C                     0.        1.16846  -0.18956 
 O                     0.        0.        0.57989 
 C                     0.       -1.16846  -0.18956 
 H                     0.        2.02702   0.5022 
 H                    -0.89905   1.23657  -0.8422 
 H                     0.89905   1.23657  -0.8422 
 H                     0.       -2.02702   0.5022 
 H                     0.89905  -1.23657  -0.8422 
 H                    -0.89905  -1.23657  -0.8422 
 
                    Distance matrix (angstroms):
                    1          2          3          4          5
     1  C    0.000000
     2  O    1.399048   0.000000
     3  C    2.336912   1.399048   0.000000
     4  H    1.102575   2.028511   3.269498   0.000000
     5  H    1.113048   2.087996   2.649225   1.800145   0.000000
     6  H    1.113048   2.087996   2.649225   1.800145   1.798108
     7  H    3.269498   2.028511   1.102575   4.054046   3.642356
     8  H    2.649225   2.087996   1.113048   3.642356   3.057715
     9  H    2.649225   2.087996   1.113048   3.642356   2.473142
                    6          7          8          9
     6  H    0.000000
     7  H    3.642356   0.000000
     8  H    2.473142   1.800145   0.000000
     9  H    3.057715   1.800145   1.798108   0.000000
 Framework group  C2V[C2(O),SGV(C2H2),X(H4)]
 Deg. of freedom     7
                         Standard orientation:                         
 ---------------------------------------------------------------------
 Center     Atomic      Atomic             Coordinates (Angstroms)
 Number     Number       Type             X           Y           Z
 ---------------------------------------------------------------------
      1          6           0        0.000000    1.168456   -0.189559
      2          8           0       -0.000000   -0.000000    0.579886
      3          6           0       -0.000000   -1.168456   -0.189559
      4          1           0        0.000000    2.027023    0.502202
      5          1           0       -0.899054    1.236571   -0.842198
      6          1           0        0.899054    1.236571   -0.842198
      7          1           0       -0.000000   -2.027023    0.502202
      8          1           0        0.899054   -1.236571   -0.842198
      9          1           0       -0.899054   -1.236571   -0.842198
 ---------------------------------------------------------------------
 Rotational constants (GHZ):          39.6438584          10.0131206           8.9127901
    72 basis functions,   141 primitive gaussians,    75 cartesian basis functions
    13 alpha electrons       13 beta electrons
       nuclear repulsion energy        83.9030695819 Hartrees.
 NAtoms=    9 NActive=    9 NUniq=    4 SFac= 4.00D+00 NAtFMM=   60 NAOKFM=F Big=F
 ExpMin= 1.22D-01 ExpMax= 1.17D+04 ExpMxC= 4.01D+02 IAcc=3 IRadAn=         5 AccDes= 0.00D+00
 Harris functional with IExCor=  205 and IRadAn=       5 diagonalized for initial guess.
 HarFok:  IExCor=  205 AccDes= 0.00D+00 IRadAn=         5 IDoV= 1 UseB2=F ITyADJ=14
 ICtDFT=  3500011 ScaDFX=  1.000000  1.000000  1.000000  1.000000
 FoFCou: FMM=F IPFlag=           0 FMFlag=      100000 FMFlg1=           0
         NFxFlg=           0 DoJE=T BraDBF=F KetDBF=T FulRan=T
         wScrn=  0.000000 ICntrl=       500 IOpCl=  0 I1Cent=   200000004 NGrid=           0
         NMat0=    1 NMatS0=      1 NMatT0=    0 NMatD0=    1 NMtDS0=    0 NMtDT0=    0
 Petite list used in FoFCou.
 Initial guess orbital symmetries:
       Occupied  (A1) (A1) (B2) (A1) (B2) (A1) (B2) (A1) (B1) (A2)
                 (B2) (A1) (B1)
       Virtual   (A1) (A1) (B2) (A1) (B1) (B2) (A2) (B2) (A1) (B2)
                 (A2) (A1) (B1) (B2) (B1) (A1) (B2) (A1) (A2) (B2)
                 (A1) (B1) (A1) (B2) (A2) (A1) (B1) (B2) (B2) (B1)
                 (A2) (A1) (A2) (B1) (A1) (B2) (A2) (B2) (A1) (B1)
                 (A1) (B2) (B2) (B1) (A1) (A2) (A1) (B2) (A1) (B1)
                 (A2) (B2) (A1) (B2) (B1) (A1) (A2) (A1) (B2)
 The electronic state of the initial guess is 1-A1.
 SCF Done:  E(RHF) =  -154.075314450     A.U. after   10 cycles
            NFock= 10  Conv=0.77D-08     -V/T= 2.0016
 ExpMin= 1.22D-01 ExpMax= 1.17D+04 ExpMxC= 4.01D+02 IAcc=3 IRadAn=         5 AccDes= 0.00D+00
 HarFok:  IExCor=  205 AccDes= 0.00D+00 IRadAn=         5 IDoV=-2 UseB2=F ITyADJ=14
 ICtDFT= 12500011 ScaDFX=  1.000000  1.000000  1.000000  1.000000
 NROrb=     69 NOA=    10 NOB=    10 NVA=    59 NVB=    59
 ANorm=    0.1070137024D+01
 E2 =    -0.4791002974D+00 EUMP2 =    -0.15455441474774D+03

 **********************************************************************

            Population analysis using the SCF Density.

 **********************************************************************

 Orbital symmetries:
       Occupied  (A1) (B2) (A1) (A1) (B2) (A1) (B1) (A1) (B2) (A2)
                 (B2) (A1) (B1)
       Virtual   (A1) (B2) (A1) (B1) (B2) (A2) (A1) (B2) (A1) (A2)
                 (B1) (B2) (A1) (B2) (B1) (B2) (A1) (A2) (A1) (B2)
                 (A1) (A1) (B1) (B2) (A2) (A1) (B1) (B2) (B2) (B1)
                 (A2) (A1) (A2) (B1) (A1) (B2) (A2) (A1) (B1) (B2)
                 (A1) (B2) (B2) (B1) (A1) (A2) (B2) (A1) (A1) (B1)
                 (B2) (A2) (A1) (B2) (B1) (A1) (A2) (A1) (B2)
 The electronic state is 1-A1.
 Alpha  occ. eigenvalues --  -20.55363 -11.27910 -11.27908  -1.37856  -0.96667
 Alpha  occ. eigenvalues --   -0.86582  -0.65424  -0.64722  -0.63985  -0.54152
 Alpha  occ. eigenvalues --   -0.52198  -0.47437  -0.41711
 Alpha virt. eigenvalues --    0.18267   0.22638   0.24898   0.25341   0.28232
 Alpha virt. eigenvalues --    0.29655   0.30336   0.41735   0.58734   0.62561
 Alpha virt. eigenvalues --    0.65673   0.69438   0.73996   0.83186   0.83817
 Alpha virt. eigenvalues --    0.86339   0.86916   0.87697   0.89488   0.92588
 Alpha virt. eigenvalues --    1.09866   1.11588   1.12078   1.19174   1.23996
 Alpha virt. eigenvalues --    1.42859   1.47890   1.50564   1.59929   1.66121
 Alpha virt. eigenvalues --    1.67040   1.79524   1.82185   1.86134   1.89835
 Alpha virt. eigenvalues --    1.90397   1.93386   1.96983   1.98072   1.99236
 Alpha virt. eigenvalues --    2.06780   2.16685   2.25844   2.29234   2.33689
 Alpha virt. eigenvalues --    2.40116   2.43971   2.44945   2.71133   2.72553
 Alpha virt. eigenvalues --    2.72700   2.73402   2.74033   2.80271   3.32472
 Alpha virt. eigenvalues --    3.38465   3.46426   3.64310   3.71446
          Condensed to atoms (all electrons):
 Mulliken charges:
               1
     1  C    0.157647
     2  O   -0.464365
     3  C    0.157647
     4  H    0.044525
     5  H    0.015006
     6  H    0.015006
     7  H    0.044525
     8  H    0.015006
     9  H    0.015006
 Sum of Mulliken charges =  -0.00000
 Mulliken charges with hydrogens summed into heavy atoms:
               1
     1  C    0.232183
     2  O   -0.464365
     3  C    0.232183
 Electronic spatial extent (au):  <R**2>=            187.7586
 Charge=              0.0000 electrons
 Dipole moment (field-independent basis, Debye):
    X=              0.0000    Y=              0.0000    Z=             -1.3903  Tot=              1.3903
 Unable to Open any file for archive entry.
 1\1\GINC-NODE05\SP\RMP2-FC\CC-pVDZ\C2H6O1\XUHJ\20-Dec-2023\0\\#T MP2/c
 c-pVDZ symm=veryloose\\COC\\0,1\C,0,0.,1.168456,-0.189559\O,0,0.,0.,0.
 579886\C,0,0.,-1.168456,-0.189559\H,0,0.,2.027023,0.502202\H,0,-0.8990
 54,1.236571,-0.842198\H,0,0.899054,1.236571,-0.842198\H,0,0.,-2.027023
 ,0.502202\H,0,0.899054,-1.236571,-0.842198\H,0,-0.899054,-1.236571,-0.
 842198\\Version=ES64L-G16RevC.01\State=1-A1\HF=-154.0753145\MP2=-154.5
 544147\RMSD=7.657e-09\PG=C02V [C2(O1),SGV(C2H2),X(H4)]\\@
 The archive entry for this job was punched.


 IT IS UNWORTHY OF EXCELLENT MEN TO LOSE HOURS LIKE SLAVES IN THE LABOR
 OF CALCULATION WHICH COULD BE SAFELY RELEGATED TO ANYONE ELSE
 IF A MACHINE WERE USED.
    -- G.W. VON LEIBNIZ
 Job cpu time:       0 days  0 hours  0 minutes 11.3 seconds.
 Elapsed time:       0 days  0 hours  0 minutes  0.9 seconds.
 File lengths (MBytes):  RWF=     17 Int=      0 D2E=      0 Chk=      2 Scr=      2
 Normal termination of Gaussian 16 at Wed Dec 20 12:21:27 2023.
