 Entering Gaussian System, Link 0=g16
 Initial command:
 /opt/g16/l1.exe "/tmp/Gau-160135.inp" -scrdir="/tmp/"
 Default is to use a total of   8 processors:
                                8 via shared-memory
                                1 via Linda
 Entering Link 1 = /opt/g16/l1.exe PID=    160136.
  
 Copyright (c) 1988-2019, Gaussian, Inc.  All Rights Reserved.
  
 This is part of the Gaussian(R) 16 program.  It is based on
 the Gaussian(R) 09 system (copyright 2009, Gaussian, Inc.),
 the Gaussian(R) 03 system (copyright 2003, Gaussian, Inc.),
 the Gaussian(R) 98 system (copyright 1998, Gaussian, Inc.),
 the Gaussian(R) 94 system (copyright 1995, Gaussian, Inc.),
 the Gaussian 92(TM) system (copyright 1992, Gaussian, Inc.),
 the Gaussian 90(TM) system (copyright 1990, Gaussian, Inc.),
 the Gaussian 88(TM) system (copyright 1988, Gaussian, Inc.),
 the Gaussian 86(TM) system (copyright 1986, Carnegie Mellon
 University), and the Gaussian 82(TM) system (copyright 1983,
 Carnegie Mellon University). Gaussian is a federally registered
 trademark of Gaussian, Inc.
  
 This software contains proprietary and confidential information,
 including trade secrets, belonging to Gaussian, Inc.
  
 This software is provided under written license and may be
 used, copied, transmitted, or stored only in accord with that
 written license.
  
 The following legend is applicable only to US Government
 contracts under FAR:
  
                    RESTRICTED RIGHTS LEGEND
  
 Use, reproduction and disclosure by the US Government is
 subject to restrictions as set forth in subparagraphs (a)
 and (c) of the Commercial Computer Software - Restricted
 Rights clause in FAR 52.227-19.
  
 Gaussian, Inc.
 340 Quinnipiac St., Bldg. 40, Wallingford CT 06492
  
  
 ---------------------------------------------------------------
 Warning -- This program may not be used in any manner that
 competes with the business of Gaussian, Inc. or will provide
 assistance to any competitor of Gaussian, Inc.  The licensee
 of this program is prohibited from giving any competitor of
 Gaussian, Inc. access to this program.  By using this program,
 the user acknowledges that Gaussian, Inc. is engaged in the
 business of creating and licensing software in the field of
 computational chemistry and represents and warrants to the
 licensee that it is not a competitor of Gaussian, Inc. and that
 it will not use this program in any manner prohibited above.
 ---------------------------------------------------------------
  

 Cite this work as:
 Gaussian 16, Revision C.01,
 M. J. Frisch, G. W. Trucks, H. B. Schlegel, G. E. Scuseria, 
 M. A. Robb, J. R. Cheeseman, G. Scalmani, V. Barone, 
 G. A. Petersson, H. Nakatsuji, X. Li, M. Caricato, A. V. Marenich, 
 J. Bloino, B. G. Janesko, R. Gomperts, B. Mennucci, H. P. Hratchian, 
 J. V. Ortiz, A. F. Izmaylov, J. L. Sonnenberg, D. Williams-Young, 
 F. Ding, F. Lipparini, F. Egidi, J. Goings, B. Peng, A. Petrone, 
 T. Henderson, D. Ranasinghe, V. G. Zakrzewski, J. Gao, N. Rega, 
 G. Zheng, W. Liang, M. Hada, M. Ehara, K. Toyota, R. Fukuda, 
 J. Hasegawa, M. Ishida, T. Nakajima, Y. Honda, O. Kitao, H. Nakai, 
 T. Vreven, K. Throssell, J. A. Montgomery, Jr., J. E. Peralta, 
 F. Ogliaro, M. J. Bearpark, J. J. Heyd, E. N. Brothers, K. N. Kudin, 
 V. N. Staroverov, T. A. Keith, R. Kobayashi, J. Normand, 
 K. Raghavachari, A. P. Rendell, J. C. Burant, S. S. Iyengar, 
 J. Tomasi, M. Cossi, J. M. Millam, M. Klene, C. Adamo, R. Cammi, 
 J. W. Ochterski, R. L. Martin, K. Morokuma, O. Farkas, 
 J. B. Foresman, and D. J. Fox, Gaussian, Inc., Wallingford CT, 2019.
 
 ******************************************
 Gaussian 16:  ES64L-G16RevC.01  3-Jul-2019
                14-Sep-2024 
 ******************************************
 %nprocshared=8
 Will use up to    8 processors via shared memory.
 %mem=1600MB
 -----------------------------
 #T MP2/cc-pVDZ symm=veryloose
 -----------------------------
 ------
 O=CC=O
 ------
 Symbolic Z-matrix:
 Charge =  0 Multiplicity = 1
 O                     0.64741   1.60665   0. 
 C                     0.64741   0.40395   0. 
 C                    -0.64741  -0.40395   0. 
 O                    -0.64741  -1.60665   0. 
 H                     1.57845  -0.21945   0. 
 H                    -1.57845   0.21945   0. 
 
                    Distance matrix (angstroms):
                    1          2          3          4          5
     1  O    0.000000
     2  C    1.202691   0.000000
     3  C    2.391457   1.526196   0.000000
     4  O    3.464360   2.391457   1.202691   0.000000
     5  H    2.049740   1.120471   2.233491   2.622740   0.000000
     6  H    2.622740   2.233491   1.120471   2.049740   3.187257
                    6
     6  H    0.000000
 Framework group  C2H[SGH(C2H2O2)]
 Deg. of freedom     5
                         Standard orientation:                         
 ---------------------------------------------------------------------
 Center     Atomic      Atomic             Coordinates (Angstroms)
 Number     Number       Type             X           Y           Z
 ---------------------------------------------------------------------
      1          8           0        0.647410    1.606645    0.000000
      2          6           0        0.647410    0.403954    0.000000
      3          6           0       -0.647410   -0.403954    0.000000
      4          8           0       -0.647410   -1.606645    0.000000
      5          1           0        1.578447   -0.219445    0.000000
      6          1           0       -1.578447    0.219445    0.000000
 ---------------------------------------------------------------------
 Rotational constants (GHZ):          55.9847613           4.7654146           4.3916020
    66 basis functions,   146 primitive gaussians,    70 cartesian basis functions
    15 alpha electrons       15 beta electrons
       nuclear repulsion energy       101.7758169007 Hartrees.
 NAtoms=    6 NActive=    6 NUniq=    3 SFac= 4.00D+00 NAtFMM=   60 NAOKFM=F Big=F
 ExpMin= 1.22D-01 ExpMax= 1.17D+04 ExpMxC= 4.01D+02 IAcc=3 IRadAn=         5 AccDes= 0.00D+00
 Harris functional with IExCor=  205 and IRadAn=       5 diagonalized for initial guess.
 HarFok:  IExCor=  205 AccDes= 0.00D+00 IRadAn=         5 IDoV= 1 UseB2=F ITyADJ=14
 ICtDFT=  3500011 ScaDFX=  1.000000  1.000000  1.000000  1.000000
 FoFCou: FMM=F IPFlag=           0 FMFlag=      100000 FMFlg1=           0
         NFxFlg=           0 DoJE=T BraDBF=F KetDBF=T FulRan=T
         wScrn=  0.000000 ICntrl=       500 IOpCl=  0 I1Cent=   200000004 NGrid=           0
         NMat0=    1 NMatS0=      1 NMatT0=    0 NMatD0=    1 NMtDS0=    0 NMtDT0=    0
 Petite list used in FoFCou.
 Initial guess orbital symmetries:
       Occupied  (AG) (BU) (BU) (AG) (AG) (BU) (AG) (BU) (BU) (AG)
                 (AG) (AU) (BG) (BU) (AG)
       Virtual   (AU) (BG) (BU) (AG) (BU) (BU) (AG) (AU) (AG) (BU)
                 (BG) (BU) (AG) (BU) (AG) (BU) (AG) (BG) (AU) (BU)
                 (AU) (AG) (AG) (BU) (BG) (AU) (AG) (AG) (BU) (BU)
                 (BG) (AG) (BG) (BU) (AU) (AG) (BU) (BU) (AG) (BU)
                 (AG) (AU) (BG) (BU) (AG) (BG) (AU) (BU) (AG) (BU)
                 (AG)
 The electronic state of the initial guess is 1-AG.
 SCF Done:  E(RHF) =  -226.609631262     A.U. after   11 cycles
            NFock= 11  Conv=0.47D-08     -V/T= 2.0013
 ExpMin= 1.22D-01 ExpMax= 1.17D+04 ExpMxC= 4.01D+02 IAcc=3 IRadAn=         5 AccDes= 0.00D+00
 HarFok:  IExCor=  205 AccDes= 0.00D+00 IRadAn=         5 IDoV=-2 UseB2=F ITyADJ=14
 ICtDFT= 12500011 ScaDFX=  1.000000  1.000000  1.000000  1.000000
 NROrb=     62 NOA=    11 NOB=    11 NVA=    51 NVB=    51
 ANorm=    0.1091898066D+01
 E2 =    -0.6156790333D+00 EUMP2 =    -0.22722531029506D+03

 **********************************************************************

            Population analysis using the SCF Density.

 **********************************************************************

 Orbital symmetries:
       Occupied  (AG) (BU) (AG) (BU) (AG) (BU) (AG) (BU) (BU) (AG)
                 (AG) (AU) (BG) (BU) (AG)
       Virtual   (AU) (BU) (BG) (AG) (BU) (AG) (BU) (AU) (AG) (BU)
                 (BG) (BU) (BU) (AG) (AG) (AG) (BU) (BU) (AU) (BG)
                 (AG) (AU) (BG) (AG) (BU) (AU) (AG) (AG) (BU) (BU)
                 (BG) (AG) (BG) (BU) (AU) (AG) (BU) (AG) (BU) (BU)
                 (AG) (AU) (BG) (BU) (AG) (BG) (AU) (BU) (AG) (BU)
                 (AG)
 The electronic state is 1-AG.
 Alpha  occ. eigenvalues --  -20.60764 -20.60764 -11.36858 -11.36799  -1.44568
 Alpha  occ. eigenvalues --   -1.42974  -0.96108  -0.81716  -0.70554  -0.70201
 Alpha  occ. eigenvalues --   -0.65562  -0.59254  -0.52941  -0.52073  -0.43099
 Alpha virt. eigenvalues --    0.05176   0.19455   0.21526   0.22444   0.32702
 Alpha virt. eigenvalues --    0.42634   0.48484   0.63947   0.66264   0.67097
 Alpha virt. eigenvalues --    0.70592   0.79141   0.86565   0.86835   0.91668
 Alpha virt. eigenvalues --    0.98074   1.00039   1.12305   1.12593   1.21360
 Alpha virt. eigenvalues --    1.27213   1.28451   1.31845   1.32197   1.35396
 Alpha virt. eigenvalues --    1.43160   1.61997   1.73867   1.77218   1.82234
 Alpha virt. eigenvalues --    1.82385   1.87382   1.91453   2.00690   2.03402
 Alpha virt. eigenvalues --    2.15149   2.17630   2.50959   2.51079   2.68501
 Alpha virt. eigenvalues --    2.85463   2.97869   3.03184   3.05809   3.13062
 Alpha virt. eigenvalues --    3.37299   3.45682   3.68900   3.75391   3.82989
 Alpha virt. eigenvalues --    3.86526
          Condensed to atoms (all electrons):
 Mulliken charges:
               1
     1  O   -0.267123
     2  C    0.211165
     3  C    0.211165
     4  O   -0.267123
     5  H    0.055958
     6  H    0.055958
 Sum of Mulliken charges =   0.00000
 Mulliken charges with hydrogens summed into heavy atoms:
               1
     1  O   -0.267123
     2  C    0.267123
     3  C    0.267123
     4  O   -0.267123
 Electronic spatial extent (au):  <R**2>=            269.1014
 Charge=             -0.0000 electrons
 Dipole moment (field-independent basis, Debye):
    X=             -0.0000    Y=              0.0000    Z=              0.0000  Tot=              0.0000
 Unable to Open any file for archive entry.
 1\1\GINC-NODE01\SP\RMP2-FC\CC-pVDZ\C2H2O2\XUHJ\14-Sep-2024\0\\#T MP2/c
 c-pVDZ symm=veryloose\\O=CC=O\\0,1\O,0,0.64741,1.606645,0.\C,0,0.64741
 ,0.403954,0.\C,0,-0.64741,-0.403954,0.\O,0,-0.64741,-1.606645,0.\H,0,1
 .578447,-0.219445,0.\H,0,-1.578447,0.219445,0.\\Version=ES64L-G16RevC.
 01\State=1-AG\HF=-226.6096313\MP2=-227.2253103\RMSD=4.726e-09\PG=C02H 
 [SGH(C2H2O2)]\\@
 The archive entry for this job was punched.


 FESTINA LENTE!
     - IMPERATOR AUGUSTUS 
 Job cpu time:       0 days  0 hours  0 minutes 30.7 seconds.
 Elapsed time:       0 days  0 hours  0 minutes  5.3 seconds.
 File lengths (MBytes):  RWF=      6 Int=      0 D2E=      0 Chk=      1 Scr=      1
 Normal termination of Gaussian 16 at Sat Sep 14 10:26:14 2024.
