 Entering Gaussian System, Link 0=g16
 Initial command:
 /home/software/g16/l1.exe "/home/software/g16tmp/Gau-157188.inp" -scrdir="/home/software/g16tmp/"
 Default is to use a total of   8 processors:
                                8 via shared-memory
                                1 via Linda
 Entering Link 1 = /home/software/g16/l1.exe PID=    157190.
  
 Copyright (c) 1988-2019, Gaussian, Inc.  All Rights Reserved.
  
 This is part of the Gaussian(R) 16 program.  It is based on
 the Gaussian(R) 09 system (copyright 2009, Gaussian, Inc.),
 the Gaussian(R) 03 system (copyright 2003, Gaussian, Inc.),
 the Gaussian(R) 98 system (copyright 1998, Gaussian, Inc.),
 the Gaussian(R) 94 system (copyright 1995, Gaussian, Inc.),
 the Gaussian 92(TM) system (copyright 1992, Gaussian, Inc.),
 the Gaussian 90(TM) system (copyright 1990, Gaussian, Inc.),
 the Gaussian 88(TM) system (copyright 1988, Gaussian, Inc.),
 the Gaussian 86(TM) system (copyright 1986, Carnegie Mellon
 University), and the Gaussian 82(TM) system (copyright 1983,
 Carnegie Mellon University). Gaussian is a federally registered
 trademark of Gaussian, Inc.
  
 This software contains proprietary and confidential information,
 including trade secrets, belonging to Gaussian, Inc.
  
 This software is provided under written license and may be
 used, copied, transmitted, or stored only in accord with that
 written license.
  
 The following legend is applicable only to US Government
 contracts under FAR:
  
                    RESTRICTED RIGHTS LEGEND
  
 Use, reproduction and disclosure by the US Government is
 subject to restrictions as set forth in subparagraphs (a)
 and (c) of the Commercial Computer Software - Restricted
 Rights clause in FAR 52.227-19.
  
 Gaussian, Inc.
 340 Quinnipiac St., Bldg. 40, Wallingford CT 06492
  
  
 ---------------------------------------------------------------
 Warning -- This program may not be used in any manner that
 competes with the business of Gaussian, Inc. or will provide
 assistance to any competitor of Gaussian, Inc.  The licensee
 of this program is prohibited from giving any competitor of
 Gaussian, Inc. access to this program.  By using this program,
 the user acknowledges that Gaussian, Inc. is engaged in the
 business of creating and licensing software in the field of
 computational chemistry and represents and warrants to the
 licensee that it is not a competitor of Gaussian, Inc. and that
 it will not use this program in any manner prohibited above.
 ---------------------------------------------------------------
  

 Cite this work as:
 Gaussian 16, Revision C.01,
 M. J. Frisch, G. W. Trucks, H. B. Schlegel, G. E. Scuseria, 
 M. A. Robb, J. R. Cheeseman, G. Scalmani, V. Barone, 
 G. A. Petersson, H. Nakatsuji, X. Li, M. Caricato, A. V. Marenich, 
 J. Bloino, B. G. Janesko, R. Gomperts, B. Mennucci, H. P. Hratchian, 
 J. V. Ortiz, A. F. Izmaylov, J. L. Sonnenberg, D. Williams-Young, 
 F. Ding, F. Lipparini, F. Egidi, J. Goings, B. Peng, A. Petrone, 
 T. Henderson, D. Ranasinghe, V. G. Zakrzewski, J. Gao, N. Rega, 
 G. Zheng, W. Liang, M. Hada, M. Ehara, K. Toyota, R. Fukuda, 
 J. Hasegawa, M. Ishida, T. Nakajima, Y. Honda, O. Kitao, H. Nakai, 
 T. Vreven, K. Throssell, J. A. Montgomery, Jr., J. E. Peralta, 
 F. Ogliaro, M. J. Bearpark, J. J. Heyd, E. N. Brothers, K. N. Kudin, 
 V. N. Staroverov, T. A. Keith, R. Kobayashi, J. Normand, 
 K. Raghavachari, A. P. Rendell, J. C. Burant, S. S. Iyengar, 
 J. Tomasi, M. Cossi, J. M. Millam, M. Klene, C. Adamo, R. Cammi, 
 J. W. Ochterski, R. L. Martin, K. Morokuma, O. Farkas, 
 J. B. Foresman, and D. J. Fox, Gaussian, Inc., Wallingford CT, 2019.
 
 ******************************************
 Gaussian 16:  ES64L-G16RevC.01  3-Jul-2019
                20-Dec-2023 
 ******************************************
 %nprocshared=16
 Will use up to   16 processors via shared memory.
 %mem=960MB
 -----------------------------
 #T MP2/cc-pVDZ symm=veryloose
 -----------------------------
 ---
 CCO
 ---
 Symbolic Z-matrix:
 Charge =  0 Multiplicity = 1
 C                    -1.1701   -0.41662   0. 
 C                     0.        0.55074   0. 
 O                     1.19778  -0.20402   0. 
 H                    -2.13075   0.12846   0. 
 H                    -1.13186  -1.06354   0.89409 
 H                    -1.13186  -1.06354  -0.89409 
 H                    -0.05933   1.20982   0.89347 
 H                    -0.05933   1.20982  -0.89347 
 H                     1.95063   0.40807   0. 
 
                    Distance matrix (angstroms):
                    1          2          3          4          5
     1  C    0.000000
     2  C    1.518192   0.000000
     3  O    2.377405   1.415747   0.000000
     4  H    1.104515   2.172189   3.345093   0.000000
     5  H    1.104254   2.164812   2.639206   1.793892   0.000000
     6  H    1.104254   2.164812   2.639206   1.793892   1.788186
     7  H    2.162727   1.111845   2.092262   2.501679   2.513660
     8  H    2.162727   1.111845   2.092262   2.501679   3.084457
     9  H    3.227851   1.955836   0.970270   4.090940   3.530829
                    6          7          8          9
     6  H    0.000000
     7  H    3.084457   0.000000
     8  H    2.513660   1.786944   0.000000
     9  H    3.530829   2.341158   2.341158   0.000000
 Framework group  CS[SG(C2H2O),X(H4)]
 Deg. of freedom    13
                         Standard orientation:                         
 ---------------------------------------------------------------------
 Center     Atomic      Atomic             Coordinates (Angstroms)
 Number     Number       Type             X           Y           Z
 ---------------------------------------------------------------------
      1          6           0       -1.170042   -0.416750    0.000000
      2          6           0        0.000000    0.550675    0.000000
      3          8           0        1.197826   -0.204012    0.000000
      4          1           0       -2.130723    0.128269    0.000000
      5          1           0       -1.131764   -1.063673    0.894093
      6          1           0       -1.131764   -1.063673   -0.894093
      7          1           0       -0.059370    1.209751    0.893472
      8          1           0       -0.059370    1.209751   -0.893472
      9          1           0        1.950633    0.408120    0.000000
 ---------------------------------------------------------------------
 Rotational constants (GHZ):          35.0469479           9.3508228           8.1478908
    72 basis functions,   141 primitive gaussians,    75 cartesian basis functions
    13 alpha electrons       13 beta electrons
       nuclear repulsion energy        81.5823621038 Hartrees.
 NAtoms=    9 NActive=    9 NUniq=    7 SFac= 1.65D+00 NAtFMM=   60 NAOKFM=F Big=F
 ExpMin= 1.22D-01 ExpMax= 1.17D+04 ExpMxC= 4.01D+02 IAcc=3 IRadAn=         5 AccDes= 0.00D+00
 Harris functional with IExCor=  205 and IRadAn=       5 diagonalized for initial guess.
 HarFok:  IExCor=  205 AccDes= 0.00D+00 IRadAn=         5 IDoV= 1 UseB2=F ITyADJ=14
 ICtDFT=  3500011 ScaDFX=  1.000000  1.000000  1.000000  1.000000
 FoFCou: FMM=F IPFlag=           0 FMFlag=      100000 FMFlg1=           0
         NFxFlg=           0 DoJE=T BraDBF=F KetDBF=T FulRan=T
         wScrn=  0.000000 ICntrl=       500 IOpCl=  0 I1Cent=   200000004 NGrid=           0
         NMat0=    1 NMatS0=      1 NMatT0=    0 NMatD0=    1 NMtDS0=    0 NMtDT0=    0
 Petite list used in FoFCou.
 Initial guess orbital symmetries:
       Occupied  (A') (A') (A') (A') (A') (A') (A') (A") (A') (A')
                 (A") (A') (A")
       Virtual   (A') (A') (A") (A') (A') (A') (A") (A') (A") (A')
                 (A') (A') (A") (A') (A') (A") (A') (A") (A') (A')
                 (A') (A") (A') (A') (A") (A') (A") (A') (A') (A")
                 (A") (A') (A') (A") (A") (A') (A") (A') (A') (A")
                 (A') (A') (A") (A') (A') (A') (A") (A') (A') (A')
                 (A') (A") (A') (A") (A") (A") (A') (A') (A')
 The electronic state of the initial guess is 1-A'.
 SCF Done:  E(RHF) =  -154.091324610     A.U. after   11 cycles
            NFock= 11  Conv=0.86D-08     -V/T= 2.0016
 ExpMin= 1.22D-01 ExpMax= 1.17D+04 ExpMxC= 4.01D+02 IAcc=3 IRadAn=         5 AccDes= 0.00D+00
 HarFok:  IExCor=  205 AccDes= 0.00D+00 IRadAn=         5 IDoV=-2 UseB2=F ITyADJ=14
 ICtDFT= 12500011 ScaDFX=  1.000000  1.000000  1.000000  1.000000
 NROrb=     69 NOA=    10 NOB=    10 NVA=    59 NVB=    59
 ANorm=    0.1070683894D+01
 E2 =    -0.4817867005D+00 EUMP2 =    -0.15457311131003D+03

 **********************************************************************

            Population analysis using the SCF Density.

 **********************************************************************

 Orbital symmetries:
       Occupied  (A') (A') (A') (A') (A') (A') (A') (A") (A') (A')
                 (A") (A') (A")
       Virtual   (A') (A') (A") (A') (A') (A") (A') (A') (A") (A')
                 (A') (A") (A') (A') (A') (A") (A') (A") (A') (A')
                 (A') (A") (A') (A') (A") (A') (A") (A') (A') (A")
                 (A") (A') (A") (A") (A') (A') (A") (A') (A") (A')
                 (A') (A') (A") (A') (A') (A') (A") (A') (A') (A')
                 (A') (A") (A') (A") (A") (A") (A') (A') (A')
 The electronic state is 1-A'.
 Alpha  occ. eigenvalues --  -20.55011 -11.27976 -11.22210  -1.35180  -1.00574
 Alpha  occ. eigenvalues --   -0.82654  -0.69194  -0.63676  -0.56561  -0.52778
 Alpha  occ. eigenvalues --   -0.51836  -0.48059  -0.43289
 Alpha virt. eigenvalues --    0.18088   0.21429   0.24557   0.24747   0.26755
 Alpha virt. eigenvalues --    0.29295   0.38133   0.39846   0.60560   0.61542
 Alpha virt. eigenvalues --    0.66072   0.75039   0.75255   0.80300   0.85845
 Alpha virt. eigenvalues --    0.86449   0.88457   0.89399   0.90145   0.93188
 Alpha virt. eigenvalues --    1.13011   1.15167   1.17372   1.25581   1.32470
 Alpha virt. eigenvalues --    1.42750   1.46973   1.51940   1.56995   1.59609
 Alpha virt. eigenvalues --    1.68372   1.77090   1.86555   1.87623   1.88650
 Alpha virt. eigenvalues --    1.91485   1.93117   1.96090   1.96795   1.99358
 Alpha virt. eigenvalues --    2.09258   2.18004   2.22391   2.27340   2.30705
 Alpha virt. eigenvalues --    2.46864   2.49847   2.52160   2.56659   2.73024
 Alpha virt. eigenvalues --    2.74112   2.77521   2.87017   2.88733   3.31978
 Alpha virt. eigenvalues --    3.41053   3.46046   3.61214   4.10707
          Condensed to atoms (all electrons):
 Mulliken charges:
               1
     1  C   -0.073830
     2  C    0.147423
     3  O   -0.384112
     4  H    0.027939
     5  H    0.043803
     6  H    0.043803
     7  H    0.014089
     8  H    0.014089
     9  H    0.166796
 Sum of Mulliken charges =  -0.00000
 Mulliken charges with hydrogens summed into heavy atoms:
               1
     1  C    0.041714
     2  C    0.175601
     3  O   -0.217316
 Electronic spatial extent (au):  <R**2>=            194.1878
 Charge=             -0.0000 electrons
 Dipole moment (field-independent basis, Debye):
    X=             -0.0351    Y=              1.6618    Z=              0.0000  Tot=              1.6622
 Unable to Open any file for archive entry.
 1\1\GINC-NODE05\SP\RMP2-FC\CC-pVDZ\C2H6O1\XUHJ\20-Dec-2023\0\\#T MP2/c
 c-pVDZ symm=veryloose\\CCO\\0,1\C,0,-1.170099,-0.416615,0.\C,0,0.,0.55
 074,0.\O,0,1.197781,-0.204018,0.\H,0,-2.130748,0.128461,0.\H,0,-1.1318
 6,-1.063541,0.894093\H,0,-1.13186,-1.063541,-0.894093\H,0,-0.059331,1.
 20982,0.893472\H,0,-0.059331,1.20982,-0.893472\H,0,1.950625,0.408069,0
 .\\Version=ES64L-G16RevC.01\State=1-A'\HF=-154.0913246\MP2=-154.573111
 3\RMSD=8.583e-09\PG=CS [SG(C2H2O1),X(H4)]\\@
 The archive entry for this job was punched.


 YOU WILL NEVER "FIND" TIME FOR ANYTHING.
 IF YOU WANT TIME, YOU MUST MAKE IT.

                        -- CHARLES BIXTON
 Job cpu time:       0 days  0 hours  0 minutes 10.6 seconds.
 Elapsed time:       0 days  0 hours  0 minutes  0.9 seconds.
 File lengths (MBytes):  RWF=     17 Int=      0 D2E=      0 Chk=      2 Scr=      2
 Normal termination of Gaussian 16 at Wed Dec 20 12:21:36 2023.
