%nprocshared=16
%mem=1600MB
#T MP2/cc-pVDZ symm=veryloose

C1=CCCC1

0 1
C        -0.171872       1.062357      -0.669689
C        -0.171872       1.062357       0.669689
C         0.141654      -0.304965       1.233838
C        -0.000000      -1.232643       0.000000
C         0.141654      -0.304965      -1.233838
H        -0.333704       1.944114      -1.298239
H        -0.333704       1.944114       1.298239
H        -0.526843      -0.598176       2.063778
H         1.171297      -0.322228       1.646452
H        -1.009606      -1.679366       0.000000
H         0.724210      -2.063864       0.000000
H        -0.526843      -0.598176      -2.063778
H         1.171297      -0.322228      -1.646452


