 Entering Gaussian System, Link 0=g16
 Initial command:
 /home/software/g16/l1.exe "/home/software/g16tmp/Gau-137001.inp" -scrdir="/home/software/g16tmp/"
 Default is to use a total of   8 processors:
                                8 via shared-memory
                                1 via Linda
 Entering Link 1 = /home/software/g16/l1.exe PID=    137004.
  
 Copyright (c) 1988-2019, Gaussian, Inc.  All Rights Reserved.
  
 This is part of the Gaussian(R) 16 program.  It is based on
 the Gaussian(R) 09 system (copyright 2009, Gaussian, Inc.),
 the Gaussian(R) 03 system (copyright 2003, Gaussian, Inc.),
 the Gaussian(R) 98 system (copyright 1998, Gaussian, Inc.),
 the Gaussian(R) 94 system (copyright 1995, Gaussian, Inc.),
 the Gaussian 92(TM) system (copyright 1992, Gaussian, Inc.),
 the Gaussian 90(TM) system (copyright 1990, Gaussian, Inc.),
 the Gaussian 88(TM) system (copyright 1988, Gaussian, Inc.),
 the Gaussian 86(TM) system (copyright 1986, Carnegie Mellon
 University), and the Gaussian 82(TM) system (copyright 1983,
 Carnegie Mellon University). Gaussian is a federally registered
 trademark of Gaussian, Inc.
  
 This software contains proprietary and confidential information,
 including trade secrets, belonging to Gaussian, Inc.
  
 This software is provided under written license and may be
 used, copied, transmitted, or stored only in accord with that
 written license.
  
 The following legend is applicable only to US Government
 contracts under FAR:
  
                    RESTRICTED RIGHTS LEGEND
  
 Use, reproduction and disclosure by the US Government is
 subject to restrictions as set forth in subparagraphs (a)
 and (c) of the Commercial Computer Software - Restricted
 Rights clause in FAR 52.227-19.
  
 Gaussian, Inc.
 340 Quinnipiac St., Bldg. 40, Wallingford CT 06492
  
  
 ---------------------------------------------------------------
 Warning -- This program may not be used in any manner that
 competes with the business of Gaussian, Inc. or will provide
 assistance to any competitor of Gaussian, Inc.  The licensee
 of this program is prohibited from giving any competitor of
 Gaussian, Inc. access to this program.  By using this program,
 the user acknowledges that Gaussian, Inc. is engaged in the
 business of creating and licensing software in the field of
 computational chemistry and represents and warrants to the
 licensee that it is not a competitor of Gaussian, Inc. and that
 it will not use this program in any manner prohibited above.
 ---------------------------------------------------------------
  

 Cite this work as:
 Gaussian 16, Revision C.01,
 M. J. Frisch, G. W. Trucks, H. B. Schlegel, G. E. Scuseria, 
 M. A. Robb, J. R. Cheeseman, G. Scalmani, V. Barone, 
 G. A. Petersson, H. Nakatsuji, X. Li, M. Caricato, A. V. Marenich, 
 J. Bloino, B. G. Janesko, R. Gomperts, B. Mennucci, H. P. Hratchian, 
 J. V. Ortiz, A. F. Izmaylov, J. L. Sonnenberg, D. Williams-Young, 
 F. Ding, F. Lipparini, F. Egidi, J. Goings, B. Peng, A. Petrone, 
 T. Henderson, D. Ranasinghe, V. G. Zakrzewski, J. Gao, N. Rega, 
 G. Zheng, W. Liang, M. Hada, M. Ehara, K. Toyota, R. Fukuda, 
 J. Hasegawa, M. Ishida, T. Nakajima, Y. Honda, O. Kitao, H. Nakai, 
 T. Vreven, K. Throssell, J. A. Montgomery, Jr., J. E. Peralta, 
 F. Ogliaro, M. J. Bearpark, J. J. Heyd, E. N. Brothers, K. N. Kudin, 
 V. N. Staroverov, T. A. Keith, R. Kobayashi, J. Normand, 
 K. Raghavachari, A. P. Rendell, J. C. Burant, S. S. Iyengar, 
 J. Tomasi, M. Cossi, J. M. Millam, M. Klene, C. Adamo, R. Cammi, 
 J. W. Ochterski, R. L. Martin, K. Morokuma, O. Farkas, 
 J. B. Foresman, and D. J. Fox, Gaussian, Inc., Wallingford CT, 2019.
 
 ******************************************
 Gaussian 16:  ES64L-G16RevC.01  3-Jul-2019
                20-Dec-2023 
 ******************************************
 %nprocshared=16
 Will use up to   16 processors via shared memory.
 %mem=960MB
 -----------------------------
 #T MP2/cc-pVDZ symm=veryloose
 -----------------------------
 -----
 C1CC1
 -----
 Symbolic Z-matrix:
 Charge =  0 Multiplicity = 1
 C                     0.        0.87107   0. 
 C                     0.75437  -0.43553   0. 
 C                    -0.75437  -0.43553   0. 
 H                     0.        1.46838  -0.91947 
 H                     0.        1.46838   0.91947 
 H                     1.27166  -0.73419   0.91947 
 H                     1.27166  -0.73419  -0.91947 
 H                    -1.27166  -0.73419   0.91947 
 H                    -1.27166  -0.73419  -0.91947 
 
                    Distance matrix (angstroms):
                    1          2          3          4          5
     1  C    0.000000
     2  C    1.508733   0.000000
     3  C    1.508733   1.508732   0.000000
     4  H    1.096455   2.244861   2.244861   0.000000
     5  H    1.096455   2.244861   2.244861   1.838942   0.000000
     6  H    2.244860   1.096455   2.244859   3.138496   2.543315
     7  H    2.244860   1.096455   2.244859   2.543315   3.138496
     8  H    2.244860   2.244859   1.096455   3.138496   2.543315
     9  H    2.244860   2.244859   1.096455   2.543315   3.138496
                    6          7          8          9
     6  H    0.000000
     7  H    1.838942   0.000000
     8  H    2.543314   3.138495   0.000000
     9  H    3.138495   2.543314   1.838942   0.000000
 Framework group  D3H[3C2(C),3SGV(H2)]
 Deg. of freedom     3
                         Standard orientation:                         
 ---------------------------------------------------------------------
 Center     Atomic      Atomic             Coordinates (Angstroms)
 Number     Number       Type             X           Y           Z
 ---------------------------------------------------------------------
      1          6           0       -0.000000    0.871067    0.000000
      2          6           0       -0.754366   -0.435534    0.000000
      3          6           0        0.754366   -0.435534    0.000000
      4          1           0        0.000000    1.468384    0.919471
      5          1           0        0.000000    1.468384   -0.919471
      6          1           0       -1.271658   -0.734192   -0.919471
      7          1           0       -1.271658   -0.734192    0.919471
      8          1           0        1.271658   -0.734192   -0.919471
      9          1           0        1.271658   -0.734192    0.919471
 ---------------------------------------------------------------------
 Rotational constants (GHZ):          19.9841641          19.9841641          12.5238150
    72 basis functions,   141 primitive gaussians,    75 cartesian basis functions
    12 alpha electrons       12 beta electrons
       nuclear repulsion energy        75.3505111173 Hartrees.
 NAtoms=    9 NActive=    9 NUniq=    2 SFac= 4.00D+00 NAtFMM=   60 NAOKFM=F Big=F
 ExpMin= 1.22D-01 ExpMax= 6.67D+03 ExpMxC= 2.28D+02 IAcc=3 IRadAn=         5 AccDes= 0.00D+00
 Harris functional with IExCor=  205 and IRadAn=       5 diagonalized for initial guess.
 HarFok:  IExCor=  205 AccDes= 0.00D+00 IRadAn=         5 IDoV= 1 UseB2=F ITyADJ=14
 ICtDFT=  3500011 ScaDFX=  1.000000  1.000000  1.000000  1.000000
 FoFCou: FMM=F IPFlag=           0 FMFlag=      100000 FMFlg1=           0
         NFxFlg=           0 DoJE=T BraDBF=F KetDBF=T FulRan=T
         wScrn=  0.000000 ICntrl=       500 IOpCl=  0 I1Cent=   200000004 NGrid=           0
         NMat0=    1 NMatS0=      1 NMatT0=    0 NMatD0=    1 NMtDS0=    0 NMtDT0=    0
 Petite list used in FoFCou.
 Initial guess orbital symmetries:
       Occupied  (A1') (E') (E') (A1') (E') (E') (A2") (A1') (E")
                 (E") (E') (E')
       Virtual   (A2') (A2") (A1') (E') (E') (E") (E") (E') (E')
                 (A1') (A2") (E') (E') (A1') (E') (E') (A2') (E")
                 (E") (E") (E") (A2") (E') (E') (A1') (A1") (A1')
                 (E') (E') (E") (E") (A2") (E') (E') (E') (E')
                 (E") (E") (A2") (A1') (E") (E") (A2') (E') (E')
                 (E') (E') (A2') (E") (E") (A1') (E') (E') (A1")
                 (A1') (A2") (E') (E') (E") (E")
 The electronic state of the initial guess is 1-A1'.
 SCF Done:  E(RHF) =  -117.066405013     A.U. after    9 cycles
            NFock=  9  Conv=0.55D-08     -V/T= 2.0025
 ExpMin= 1.22D-01 ExpMax= 6.67D+03 ExpMxC= 2.28D+02 IAcc=3 IRadAn=         5 AccDes= 0.00D+00
 HarFok:  IExCor=  205 AccDes= 0.00D+00 IRadAn=         5 IDoV=-2 UseB2=F ITyADJ=14
 ICtDFT= 12500011 ScaDFX=  1.000000  1.000000  1.000000  1.000000
 NROrb=     69 NOA=     9 NOB=     9 NVA=    60 NVB=    60
 ANorm=    0.1071701117D+01
 E2 =    -0.4247009697D+00 EUMP2 =    -0.11749110598232D+03

 **********************************************************************

            Population analysis using the SCF Density.

 **********************************************************************

 Orbital symmetries:
       Occupied  (A1') (E') (E') (A1') (E') (E') (A2") (A1') (E")
                 (E") (E') (E')
       Virtual   (A1') (A2") (E') (E') (E") (E") (A2') (E') (E')
                 (A1') (A2") (E') (E') (A1') (E') (E') (E") (E")
                 (A2') (A2") (E") (E") (E') (E') (A1') (A1") (E')
                 (E') (E") (E") (A1') (A2") (E') (E') (E') (E')
                 (E") (E") (A2") (A2') (A1') (E") (E") (E') (E')
                 (E') (E') (A1') (A2') (E") (E") (E') (E') (A1")
                 (A1') (A2") (E') (E') (E") (E")
 The electronic state is 1-A1'.
 Alpha  occ. eigenvalues --  -11.23269 -11.23172 -11.23172  -1.12897  -0.81282
 Alpha  occ. eigenvalues --   -0.81282  -0.66026  -0.62331  -0.50599  -0.50599
 Alpha  occ. eigenvalues --   -0.41782  -0.41782
 Alpha virt. eigenvalues --    0.19027   0.20494   0.23616   0.23616   0.30459
 Alpha virt. eigenvalues --    0.30459   0.31106   0.40269   0.40269   0.55402
 Alpha virt. eigenvalues --    0.57244   0.66703   0.66703   0.73962   0.81532
 Alpha virt. eigenvalues --    0.81532   0.84383   0.84383   0.84649   0.87422
 Alpha virt. eigenvalues --    0.89906   0.89906   0.91830   0.91830   1.00535
 Alpha virt. eigenvalues --    1.38123   1.40091   1.40091   1.43689   1.43689
 Alpha virt. eigenvalues --    1.44033   1.71080   1.72161   1.72161   1.83344
 Alpha virt. eigenvalues --    1.83344   1.84381   1.84381   1.86945   1.98314
 Alpha virt. eigenvalues --    1.99299   1.99947   1.99947   2.07364   2.07364
 Alpha virt. eigenvalues --    2.22130   2.22130   2.37724   2.38613   2.40015
 Alpha virt. eigenvalues --    2.40015   2.58461   2.58461   2.60919   2.67910
 Alpha virt. eigenvalues --    2.76652   2.90093   2.90093   3.10148   3.10148
          Condensed to atoms (all electrons):
 Mulliken charges:
               1
     1  C   -0.097764
     2  C   -0.097764
     3  C   -0.097764
     4  H    0.048882
     5  H    0.048882
     6  H    0.048882
     7  H    0.048882
     8  H    0.048882
     9  H    0.048882
 Sum of Mulliken charges =  -0.00000
 Mulliken charges with hydrogens summed into heavy atoms:
               1
     1  C   -0.000000
     2  C   -0.000000
     3  C   -0.000000
 Electronic spatial extent (au):  <R**2>=            157.9127
 Charge=             -0.0000 electrons
 Dipole moment (field-independent basis, Debye):
    X=              0.0000    Y=             -0.0000    Z=              0.0000  Tot=              0.0000
 Unable to Open any file for archive entry.
 1\1\GINC-NODE06\SP\RMP2-FC\CC-pVDZ\C3H6\XUHJ\20-Dec-2023\0\\#T MP2/cc-
 pVDZ symm=veryloose\\C1CC1\\0,1\C,0,0.,0.871067,0.\C,0,0.754366,-0.435
 534,0.\C,0,-0.754366,-0.435534,0.\H,0,0.,1.468384,-0.919471\H,0,0.,1.4
 68384,0.919471\H,0,1.271657,-0.734192,0.919471\H,0,1.271657,-0.734192,
 -0.919471\H,0,-1.271657,-0.734192,0.919471\H,0,-1.271657,-0.734192,-0.
 919471\\Version=ES64L-G16RevC.01\State=1-A1'\HF=-117.066405\MP2=-117.4
 91106\RMSD=5.466e-09\PG=D03H [3C2(C1),3SGV(H2)]\\@
 The archive entry for this job was punched.


 ... THIS SEEMS PLAINLY ABSURD; BUT WHOEVER WISHES TO BECOME A 
 PHILOSOPHER MUST LEARN NOT TO BE FRIGHTENED BY ABSURDITIES.

                          -- BERTRAND RUSSELL
 Job cpu time:       0 days  0 hours  0 minutes 12.5 seconds.
 Elapsed time:       0 days  0 hours  0 minutes  1.0 seconds.
 File lengths (MBytes):  RWF=     17 Int=      0 D2E=      0 Chk=      2 Scr=      2
 Normal termination of Gaussian 16 at Wed Dec 20 12:21:05 2023.
