 Entering Gaussian System, Link 0=g16
 Initial command:
 /opt/g16/l1.exe "/tmp/Gau-161903.inp" -scrdir="/tmp/"
 Default is to use a total of   8 processors:
                                8 via shared-memory
                                1 via Linda
 Entering Link 1 = /opt/g16/l1.exe PID=    161904.
  
 Copyright (c) 1988-2019, Gaussian, Inc.  All Rights Reserved.
  
 This is part of the Gaussian(R) 16 program.  It is based on
 the Gaussian(R) 09 system (copyright 2009, Gaussian, Inc.),
 the Gaussian(R) 03 system (copyright 2003, Gaussian, Inc.),
 the Gaussian(R) 98 system (copyright 1998, Gaussian, Inc.),
 the Gaussian(R) 94 system (copyright 1995, Gaussian, Inc.),
 the Gaussian 92(TM) system (copyright 1992, Gaussian, Inc.),
 the Gaussian 90(TM) system (copyright 1990, Gaussian, Inc.),
 the Gaussian 88(TM) system (copyright 1988, Gaussian, Inc.),
 the Gaussian 86(TM) system (copyright 1986, Carnegie Mellon
 University), and the Gaussian 82(TM) system (copyright 1983,
 Carnegie Mellon University). Gaussian is a federally registered
 trademark of Gaussian, Inc.
  
 This software contains proprietary and confidential information,
 including trade secrets, belonging to Gaussian, Inc.
  
 This software is provided under written license and may be
 used, copied, transmitted, or stored only in accord with that
 written license.
  
 The following legend is applicable only to US Government
 contracts under FAR:
  
                    RESTRICTED RIGHTS LEGEND
  
 Use, reproduction and disclosure by the US Government is
 subject to restrictions as set forth in subparagraphs (a)
 and (c) of the Commercial Computer Software - Restricted
 Rights clause in FAR 52.227-19.
  
 Gaussian, Inc.
 340 Quinnipiac St., Bldg. 40, Wallingford CT 06492
  
  
 ---------------------------------------------------------------
 Warning -- This program may not be used in any manner that
 competes with the business of Gaussian, Inc. or will provide
 assistance to any competitor of Gaussian, Inc.  The licensee
 of this program is prohibited from giving any competitor of
 Gaussian, Inc. access to this program.  By using this program,
 the user acknowledges that Gaussian, Inc. is engaged in the
 business of creating and licensing software in the field of
 computational chemistry and represents and warrants to the
 licensee that it is not a competitor of Gaussian, Inc. and that
 it will not use this program in any manner prohibited above.
 ---------------------------------------------------------------
  

 Cite this work as:
 Gaussian 16, Revision C.01,
 M. J. Frisch, G. W. Trucks, H. B. Schlegel, G. E. Scuseria, 
 M. A. Robb, J. R. Cheeseman, G. Scalmani, V. Barone, 
 G. A. Petersson, H. Nakatsuji, X. Li, M. Caricato, A. V. Marenich, 
 J. Bloino, B. G. Janesko, R. Gomperts, B. Mennucci, H. P. Hratchian, 
 J. V. Ortiz, A. F. Izmaylov, J. L. Sonnenberg, D. Williams-Young, 
 F. Ding, F. Lipparini, F. Egidi, J. Goings, B. Peng, A. Petrone, 
 T. Henderson, D. Ranasinghe, V. G. Zakrzewski, J. Gao, N. Rega, 
 G. Zheng, W. Liang, M. Hada, M. Ehara, K. Toyota, R. Fukuda, 
 J. Hasegawa, M. Ishida, T. Nakajima, Y. Honda, O. Kitao, H. Nakai, 
 T. Vreven, K. Throssell, J. A. Montgomery, Jr., J. E. Peralta, 
 F. Ogliaro, M. J. Bearpark, J. J. Heyd, E. N. Brothers, K. N. Kudin, 
 V. N. Staroverov, T. A. Keith, R. Kobayashi, J. Normand, 
 K. Raghavachari, A. P. Rendell, J. C. Burant, S. S. Iyengar, 
 J. Tomasi, M. Cossi, J. M. Millam, M. Klene, C. Adamo, R. Cammi, 
 J. W. Ochterski, R. L. Martin, K. Morokuma, O. Farkas, 
 J. B. Foresman, and D. J. Fox, Gaussian, Inc., Wallingford CT, 2019.
 
 ******************************************
 Gaussian 16:  ES64L-G16RevC.01  3-Jul-2019
                14-Sep-2024 
 ******************************************
 %nprocshared=8
 Will use up to    8 processors via shared memory.
 %mem=1600MB
 -----------------------------
 #T MP2/cc-pVDZ symm=veryloose
 -----------------------------
 ----
 OCCO
 ----
 Symbolic Z-matrix:
 Charge =  0 Multiplicity = 1
 O                    -1.30526  -0.57456   0.21724 
 C                    -0.68272   0.61167  -0.25667 
 C                     0.74675   0.57206   0.25858 
 O                     1.40552  -0.58878  -0.18633 
 H                    -2.1445   -0.70832  -0.24908 
 H                    -1.2021    1.52252   0.10912 
 H                    -0.66854   0.6369   -1.36537 
 H                     0.7273    0.63361   1.36885 
 H                     1.30857   1.44416  -0.11805 
 H                     0.79296  -1.32449  -0.00418 
 
                    Distance matrix (angstroms):
                    1          2          3          4          5
     1  O    0.000000
     2  C    1.421012   0.000000
     3  C    2.350989   1.520006   0.000000
     4  O    2.740690   2.409724   1.406937   0.000000
     5  H    0.969368   1.969575   3.202558   3.552586   0.000000
     6  H    2.102397   1.110505   2.173415   3.368174   2.448074
     7  H    2.092290   1.109077   2.155098   2.682192   2.287827
     8  H    2.630050   2.151967   1.112150   2.091123   3.558891
     9  H    3.319593   2.162744   1.103653   2.036396   4.071114
    10  H    2.239179   2.447464   1.915222   0.974517   3.011360
                    6          7          8          9         10
     6  H    0.000000
     7  H    1.800877   0.000000
     8  H    2.469755   3.069912   0.000000
     9  H    2.522143   2.473140   1.790461   0.000000
    10  H    3.478302   2.799259   2.392420   2.818553   0.000000
 Framework group  C1[X(C2H6O2)]
 Deg. of freedom    24
                         Standard orientation:                         
 ---------------------------------------------------------------------
 Center     Atomic      Atomic             Coordinates (Angstroms)
 Number     Number       Type             X           Y           Z
 ---------------------------------------------------------------------
      1          8           0       -1.305255   -0.574558    0.217238
      2          6           0       -0.682717    0.611668   -0.256672
      3          6           0        0.746747    0.572057    0.258577
      4          8           0        1.405522   -0.588782   -0.186328
      5          1           0       -2.144498   -0.708317   -0.249082
      6          1           0       -1.202102    1.522522    0.109123
      7          1           0       -0.668539    0.636895   -1.365371
      8          1           0        0.727302    0.633605    1.368852
      9          1           0        1.308566    1.444158   -0.118053
     10          1           0        0.792957   -1.324492   -0.004180
 ---------------------------------------------------------------------
 Rotational constants (GHZ):          15.1396228           5.7885945           4.7100217
    86 basis functions,   174 primitive gaussians,    90 cartesian basis functions
    17 alpha electrons       17 beta electrons
       nuclear repulsion energy       133.7597299714 Hartrees.
 NAtoms=   10 NActive=   10 NUniq=   10 SFac= 1.00D+00 NAtFMM=   60 NAOKFM=F Big=F
 ExpMin= 1.22D-01 ExpMax= 1.17D+04 ExpMxC= 4.01D+02 IAcc=3 IRadAn=         5 AccDes= 0.00D+00
 Harris functional with IExCor=  205 and IRadAn=       5 diagonalized for initial guess.
 HarFok:  IExCor=  205 AccDes= 0.00D+00 IRadAn=         5 IDoV= 1 UseB2=F ITyADJ=14
 ICtDFT=  3500011 ScaDFX=  1.000000  1.000000  1.000000  1.000000
 FoFCou: FMM=F IPFlag=           0 FMFlag=      100000 FMFlg1=           0
         NFxFlg=           0 DoJE=T BraDBF=F KetDBF=T FulRan=T
         wScrn=  0.000000 ICntrl=       500 IOpCl=  0 I1Cent=   200000004 NGrid=           0
         NMat0=    1 NMatS0=      1 NMatT0=    0 NMatD0=    1 NMtDS0=    0 NMtDT0=    0
 Petite list used in FoFCou.
 SCF Done:  E(RHF) =  -228.950951475     A.U. after   12 cycles
            NFock= 12  Conv=0.29D-08     -V/T= 2.0011
 ExpMin= 1.22D-01 ExpMax= 1.17D+04 ExpMxC= 4.01D+02 IAcc=3 IRadAn=         5 AccDes= 0.00D+00
 HarFok:  IExCor=  205 AccDes= 0.00D+00 IRadAn=         5 IDoV=-2 UseB2=F ITyADJ=14
 ICtDFT= 12500011 ScaDFX=  1.000000  1.000000  1.000000  1.000000
 NROrb=     82 NOA=    13 NOB=    13 NVA=    69 NVB=    69
 ANorm=    0.1090674906D+01
 E2 =    -0.6619915564D+00 EUMP2 =    -0.22961294303133D+03

 **********************************************************************

            Population analysis using the SCF Density.

 **********************************************************************

 Orbital symmetries:
       Occupied  (A) (A) (A) (A) (A) (A) (A) (A) (A) (A) (A) (A)
                 (A) (A) (A) (A) (A)
       Virtual   (A) (A) (A) (A) (A) (A) (A) (A) (A) (A) (A) (A)
                 (A) (A) (A) (A) (A) (A) (A) (A) (A) (A) (A) (A)
                 (A) (A) (A) (A) (A) (A) (A) (A) (A) (A) (A) (A)
                 (A) (A) (A) (A) (A) (A) (A) (A) (A) (A) (A) (A)
                 (A) (A) (A) (A) (A) (A) (A) (A) (A) (A) (A) (A)
                 (A) (A) (A) (A) (A) (A) (A) (A) (A)
 The electronic state is 1-A.
 Alpha  occ. eigenvalues --  -20.56840 -20.54394 -11.28637 -11.27632  -1.37618
 Alpha  occ. eigenvalues --   -1.34151  -0.99428  -0.83203  -0.72023  -0.66338
 Alpha  occ. eigenvalues --   -0.64615  -0.59641  -0.56592  -0.52887  -0.48688
 Alpha  occ. eigenvalues --   -0.45388  -0.42955
 Alpha virt. eigenvalues --    0.17444   0.20845   0.23317   0.25085   0.25587
 Alpha virt. eigenvalues --    0.28469   0.36611   0.39476   0.39943   0.64338
 Alpha virt. eigenvalues --    0.66562   0.71218   0.74789   0.76600   0.77980
 Alpha virt. eigenvalues --    0.83816   0.86857   0.87174   0.88369   0.89793
 Alpha virt. eigenvalues --    0.91362   1.12468   1.13964   1.14697   1.22694
 Alpha virt. eigenvalues --    1.27118   1.31655   1.33312   1.38557   1.47410
 Alpha virt. eigenvalues --    1.48624   1.50644   1.52076   1.58056   1.74074
 Alpha virt. eigenvalues --    1.75466   1.77111   1.85913   1.88726   1.90235
 Alpha virt. eigenvalues --    1.91973   1.93565   1.94922   2.01387   2.04567
 Alpha virt. eigenvalues --    2.12204   2.14853   2.21004   2.23826   2.31151
 Alpha virt. eigenvalues --    2.37811   2.41787   2.46552   2.49200   2.58343
 Alpha virt. eigenvalues --    2.71058   2.72760   2.83935   2.86879   3.27292
 Alpha virt. eigenvalues --    3.32029   3.35909   3.39132   3.47433   3.49372
 Alpha virt. eigenvalues --    3.59920   3.64003   4.09202   4.10972
          Condensed to atoms (all electrons):
 Mulliken charges:
               1
     1  O   -0.401490
     2  C    0.141708
     3  C    0.194009
     4  O   -0.395108
     5  H    0.176886
     6  H    0.021810
     7  H    0.027216
     8  H    0.024097
     9  H    0.032225
    10  H    0.178646
 Sum of Mulliken charges =   0.00000
 Mulliken charges with hydrogens summed into heavy atoms:
               1
     1  O   -0.224604
     2  C    0.190734
     3  C    0.250332
     4  O   -0.216462
 Electronic spatial extent (au):  <R**2>=            294.5689
 Charge=              0.0000 electrons
 Dipole moment (field-independent basis, Debye):
    X=             -2.4594    Y=              0.9947    Z=             -0.5643  Tot=              2.7123
 Unable to Open any file for archive entry.
 1\1\GINC-NODE01\SP\RMP2-FC\CC-pVDZ\C2H6O2\XUHJ\14-Sep-2024\0\\#T MP2/c
 c-pVDZ symm=veryloose\\OCCO\\0,1\O,0,-1.305255,-0.574558,0.217238\C,0,
 -0.682717,0.611668,-0.256672\C,0,0.746747,0.572057,0.258577\O,0,1.4055
 22,-0.588782,-0.186328\H,0,-2.144498,-0.708318,-0.249082\H,0,-1.202102
 ,1.522522,0.109123\H,0,-0.668539,0.636895,-1.365371\H,0,0.727302,0.633
 605,1.368852\H,0,1.308566,1.444158,-0.118053\H,0,0.792957,-1.324492,-0
 .00418\\Version=ES64L-G16RevC.01\State=1-A\HF=-228.9509515\MP2=-229.61
 2943\RMSD=2.943e-09\PG=C01 [X(C2H6O2)]\\@
 The archive entry for this job was punched.


 POCKETA-POCKETA
 BARON VON RICHTOFEN
 SLAUGHTERED THE ALLIES WITH
 HARDLY A CARE.
 KILLED EIGHTY-ONE WITH HIS
 BLOOD-COLORED TRIPLANE, THEN
 UN-AEROBATICALLY
 PLUNGED FROM THE AIR.
   -- TONY HOFFMAN
 Job cpu time:       0 days  0 hours  0 minutes 21.5 seconds.
 Elapsed time:       0 days  0 hours  0 minutes  3.8 seconds.
 File lengths (MBytes):  RWF=      6 Int=      0 D2E=      0 Chk=      2 Scr=      1
 Normal termination of Gaussian 16 at Sat Sep 14 10:26:44 2024.
