%nprocshared=8
%mem=4480MB
#T MP2/cc-pVDZ symm=veryloose

c1ccc2cc3ccccc3cc2c1

0 1
C        -3.665466      -0.713859       0.000000
C        -3.665466       0.713859      -0.000000
C        -2.481635       1.408558       0.000000
C        -1.225284       0.723183       0.000000
C        -0.000000       1.405004       0.000000
C         1.225284       0.723183       0.000000
C         2.481635       1.408558       0.000000
C         3.665466       0.713859      -0.000000
C         3.665466      -0.713859       0.000000
C         2.481635      -1.408558      -0.000000
C         1.225284      -0.723183      -0.000000
C         0.000000      -1.405004       0.000000
C        -1.225284      -0.723183       0.000000
C        -2.481635      -1.408558       0.000000
H        -4.618206      -1.251653      -0.000000
H        -4.618206       1.251653      -0.000000
H        -2.478720       2.503014       0.000000
H        -0.000000       2.499808       0.000000
H         2.478720       2.503014       0.000000
H         4.618206       1.251653      -0.000000
H         4.618206      -1.251653       0.000000
H         2.478720      -2.503014      -0.000000
H         0.000000      -2.499808       0.000000
H        -2.478720      -2.503014       0.000000


