 Entering Gaussian System, Link 0=g16
 Initial command:
 /home/software/g16/l1.exe "/home/software/g16tmp/Gau-138351.inp" -scrdir="/home/software/g16tmp/"
 Default is to use a total of   8 processors:
                                8 via shared-memory
                                1 via Linda
 Entering Link 1 = /home/software/g16/l1.exe PID=    138352.
  
 Copyright (c) 1988-2019, Gaussian, Inc.  All Rights Reserved.
  
 This is part of the Gaussian(R) 16 program.  It is based on
 the Gaussian(R) 09 system (copyright 2009, Gaussian, Inc.),
 the Gaussian(R) 03 system (copyright 2003, Gaussian, Inc.),
 the Gaussian(R) 98 system (copyright 1998, Gaussian, Inc.),
 the Gaussian(R) 94 system (copyright 1995, Gaussian, Inc.),
 the Gaussian 92(TM) system (copyright 1992, Gaussian, Inc.),
 the Gaussian 90(TM) system (copyright 1990, Gaussian, Inc.),
 the Gaussian 88(TM) system (copyright 1988, Gaussian, Inc.),
 the Gaussian 86(TM) system (copyright 1986, Carnegie Mellon
 University), and the Gaussian 82(TM) system (copyright 1983,
 Carnegie Mellon University). Gaussian is a federally registered
 trademark of Gaussian, Inc.
  
 This software contains proprietary and confidential information,
 including trade secrets, belonging to Gaussian, Inc.
  
 This software is provided under written license and may be
 used, copied, transmitted, or stored only in accord with that
 written license.
  
 The following legend is applicable only to US Government
 contracts under FAR:
  
                    RESTRICTED RIGHTS LEGEND
  
 Use, reproduction and disclosure by the US Government is
 subject to restrictions as set forth in subparagraphs (a)
 and (c) of the Commercial Computer Software - Restricted
 Rights clause in FAR 52.227-19.
  
 Gaussian, Inc.
 340 Quinnipiac St., Bldg. 40, Wallingford CT 06492
  
  
 ---------------------------------------------------------------
 Warning -- This program may not be used in any manner that
 competes with the business of Gaussian, Inc. or will provide
 assistance to any competitor of Gaussian, Inc.  The licensee
 of this program is prohibited from giving any competitor of
 Gaussian, Inc. access to this program.  By using this program,
 the user acknowledges that Gaussian, Inc. is engaged in the
 business of creating and licensing software in the field of
 computational chemistry and represents and warrants to the
 licensee that it is not a competitor of Gaussian, Inc. and that
 it will not use this program in any manner prohibited above.
 ---------------------------------------------------------------
  

 Cite this work as:
 Gaussian 16, Revision C.01,
 M. J. Frisch, G. W. Trucks, H. B. Schlegel, G. E. Scuseria, 
 M. A. Robb, J. R. Cheeseman, G. Scalmani, V. Barone, 
 G. A. Petersson, H. Nakatsuji, X. Li, M. Caricato, A. V. Marenich, 
 J. Bloino, B. G. Janesko, R. Gomperts, B. Mennucci, H. P. Hratchian, 
 J. V. Ortiz, A. F. Izmaylov, J. L. Sonnenberg, D. Williams-Young, 
 F. Ding, F. Lipparini, F. Egidi, J. Goings, B. Peng, A. Petrone, 
 T. Henderson, D. Ranasinghe, V. G. Zakrzewski, J. Gao, N. Rega, 
 G. Zheng, W. Liang, M. Hada, M. Ehara, K. Toyota, R. Fukuda, 
 J. Hasegawa, M. Ishida, T. Nakajima, Y. Honda, O. Kitao, H. Nakai, 
 T. Vreven, K. Throssell, J. A. Montgomery, Jr., J. E. Peralta, 
 F. Ogliaro, M. J. Bearpark, J. J. Heyd, E. N. Brothers, K. N. Kudin, 
 V. N. Staroverov, T. A. Keith, R. Kobayashi, J. Normand, 
 K. Raghavachari, A. P. Rendell, J. C. Burant, S. S. Iyengar, 
 J. Tomasi, M. Cossi, J. M. Millam, M. Klene, C. Adamo, R. Cammi, 
 J. W. Ochterski, R. L. Martin, K. Morokuma, O. Farkas, 
 J. B. Foresman, and D. J. Fox, Gaussian, Inc., Wallingford CT, 2019.
 
 ******************************************
 Gaussian 16:  ES64L-G16RevC.01  3-Jul-2019
                20-Dec-2023 
 ******************************************
 %nprocshared=16
 Will use up to   16 processors via shared memory.
 %mem=960MB
 -----------------------------
 #T MP2/cc-pVDZ symm=veryloose
 -----------------------------
 ----
 C#CC
 ----
 Symbolic Z-matrix:
 Charge =  0 Multiplicity = 1
 C                     0.        0.        1.42874 
 C                     0.        0.        0.21776 
 C                     0.        0.       -1.24255 
 H                     0.        0.        2.50302 
 H                     0.        1.03052  -1.64224 
 H                    -0.89246  -0.51526  -1.64224 
 H                     0.89246  -0.51526  -1.64224 
 
                    Distance matrix (angstroms):
                    1          2          3          4          5
     1  C    0.000000
     2  C    1.210975   0.000000
     3  C    2.671288   1.460313   0.000000
     4  H    1.074281   2.285256   3.745569   0.000000
     5  H    3.239272   2.126402   1.105315   4.271435   0.000000
     6  H    3.239272   2.126402   1.105315   4.271435   1.784910
     7  H    3.239272   2.126402   1.105315   4.271435   1.784910
                    6          7
     6  H    0.000000
     7  H    1.784910   0.000000
 Framework group  C3V[C3(CCCH),3SGV(H)]
 Deg. of freedom     5
                         Standard orientation:                         
 ---------------------------------------------------------------------
 Center     Atomic      Atomic             Coordinates (Angstroms)
 Number     Number       Type             X           Y           Z
 ---------------------------------------------------------------------
      1          6           0        0.000000    0.000000    1.428738
      2          6           0        0.000000    0.000000    0.217763
      3          6           0        0.000000    0.000000   -1.242550
      4          1           0        0.000000    0.000000    2.503019
      5          1           0        0.000000    1.030518   -1.642242
      6          1           0       -0.892455   -0.515259   -1.642242
      7          1           0        0.892455   -0.515259   -1.642242
 ---------------------------------------------------------------------
 Rotational constants (GHZ):         157.3981552           8.4907684           8.4907684
    62 basis functions,   127 primitive gaussians,    65 cartesian basis functions
    11 alpha electrons       11 beta electrons
       nuclear repulsion energy        58.3996856586 Hartrees.
 NAtoms=    7 NActive=    7 NUniq=    5 SFac= 1.96D+00 NAtFMM=   60 NAOKFM=F Big=F
 ExpMin= 1.22D-01 ExpMax= 6.67D+03 ExpMxC= 2.28D+02 IAcc=3 IRadAn=         5 AccDes= 0.00D+00
 Harris functional with IExCor=  205 and IRadAn=       5 diagonalized for initial guess.
 HarFok:  IExCor=  205 AccDes= 0.00D+00 IRadAn=         5 IDoV= 1 UseB2=F ITyADJ=14
 ICtDFT=  3500011 ScaDFX=  1.000000  1.000000  1.000000  1.000000
 FoFCou: FMM=F IPFlag=           0 FMFlag=      100000 FMFlg1=           0
         NFxFlg=           0 DoJE=T BraDBF=F KetDBF=T FulRan=T
         wScrn=  0.000000 ICntrl=       500 IOpCl=  0 I1Cent=   200000004 NGrid=           0
         NMat0=    1 NMatS0=      1 NMatT0=    0 NMatD0=    1 NMtDS0=    0 NMtDT0=    0
 Petite list used in FoFCou.
 Initial guess orbital symmetries:
       Occupied  (A1) (A1) (A1) (A1) (A1) (A1) (A1) (E) (E) (E)
                 (E)
       Virtual   (E) (E) (A1) (A1) (E) (E) (A1) (A1) (A1) (E) (E)
                 (E) (E) (E) (E) (E) (E) (A1) (A1) (A1) (E) (E)
                 (A1) (A1) (E) (E) (E) (E) (A1) (E) (E) (A2) (A1)
                 (E) (E) (A1) (E) (E) (E) (E) (A1) (A1) (E) (E)
                 (E) (E) (A1) (A1) (E) (E) (A1)
 The electronic state of the initial guess is 1-A1.
 SCF Done:  E(RHF) =  -115.873292286     A.U. after   11 cycles
            NFock= 11  Conv=0.23D-08     -V/T= 2.0024
 ExpMin= 1.22D-01 ExpMax= 6.67D+03 ExpMxC= 2.28D+02 IAcc=3 IRadAn=         5 AccDes= 0.00D+00
 HarFok:  IExCor=  205 AccDes= 0.00D+00 IRadAn=         5 IDoV=-2 UseB2=F ITyADJ=14
 ICtDFT= 12500011 ScaDFX=  1.000000  1.000000  1.000000  1.000000
 NROrb=     59 NOA=     8 NOB=     8 NVA=    51 NVB=    51

 **** Warning!!: The largest alpha MO coefficient is  0.20435966D+02

 ANorm=    0.1074718174D+01
 E2 =    -0.3980690881D+00 EUMP2 =    -0.11627136137425D+03

 **********************************************************************

            Population analysis using the SCF Density.

 **********************************************************************

 Orbital symmetries:
       Occupied  (A1) (A1) (A1) (A1) (A1) (A1) (A1) (E) (E) (E)
                 (E)
       Virtual   (A1) (E) (E) (A1) (E) (E) (A1) (A1) (A1) (E) (E)
                 (E) (E) (E) (E) (A1) (E) (E) (A1) (A1) (A1) (E)
                 (E) (E) (E) (A1) (E) (E) (A1) (A1) (E) (E) (A2)
                 (E) (E) (E) (E) (A1) (E) (E) (A1) (A1) (E) (E)
                 (E) (E) (A1) (E) (E) (A1) (A1)
 The electronic state is 1-A1.
 Alpha  occ. eigenvalues --  -11.26142 -11.24106 -11.22819  -1.05338  -0.95282
 Alpha  occ. eigenvalues --   -0.71198  -0.61849  -0.58491  -0.58491  -0.37937
 Alpha  occ. eigenvalues --   -0.37937
 Alpha virt. eigenvalues --    0.18756   0.20289   0.20289   0.21078   0.27923
 Alpha virt. eigenvalues --    0.27923   0.38389   0.51470   0.57354   0.63202
 Alpha virt. eigenvalues --    0.63202   0.72823   0.72823   0.84219   0.84219
 Alpha virt. eigenvalues --    0.84478   0.86870   0.86870   0.88953   0.97594
 Alpha virt. eigenvalues --    1.11816   1.14995   1.14995   1.26575   1.26575
 Alpha virt. eigenvalues --    1.37593   1.50188   1.50188   1.53574   1.63785
 Alpha virt. eigenvalues --    1.65978   1.65978   1.66179   1.79845   1.79845
 Alpha virt. eigenvalues --    1.91830   1.91830   1.93661   2.13180   2.13180
 Alpha virt. eigenvalues --    2.28775   2.35058   2.39447   2.39447   2.69128
 Alpha virt. eigenvalues --    2.69128   2.69256   2.91323   2.91323   2.95995
 Alpha virt. eigenvalues --    3.53922
          Condensed to atoms (all electrons):
 Mulliken charges:
               1
     1  C   -0.335200
     2  C    0.025742
     3  C    0.036703
     4  H    0.050347
     5  H    0.074136
     6  H    0.074136
     7  H    0.074136
 Sum of Mulliken charges =   0.00000
 Mulliken charges with hydrogens summed into heavy atoms:
               1
     1  C   -0.284853
     2  C    0.025742
     3  C    0.259111
 Electronic spatial extent (au):  <R**2>=            180.0589
 Charge=              0.0000 electrons
 Dipole moment (field-independent basis, Debye):
    X=             -0.0000    Y=             -0.0000    Z=             -0.7153  Tot=              0.7153
 Unable to Open any file for archive entry.
 1\1\GINC-NODE06\SP\RMP2-FC\CC-pVDZ\C3H4\XUHJ\20-Dec-2023\0\\#T MP2/cc-
 pVDZ symm=veryloose\\C#CC\\0,1\C,0,0.,0.,1.428738\C,0,0.,0.,0.217763\C
 ,0,0.,0.,-1.24255\H,0,0.,0.,2.503019\H,0,0.,1.030518,-1.642242\H,0,-0.
 892455,-0.515259,-1.642242\H,0,0.892455,-0.515259,-1.642242\\Version=E
 S64L-G16RevC.01\State=1-A1\HF=-115.8732923\MP2=-116.2713614\RMSD=2.276
 e-09\PG=C03V [C3(C1C1C1H1),3SGV(H1)]\\@
 The archive entry for this job was punched.


 Just remember, when you're over the hill, you begin to pick up speed.
 -- Charles Schulz
 Job cpu time:       0 days  0 hours  0 minutes 11.1 seconds.
 Elapsed time:       0 days  0 hours  0 minutes  0.9 seconds.
 File lengths (MBytes):  RWF=     17 Int=      0 D2E=      0 Chk=      2 Scr=      2
 Normal termination of Gaussian 16 at Wed Dec 20 12:21:08 2023.
