%nprocshared=16
%mem=2400MB
#T MP2/cc-pVDZ symm=veryloose 

[CH2]CC

0 2
C         1.305259      -0.294642      -0.032411
C         0.080326       0.552375       0.050306
C        -1.228195      -0.242716      -0.037193
H         2.276671       0.143791      -0.287074
H         1.289134      -1.334371       0.316297
H         0.082471       1.129715       1.004685
H         0.104962       1.326255      -0.742607
H        -1.288040      -0.994795       0.771059
H        -2.107596       0.419324       0.053135
H        -1.301942      -0.780021      -0.999705


