 Entering Gaussian System, Link 0=g16
 Initial command:
 /opt/g16/l1.exe "/tmp/Gau-1804245.inp" -scrdir="/tmp/"
 Entering Link 1 = /opt/g16/l1.exe PID=   1804247.
  
 Copyright (c) 1988-2019, Gaussian, Inc.  All Rights Reserved.
  
 This is part of the Gaussian(R) 16 program.  It is based on
 the Gaussian(R) 09 system (copyright 2009, Gaussian, Inc.),
 the Gaussian(R) 03 system (copyright 2003, Gaussian, Inc.),
 the Gaussian(R) 98 system (copyright 1998, Gaussian, Inc.),
 the Gaussian(R) 94 system (copyright 1995, Gaussian, Inc.),
 the Gaussian 92(TM) system (copyright 1992, Gaussian, Inc.),
 the Gaussian 90(TM) system (copyright 1990, Gaussian, Inc.),
 the Gaussian 88(TM) system (copyright 1988, Gaussian, Inc.),
 the Gaussian 86(TM) system (copyright 1986, Carnegie Mellon
 University), and the Gaussian 82(TM) system (copyright 1983,
 Carnegie Mellon University). Gaussian is a federally registered
 trademark of Gaussian, Inc.
  
 This software contains proprietary and confidential information,
 including trade secrets, belonging to Gaussian, Inc.
  
 This software is provided under written license and may be
 used, copied, transmitted, or stored only in accord with that
 written license.
  
 The following legend is applicable only to US Government
 contracts under FAR:
  
                    RESTRICTED RIGHTS LEGEND
  
 Use, reproduction and disclosure by the US Government is
 subject to restrictions as set forth in subparagraphs (a)
 and (c) of the Commercial Computer Software - Restricted
 Rights clause in FAR 52.227-19.
  
 Gaussian, Inc.
 340 Quinnipiac St., Bldg. 40, Wallingford CT 06492
  
  
 ---------------------------------------------------------------
 Warning -- This program may not be used in any manner that
 competes with the business of Gaussian, Inc. or will provide
 assistance to any competitor of Gaussian, Inc.  The licensee
 of this program is prohibited from giving any competitor of
 Gaussian, Inc. access to this program.  By using this program,
 the user acknowledges that Gaussian, Inc. is engaged in the
 business of creating and licensing software in the field of
 computational chemistry and represents and warrants to the
 licensee that it is not a competitor of Gaussian, Inc. and that
 it will not use this program in any manner prohibited above.
 ---------------------------------------------------------------
  

 Cite this work as:
 Gaussian 16, Revision C.01,
 M. J. Frisch, G. W. Trucks, H. B. Schlegel, G. E. Scuseria, 
 M. A. Robb, J. R. Cheeseman, G. Scalmani, V. Barone, 
 G. A. Petersson, H. Nakatsuji, X. Li, M. Caricato, A. V. Marenich, 
 J. Bloino, B. G. Janesko, R. Gomperts, B. Mennucci, H. P. Hratchian, 
 J. V. Ortiz, A. F. Izmaylov, J. L. Sonnenberg, D. Williams-Young, 
 F. Ding, F. Lipparini, F. Egidi, J. Goings, B. Peng, A. Petrone, 
 T. Henderson, D. Ranasinghe, V. G. Zakrzewski, J. Gao, N. Rega, 
 G. Zheng, W. Liang, M. Hada, M. Ehara, K. Toyota, R. Fukuda, 
 J. Hasegawa, M. Ishida, T. Nakajima, Y. Honda, O. Kitao, H. Nakai, 
 T. Vreven, K. Throssell, J. A. Montgomery, Jr., J. E. Peralta, 
 F. Ogliaro, M. J. Bearpark, J. J. Heyd, E. N. Brothers, K. N. Kudin, 
 V. N. Staroverov, T. A. Keith, R. Kobayashi, J. Normand, 
 K. Raghavachari, A. P. Rendell, J. C. Burant, S. S. Iyengar, 
 J. Tomasi, M. Cossi, J. M. Millam, M. Klene, C. Adamo, R. Cammi, 
 J. W. Ochterski, R. L. Martin, K. Morokuma, O. Farkas, 
 J. B. Foresman, and D. J. Fox, Gaussian, Inc., Wallingford CT, 2019.
 
 ******************************************
 Gaussian 16:  ES64L-G16RevC.01  3-Jul-2019
                21-Nov-2024 
 ******************************************
 %nprocshared=16
 Will use up to   16 processors via shared memory.
 %mem=2400MB
 -----------------------------
 #T MP2/cc-pVDZ symm=veryloose
 -----------------------------
 -------
 [CH2]CC
 -------
 Symbolic Z-matrix:
 Charge =  0 Multiplicity = 2
 C                     1.30526  -0.29464  -0.03241 
 C                     0.08033   0.55238   0.05031 
 C                    -1.2282   -0.24272  -0.03719 
 H                     2.27667   0.14379  -0.28707 
 H                     1.28913  -1.33437   0.3163 
 H                     0.08247   1.12972   1.00469 
 H                     0.10496   1.32626  -0.74261 
 H                    -1.28804  -0.9948    0.77106 
 H                    -2.1076    0.41932   0.05314 
 H                    -1.30194  -0.78002  -0.99971 
 
                    Distance matrix (angstroms):
                    1          2          3          4          5
     1  C    0.000000
     2  C    1.491556   0.000000
     3  C    2.533991   1.533640   0.000000
     4  H    1.095773   2.259358   3.534956   0.000000
     5  H    1.096765   2.256497   2.766516   1.877298   0.000000
     6  H    2.144661   1.115422   2.164930   2.730421   2.828716
     7  H    2.138317   1.108246   2.176370   2.514369   3.098786
     8  H    2.803744   2.187612   1.105656   3.888854   2.638929
     9  H    3.487785   2.191966   1.104447   4.406071   3.831772
    10  H    2.822897   2.188257   1.104792   3.764006   2.958520
                    6          7          8          9         10
     6  H    0.000000
     7  H    1.758455   0.000000
     8  H    2.538981   3.101437   0.000000
     9  H    2.491284   2.520147   1.785167   0.000000
    10  H    3.095363   2.545953   1.783795   1.787730   0.000000
 Framework group  C1[X(C3H7)]
 Deg. of freedom    24
                         Standard orientation:                         
 ---------------------------------------------------------------------
 Center     Atomic      Atomic             Coordinates (Angstroms)
 Number     Number       Type             X           Y           Z
 ---------------------------------------------------------------------
      1          6           0        1.305259   -0.294642   -0.032411
      2          6           0        0.080326    0.552375    0.050306
      3          6           0       -1.228195   -0.242716   -0.037193
      4          1           0        2.276671    0.143791   -0.287074
      5          1           0        1.289134   -1.334371    0.316297
      6          1           0        0.082471    1.129715    1.004685
      7          1           0        0.104962    1.326255   -0.742607
      8          1           0       -1.288040   -0.994795    0.771059
      9          1           0       -2.107596    0.419324    0.053135
     10          1           0       -1.301942   -0.780021   -0.999705
 ---------------------------------------------------------------------
 Rotational constants (GHZ):          32.6137961           8.8983200           7.7207154
    77 basis functions,   148 primitive gaussians,    80 cartesian basis functions
    13 alpha electrons       12 beta electrons
       nuclear repulsion energy        75.4319559605 Hartrees.
 NAtoms=   10 NActive=   10 NUniq=   10 SFac= 1.00D+00 NAtFMM=   60 NAOKFM=F Big=F
 ExpMin= 1.22D-01 ExpMax= 6.67D+03 ExpMxC= 2.28D+02 IAcc=3 IRadAn=         5 AccDes= 0.00D+00
 Harris functional with IExCor=  205 and IRadAn=       5 diagonalized for initial guess.
 HarFok:  IExCor=  205 AccDes= 0.00D+00 IRadAn=         5 IDoV= 1 UseB2=F ITyADJ=14
 ICtDFT=  3500011 ScaDFX=  1.000000  1.000000  1.000000  1.000000
 FoFCou: FMM=F IPFlag=           0 FMFlag=      100000 FMFlg1=           0
         NFxFlg=           0 DoJE=T BraDBF=F KetDBF=T FulRan=T
         wScrn=  0.000000 ICntrl=       500 IOpCl=  0 I1Cent=   200000004 NGrid=           0
         NMat0=    1 NMatS0=      1 NMatT0=    0 NMatD0=    1 NMtDS0=    0 NMtDT0=    0
 Petite list used in FoFCou.
 Initial guess <Sx>= 0.0000 <Sy>= 0.0000 <Sz>= 0.5000 <S**2>= 0.7500 S= 0.5000
 SCF Done:  E(UHF) =  -117.640566446     A.U. after   15 cycles
            NFock= 15  Conv=0.74D-08     -V/T= 2.0022
 <Sx>= 0.0000 <Sy>= 0.0000 <Sz>= 0.5000 <S**2>= 0.7631 S= 0.5065
 <L.S>=  0.00000000000    
 Annihilation of the first spin contaminant:
 S**2 before annihilation     0.7631,   after     0.7501
 ExpMin= 1.22D-01 ExpMax= 6.67D+03 ExpMxC= 2.28D+02 IAcc=3 IRadAn=         5 AccDes= 0.00D+00
 HarFok:  IExCor=  205 AccDes= 0.00D+00 IRadAn=         5 IDoV=-2 UseB2=F ITyADJ=14
 ICtDFT= 12500011 ScaDFX=  1.000000  1.000000  1.000000  1.000000
 NROrb=     74 NOA=    10 NOB=     9 NVA=    64 NVB=    65
 (S**2,0)=  0.76309D+00           (S**2,1)=  0.75371D+00
 E(PUHF)=      -0.11764387752D+03        E(PMP2)=      -0.11805430692D+03
 ANorm=    0.1068270534D+01
 E2 =    -0.4116090324D+00 EUMP2 =    -0.11805217547830D+03

 **********************************************************************

            Population analysis using the SCF Density.

 **********************************************************************

 Orbital symmetries:
 Alpha Orbitals:
       Occupied  (A) (A) (A) (A) (A) (A) (A) (A) (A) (A) (A) (A)
                 (A)
       Virtual   (A) (A) (A) (A) (A) (A) (A) (A) (A) (A) (A) (A)
                 (A) (A) (A) (A) (A) (A) (A) (A) (A) (A) (A) (A)
                 (A) (A) (A) (A) (A) (A) (A) (A) (A) (A) (A) (A)
                 (A) (A) (A) (A) (A) (A) (A) (A) (A) (A) (A) (A)
                 (A) (A) (A) (A) (A) (A) (A) (A) (A) (A) (A) (A)
                 (A) (A) (A) (A)
 Beta  Orbitals:
       Occupied  (A) (A) (A) (A) (A) (A) (A) (A) (A) (A) (A) (A)
       Virtual   (A) (A) (A) (A) (A) (A) (A) (A) (A) (A) (A) (A)
                 (A) (A) (A) (A) (A) (A) (A) (A) (A) (A) (A) (A)
                 (A) (A) (A) (A) (A) (A) (A) (A) (A) (A) (A) (A)
                 (A) (A) (A) (A) (A) (A) (A) (A) (A) (A) (A) (A)
                 (A) (A) (A) (A) (A) (A) (A) (A) (A) (A) (A) (A)
                 (A) (A) (A) (A) (A)
 The electronic state is 2-A.
 Alpha  occ. eigenvalues --  -11.23361 -11.23099 -11.22493  -1.05851  -0.92397
 Alpha  occ. eigenvalues --   -0.79557  -0.61778  -0.60276  -0.55997  -0.50305
 Alpha  occ. eigenvalues --   -0.49448  -0.48089  -0.34710
 Alpha virt. eigenvalues --    0.18728   0.22467   0.22713   0.24403   0.26583
 Alpha virt. eigenvalues --    0.28490   0.28921   0.37703   0.43101   0.58310
 Alpha virt. eigenvalues --    0.60112   0.61117   0.66168   0.68907   0.70750
 Alpha virt. eigenvalues --    0.77206   0.83949   0.86851   0.87939   0.89144
 Alpha virt. eigenvalues --    0.89608   0.90714   0.91482   0.92936   0.98678
 Alpha virt. eigenvalues --    1.06620   1.12135   1.19289   1.29327   1.33296
 Alpha virt. eigenvalues --    1.46194   1.54335   1.61254   1.63930   1.68638
 Alpha virt. eigenvalues --    1.73351   1.74739   1.84538   1.86096   1.89306
 Alpha virt. eigenvalues --    1.91028   1.92879   1.95409   1.95822   1.96744
 Alpha virt. eigenvalues --    1.99520   2.03058   2.12134   2.14299   2.22401
 Alpha virt. eigenvalues --    2.31815   2.36069   2.40317   2.48014   2.50721
 Alpha virt. eigenvalues --    2.53918   2.58193   2.73047   2.74246   2.80141
 Alpha virt. eigenvalues --    2.85573   2.89513   2.98902   3.06217
  Beta  occ. eigenvalues --  -11.23440 -11.22435 -11.20856  -1.03929  -0.88419
  Beta  occ. eigenvalues --   -0.76281  -0.60717  -0.58896  -0.55129  -0.48988
  Beta  occ. eigenvalues --   -0.48388  -0.47583
  Beta virt. eigenvalues --    0.14899   0.19172   0.22941   0.23807   0.24680
  Beta virt. eigenvalues --    0.26842   0.28972   0.29581   0.38097   0.43831
  Beta virt. eigenvalues --    0.58772   0.60687   0.61355   0.66929   0.74547
  Beta virt. eigenvalues --    0.77565   0.83324   0.84173   0.87428   0.88367
  Beta virt. eigenvalues --    0.89481   0.90296   0.91571   0.92148   0.93534
  Beta virt. eigenvalues --    0.99371   1.09422   1.14232   1.24718   1.29902
  Beta virt. eigenvalues --    1.34604   1.46498   1.55641   1.62863   1.64872
  Beta virt. eigenvalues --    1.68669   1.74801   1.75113   1.85128   1.86906
  Beta virt. eigenvalues --    1.90941   1.91576   1.93622   1.95904   1.96193
  Beta virt. eigenvalues --    1.97585   1.99994   2.04706   2.13351   2.16569
  Beta virt. eigenvalues --    2.23270   2.31998   2.37094   2.41012   2.48286
  Beta virt. eigenvalues --    2.51151   2.54287   2.58491   2.73107   2.74655
  Beta virt. eigenvalues --    2.80460   2.85745   2.89797   2.99294   3.06833
          Condensed to atoms (all electrons):
          Atomic-Atomic Spin Densities.
 Mulliken charges and spin densities:
               1          2
     1  C   -0.109408   1.207184
     2  C   -0.102220  -0.142432
     3  C   -0.061662   0.014662
     4  H    0.049169  -0.079916
     5  H    0.048363  -0.079794
     6  H    0.037165   0.060363
     7  H    0.035017   0.022470
     8  H    0.033753  -0.002039
     9  H    0.033024  -0.001380
    10  H    0.036800   0.000881
 Sum of Mulliken charges =  -0.00000   1.00000
 Mulliken charges and spin densities with hydrogens summed into heavy atoms:
               1          2
     1  C   -0.011877   1.047473
     2  C   -0.030038  -0.059598
     3  C    0.041915   0.012125
 Electronic spatial extent (au):  <R**2>=            214.0856
 Charge=             -0.0000 electrons
 Dipole moment (field-independent basis, Debye):
    X=             -0.0923    Y=              0.1453    Z=              0.0945  Tot=              0.1964
 Unable to Open any file for archive entry.
 1\1\GINC-NODE01\SP\UMP2-FC\CC-pVDZ\C3H7(2)\XUHJ\21-Nov-2024\0\\#T MP2/
 cc-pVDZ symm=veryloose\\[CH2]CC\\0,2\C,0,1.305259,-0.294642,-0.032411\
 C,0,0.080326,0.552375,0.050306\C,0,-1.228195,-0.242716,-0.037193\H,0,2
 .276671,0.143791,-0.287074\H,0,1.289134,-1.334371,0.316297\H,0,0.08247
 1,1.129715,1.004685\H,0,0.104962,1.326255,-0.742607\H,0,-1.28804,-0.99
 4795,0.771059\H,0,-2.107596,0.419324,0.053135\H,0,-1.301942,-0.780021,
 -0.999705\\Version=ES64L-G16RevC.01\State=2-A\HF=-117.6405664\MP2=-118
 .0521755\PUHF=-117.6438775\PMP2-0=-118.0543069\S2=0.76309\S2-1=0.75371
 4\S2A=0.750115\RMSD=7.416e-09\PG=C01 [X(C3H7)]\\@
 The archive entry for this job was punched.


 The chemist is a guest at the physicist's table and
 frequently dines well.
                   -- Richard Bersohn
 Job cpu time:       0 days  0 hours  0 minutes 11.7 seconds.
 Elapsed time:       0 days  0 hours  0 minutes  0.8 seconds.
 File lengths (MBytes):  RWF=     10 Int=      0 D2E=      0 Chk=      2 Scr=      1
 Normal termination of Gaussian 16 at Thu Nov 21 17:59:04 2024.
