%nprocshared=16
%mem=1600MB
#T MP2/cc-pVDZ symm=veryloose

CCCCC

0 1
C        -0.000000       2.557661       0.323350
C        -0.000000       1.282704      -0.522114
C         0.000000      -0.000000       0.314695
C        -0.000000      -1.282704      -0.522114
C        -0.000000      -2.557661       0.323350
H        -0.000000       3.463789      -0.308607
H         0.891344       2.603522       0.976249
H        -0.891344       2.603522       0.976249
H         0.883851       1.280994      -1.189081
H        -0.883851       1.280994      -1.189081
H        -0.884380      -0.000000       0.982767
H         0.884380      -0.000000       0.982767
H         0.883851      -1.280994      -1.189081
H        -0.883851      -1.280994      -1.189081
H         0.891344      -2.603522       0.976249
H        -0.000000      -3.463789      -0.308607
H        -0.891344      -2.603522       0.976249


