 Entering Gaussian System, Link 0=g16
 Initial command:
 /home/software/g16/l1.exe "/home/software/g16/scr/Gau-345349.inp" -scrdir="/home/software/g16/scr/"
 Default is to use a total of   8 processors:
                                8 via shared-memory
                                1 via Linda
 Entering Link 1 = /home/software/g16/l1.exe PID=    345350.
  
 Copyright (c) 1988-2019, Gaussian, Inc.  All Rights Reserved.
  
 This is part of the Gaussian(R) 16 program.  It is based on
 the Gaussian(R) 09 system (copyright 2009, Gaussian, Inc.),
 the Gaussian(R) 03 system (copyright 2003, Gaussian, Inc.),
 the Gaussian(R) 98 system (copyright 1998, Gaussian, Inc.),
 the Gaussian(R) 94 system (copyright 1995, Gaussian, Inc.),
 the Gaussian 92(TM) system (copyright 1992, Gaussian, Inc.),
 the Gaussian 90(TM) system (copyright 1990, Gaussian, Inc.),
 the Gaussian 88(TM) system (copyright 1988, Gaussian, Inc.),
 the Gaussian 86(TM) system (copyright 1986, Carnegie Mellon
 University), and the Gaussian 82(TM) system (copyright 1983,
 Carnegie Mellon University). Gaussian is a federally registered
 trademark of Gaussian, Inc.
  
 This software contains proprietary and confidential information,
 including trade secrets, belonging to Gaussian, Inc.
  
 This software is provided under written license and may be
 used, copied, transmitted, or stored only in accord with that
 written license.
  
 The following legend is applicable only to US Government
 contracts under FAR:
  
                    RESTRICTED RIGHTS LEGEND
  
 Use, reproduction and disclosure by the US Government is
 subject to restrictions as set forth in subparagraphs (a)
 and (c) of the Commercial Computer Software - Restricted
 Rights clause in FAR 52.227-19.
  
 Gaussian, Inc.
 340 Quinnipiac St., Bldg. 40, Wallingford CT 06492
  
  
 ---------------------------------------------------------------
 Warning -- This program may not be used in any manner that
 competes with the business of Gaussian, Inc. or will provide
 assistance to any competitor of Gaussian, Inc.  The licensee
 of this program is prohibited from giving any competitor of
 Gaussian, Inc. access to this program.  By using this program,
 the user acknowledges that Gaussian, Inc. is engaged in the
 business of creating and licensing software in the field of
 computational chemistry and represents and warrants to the
 licensee that it is not a competitor of Gaussian, Inc. and that
 it will not use this program in any manner prohibited above.
 ---------------------------------------------------------------
  

 Cite this work as:
 Gaussian 16, Revision C.01,
 M. J. Frisch, G. W. Trucks, H. B. Schlegel, G. E. Scuseria, 
 M. A. Robb, J. R. Cheeseman, G. Scalmani, V. Barone, 
 G. A. Petersson, H. Nakatsuji, X. Li, M. Caricato, A. V. Marenich, 
 J. Bloino, B. G. Janesko, R. Gomperts, B. Mennucci, H. P. Hratchian, 
 J. V. Ortiz, A. F. Izmaylov, J. L. Sonnenberg, D. Williams-Young, 
 F. Ding, F. Lipparini, F. Egidi, J. Goings, B. Peng, A. Petrone, 
 T. Henderson, D. Ranasinghe, V. G. Zakrzewski, J. Gao, N. Rega, 
 G. Zheng, W. Liang, M. Hada, M. Ehara, K. Toyota, R. Fukuda, 
 J. Hasegawa, M. Ishida, T. Nakajima, Y. Honda, O. Kitao, H. Nakai, 
 T. Vreven, K. Throssell, J. A. Montgomery, Jr., J. E. Peralta, 
 F. Ogliaro, M. J. Bearpark, J. J. Heyd, E. N. Brothers, K. N. Kudin, 
 V. N. Staroverov, T. A. Keith, R. Kobayashi, J. Normand, 
 K. Raghavachari, A. P. Rendell, J. C. Burant, S. S. Iyengar, 
 J. Tomasi, M. Cossi, J. M. Millam, M. Klene, C. Adamo, R. Cammi, 
 J. W. Ochterski, R. L. Martin, K. Morokuma, O. Farkas, 
 J. B. Foresman, and D. J. Fox, Gaussian, Inc., Wallingford CT, 2019.
 
 ******************************************
 Gaussian 16:  ES64L-G16RevC.01  3-Jul-2019
                26-Dec-2023 
 ******************************************
 %nprocshared=16
 Will use up to   16 processors via shared memory.
 %mem=1600MB
 -----------------------------
 #T MP2/cc-pVDZ symm=veryloose
 -----------------------------
 -----
 CCCCC
 -----
 Symbolic Z-matrix:
 Charge =  0 Multiplicity = 1
 C                     0.        2.55766   0.32335 
 C                     0.        1.2827   -0.52211 
 C                     0.        0.        0.3147 
 C                     0.       -1.2827   -0.52211 
 C                     0.       -2.55766   0.32335 
 H                     0.        3.46379  -0.30861 
 H                     0.89134   2.60352   0.97625 
 H                    -0.89134   2.60352   0.97625 
 H                     0.88385   1.28099  -1.18908 
 H                    -0.88385   1.28099  -1.18908 
 H                    -0.88438   0.        0.98277 
 H                     0.88438   0.        0.98277 
 H                     0.88385  -1.28099  -1.18908 
 H                    -0.88385  -1.28099  -1.18908 
 H                     0.89134  -2.60352   0.97625 
 H                     0.       -3.46379  -0.30861 
 H                    -0.89134  -2.60352   0.97625 
 
                    Distance matrix (angstroms):
                    1          2          3          4          5
     1  C    0.000000
     2  C    1.529812   0.000000
     3  C    2.557676   1.531528   0.000000
     4  C    3.932329   2.565408   1.531528   0.000000
     5  C    5.115322   3.932329   2.557676   1.529812   0.000000
     6  H    1.104734   2.191510   3.519423   4.751293   6.054521
     7  H    1.105837   2.187269   2.830278   4.259382   5.278123
     8  H    1.105837   2.187269   2.830278   4.259382   5.278123
     9  H    2.167607   1.107267   2.164135   2.792595   4.219468
    10  H    2.167607   1.107267   2.164135   2.792595   4.219468
    11  H    2.785424   2.166131   1.108354   2.166131   2.785424
    12  H    2.785424   2.166131   1.108354   2.166131   2.785424
    13  H    4.219468   2.792595   2.164135   1.107267   2.167607
    14  H    4.219468   2.792595   2.164135   1.107267   2.167607
    15  H    5.278123   4.259382   2.830278   2.187269   1.105837
    16  H    6.054521   4.751293   3.519423   2.191510   1.104734
    17  H    5.278123   4.259382   2.830278   2.187269   1.105837
                    6          7          8          9         10
     6  H    0.000000
     7  H    1.784771   0.000000
     8  H    1.784771   1.782688   0.000000
     9  H    2.514164   2.537280   3.096619   0.000000
    10  H    2.514164   3.096619   2.537280   1.767702   0.000000
    11  H    3.801001   3.151439   2.603539   3.079693   2.521482
    12  H    3.801001   2.603539   3.151439   2.521482   3.079693
    13  H    4.906057   4.447266   4.788469   2.561988   3.112644
    14  H    4.906057   4.788469   4.447266   3.112644   2.561988
    15  H    6.265590   5.207044   5.503752   4.447266   4.788469
    16  H    6.927578   6.265590   6.265590   4.906057   4.906057
    17  H    6.265590   5.503752   5.207044   4.788469   4.447266
                   11         12         13         14         15
    11  H    0.000000
    12  H    1.768760   0.000000
    13  H    3.079693   2.521482   0.000000
    14  H    2.521482   3.079693   1.767702   0.000000
    15  H    3.151439   2.603539   2.537280   3.096619   0.000000
    16  H    3.801001   3.801001   2.514164   2.514164   1.784771
    17  H    2.603539   3.151439   3.096619   2.537280   1.782688
                   16         17
    16  H    0.000000
    17  H    1.784771   0.000000
 Framework group  C2V[C2(C),SGV(C4H2),SGV'(H2),X(H8)]
 Deg. of freedom    14
                         Standard orientation:                         
 ---------------------------------------------------------------------
 Center     Atomic      Atomic             Coordinates (Angstroms)
 Number     Number       Type             X           Y           Z
 ---------------------------------------------------------------------
      1          6           0        0.000000    2.557661    0.323350
      2          6           0        0.000000    1.282704   -0.522114
      3          6           0        0.000000   -0.000000    0.314695
      4          6           0       -0.000000   -1.282704   -0.522114
      5          6           0       -0.000000   -2.557661    0.323350
      6          1           0        0.000000    3.463789   -0.308607
      7          1           0        0.891344    2.603522    0.976249
      8          1           0       -0.891344    2.603522    0.976249
      9          1           0        0.883851    1.280994   -1.189081
     10          1           0       -0.883851    1.280994   -1.189081
     11          1           0       -0.884380    0.000000    0.982767
     12          1           0        0.884380   -0.000000    0.982767
     13          1           0        0.883851   -1.280994   -1.189081
     14          1           0       -0.883851   -1.280994   -1.189081
     15          1           0        0.891344   -2.603522    0.976249
     16          1           0       -0.000000   -3.463789   -0.308607
     17          1           0       -0.891344   -2.603522    0.976249
 ---------------------------------------------------------------------
 Rotational constants (GHZ):          16.9328228           1.9249627           1.8275830
   130 basis functions,   249 primitive gaussians,   135 cartesian basis functions
    21 alpha electrons       21 beta electrons
       nuclear repulsion energy       183.9458597087 Hartrees.
 NAtoms=   17 NActive=   17 NUniq=    7 SFac= 4.00D+00 NAtFMM=   60 NAOKFM=F Big=F
 ExpMin= 1.22D-01 ExpMax= 6.67D+03 ExpMxC= 2.28D+02 IAcc=3 IRadAn=         5 AccDes= 0.00D+00
 Harris functional with IExCor=  205 and IRadAn=       5 diagonalized for initial guess.
 HarFok:  IExCor=  205 AccDes= 0.00D+00 IRadAn=         5 IDoV= 1 UseB2=F ITyADJ=14
 ICtDFT=  3500011 ScaDFX=  1.000000  1.000000  1.000000  1.000000
 FoFCou: FMM=F IPFlag=           0 FMFlag=      100000 FMFlg1=           0
         NFxFlg=           0 DoJE=T BraDBF=F KetDBF=T FulRan=T
         wScrn=  0.000000 ICntrl=       500 IOpCl=  0 I1Cent=   200000004 NGrid=           0
         NMat0=    1 NMatS0=      1 NMatT0=    0 NMatD0=    1 NMtDS0=    0 NMtDT0=    0
 Petite list used in FoFCou.
 Initial guess orbital symmetries:
       Occupied  (B2) (A1) (B2) (A1) (A1) (A1) (B2) (A1) (B2) (A1)
                 (B1) (B2) (A1) (A2) (A1) (B1) (B2) (B2) (A1) (A2)
                 (B1)
       Virtual   (A1) (B2) (B1) (A1) (A1) (A2) (A1) (B2) (A1) (B1)
                 (A2) (B2) (B1) (B2) (B2) (A1) (A1) (B2) (A1) (A2)
                 (B1) (B1) (B2) (A1) (B2) (A1) (A2) (B1) (A1) (B2)
                 (A2) (B2) (B1) (A1) (A1) (B1) (A2) (A1) (B2) (A1)
                 (B2) (B1) (B2) (A2) (A1) (A1) (B2) (A1) (A2) (B1)
                 (B1) (A2) (B2) (A1) (B2) (B2) (A1) (B1) (A2) (A1)
                 (B2) (B1) (B2) (A1) (B1) (A2) (A2) (B1) (A1) (B2)
                 (A2) (B1) (A1) (A2) (B2) (A1) (B1) (B2) (B1) (A1)
                 (A2) (A1) (B2) (A1) (B2) (B1) (B2) (A1) (A2) (A1)
                 (B2) (B2) (B1) (A1) (A2) (B2) (A1) (B1) (A1) (B2)
                 (A1) (B2) (A2) (B2) (A1) (B1) (A1) (B1) (A2)
 The electronic state of the initial guess is 1-A1.
 SCF Done:  E(RHF) =  -196.346286331     A.U. after   11 cycles
            NFock= 11  Conv=0.35D-08     -V/T= 2.0024
 ExpMin= 1.22D-01 ExpMax= 6.67D+03 ExpMxC= 2.28D+02 IAcc=3 IRadAn=         5 AccDes= 0.00D+00
 HarFok:  IExCor=  205 AccDes= 0.00D+00 IRadAn=         5 IDoV=-2 UseB2=F ITyADJ=14
 ICtDFT= 12500011 ScaDFX=  1.000000  1.000000  1.000000  1.000000
 NROrb=    125 NOA=    16 NOB=    16 NVA=   109 NVB=   109
 ANorm=    0.1119035690D+01
 E2 =    -0.7333935406D+00 EUMP2 =    -0.19707967987138D+03

 **********************************************************************

            Population analysis using the SCF Density.

 **********************************************************************

 Orbital symmetries:
       Occupied  (A1) (B2) (A1) (B2) (A1) (A1) (B2) (A1) (B2) (A1)
                 (B1) (B2) (A2) (A1) (A1) (B1) (B2) (A2) (A1) (B1)
                 (B2)
       Virtual   (A1) (B2) (B1) (A1) (A1) (B2) (A2) (B1) (A1) (B2)
                 (A2) (B1) (A1) (B2) (A1) (B2) (A2) (A1) (A1) (B2)
                 (B1) (B1) (B2) (A1) (A2) (B2) (A1) (B1) (A2) (B1)
                 (A1) (B2) (B2) (A1) (B1) (A2) (A1) (A1) (B2) (A1)
                 (B2) (B1) (B2) (A1) (A2) (A1) (B2) (A1) (B1) (A2)
                 (B2) (B1) (A2) (A1) (B2) (B2) (A2) (B1) (A1) (A1)
                 (B1) (B2) (B2) (A1) (B1) (A2) (B1) (A2) (A1) (A2)
                 (B2) (A2) (B1) (B1) (A1) (A1) (B2) (B1) (B2) (A1)
                 (A2) (A1) (B2) (A1) (B2) (B1) (A1) (B2) (B2) (A2)
                 (A1) (B2) (B1) (A1) (A1) (B2) (A2) (B1) (B2) (A1)
                 (A1) (B2) (A2) (B2) (A1) (B1) (A1) (B1) (A2)
 The electronic state is 1-A1.
 Alpha  occ. eigenvalues --  -11.22400 -11.22394 -11.22152 -11.22134 -11.22132
 Alpha  occ. eigenvalues --   -1.07659  -1.01160  -0.91579  -0.81633  -0.77999
 Alpha  occ. eigenvalues --   -0.64061  -0.59368  -0.58726  -0.55199  -0.54323
 Alpha  occ. eigenvalues --   -0.52138  -0.49185  -0.47172  -0.45885  -0.45462
 Alpha  occ. eigenvalues --   -0.44764
 Alpha virt. eigenvalues --    0.18294   0.19599   0.21306   0.21372   0.24130
 Alpha virt. eigenvalues --    0.26392   0.26804   0.28161   0.28813   0.29186
 Alpha virt. eigenvalues --    0.30183   0.32144   0.37753   0.39069   0.41178
 Alpha virt. eigenvalues --    0.44385   0.58614   0.58994   0.59599   0.60324
 Alpha virt. eigenvalues --    0.61232   0.62631   0.70233   0.75228   0.77686
 Alpha virt. eigenvalues --    0.82758   0.87475   0.87944   0.88354   0.88812
 Alpha virt. eigenvalues --    0.88966   0.89256   0.89724   0.89899   0.90986
 Alpha virt. eigenvalues --    0.91129   0.91563   0.92660   0.94279   0.95977
 Alpha virt. eigenvalues --    0.96786   0.99936   1.00816   1.12788   1.12875
 Alpha virt. eigenvalues --    1.16773   1.28962   1.41497   1.45722   1.45822
 Alpha virt. eigenvalues --    1.47162   1.47714   1.47844   1.55830   1.59174
 Alpha virt. eigenvalues --    1.62758   1.68804   1.68833   1.71770   1.80742
 Alpha virt. eigenvalues --    1.86683   1.87596   1.89879   1.89934   1.90178
 Alpha virt. eigenvalues --    1.91324   1.91359   1.92419   1.93478   1.95775
 Alpha virt. eigenvalues --    1.96229   1.97965   1.98566   1.99182   2.01158
 Alpha virt. eigenvalues --    2.02600   2.03095   2.03560   2.05826   2.08104
 Alpha virt. eigenvalues --    2.14735   2.17827   2.22515   2.27310   2.28421
 Alpha virt. eigenvalues --    2.36100   2.36974   2.37102   2.46811   2.48389
 Alpha virt. eigenvalues --    2.49445   2.51011   2.55454   2.57200   2.62918
 Alpha virt. eigenvalues --    2.63017   2.63354   2.70406   2.73879   2.73918
 Alpha virt. eigenvalues --    2.76956   2.82662   2.83448   2.88026   2.91320
 Alpha virt. eigenvalues --    2.93058   2.98404   3.08004   3.08306
          Condensed to atoms (all electrons):
 Mulliken charges:
               1
     1  C   -0.038074
     2  C   -0.092387
     3  C   -0.075972
     4  C   -0.092387
     5  C   -0.038074
     6  H    0.032441
     7  H    0.030307
     8  H    0.030307
     9  H    0.025808
    10  H    0.025808
    11  H    0.023776
    12  H    0.023776
    13  H    0.025808
    14  H    0.025808
    15  H    0.030307
    16  H    0.032441
    17  H    0.030307
 Sum of Mulliken charges =   0.00000
 Mulliken charges with hydrogens summed into heavy atoms:
               1
     1  C    0.054981
     2  C   -0.040771
     3  C   -0.028421
     4  C   -0.040771
     5  C    0.054981
 Electronic spatial extent (au):  <R**2>=            724.2751
 Charge=             -0.0000 electrons
 Dipole moment (field-independent basis, Debye):
    X=              0.0000    Y=             -0.0000    Z=             -0.0659  Tot=              0.0659
 Unable to Open any file for archive entry.
 1\1\GINC-NODE05\SP\RMP2-FC\CC-pVDZ\C5H12\XUHJ\26-Dec-2023\0\\#T MP2/cc
 -pVDZ symm=veryloose\\CCCCC\\0,1\C,0,0.,2.557661,0.32335\C,0,0.,1.2827
 04,-0.522114\C,0,0.,0.,0.314695\C,0,0.,-1.282704,-0.522114\C,0,0.,-2.5
 57661,0.32335\H,0,0.,3.463789,-0.308607\H,0,0.891344,2.603522,0.976249
 \H,0,-0.891344,2.603522,0.976249\H,0,0.883851,1.280994,-1.189081\H,0,-
 0.883851,1.280994,-1.189081\H,0,-0.88438,0.,0.982767\H,0,0.88438,0.,0.
 982767\H,0,0.883851,-1.280994,-1.189081\H,0,-0.883851,-1.280994,-1.189
 081\H,0,0.891344,-2.603522,0.976249\H,0,0.,-3.463789,-0.308607\H,0,-0.
 891344,-2.603522,0.976249\\Version=ES64L-G16RevC.01\State=1-A1\HF=-196
 .3462863\MP2=-197.0796799\RMSD=3.522e-09\PG=C02V [C2(C1),SGV(C4H2),SGV
 '(H2),X(H8)]\\@
 The archive entry for this job was punched.


 THE WORLD OF CHEMICAL REACTIONS IS LIKE A STAGE,
 ON WHICH SCENE AFTER SCENE IS CEASELESSLY PLAYED.
 THE ACTORS ON IT ARE THE ELEMENTS.
   -- CLEMENS WINKLER   BER. 30,13(1897)
 (DISCOVERER OF GERMANIUM, FEB 6, 1886)
 Job cpu time:       0 days  0 hours  0 minutes 32.7 seconds.
 Elapsed time:       0 days  0 hours  0 minutes  2.4 seconds.
 File lengths (MBytes):  RWF=     22 Int=      0 D2E=      0 Chk=      3 Scr=      2
 Normal termination of Gaussian 16 at Tue Dec 26 13:07:20 2023.
