 Entering Gaussian System, Link 0=g16
 Initial command:
 /opt/g16/l1.exe "/tmp/Gau-2073928.inp" -scrdir="/tmp/"
 Entering Link 1 = /opt/g16/l1.exe PID=   2073930.
  
 Copyright (c) 1988-2019, Gaussian, Inc.  All Rights Reserved.
  
 This is part of the Gaussian(R) 16 program.  It is based on
 the Gaussian(R) 09 system (copyright 2009, Gaussian, Inc.),
 the Gaussian(R) 03 system (copyright 2003, Gaussian, Inc.),
 the Gaussian(R) 98 system (copyright 1998, Gaussian, Inc.),
 the Gaussian(R) 94 system (copyright 1995, Gaussian, Inc.),
 the Gaussian 92(TM) system (copyright 1992, Gaussian, Inc.),
 the Gaussian 90(TM) system (copyright 1990, Gaussian, Inc.),
 the Gaussian 88(TM) system (copyright 1988, Gaussian, Inc.),
 the Gaussian 86(TM) system (copyright 1986, Carnegie Mellon
 University), and the Gaussian 82(TM) system (copyright 1983,
 Carnegie Mellon University). Gaussian is a federally registered
 trademark of Gaussian, Inc.
  
 This software contains proprietary and confidential information,
 including trade secrets, belonging to Gaussian, Inc.
  
 This software is provided under written license and may be
 used, copied, transmitted, or stored only in accord with that
 written license.
  
 The following legend is applicable only to US Government
 contracts under FAR:
  
                    RESTRICTED RIGHTS LEGEND
  
 Use, reproduction and disclosure by the US Government is
 subject to restrictions as set forth in subparagraphs (a)
 and (c) of the Commercial Computer Software - Restricted
 Rights clause in FAR 52.227-19.
  
 Gaussian, Inc.
 340 Quinnipiac St., Bldg. 40, Wallingford CT 06492
  
  
 ---------------------------------------------------------------
 Warning -- This program may not be used in any manner that
 competes with the business of Gaussian, Inc. or will provide
 assistance to any competitor of Gaussian, Inc.  The licensee
 of this program is prohibited from giving any competitor of
 Gaussian, Inc. access to this program.  By using this program,
 the user acknowledges that Gaussian, Inc. is engaged in the
 business of creating and licensing software in the field of
 computational chemistry and represents and warrants to the
 licensee that it is not a competitor of Gaussian, Inc. and that
 it will not use this program in any manner prohibited above.
 ---------------------------------------------------------------
  

 Cite this work as:
 Gaussian 16, Revision C.01,
 M. J. Frisch, G. W. Trucks, H. B. Schlegel, G. E. Scuseria, 
 M. A. Robb, J. R. Cheeseman, G. Scalmani, V. Barone, 
 G. A. Petersson, H. Nakatsuji, X. Li, M. Caricato, A. V. Marenich, 
 J. Bloino, B. G. Janesko, R. Gomperts, B. Mennucci, H. P. Hratchian, 
 J. V. Ortiz, A. F. Izmaylov, J. L. Sonnenberg, D. Williams-Young, 
 F. Ding, F. Lipparini, F. Egidi, J. Goings, B. Peng, A. Petrone, 
 T. Henderson, D. Ranasinghe, V. G. Zakrzewski, J. Gao, N. Rega, 
 G. Zheng, W. Liang, M. Hada, M. Ehara, K. Toyota, R. Fukuda, 
 J. Hasegawa, M. Ishida, T. Nakajima, Y. Honda, O. Kitao, H. Nakai, 
 T. Vreven, K. Throssell, J. A. Montgomery, Jr., J. E. Peralta, 
 F. Ogliaro, M. J. Bearpark, J. J. Heyd, E. N. Brothers, K. N. Kudin, 
 V. N. Staroverov, T. A. Keith, R. Kobayashi, J. Normand, 
 K. Raghavachari, A. P. Rendell, J. C. Burant, S. S. Iyengar, 
 J. Tomasi, M. Cossi, J. M. Millam, M. Klene, C. Adamo, R. Cammi, 
 J. W. Ochterski, R. L. Martin, K. Morokuma, O. Farkas, 
 J. B. Foresman, and D. J. Fox, Gaussian, Inc., Wallingford CT, 2019.
 
 ******************************************
 Gaussian 16:  ES64L-G16RevC.01  3-Jul-2019
                 6-Nov-2024 
 ******************************************
 %nprocshared=16
 Will use up to   16 processors via shared memory.
 %mem=1600MB
 -------------------------------
 #T ROMP2/cc-pVDZ symm=veryloose
 -------------------------------
 ------
 [CH]=C
 ------
 Symbolic Z-matrix:
 Charge =  0 Multiplicity = 2
 C                    -0.04932   0.72466   0. 
 C                    -0.04932  -0.58885   0. 
 H                     0.68342   1.53538   0. 
 H                    -0.98091  -1.17579   0. 
 H                     0.88936  -1.17442   0. 
 
                    Distance matrix (angstroms):
                    1          2          3          4          5
     1  C    0.000000
     2  C    1.313512   0.000000
     3  H    1.092786   2.247058   0.000000
     4  H    2.116492   1.101063   3.181257   0.000000
     5  H    2.118406   1.106354   2.717615   1.870267   0.000000
 Framework group  CS[SG(C2H3)]
 Deg. of freedom     7
                         Standard orientation:                         
 ---------------------------------------------------------------------
 Center     Atomic      Atomic             Coordinates (Angstroms)
 Number     Number       Type             X           Y           Z
 ---------------------------------------------------------------------
      1          6           0        0.049323    0.724659    0.000000
      2          6           0        0.049323   -0.588853   -0.000000
      3          1           0       -0.683423    1.535377    0.000000
      4          1           0        0.980907   -1.175786   -0.000000
      5          1           0       -0.889360   -1.174424   -0.000000
 ---------------------------------------------------------------------
 Rotational constants (GHZ):         230.5333685          32.2132835          28.2638683
    43 basis functions,    87 primitive gaussians,    45 cartesian basis functions
     8 alpha electrons        7 beta electrons
       nuclear repulsion energy        28.2182922406 Hartrees.
 NAtoms=    5 NActive=    5 NUniq=    5 SFac= 1.00D+00 NAtFMM=   60 NAOKFM=F Big=F
 ExpMin= 1.22D-01 ExpMax= 6.67D+03 ExpMxC= 2.28D+02 IAcc=3 IRadAn=         5 AccDes= 0.00D+00
 Harris functional with IExCor=  205 and IRadAn=       5 diagonalized for initial guess.
 HarFok:  IExCor=  205 AccDes= 0.00D+00 IRadAn=         5 IDoV= 1 UseB2=F ITyADJ=14
 ICtDFT=  3500011 ScaDFX=  1.000000  1.000000  1.000000  1.000000
 FoFCou: FMM=F IPFlag=           0 FMFlag=      100000 FMFlg1=           0
         NFxFlg=           0 DoJE=T BraDBF=F KetDBF=T FulRan=T
         wScrn=  0.000000 ICntrl=       500 IOpCl=  0 I1Cent=   200000004 NGrid=           0
         NMat0=    1 NMatS0=      1 NMatT0=    0 NMatD0=    1 NMtDS0=    0 NMtDT0=    0
 Petite list used in FoFCou.
 Initial guess orbital symmetries:
       Occupied  (A') (A') (A') (A') (A') (A') (A") (A')
       Virtual   (A") (A') (A') (A') (A') (A') (A") (A') (A') (A')
                 (A") (A') (A') (A') (A') (A") (A") (A') (A") (A')
                 (A') (A') (A') (A") (A') (A") (A') (A") (A') (A")
                 (A') (A') (A') (A') (A')
 The electronic state of the initial guess is 2-A'.
 SCF Done:  E(ROHF) =  -77.3892716654     A.U. after   13 cycles
            NFock= 13  Conv=0.93D-08     -V/T= 2.0023
 <Sx>= 0.0000 <Sy>= 0.0000 <Sz>= 0.5000 <S**2>= 0.7500 S= 0.5000
 <L.S>=  0.00000000000    
 Annihilation of the first spin contaminant:
 S**2 before annihilation     0.7500,   after     0.7500
 GenMOA:  NOpAll=  2 NOp2=2 NOpUse=  2 JSym2X=1
 <Sx>= 0.0000 <Sy>= 0.0000 <Sz>= 0.5000 <S**2>= 0.7500 S= 0.5000
 ExpMin= 1.22D-01 ExpMax= 6.67D+03 ExpMxC= 2.28D+02 IAcc=3 IRadAn=         5 AccDes= 0.00D+00
 HarFok:  IExCor=  205 AccDes= 0.00D+00 IRadAn=         5 IDoV=-2 UseB2=F ITyADJ=14
 ICtDFT= 12500011 ScaDFX=  1.000000  1.000000  1.000000  1.000000
 NROrb=     41 NOA=     6 NOB=     5 NVA=    35 NVB=    36
 Singles contribution to E2=   -0.1972032359D-02
 ANorm=    0.1045988291D+01
 E2 =    -0.2462612158D+00 EUMP2 =    -0.77635532881221D+02

 **********************************************************************

            Population analysis using the SCF Density.

 **********************************************************************

 Orbital symmetries:
       Occupied  (A') (A') (A') (A') (A') (A') (A") (A')
       Virtual   (A") (A') (A') (A') (A') (A') (A') (A") (A') (A')
                 (A") (A') (A') (A') (A') (A") (A') (A") (A") (A')
                 (A') (A') (A') (A") (A') (A") (A') (A") (A") (A')
                 (A') (A') (A') (A') (A')
 The electronic state is 2-A'.
 Alpha  occ. eigenvalues --  -11.26591 -11.24629  -1.04538  -0.78400  -0.63209
 Alpha  occ. eigenvalues --   -0.59662  -0.39269  -0.39119
 Alpha virt. eigenvalues --    0.16275   0.20777   0.21761   0.26543   0.45212
 Alpha virt. eigenvalues --    0.57925   0.61707   0.67637   0.69763   0.73944
 Alpha virt. eigenvalues --    0.80057   0.87280   0.96270   0.98760   1.02632
 Alpha virt. eigenvalues --    1.14168   1.22378   1.24418   1.38364   1.39905
 Alpha virt. eigenvalues --    1.69864   1.72803   1.74761   1.79302   1.83272
 Alpha virt. eigenvalues --    1.95916   2.14885   2.16911   2.32786   2.33537
 Alpha virt. eigenvalues --    2.36256   2.59455   2.75525   2.87101   3.24180
          Condensed to atoms (all electrons):
          Atomic-Atomic Spin Densities.
 Mulliken charges and spin densities:
               1          2
     1  C   -0.134143   0.929030
     2  C   -0.087839   0.013157
     3  H    0.082230   0.022179
     4  H    0.071644   0.010531
     5  H    0.068109   0.025102
 Sum of Mulliken charges =   0.00000   1.00000
 Mulliken charges and spin densities with hydrogens summed into heavy atoms:
               1          2
     1  C   -0.051913   0.951210
     2  C    0.051913   0.048790
 Electronic spatial extent (au):  <R**2>=             73.4991
 Charge=             -0.0000 electrons
 Dipole moment (field-independent basis, Debye):
    X=             -0.5634    Y=             -0.1790    Z=             -0.0000  Tot=              0.5911
                          Isotropic Fermi Contact Couplings
        Atom                 a.u.       MegaHertz       Gauss      10(-4) cm-1
     1  C(13)              0.27236     306.18952     109.25603     102.13383
     2  C(13)              0.02859      32.14508      11.47016      10.72245
     3  H(1)               0.01322      59.09890      21.08796      19.71327
     4  H(1)               0.00732      32.72136      11.67579      10.91467
     5  H(1)               0.01241      55.47634      19.79534      18.50491
 --------------------------------------------------------
       Center         ----  Spin Dipole Couplings  ----
                      3XX-RR        3YY-RR        3ZZ-RR
 --------------------------------------------------------
     1   Atom        0.778078     -0.275262     -0.502816
     2   Atom       -0.021996      0.073201     -0.051205
     3   Atom        0.027463      0.027266     -0.054729
     4   Atom       -0.005941      0.019088     -0.013147
     5   Atom        0.001284      0.010208     -0.011492
 --------------------------------------------------------
                        XY            XZ            YZ
 --------------------------------------------------------
     1   Atom        0.540757     -0.000000      0.000000
     2   Atom        0.016245     -0.000000      0.000000
     3   Atom       -0.037078     -0.000000      0.000000
     4   Atom       -0.011538     -0.000000      0.000000
     5   Atom        0.012381      0.000000      0.000000
 --------------------------------------------------------


 ---------------------------------------------------------------------------------
              Anisotropic Spin Dipole Couplings in Principal Axis System
 ---------------------------------------------------------------------------------

       Atom             a.u.   MegaHertz   Gauss  10(-4) cm-1        Axes

              Baa    -0.5034   -67.557   -24.106   -22.535 -0.3888  0.9213 -0.0000
     1 C(13)  Bbb    -0.5028   -67.473   -24.076   -22.507  0.0000  0.0000  1.0000
              Bcc     1.0063   135.030    48.182    45.041  0.9213  0.3888  0.0000
 
              Baa    -0.0512    -6.871    -2.452    -2.292  0.0000  0.0000  1.0000
     2 C(13)  Bbb    -0.0247    -3.313    -1.182    -1.105  0.9865 -0.1637  0.0000
              Bcc     0.0759    10.185     3.634     3.397  0.1637  0.9865 -0.0000
 
              Baa    -0.0547   -29.201   -10.419    -9.740  0.0000  0.0000  1.0000
     3 H(1)   Bbb    -0.0097    -5.183    -1.849    -1.729  0.7062  0.7080  0.0000
              Bcc     0.0644    34.384    12.269    11.469  0.7080 -0.7062  0.0000
 
              Baa    -0.0131    -7.015    -2.503    -2.340  0.0000  0.0000  1.0000
     4 H(1)   Bbb    -0.0104    -5.575    -1.989    -1.860  0.9315  0.3639 -0.0000
              Bcc     0.0236    12.589     4.492     4.199 -0.3639  0.9315 -0.0000
 
              Baa    -0.0115    -6.132    -2.188    -2.045  0.0000  0.0000  1.0000
     5 H(1)   Bbb    -0.0074    -3.956    -1.412    -1.320  0.8182 -0.5749  0.0000
              Bcc     0.0189    10.087     3.599     3.365  0.5749  0.8182 -0.0000
 

 ---------------------------------------------------------------------------------

 Unable to Open any file for archive entry.
 1\1\GINC-NODE01\SP\ROMP2-FC\CC-pVDZ\C2H3(2)\XUHJ\06-Nov-2024\0\\#T ROM
 P2/cc-pVDZ symm=veryloose\\[CH]=C\\0,2\C,0,-0.049323,0.724659,0.\C,0,-
 0.049323,-0.588853,0.\H,0,0.683423,1.535377,0.\H,0,-0.980907,-1.175786
 ,0.\H,0,0.88936,-1.174424,0.\\Version=ES64L-G16RevC.01\State=2-A'\HF=-
 77.3892717\MP2=-77.6355329\RMSD=9.322e-09\PG=CS [SG(C2H3)]\\@
 The archive entry for this job was punched.


      SCIENCE SANS CONSCIENCE N'EST QUE RUINE DE L'AME.

                                                  -- RABELAIS
 Job cpu time:       0 days  0 hours  0 minutes  9.8 seconds.
 Elapsed time:       0 days  0 hours  0 minutes  0.6 seconds.
 File lengths (MBytes):  RWF=      6 Int=      0 D2E=      0 Chk=      1 Scr=      1
 Normal termination of Gaussian 16 at Wed Nov  6 12:30:15 2024.
