 Entering Gaussian System, Link 0=g16
 Initial command:
 /home/software/g16/l1.exe "/home/software/g16tmp/Gau-146420.inp" -scrdir="/home/software/g16tmp/"
 Default is to use a total of   8 processors:
                                8 via shared-memory
                                1 via Linda
 Entering Link 1 = /home/software/g16/l1.exe PID=    146421.
  
 Copyright (c) 1988-2019, Gaussian, Inc.  All Rights Reserved.
  
 This is part of the Gaussian(R) 16 program.  It is based on
 the Gaussian(R) 09 system (copyright 2009, Gaussian, Inc.),
 the Gaussian(R) 03 system (copyright 2003, Gaussian, Inc.),
 the Gaussian(R) 98 system (copyright 1998, Gaussian, Inc.),
 the Gaussian(R) 94 system (copyright 1995, Gaussian, Inc.),
 the Gaussian 92(TM) system (copyright 1992, Gaussian, Inc.),
 the Gaussian 90(TM) system (copyright 1990, Gaussian, Inc.),
 the Gaussian 88(TM) system (copyright 1988, Gaussian, Inc.),
 the Gaussian 86(TM) system (copyright 1986, Carnegie Mellon
 University), and the Gaussian 82(TM) system (copyright 1983,
 Carnegie Mellon University). Gaussian is a federally registered
 trademark of Gaussian, Inc.
  
 This software contains proprietary and confidential information,
 including trade secrets, belonging to Gaussian, Inc.
  
 This software is provided under written license and may be
 used, copied, transmitted, or stored only in accord with that
 written license.
  
 The following legend is applicable only to US Government
 contracts under FAR:
  
                    RESTRICTED RIGHTS LEGEND
  
 Use, reproduction and disclosure by the US Government is
 subject to restrictions as set forth in subparagraphs (a)
 and (c) of the Commercial Computer Software - Restricted
 Rights clause in FAR 52.227-19.
  
 Gaussian, Inc.
 340 Quinnipiac St., Bldg. 40, Wallingford CT 06492
  
  
 ---------------------------------------------------------------
 Warning -- This program may not be used in any manner that
 competes with the business of Gaussian, Inc. or will provide
 assistance to any competitor of Gaussian, Inc.  The licensee
 of this program is prohibited from giving any competitor of
 Gaussian, Inc. access to this program.  By using this program,
 the user acknowledges that Gaussian, Inc. is engaged in the
 business of creating and licensing software in the field of
 computational chemistry and represents and warrants to the
 licensee that it is not a competitor of Gaussian, Inc. and that
 it will not use this program in any manner prohibited above.
 ---------------------------------------------------------------
  

 Cite this work as:
 Gaussian 16, Revision C.01,
 M. J. Frisch, G. W. Trucks, H. B. Schlegel, G. E. Scuseria, 
 M. A. Robb, J. R. Cheeseman, G. Scalmani, V. Barone, 
 G. A. Petersson, H. Nakatsuji, X. Li, M. Caricato, A. V. Marenich, 
 J. Bloino, B. G. Janesko, R. Gomperts, B. Mennucci, H. P. Hratchian, 
 J. V. Ortiz, A. F. Izmaylov, J. L. Sonnenberg, D. Williams-Young, 
 F. Ding, F. Lipparini, F. Egidi, J. Goings, B. Peng, A. Petrone, 
 T. Henderson, D. Ranasinghe, V. G. Zakrzewski, J. Gao, N. Rega, 
 G. Zheng, W. Liang, M. Hada, M. Ehara, K. Toyota, R. Fukuda, 
 J. Hasegawa, M. Ishida, T. Nakajima, Y. Honda, O. Kitao, H. Nakai, 
 T. Vreven, K. Throssell, J. A. Montgomery, Jr., J. E. Peralta, 
 F. Ogliaro, M. J. Bearpark, J. J. Heyd, E. N. Brothers, K. N. Kudin, 
 V. N. Staroverov, T. A. Keith, R. Kobayashi, J. Normand, 
 K. Raghavachari, A. P. Rendell, J. C. Burant, S. S. Iyengar, 
 J. Tomasi, M. Cossi, J. M. Millam, M. Klene, C. Adamo, R. Cammi, 
 J. W. Ochterski, R. L. Martin, K. Morokuma, O. Farkas, 
 J. B. Foresman, and D. J. Fox, Gaussian, Inc., Wallingford CT, 2019.
 
 ******************************************
 Gaussian 16:  ES64L-G16RevC.01  3-Jul-2019
                20-Dec-2023 
 ******************************************
 %nprocshared=16
 Will use up to   16 processors via shared memory.
 %mem=1280MB
 -----------------------------
 #T MP2/cc-pVDZ symm=veryloose
 -----------------------------
 ------
 C1CCC1
 ------
 Symbolic Z-matrix:
 Charge =  0 Multiplicity = 1
 C                     0.        1.0853    0.11602 
 C                     1.0853    0.       -0.11602 
 C                     0.       -1.0853    0.11602 
 C                    -1.0853    0.       -0.11602 
 H                     0.        1.95976  -0.55697 
 H                     0.        1.44941   1.15802 
 H                     1.95976   0.        0.55697 
 H                     1.44941   0.       -1.15802 
 H                     0.       -1.44941   1.15802 
 H                     0.       -1.95976  -0.55697 
 H                    -1.95976   0.        0.55697 
 H                    -1.44941   0.       -1.15802 
 
                    Distance matrix (angstroms):
                    1          2          3          4          5
     1  C    0.000000
     2  C    1.552283   0.000000
     3  C    2.170596   1.552283   0.000000
     4  C    1.552283   2.170596   1.552283   0.000000
     5  H    1.103443   2.283192   3.118538   2.283192   0.000000
     6  H    1.103787   2.214004   2.740530   2.214004   1.789310
     7  H    2.283192   1.103443   2.283192   3.118538   2.986998
     8  H    2.214004   1.103787   2.214004   2.740530   2.510518
     9  H    2.740530   2.214004   1.103787   2.214004   3.816228
    10  H    3.118538   2.283192   1.103443   2.283192   3.919518
    11  H    2.283192   3.118538   2.283192   1.103443   2.986998
    12  H    2.214004   2.740530   2.214004   1.103787   2.510518
                    6          7          8          9         10
     6  H    0.000000
     7  H    2.510518   0.000000
     8  H    3.092829   1.789310   0.000000
     9  H    2.898816   2.510518   3.092829   0.000000
    10  H    3.816228   2.986998   2.510518   1.789310   0.000000
    11  H    2.510518   3.919518   3.816228   2.510518   2.986998
    12  H    3.092829   3.816228   2.898816   3.092829   2.510518
                   11         12
    11  H    0.000000
    12  H    1.789310   0.000000
 Framework group  D2D[2SGD(C2H4)]
 Deg. of freedom     6
                         Standard orientation:                         
 ---------------------------------------------------------------------
 Center     Atomic      Atomic             Coordinates (Angstroms)
 Number     Number       Type             X           Y           Z
 ---------------------------------------------------------------------
      1          6           0        0.000000    1.085298    0.116015
      2          6           0        1.085298   -0.000000   -0.116015
      3          6           0       -0.000000   -1.085298    0.116015
      4          6           0       -1.085298    0.000000   -0.116015
      5          1           0        0.000000    1.959759   -0.556967
      6          1           0        0.000000    1.449408    1.158018
      7          1           0        1.959759   -0.000000    0.556967
      8          1           0        1.449408   -0.000000   -1.158018
      9          1           0       -0.000000   -1.449408    1.158018
     10          1           0       -0.000000   -1.959759   -0.556967
     11          1           0       -1.959759    0.000000    0.556967
     12          1           0       -1.449408    0.000000   -1.158018
 ---------------------------------------------------------------------
 Rotational constants (GHZ):          10.6289529          10.6289529           6.2788138
    96 basis functions,   188 primitive gaussians,   100 cartesian basis functions
    16 alpha electrons       16 beta electrons
       nuclear repulsion energy       126.4152838032 Hartrees.
 NAtoms=   12 NActive=   12 NUniq=    3 SFac= 4.00D+00 NAtFMM=   60 NAOKFM=F Big=F
 ExpMin= 1.22D-01 ExpMax= 6.67D+03 ExpMxC= 2.28D+02 IAcc=3 IRadAn=         5 AccDes= 0.00D+00
 Harris functional with IExCor=  205 and IRadAn=       5 diagonalized for initial guess.
 HarFok:  IExCor=  205 AccDes= 0.00D+00 IRadAn=         5 IDoV= 1 UseB2=F ITyADJ=14
 ICtDFT=  3500011 ScaDFX=  1.000000  1.000000  1.000000  1.000000
 FoFCou: FMM=F IPFlag=           0 FMFlag=      100000 FMFlg1=           0
         NFxFlg=           0 DoJE=T BraDBF=F KetDBF=T FulRan=T
         wScrn=  0.000000 ICntrl=       500 IOpCl=  0 I1Cent=   200000004 NGrid=           0
         NMat0=    1 NMatS0=      1 NMatT0=    0 NMatD0=    1 NMtDS0=    0 NMtDT0=    0
 Petite list used in FoFCou.
 Initial guess orbital symmetries:
       Occupied  (B2) (A1) (E) (E) (A1) (E) (E) (B2) (A1) (B2)
                 (B1) (E) (E) (E) (E) (A1)
       Virtual   (A1) (B2) (E) (E) (E) (E) (A2) (B2) (E) (E) (A1)
                 (B2) (B2) (B1) (A1) (E) (E) (E) (E) (A1) (B2)
                 (E) (E) (A2) (A1) (B2) (E) (E) (E) (E) (B2) (A1)
                 (A2) (A1) (E) (E) (B1) (A1) (E) (E) (B2) (B1)
                 (E) (E) (B2) (E) (E) (B2) (A1) (E) (E) (E) (E)
                 (A2) (B2) (A1) (A2) (B1) (E) (E) (A1) (B2) (E)
                 (E) (E) (E) (A2) (A1) (E) (E) (B2) (B1) (A1) (E)
                 (E) (B2) (E) (E) (B2) (A1)
 The electronic state of the initial guess is 1-A1.
 SCF Done:  E(RHF) =  -156.106536676     A.U. after    9 cycles
            NFock=  9  Conv=0.77D-08     -V/T= 2.0020
 ExpMin= 1.22D-01 ExpMax= 6.67D+03 ExpMxC= 2.28D+02 IAcc=3 IRadAn=         5 AccDes= 0.00D+00
 HarFok:  IExCor=  205 AccDes= 0.00D+00 IRadAn=         5 IDoV=-2 UseB2=F ITyADJ=14
 ICtDFT= 12500011 ScaDFX=  1.000000  1.000000  1.000000  1.000000
 NROrb=     92 NOA=    12 NOB=    12 NVA=    80 NVB=    80
 ANorm=    0.1094692258D+01
 E2 =    -0.5695951184D+00 EUMP2 =    -0.15667613179486D+03

 **********************************************************************

            Population analysis using the SCF Density.

 **********************************************************************

 Orbital symmetries:
       Occupied  (A1) (E) (E) (B2) (A1) (E) (E) (B2) (B2) (A1)
                 (E) (E) (B1) (A1) (E) (E)
       Virtual   (A1) (B2) (E) (E) (B2) (E) (E) (A1) (E) (E) (A2)
                 (B2) (B2) (A1) (B1) (E) (E) (A1) (E) (E) (E) (E)
                 (A2) (B2) (B2) (A1) (E) (E) (E) (E) (B2) (A1)
                 (A2) (A1) (E) (E) (B1) (A1) (E) (E) (B2) (E) (E)
                 (B1) (B2) (E) (E) (B2) (E) (E) (A1) (A2) (B2)
                 (E) (E) (A1) (A2) (B1) (E) (E) (A1) (E) (E) (B2)
                 (E) (E) (A2) (A1) (E) (E) (B1) (B2) (A1) (E) (E)
                 (B2) (E) (E) (B2) (A1)
 The electronic state is 1-A1.
 Alpha  occ. eigenvalues --  -11.22481 -11.22428 -11.22428 -11.22374  -1.11933
 Alpha  occ. eigenvalues --   -0.88945  -0.88945  -0.74212  -0.64348  -0.63621
 Alpha  occ. eigenvalues --   -0.53133  -0.53133  -0.48406  -0.44606  -0.43327
 Alpha  occ. eigenvalues --   -0.43327
 Alpha virt. eigenvalues --    0.18115   0.19904   0.22594   0.22594   0.26531
 Alpha virt. eigenvalues --    0.28777   0.28777   0.31689   0.33313   0.33313
 Alpha virt. eigenvalues --    0.41789   0.47576   0.56084   0.61976   0.63154
 Alpha virt. eigenvalues --    0.64390   0.64390   0.75464   0.78912   0.78912
 Alpha virt. eigenvalues --    0.81467   0.81467   0.87836   0.89914   0.89984
 Alpha virt. eigenvalues --    0.90201   0.90578   0.90578   0.91733   0.91733
 Alpha virt. eigenvalues --    0.93880   1.01438   1.07107   1.19894   1.37340
 Alpha virt. eigenvalues --    1.37340   1.43135   1.45042   1.48424   1.48424
 Alpha virt. eigenvalues --    1.61388   1.74039   1.74039   1.74301   1.83123
 Alpha virt. eigenvalues --    1.87007   1.87007   1.87806   1.93639   1.93639
 Alpha virt. eigenvalues --    1.93769   1.95944   1.95947   1.96273   1.96273
 Alpha virt. eigenvalues --    2.00195   2.04317   2.06244   2.11847   2.11847
 Alpha virt. eigenvalues --    2.17858   2.29252   2.29252   2.30327   2.39261
 Alpha virt. eigenvalues --    2.39261   2.43821   2.43834   2.52195   2.52195
 Alpha virt. eigenvalues --    2.67130   2.67697   2.72522   2.77881   2.77881
 Alpha virt. eigenvalues --    2.83330   2.92403   2.92403   3.01174   3.19218
          Condensed to atoms (all electrons):
 Mulliken charges:
               1
     1  C   -0.062816
     2  C   -0.062816
     3  C   -0.062816
     4  C   -0.062816
     5  H    0.029230
     6  H    0.033586
     7  H    0.029230
     8  H    0.033586
     9  H    0.033586
    10  H    0.029230
    11  H    0.029230
    12  H    0.033586
 Sum of Mulliken charges =  -0.00000
 Mulliken charges with hydrogens summed into heavy atoms:
               1
     1  C   -0.000000
     2  C   -0.000000
     3  C   -0.000000
     4  C   -0.000000
 Electronic spatial extent (au):  <R**2>=            271.0847
 Charge=             -0.0000 electrons
 Dipole moment (field-independent basis, Debye):
    X=              0.0000    Y=             -0.0000    Z=             -0.0000  Tot=              0.0000
 Unable to Open any file for archive entry.
 1\1\GINC-NODE06\SP\RMP2-FC\CC-pVDZ\C4H8\XUHJ\20-Dec-2023\0\\#T MP2/cc-
 pVDZ symm=veryloose\\C1CCC1\\0,1\C,0,0.,1.085298,0.116015\C,0,1.085298
 ,0.,-0.116015\C,0,0.,-1.085298,0.116015\C,0,-1.085298,0.,-0.116015\H,0
 ,0.,1.959759,-0.556967\H,0,0.,1.449408,1.158018\H,0,1.959759,0.,0.5569
 67\H,0,1.449408,0.,-1.158018\H,0,0.,-1.449408,1.158018\H,0,0.,-1.95975
 9,-0.556967\H,0,-1.959759,0.,0.556967\H,0,-1.449408,0.,-1.158018\\Vers
 ion=ES64L-G16RevC.01\State=1-A1\HF=-156.1065367\MP2=-156.6761318\RMSD=
 7.736e-09\PG=D02D [2SGD(C2H4)]\\@
 The archive entry for this job was punched.


 HE THAT WALD REACHE THE SWEITE ROSE
 SULD NOW AND THEN BE SCRATCHED WT THE SCHARPE BREERES.
 -- PROVERBS AND REASONS OF THE YEAR 1585
           AS REPRINTED IN PAISLEY MAGAZINE 1828.
 Job cpu time:       0 days  0 hours  0 minutes 15.9 seconds.
 Elapsed time:       0 days  0 hours  0 minutes  1.2 seconds.
 File lengths (MBytes):  RWF=     22 Int=      0 D2E=      0 Chk=      2 Scr=      2
 Normal termination of Gaussian 16 at Wed Dec 20 12:21:23 2023.
