 Entering Gaussian System, Link 0=g16
 Initial command:
 /opt/g16/l1.exe "/tmp/Gau-161203.inp" -scrdir="/tmp/"
 Default is to use a total of   8 processors:
                                8 via shared-memory
                                1 via Linda
 Entering Link 1 = /opt/g16/l1.exe PID=    161204.
  
 Copyright (c) 1988-2019, Gaussian, Inc.  All Rights Reserved.
  
 This is part of the Gaussian(R) 16 program.  It is based on
 the Gaussian(R) 09 system (copyright 2009, Gaussian, Inc.),
 the Gaussian(R) 03 system (copyright 2003, Gaussian, Inc.),
 the Gaussian(R) 98 system (copyright 1998, Gaussian, Inc.),
 the Gaussian(R) 94 system (copyright 1995, Gaussian, Inc.),
 the Gaussian 92(TM) system (copyright 1992, Gaussian, Inc.),
 the Gaussian 90(TM) system (copyright 1990, Gaussian, Inc.),
 the Gaussian 88(TM) system (copyright 1988, Gaussian, Inc.),
 the Gaussian 86(TM) system (copyright 1986, Carnegie Mellon
 University), and the Gaussian 82(TM) system (copyright 1983,
 Carnegie Mellon University). Gaussian is a federally registered
 trademark of Gaussian, Inc.
  
 This software contains proprietary and confidential information,
 including trade secrets, belonging to Gaussian, Inc.
  
 This software is provided under written license and may be
 used, copied, transmitted, or stored only in accord with that
 written license.
  
 The following legend is applicable only to US Government
 contracts under FAR:
  
                    RESTRICTED RIGHTS LEGEND
  
 Use, reproduction and disclosure by the US Government is
 subject to restrictions as set forth in subparagraphs (a)
 and (c) of the Commercial Computer Software - Restricted
 Rights clause in FAR 52.227-19.
  
 Gaussian, Inc.
 340 Quinnipiac St., Bldg. 40, Wallingford CT 06492
  
  
 ---------------------------------------------------------------
 Warning -- This program may not be used in any manner that
 competes with the business of Gaussian, Inc. or will provide
 assistance to any competitor of Gaussian, Inc.  The licensee
 of this program is prohibited from giving any competitor of
 Gaussian, Inc. access to this program.  By using this program,
 the user acknowledges that Gaussian, Inc. is engaged in the
 business of creating and licensing software in the field of
 computational chemistry and represents and warrants to the
 licensee that it is not a competitor of Gaussian, Inc. and that
 it will not use this program in any manner prohibited above.
 ---------------------------------------------------------------
  

 Cite this work as:
 Gaussian 16, Revision C.01,
 M. J. Frisch, G. W. Trucks, H. B. Schlegel, G. E. Scuseria, 
 M. A. Robb, J. R. Cheeseman, G. Scalmani, V. Barone, 
 G. A. Petersson, H. Nakatsuji, X. Li, M. Caricato, A. V. Marenich, 
 J. Bloino, B. G. Janesko, R. Gomperts, B. Mennucci, H. P. Hratchian, 
 J. V. Ortiz, A. F. Izmaylov, J. L. Sonnenberg, D. Williams-Young, 
 F. Ding, F. Lipparini, F. Egidi, J. Goings, B. Peng, A. Petrone, 
 T. Henderson, D. Ranasinghe, V. G. Zakrzewski, J. Gao, N. Rega, 
 G. Zheng, W. Liang, M. Hada, M. Ehara, K. Toyota, R. Fukuda, 
 J. Hasegawa, M. Ishida, T. Nakajima, Y. Honda, O. Kitao, H. Nakai, 
 T. Vreven, K. Throssell, J. A. Montgomery, Jr., J. E. Peralta, 
 F. Ogliaro, M. J. Bearpark, J. J. Heyd, E. N. Brothers, K. N. Kudin, 
 V. N. Staroverov, T. A. Keith, R. Kobayashi, J. Normand, 
 K. Raghavachari, A. P. Rendell, J. C. Burant, S. S. Iyengar, 
 J. Tomasi, M. Cossi, J. M. Millam, M. Klene, C. Adamo, R. Cammi, 
 J. W. Ochterski, R. L. Martin, K. Morokuma, O. Farkas, 
 J. B. Foresman, and D. J. Fox, Gaussian, Inc., Wallingford CT, 2019.
 
 ******************************************
 Gaussian 16:  ES64L-G16RevC.01  3-Jul-2019
                14-Sep-2024 
 ******************************************
 %nprocshared=8
 Will use up to    8 processors via shared memory.
 %mem=3600MB
 -----------------------------
 #T MP2/cc-pVDZ symm=veryloose
 -----------------------------
 ---------------
 c1ccc2c(c1)CCC2
 ---------------
 Symbolic Z-matrix:
 Charge =  0 Multiplicity = 1
 C                     0.0656   -2.25764   0.70012 
 C                     0.0656   -2.25764  -0.70012 
 C                     0.05821  -1.04927  -1.40884 
 C                     0.04679   0.15397  -0.70246 
 C                     0.04679   0.15397   0.70246 
 C                     0.05821  -1.04927   1.40884 
 C                     0.0536    1.57421   1.22716 
 C                    -0.39927   2.40147   0. 
 C                     0.0536    1.57421  -1.22716 
 H                     0.06606  -3.20751   1.24368 
 H                     0.06606  -3.20751  -1.24368 
 H                     0.05495  -1.05251  -2.50366 
 H                     0.05495  -1.05251   2.50366 
 H                     1.07869   1.85932   1.53755 
 H                    -0.59589   1.71743   2.10786 
 H                     0.        3.42902   0. 
 H                    -1.50162   2.47357   0. 
 H                     1.07869   1.85932  -1.53755 
 H                    -0.59589   1.71743  -2.10786 
 
                    Distance matrix (angstroms):
                    1          2          3          4          5
     1  C    0.000000
     2  C    1.400240   0.000000
     3  C    2.430625   1.400897   0.000000
     4  C    2.789889   2.411693   1.395311   0.000000
     5  C    2.411693   2.789889   2.430122   1.404916   0.000000
     6  C    1.400897   2.430625   2.817678   2.430122   1.395311
     7  C    3.867946   4.289249   3.719025   2.395944   1.514076
     8  C    4.734303   4.734303   3.755224   2.396593   2.396593
     9  C    4.289249   3.867946   2.629762   1.514076   2.395944
    10  H    1.094396   2.163468   3.419637   3.884250   3.404831
    11  H    2.163468   1.094396   2.164570   3.404831   3.884250
    12  H    3.422960   2.169150   1.094829   2.167946   3.425617
    13  H    2.169150   3.422960   3.912500   3.425617   2.167946
    14  H    4.321690   4.794048   4.264090   2.998443   2.161109
    15  H    4.268548   4.911571   4.522128   3.279532   2.198315
    16  H    5.729973   5.729973   4.695023   3.349857   3.349857
    17  H    5.032962   5.032962   4.102226   2.876026   2.876026
    18  H    4.794048   4.321690   3.085093   2.161109   2.998443
    19  H    4.911571   4.268548   2.927641   2.198315   3.279532
                    6          7          8          9         10
     6  C    0.000000
     7  C    2.629762   0.000000
     8  C    3.755224   1.547704   0.000000
     9  C    3.719025   2.454326   1.547704   0.000000
    10  H    2.164570   4.781765   5.764022   5.382383   0.000000
    11  H    3.419637   5.382383   5.764022   4.781765   2.487352
    12  H    3.912500   4.562749   4.290059   2.920460   4.322808
    13  H    1.094829   2.920460   4.290059   4.562749   2.496340
    14  H    3.085093   1.108344   2.200536   2.962388   5.175378
    15  H    2.927641   1.103625   2.224784   3.400699   5.043810
    16  H    4.695023   2.224661   1.102392   2.224661   6.752378
    17  H    4.102226   2.175659   1.104705   2.175659   6.023204
    18  H    4.264090   2.962388   2.200536   1.108344   5.867999
    19  H    4.522128   3.400699   2.224784   1.103625   5.993831
                   11         12         13         14         15
    11  H    0.000000
    12  H    2.496340   0.000000
    13  H    4.322808   5.007316   0.000000
    14  H    5.867999   5.085092   3.234212   0.000000
    15  H    5.993831   5.418697   2.872769   1.774711   0.000000
    16  H    6.752378   5.133752   5.133752   2.447773   2.779877
    17  H    6.023204   4.596133   4.596133   3.065837   2.415611
    18  H    5.175378   3.234212   5.085092   3.075108   4.014152
    19  H    5.043810   2.872769   5.418697   4.014152   4.215726
                   16         17         18         19
    16  H    0.000000
    17  H    1.779818   0.000000
    18  H    2.447773   3.065837   0.000000
    19  H    2.779877   2.415611   1.774711   0.000000
 Framework group  CS[SG(CH2),X(C8H8)]
 Deg. of freedom    27
                         Standard orientation:                         
 ---------------------------------------------------------------------
 Center     Atomic      Atomic             Coordinates (Angstroms)
 Number     Number       Type             X           Y           Z
 ---------------------------------------------------------------------
      1          6           0       -0.048760   -2.258072    0.700120
      2          6           0       -0.048760   -2.258072   -0.700120
      3          6           0        0.005018   -1.050869   -1.408839
      4          6           0        0.054509    0.151408   -0.702458
      5          6           0        0.054509    0.151408    0.702458
      6          6           0        0.005018   -1.050869    1.408839
      7          6           0        0.133196    1.569476    1.227163
      8          6           0       -0.277227    2.418600   -0.000000
      9          6           0        0.133196    1.569476   -1.227163
     10          1           0       -0.096382   -3.206745    1.243676
     11          1           0       -0.096382   -3.206745   -1.243676
     12          1           0        0.001599   -1.053943   -2.503658
     13          1           0        0.001599   -1.053943    2.503658
     14          1           0        1.171396    1.802338    1.537554
     15          1           0       -0.508218    1.745385    2.107863
     16          1           0        0.173539    3.424621   -0.000000
     17          1           0       -1.374515    2.546396   -0.000000
     18          1           0        1.171396    1.802338   -1.537554
     19          1           0       -0.508218    1.745385   -2.107863
 ---------------------------------------------------------------------
 Rotational constants (GHZ):           3.5199742           1.4894997           1.0765661
   176 basis functions,   367 primitive gaussians,   185 cartesian basis functions
    32 alpha electrons       32 beta electrons
       nuclear repulsion energy       414.3049198956 Hartrees.
 NAtoms=   19 NActive=   19 NUniq=   11 SFac= 2.98D+00 NAtFMM=   60 NAOKFM=F Big=F
 ExpMin= 1.22D-01 ExpMax= 6.67D+03 ExpMxC= 2.28D+02 IAcc=3 IRadAn=         5 AccDes= 0.00D+00
 Harris functional with IExCor=  205 and IRadAn=       5 diagonalized for initial guess.
 HarFok:  IExCor=  205 AccDes= 0.00D+00 IRadAn=         5 IDoV= 1 UseB2=F ITyADJ=14
 ICtDFT=  3500011 ScaDFX=  1.000000  1.000000  1.000000  1.000000
 FoFCou: FMM=F IPFlag=           0 FMFlag=      100000 FMFlg1=           0
         NFxFlg=           0 DoJE=T BraDBF=F KetDBF=T FulRan=T
         wScrn=  0.000000 ICntrl=       500 IOpCl=  0 I1Cent=   200000004 NGrid=           0
         NMat0=    1 NMatS0=      1 NMatT0=    0 NMatD0=    1 NMtDS0=    0 NMtDT0=    0
 Petite list used in FoFCou.
 Initial guess orbital symmetries:
       Occupied  (A") (A') (A") (A') (A') (A") (A') (A') (A") (A')
                 (A') (A") (A') (A") (A') (A") (A') (A') (A') (A')
                 (A") (A") (A') (A") (A') (A") (A') (A") (A') (A')
                 (A") (A')
       Virtual   (A') (A") (A') (A") (A') (A') (A") (A") (A') (A")
                 (A') (A") (A') (A") (A') (A') (A") (A") (A') (A')
                 (A") (A') (A') (A") (A') (A") (A') (A") (A') (A')
                 (A") (A') (A') (A") (A") (A') (A") (A') (A") (A")
                 (A') (A') (A') (A") (A') (A") (A") (A') (A') (A")
                 (A') (A") (A') (A") (A') (A") (A') (A") (A') (A')
                 (A") (A') (A') (A") (A") (A') (A") (A') (A") (A')
                 (A") (A') (A") (A') (A') (A") (A') (A") (A') (A')
                 (A") (A') (A") (A') (A") (A") (A') (A') (A") (A')
                 (A") (A') (A') (A") (A') (A") (A') (A") (A') (A")
                 (A") (A') (A') (A") (A") (A') (A') (A") (A") (A')
                 (A") (A') (A') (A') (A") (A") (A') (A") (A') (A")
                 (A') (A") (A') (A") (A") (A") (A') (A') (A") (A')
                 (A") (A') (A") (A') (A') (A") (A") (A') (A") (A')
                 (A") (A") (A') (A")
 The electronic state of the initial guess is 1-A'.
 SCF Done:  E(RHF) =  -346.670850927     A.U. after   13 cycles
            NFock= 13  Conv=0.76D-08     -V/T= 2.0015
 ExpMin= 1.22D-01 ExpMax= 6.67D+03 ExpMxC= 2.28D+02 IAcc=3 IRadAn=         5 AccDes= 0.00D+00
 HarFok:  IExCor=  205 AccDes= 0.00D+00 IRadAn=         5 IDoV=-2 UseB2=F ITyADJ=14
 ICtDFT= 12500011 ScaDFX=  1.000000  1.000000  1.000000  1.000000
 NROrb=    167 NOA=    23 NOB=    23 NVA=   144 NVB=   144

 **** Warning!!: The largest alpha MO coefficient is  0.11267115D+02

 ANorm=    0.1203045100D+01
 E2 =    -0.1201555339D+01 EUMP2 =    -0.34787240626570D+03

 **********************************************************************

            Population analysis using the SCF Density.

 **********************************************************************

 Orbital symmetries:
       Occupied  (A') (A") (A') (A") (A') (A") (A') (A") (A') (A')
                 (A') (A") (A') (A") (A') (A') (A") (A') (A') (A')
                 (A") (A") (A') (A") (A') (A') (A") (A") (A') (A')
                 (A") (A')
       Virtual   (A') (A") (A') (A') (A") (A') (A') (A") (A") (A')
                 (A") (A') (A") (A') (A") (A") (A') (A") (A') (A')
                 (A") (A') (A') (A") (A') (A') (A") (A') (A') (A")
                 (A") (A') (A") (A') (A") (A') (A") (A') (A") (A')
                 (A') (A") (A") (A') (A') (A') (A") (A') (A") (A')
                 (A") (A") (A') (A") (A') (A") (A') (A') (A") (A')
                 (A') (A") (A") (A') (A") (A") (A') (A') (A') (A")
                 (A") (A') (A") (A') (A') (A") (A') (A") (A') (A')
                 (A") (A") (A') (A") (A') (A') (A") (A') (A") (A')
                 (A") (A') (A') (A') (A") (A") (A') (A") (A") (A')
                 (A') (A") (A") (A') (A') (A") (A") (A') (A") (A')
                 (A") (A') (A') (A') (A") (A") (A') (A") (A') (A')
                 (A") (A') (A") (A") (A") (A") (A') (A') (A") (A')
                 (A") (A") (A') (A') (A') (A") (A") (A') (A") (A')
                 (A") (A") (A') (A")
 The electronic state is 1-A'.
 Alpha  occ. eigenvalues --  -11.23594 -11.23536 -11.23473 -11.23412 -11.23401
 Alpha  occ. eigenvalues --  -11.23393 -11.23277 -11.23172 -11.23163  -1.16407
 Alpha  occ. eigenvalues --   -1.08645  -1.01980  -0.96932  -0.93646  -0.82667
 Alpha  occ. eigenvalues --   -0.78616  -0.77771  -0.67710  -0.64300  -0.62404
 Alpha  occ. eigenvalues --   -0.61517  -0.56832  -0.56229  -0.55241  -0.50767
 Alpha  occ. eigenvalues --   -0.49508  -0.48935  -0.47164  -0.46430  -0.45811
 Alpha  occ. eigenvalues --   -0.32619  -0.31203
 Alpha virt. eigenvalues --    0.13159   0.14525   0.18429   0.19566   0.21221
 Alpha virt. eigenvalues --    0.22788   0.23517   0.24189   0.26761   0.27217
 Alpha virt. eigenvalues --    0.27689   0.30371   0.35303   0.36088   0.38434
 Alpha virt. eigenvalues --    0.39945   0.42544   0.46990   0.47106   0.48930
 Alpha virt. eigenvalues --    0.53124   0.59008   0.61521   0.62918   0.63751
 Alpha virt. eigenvalues --    0.66207   0.67382   0.69955   0.71773   0.72933
 Alpha virt. eigenvalues --    0.73311   0.73611   0.74415   0.75243   0.76360
 Alpha virt. eigenvalues --    0.79887   0.81134   0.83512   0.84518   0.86196
 Alpha virt. eigenvalues --    0.86604   0.87190   0.88050   0.88828   0.89203
 Alpha virt. eigenvalues --    0.90111   0.90915   0.91823   0.92006   0.92930
 Alpha virt. eigenvalues --    0.94719   0.98798   0.99975   1.02312   1.03059
 Alpha virt. eigenvalues --    1.11765   1.14121   1.15392   1.16251   1.18632
 Alpha virt. eigenvalues --    1.19860   1.19935   1.24386   1.25048   1.27955
 Alpha virt. eigenvalues --    1.28872   1.30564   1.37371   1.38513   1.40410
 Alpha virt. eigenvalues --    1.45907   1.46771   1.50893   1.53438   1.55228
 Alpha virt. eigenvalues --    1.61027   1.66050   1.66068   1.70325   1.72472
 Alpha virt. eigenvalues --    1.75228   1.77293   1.78197   1.81955   1.82340
 Alpha virt. eigenvalues --    1.85835   1.86769   1.87379   1.88731   1.89468
 Alpha virt. eigenvalues --    1.91265   1.91654   1.92270   1.94582   1.95924
 Alpha virt. eigenvalues --    1.97315   1.98434   2.00845   2.01599   2.03351
 Alpha virt. eigenvalues --    2.04058   2.04443   2.06479   2.07687   2.09312
 Alpha virt. eigenvalues --    2.12579   2.13847   2.14449   2.14842   2.16009
 Alpha virt. eigenvalues --    2.16515   2.18554   2.25495   2.27299   2.29183
 Alpha virt. eigenvalues --    2.29517   2.31763   2.33943   2.39728   2.40787
 Alpha virt. eigenvalues --    2.42686   2.46614   2.46823   2.47479   2.55055
 Alpha virt. eigenvalues --    2.58838   2.64004   2.67503   2.70495   2.72874
 Alpha virt. eigenvalues --    2.75923   2.79280   2.79314   2.82557   2.90229
 Alpha virt. eigenvalues --    2.92455   2.99101   3.00248   3.00865   3.03841
 Alpha virt. eigenvalues --    3.12011   3.14497   3.22961   3.86126
          Condensed to atoms (all electrons):
 Mulliken charges:
               1
     1  C   -0.020038
     2  C   -0.020038
     3  C   -0.026976
     4  C   -0.137474
     5  C   -0.137474
     6  C   -0.026976
     7  C    0.050924
     8  C   -0.059394
     9  C    0.050924
    10  H    0.025571
    11  H    0.025571
    12  H    0.014471
    13  H    0.014471
    14  H    0.048877
    15  H    0.039793
    16  H    0.028772
    17  H    0.040326
    18  H    0.048877
    19  H    0.039793
 Sum of Mulliken charges =  -0.00000
 Mulliken charges with hydrogens summed into heavy atoms:
               1
     1  C    0.005533
     2  C    0.005533
     3  C   -0.012505
     4  C   -0.137474
     5  C   -0.137474
     6  C   -0.012505
     7  C    0.139594
     8  C    0.009704
     9  C    0.139594
 Electronic spatial extent (au):  <R**2>=           1125.0865
 Charge=             -0.0000 electrons
 Dipole moment (field-independent basis, Debye):
    X=              0.0352    Y=              0.5286    Z=             -0.0000  Tot=              0.5297
 Unable to Open any file for archive entry.
 1\1\GINC-NODE01\SP\RMP2-FC\CC-pVDZ\C9H10\XUHJ\14-Sep-2024\0\\#T MP2/cc
 -pVDZ symm=veryloose\\c1ccc2c(c1)CCC2\\0,1\C,0,0.065602,-2.257644,0.70
 012\C,0,0.065602,-2.257644,-0.70012\C,0,0.058211,-1.049267,-1.408839\C
 ,0,0.046788,0.153974,-0.702458\C,0,0.046788,0.153974,0.702458\C,0,0.05
 8211,-1.049267,1.408839\C,0,0.053602,1.574208,1.227163\C,0,-0.399271,2
 .401471,0.\C,0,0.053602,1.574208,-1.227163\H,0,0.066055,-3.207512,1.24
 3676\H,0,0.066055,-3.207512,-1.243676\H,0,0.054952,-1.05251,-2.503658\
 H,0,0.054952,-1.05251,2.503658\H,0,1.078686,1.859317,1.537554\H,0,-0.5
 95893,1.717427,2.107863\H,0,0.,3.429017,0.\H,0,-1.501621,2.473566,0.\H
 ,0,1.078686,1.859317,-1.537554\H,0,-0.595893,1.717427,-2.107863\\Versi
 on=ES64L-G16RevC.01\State=1-A'\HF=-346.6708509\MP2=-347.8724063\RMSD=7
 .594e-09\PG=CS [SG(C1H2),X(C8H8)]\\@
 The archive entry for this job was punched.


 WE ARE REACHING THE STAGE WHERE THE PROBLEMS WE MUST SOLVE ARE 
 GOING TO BECOME INSOLUBLE WITHOUT COMPUTERS.
 I DO NOT FEAR COMPUTERS.  I FEAR THE LACK OF THEM.

                                   -- ISSAC ASIMOV
 Job cpu time:       0 days  0 hours  1 minutes 23.3 seconds.
 Elapsed time:       0 days  0 hours  0 minutes 13.1 seconds.
 File lengths (MBytes):  RWF=     15 Int=      0 D2E=      0 Chk=      3 Scr=      1
 Normal termination of Gaussian 16 at Sat Sep 14 10:26:39 2024.
