 Entering Gaussian System, Link 0=g16
 Initial command:
 /home/software/g16/l1.exe "/home/software/g16tmp/Gau-137756.inp" -scrdir="/home/software/g16tmp/"
 Default is to use a total of   8 processors:
                                8 via shared-memory
                                1 via Linda
 Entering Link 1 = /home/software/g16/l1.exe PID=    137757.
  
 Copyright (c) 1988-2019, Gaussian, Inc.  All Rights Reserved.
  
 This is part of the Gaussian(R) 16 program.  It is based on
 the Gaussian(R) 09 system (copyright 2009, Gaussian, Inc.),
 the Gaussian(R) 03 system (copyright 2003, Gaussian, Inc.),
 the Gaussian(R) 98 system (copyright 1998, Gaussian, Inc.),
 the Gaussian(R) 94 system (copyright 1995, Gaussian, Inc.),
 the Gaussian 92(TM) system (copyright 1992, Gaussian, Inc.),
 the Gaussian 90(TM) system (copyright 1990, Gaussian, Inc.),
 the Gaussian 88(TM) system (copyright 1988, Gaussian, Inc.),
 the Gaussian 86(TM) system (copyright 1986, Carnegie Mellon
 University), and the Gaussian 82(TM) system (copyright 1983,
 Carnegie Mellon University). Gaussian is a federally registered
 trademark of Gaussian, Inc.
  
 This software contains proprietary and confidential information,
 including trade secrets, belonging to Gaussian, Inc.
  
 This software is provided under written license and may be
 used, copied, transmitted, or stored only in accord with that
 written license.
  
 The following legend is applicable only to US Government
 contracts under FAR:
  
                    RESTRICTED RIGHTS LEGEND
  
 Use, reproduction and disclosure by the US Government is
 subject to restrictions as set forth in subparagraphs (a)
 and (c) of the Commercial Computer Software - Restricted
 Rights clause in FAR 52.227-19.
  
 Gaussian, Inc.
 340 Quinnipiac St., Bldg. 40, Wallingford CT 06492
  
  
 ---------------------------------------------------------------
 Warning -- This program may not be used in any manner that
 competes with the business of Gaussian, Inc. or will provide
 assistance to any competitor of Gaussian, Inc.  The licensee
 of this program is prohibited from giving any competitor of
 Gaussian, Inc. access to this program.  By using this program,
 the user acknowledges that Gaussian, Inc. is engaged in the
 business of creating and licensing software in the field of
 computational chemistry and represents and warrants to the
 licensee that it is not a competitor of Gaussian, Inc. and that
 it will not use this program in any manner prohibited above.
 ---------------------------------------------------------------
  

 Cite this work as:
 Gaussian 16, Revision C.01,
 M. J. Frisch, G. W. Trucks, H. B. Schlegel, G. E. Scuseria, 
 M. A. Robb, J. R. Cheeseman, G. Scalmani, V. Barone, 
 G. A. Petersson, H. Nakatsuji, X. Li, M. Caricato, A. V. Marenich, 
 J. Bloino, B. G. Janesko, R. Gomperts, B. Mennucci, H. P. Hratchian, 
 J. V. Ortiz, A. F. Izmaylov, J. L. Sonnenberg, D. Williams-Young, 
 F. Ding, F. Lipparini, F. Egidi, J. Goings, B. Peng, A. Petrone, 
 T. Henderson, D. Ranasinghe, V. G. Zakrzewski, J. Gao, N. Rega, 
 G. Zheng, W. Liang, M. Hada, M. Ehara, K. Toyota, R. Fukuda, 
 J. Hasegawa, M. Ishida, T. Nakajima, Y. Honda, O. Kitao, H. Nakai, 
 T. Vreven, K. Throssell, J. A. Montgomery, Jr., J. E. Peralta, 
 F. Ogliaro, M. J. Bearpark, J. J. Heyd, E. N. Brothers, K. N. Kudin, 
 V. N. Staroverov, T. A. Keith, R. Kobayashi, J. Normand, 
 K. Raghavachari, A. P. Rendell, J. C. Burant, S. S. Iyengar, 
 J. Tomasi, M. Cossi, J. M. Millam, M. Klene, C. Adamo, R. Cammi, 
 J. W. Ochterski, R. L. Martin, K. Morokuma, O. Farkas, 
 J. B. Foresman, and D. J. Fox, Gaussian, Inc., Wallingford CT, 2019.
 
 ******************************************
 Gaussian 16:  ES64L-G16RevC.01  3-Jul-2019
                20-Dec-2023 
 ******************************************
 %nprocshared=16
 Will use up to   16 processors via shared memory.
 %mem=960MB
 -----------------------------
 #T MP2/cc-pVDZ symm=veryloose
 -----------------------------
 ----
 C#CO
 ----
 Symbolic Z-matrix:
 Charge =  0 Multiplicity = 1
 C                     0.14843  -1.32075   0. 
 C                     0.       -0.11975   0. 
 O                    -0.22345   1.17006   0. 
 H                     0.28133  -2.38491   0. 
 H                     0.61572   1.66742   0. 
 
                    Distance matrix (angstroms):
                    1          2          3          4          5
     1  C    0.000000
     2  C    1.210143   0.000000
     3  O    2.518417   1.309017   0.000000
     4  H    1.072429   2.282571   3.590631   0.000000
     5  H    3.024489   1.890258   0.975487   4.066107   0.000000
 Framework group  CS[SG(C2H2O)]
 Deg. of freedom     7
                         Standard orientation:                         
 ---------------------------------------------------------------------
 Center     Atomic      Atomic             Coordinates (Angstroms)
 Number     Number       Type             X           Y           Z
 ---------------------------------------------------------------------
      1          6           0        0.148425    1.320751    0.000000
      2          6           0        0.000000    0.119745    0.000000
      3          8           0       -0.223450   -1.170059    0.000000
      4          1           0        0.281330    2.384913    0.000000
      5          1           0        0.615720   -1.667421    0.000000
 ---------------------------------------------------------------------
 Rotational constants (GHZ):         666.4041622           9.6681681           9.5299085
    52 basis functions,   113 primitive gaussians,    55 cartesian basis functions
    11 alpha electrons       11 beta electrons
       nuclear repulsion energy        57.9624995509 Hartrees.
 NAtoms=    5 NActive=    5 NUniq=    5 SFac= 1.00D+00 NAtFMM=   60 NAOKFM=F Big=F
 ExpMin= 1.22D-01 ExpMax= 1.17D+04 ExpMxC= 4.01D+02 IAcc=3 IRadAn=         5 AccDes= 0.00D+00
 Harris functional with IExCor=  205 and IRadAn=       5 diagonalized for initial guess.
 HarFok:  IExCor=  205 AccDes= 0.00D+00 IRadAn=         5 IDoV= 1 UseB2=F ITyADJ=14
 ICtDFT=  3500011 ScaDFX=  1.000000  1.000000  1.000000  1.000000
 FoFCou: FMM=F IPFlag=           0 FMFlag=      100000 FMFlg1=           0
         NFxFlg=           0 DoJE=T BraDBF=F KetDBF=T FulRan=T
         wScrn=  0.000000 ICntrl=       500 IOpCl=  0 I1Cent=   200000004 NGrid=           0
         NMat0=    1 NMatS0=      1 NMatT0=    0 NMatD0=    1 NMtDS0=    0 NMtDT0=    0
 Petite list used in FoFCou.
 Initial guess orbital symmetries:
       Occupied  (A') (A') (A') (A') (A') (A') (A') (A') (A") (A')
                 (A")
       Virtual   (A') (A") (A') (A') (A') (A') (A') (A") (A') (A")
                 (A') (A') (A') (A') (A') (A") (A') (A") (A') (A')
                 (A") (A') (A') (A") (A') (A") (A') (A") (A') (A')
                 (A') (A") (A') (A') (A') (A") (A') (A") (A') (A')
                 (A')
 The electronic state of the initial guess is 1-A'.
 SCF Done:  E(RHF) =  -151.679253508     A.U. after   13 cycles
            NFock= 13  Conv=0.70D-08     -V/T= 2.0017
 ExpMin= 1.22D-01 ExpMax= 1.17D+04 ExpMxC= 4.01D+02 IAcc=3 IRadAn=         5 AccDes= 0.00D+00
 HarFok:  IExCor=  205 AccDes= 0.00D+00 IRadAn=         5 IDoV=-2 UseB2=F ITyADJ=14
 ICtDFT= 12500011 ScaDFX=  1.000000  1.000000  1.000000  1.000000
 NROrb=     49 NOA=     8 NOB=     8 NVA=    41 NVB=    41

 **** Warning!!: The largest alpha MO coefficient is  0.13136270D+02

 ANorm=    0.1072151849D+01
 E2 =    -0.4378838494D+00 EUMP2 =    -0.15211713735775D+03

 **********************************************************************

            Population analysis using the SCF Density.

 **********************************************************************

 Orbital symmetries:
       Occupied  (A') (A') (A') (A') (A') (A') (A') (A') (A") (A')
                 (A")
       Virtual   (A') (A') (A') (A") (A') (A') (A') (A") (A') (A')
                 (A") (A') (A') (A') (A') (A') (A") (A") (A') (A")
                 (A') (A') (A') (A") (A') (A") (A') (A") (A') (A')
                 (A') (A") (A') (A') (A') (A") (A') (A") (A') (A')
                 (A')
 The electronic state is 1-A'.
 Alpha  occ. eigenvalues --  -20.63808 -11.30452 -11.23073  -1.44722  -1.01619
 Alpha  occ. eigenvalues --   -0.81752  -0.69820  -0.65789  -0.61713  -0.38801
 Alpha  occ. eigenvalues --   -0.37040
 Alpha virt. eigenvalues --    0.15626   0.21145   0.23566   0.25270   0.39152
 Alpha virt. eigenvalues --    0.48955   0.62876   0.66830   0.67602   0.76325
 Alpha virt. eigenvalues --    0.80778   0.83958   0.92428   0.99681   1.16679
 Alpha virt. eigenvalues --    1.20633   1.22518   1.23555   1.25622   1.33832
 Alpha virt. eigenvalues --    1.38564   1.43332   1.45561   1.54425   1.64688
 Alpha virt. eigenvalues --    1.69910   1.71573   1.80683   1.93949   2.14825
 Alpha virt. eigenvalues --    2.36697   2.41424   2.45448   2.50105   2.98472
 Alpha virt. eigenvalues --    3.21386   3.43448   3.49802   3.53939   3.81141
 Alpha virt. eigenvalues --    4.03686
          Condensed to atoms (all electrons):
 Mulliken charges:
               1
     1  C   -0.087407
     2  C    0.068666
     3  O   -0.254704
     4  H    0.065627
     5  H    0.207818
 Sum of Mulliken charges =  -0.00000
 Mulliken charges with hydrogens summed into heavy atoms:
               1
     1  C   -0.021779
     2  C    0.068666
     3  O   -0.046886
 Electronic spatial extent (au):  <R**2>=            146.0626
 Charge=             -0.0000 electrons
 Dipole moment (field-independent basis, Debye):
    X=              1.6208    Y=             -0.8087    Z=              0.0000  Tot=              1.8113
 Unable to Open any file for archive entry.
 1\1\GINC-NODE06\SP\RMP2-FC\CC-pVDZ\C2H2O1\XUHJ\20-Dec-2023\0\\#T MP2/c
 c-pVDZ symm=veryloose\\C#CO\\0,1\C,0,0.148425,-1.320751,0.\C,0,0.,-0.1
 19745,0.\O,0,-0.22345,1.170059,0.\H,0,0.28133,-2.384913,0.\H,0,0.61572
 ,1.667421,0.\\Version=ES64L-G16RevC.01\State=1-A'\HF=-151.6792535\MP2=
 -152.1171374\RMSD=6.997e-09\PG=CS [SG(C2H2O1)]\\@
 The archive entry for this job was punched.



 IN THIS SHORT LIFE

 THAT ONLY LASTS AN HOUR

 HOW MUCH, HOW LITTLE, IS WITHIN OUR POWER....


 EMILY DICKINSON BOLTS OF MELODY NO. 521
 Job cpu time:       0 days  0 hours  0 minutes 10.2 seconds.
 Elapsed time:       0 days  0 hours  0 minutes  0.9 seconds.
 File lengths (MBytes):  RWF=     17 Int=      0 D2E=      0 Chk=      2 Scr=      2
 Normal termination of Gaussian 16 at Wed Dec 20 12:21:07 2023.
