 Entering Gaussian System, Link 0=g16
 Initial command:
 /home/software/g16/l1.exe "/home/software/g16tmp/Gau-141782.inp" -scrdir="/home/software/g16tmp/"
 Default is to use a total of   8 processors:
                                8 via shared-memory
                                1 via Linda
 Entering Link 1 = /home/software/g16/l1.exe PID=    141784.
  
 Copyright (c) 1988-2019, Gaussian, Inc.  All Rights Reserved.
  
 This is part of the Gaussian(R) 16 program.  It is based on
 the Gaussian(R) 09 system (copyright 2009, Gaussian, Inc.),
 the Gaussian(R) 03 system (copyright 2003, Gaussian, Inc.),
 the Gaussian(R) 98 system (copyright 1998, Gaussian, Inc.),
 the Gaussian(R) 94 system (copyright 1995, Gaussian, Inc.),
 the Gaussian 92(TM) system (copyright 1992, Gaussian, Inc.),
 the Gaussian 90(TM) system (copyright 1990, Gaussian, Inc.),
 the Gaussian 88(TM) system (copyright 1988, Gaussian, Inc.),
 the Gaussian 86(TM) system (copyright 1986, Carnegie Mellon
 University), and the Gaussian 82(TM) system (copyright 1983,
 Carnegie Mellon University). Gaussian is a federally registered
 trademark of Gaussian, Inc.
  
 This software contains proprietary and confidential information,
 including trade secrets, belonging to Gaussian, Inc.
  
 This software is provided under written license and may be
 used, copied, transmitted, or stored only in accord with that
 written license.
  
 The following legend is applicable only to US Government
 contracts under FAR:
  
                    RESTRICTED RIGHTS LEGEND
  
 Use, reproduction and disclosure by the US Government is
 subject to restrictions as set forth in subparagraphs (a)
 and (c) of the Commercial Computer Software - Restricted
 Rights clause in FAR 52.227-19.
  
 Gaussian, Inc.
 340 Quinnipiac St., Bldg. 40, Wallingford CT 06492
  
  
 ---------------------------------------------------------------
 Warning -- This program may not be used in any manner that
 competes with the business of Gaussian, Inc. or will provide
 assistance to any competitor of Gaussian, Inc.  The licensee
 of this program is prohibited from giving any competitor of
 Gaussian, Inc. access to this program.  By using this program,
 the user acknowledges that Gaussian, Inc. is engaged in the
 business of creating and licensing software in the field of
 computational chemistry and represents and warrants to the
 licensee that it is not a competitor of Gaussian, Inc. and that
 it will not use this program in any manner prohibited above.
 ---------------------------------------------------------------
  

 Cite this work as:
 Gaussian 16, Revision C.01,
 M. J. Frisch, G. W. Trucks, H. B. Schlegel, G. E. Scuseria, 
 M. A. Robb, J. R. Cheeseman, G. Scalmani, V. Barone, 
 G. A. Petersson, H. Nakatsuji, X. Li, M. Caricato, A. V. Marenich, 
 J. Bloino, B. G. Janesko, R. Gomperts, B. Mennucci, H. P. Hratchian, 
 J. V. Ortiz, A. F. Izmaylov, J. L. Sonnenberg, D. Williams-Young, 
 F. Ding, F. Lipparini, F. Egidi, J. Goings, B. Peng, A. Petrone, 
 T. Henderson, D. Ranasinghe, V. G. Zakrzewski, J. Gao, N. Rega, 
 G. Zheng, W. Liang, M. Hada, M. Ehara, K. Toyota, R. Fukuda, 
 J. Hasegawa, M. Ishida, T. Nakajima, Y. Honda, O. Kitao, H. Nakai, 
 T. Vreven, K. Throssell, J. A. Montgomery, Jr., J. E. Peralta, 
 F. Ogliaro, M. J. Bearpark, J. J. Heyd, E. N. Brothers, K. N. Kudin, 
 V. N. Staroverov, T. A. Keith, R. Kobayashi, J. Normand, 
 K. Raghavachari, A. P. Rendell, J. C. Burant, S. S. Iyengar, 
 J. Tomasi, M. Cossi, J. M. Millam, M. Klene, C. Adamo, R. Cammi, 
 J. W. Ochterski, R. L. Martin, K. Morokuma, O. Farkas, 
 J. B. Foresman, and D. J. Fox, Gaussian, Inc., Wallingford CT, 2019.
 
 ******************************************
 Gaussian 16:  ES64L-G16RevC.01  3-Jul-2019
                20-Dec-2023 
 ******************************************
 %nprocshared=16
 Will use up to   16 processors via shared memory.
 %mem=960MB
 -----------------------------
 #T MP2/cc-pVDZ symm=veryloose
 -----------------------------
 ----
 C=CC
 ----
 Symbolic Z-matrix:
 Charge =  0 Multiplicity = 1
 C                     1.29686   0.14785   0. 
 C                     0.        0.47288   0. 
 C                    -1.14147  -0.50188   0. 
 H                     2.0805    0.91449   0. 
 H                     1.62505  -0.90026   0. 
 H                    -0.27636   1.53752   0. 
 H                    -0.78429  -1.54662   0. 
 H                    -1.78864  -0.35912  -0.88687 
 H                    -1.78864  -0.35912   0.88687 
 
                    Distance matrix (angstroms):
                    1          2          3          4          5
     1  C    0.000000
     2  C    1.336971   0.000000
     3  C    2.523407   1.501031   0.000000
     4  H    1.096280   2.126855   3.519542   0.000000
     5  H    1.098286   2.127506   2.795051   1.871025   0.000000
     6  H    2.099093   1.099924   2.215302   2.437817   3.091616
     7  H    2.683727   2.166439   1.104104   3.776779   2.494532
     8  H    3.250213   2.162868   1.107143   4.168800   3.568287
     9  H    3.250213   2.162868   1.107143   4.168800   3.568287
                    6          7          8          9
     6  H    0.000000
     7  H    3.125680   0.000000
     8  H    2.582784   1.790371   0.000000
     9  H    2.582784   1.790371   1.773748   0.000000
 Framework group  CS[SG(C3H4),X(H2)]
 Deg. of freedom    14
                         Standard orientation:                         
 ---------------------------------------------------------------------
 Center     Atomic      Atomic             Coordinates (Angstroms)
 Number     Number       Type             X           Y           Z
 ---------------------------------------------------------------------
      1          6           0       -1.296861    0.147850    0.000000
      2          6           0        0.000000    0.472878    0.000000
      3          6           0        1.141465   -0.501880    0.000000
      4          1           0       -2.080503    0.914489    0.000000
      5          1           0       -1.625050   -0.900255    0.000000
      6          1           0        0.276356    1.537519    0.000000
      7          1           0        0.784288   -1.546615    0.000000
      8          1           0        1.788642   -0.359115    0.886874
      9          1           0        1.788642   -0.359115   -0.886874
 ---------------------------------------------------------------------
 Rotational constants (GHZ):          46.3971579           9.2031177           8.0685654
    72 basis functions,   141 primitive gaussians,    75 cartesian basis functions
    12 alpha electrons       12 beta electrons
       nuclear repulsion energy        70.3248107715 Hartrees.
 NAtoms=    9 NActive=    9 NUniq=    8 SFac= 1.27D+00 NAtFMM=   60 NAOKFM=F Big=F
 ExpMin= 1.22D-01 ExpMax= 6.67D+03 ExpMxC= 2.28D+02 IAcc=3 IRadAn=         5 AccDes= 0.00D+00
 Harris functional with IExCor=  205 and IRadAn=       5 diagonalized for initial guess.
 HarFok:  IExCor=  205 AccDes= 0.00D+00 IRadAn=         5 IDoV= 1 UseB2=F ITyADJ=14
 ICtDFT=  3500011 ScaDFX=  1.000000  1.000000  1.000000  1.000000
 FoFCou: FMM=F IPFlag=           0 FMFlag=      100000 FMFlg1=           0
         NFxFlg=           0 DoJE=T BraDBF=F KetDBF=T FulRan=T
         wScrn=  0.000000 ICntrl=       500 IOpCl=  0 I1Cent=   200000004 NGrid=           0
         NMat0=    1 NMatS0=      1 NMatT0=    0 NMatD0=    1 NMtDS0=    0 NMtDT0=    0
 Petite list used in FoFCou.
 Initial guess orbital symmetries:
       Occupied  (A') (A') (A') (A') (A') (A') (A') (A') (A") (A')
                 (A') (A")
       Virtual   (A") (A') (A') (A') (A") (A') (A') (A') (A') (A')
                 (A') (A") (A') (A") (A') (A") (A') (A') (A') (A")
                 (A') (A') (A') (A') (A") (A") (A") (A') (A') (A')
                 (A') (A") (A') (A") (A') (A') (A") (A') (A") (A')
                 (A') (A") (A') (A') (A") (A") (A') (A') (A") (A')
                 (A') (A') (A") (A') (A') (A') (A") (A') (A') (A')
 The electronic state of the initial guess is 1-A'.
 SCF Done:  E(RHF) =  -117.081452501     A.U. after   12 cycles
            NFock= 12  Conv=0.28D-08     -V/T= 2.0026
 ExpMin= 1.22D-01 ExpMax= 6.67D+03 ExpMxC= 2.28D+02 IAcc=3 IRadAn=         5 AccDes= 0.00D+00
 HarFok:  IExCor=  205 AccDes= 0.00D+00 IRadAn=         5 IDoV=-2 UseB2=F ITyADJ=14
 ICtDFT= 12500011 ScaDFX=  1.000000  1.000000  1.000000  1.000000
 NROrb=     69 NOA=     9 NOB=     9 NVA=    60 NVB=    60
 ANorm=    0.1073211553D+01
 E2 =    -0.4187629141D+00 EUMP2 =    -0.11750021541563D+03

 **********************************************************************

            Population analysis using the SCF Density.

 **********************************************************************

 Orbital symmetries:
       Occupied  (A') (A') (A') (A') (A') (A') (A') (A') (A") (A')
                 (A') (A")
       Virtual   (A") (A') (A') (A') (A") (A') (A') (A') (A') (A')
                 (A') (A") (A') (A") (A') (A') (A") (A') (A") (A')
                 (A') (A') (A') (A') (A") (A") (A') (A") (A') (A')
                 (A') (A") (A') (A") (A') (A') (A") (A') (A") (A')
                 (A') (A") (A') (A") (A') (A") (A') (A') (A") (A')
                 (A') (A') (A") (A') (A') (A') (A") (A') (A') (A')
 The electronic state is 1-A'.
 Alpha  occ. eigenvalues --  -11.24002 -11.23301 -11.22727  -1.06011  -0.92813
 Alpha  occ. eigenvalues --   -0.75103  -0.63199  -0.57776  -0.56098  -0.51854
 Alpha  occ. eigenvalues --   -0.48551  -0.35609
 Alpha virt. eigenvalues --    0.17684   0.19284   0.22026   0.23140   0.26623
 Alpha virt. eigenvalues --    0.27388   0.29044   0.40257   0.50832   0.57967
 Alpha virt. eigenvalues --    0.61083   0.63041   0.70777   0.73020   0.76763
 Alpha virt. eigenvalues --    0.78137   0.82178   0.86254   0.87125   0.87860
 Alpha virt. eigenvalues --    0.91711   0.92588   0.98404   1.01221   1.11633
 Alpha virt. eigenvalues --    1.21471   1.24013   1.28783   1.29745   1.40582
 Alpha virt. eigenvalues --    1.44158   1.59470   1.67176   1.67844   1.74679
 Alpha virt. eigenvalues --    1.81153   1.83459   1.88170   1.89298   1.90592
 Alpha virt. eigenvalues --    1.94304   1.96309   1.97755   2.06546   2.07153
 Alpha virt. eigenvalues --    2.16827   2.22898   2.29917   2.36076   2.39784
 Alpha virt. eigenvalues --    2.50725   2.53919   2.55299   2.61783   2.72435
 Alpha virt. eigenvalues --    2.79708   2.81472   2.89784   3.06081   3.31898
          Condensed to atoms (all electrons):
 Mulliken charges:
               1
     1  C   -0.050999
     2  C   -0.183553
     3  C   -0.011441
     4  H    0.048140
     5  H    0.039733
     6  H    0.030513
     7  H    0.035983
     8  H    0.045812
     9  H    0.045812
 Sum of Mulliken charges =  -0.00000
 Mulliken charges with hydrogens summed into heavy atoms:
               1
     1  C    0.036874
     2  C   -0.153039
     3  C    0.116166
 Electronic spatial extent (au):  <R**2>=            199.1105
 Charge=             -0.0000 electrons
 Dipole moment (field-independent basis, Debye):
    X=              0.3695    Y=             -0.0200    Z=             -0.0000  Tot=              0.3701
 Unable to Open any file for archive entry.
 1\1\GINC-NODE06\SP\RMP2-FC\CC-pVDZ\C3H6\XUHJ\20-Dec-2023\0\\#T MP2/cc-
 pVDZ symm=veryloose\\C=CC\\0,1\C,0,1.296861,0.14785,0.\C,0,0.,0.472878
 ,0.\C,0,-1.141465,-0.50188,0.\H,0,2.080503,0.914489,0.\H,0,1.62505,-0.
 900255,0.\H,0,-0.276356,1.537519,0.\H,0,-0.784288,-1.546615,0.\H,0,-1.
 788642,-0.359115,-0.886874\H,0,-1.788642,-0.359115,0.886874\\Version=E
 S64L-G16RevC.01\State=1-A'\HF=-117.0814525\MP2=-117.5002154\RMSD=2.810
 e-09\PG=CS [SG(C3H4),X(H2)]\\@
 The archive entry for this job was punched.


 SUCCESS-- IF YOU HAVE TRIED TO DO SOMETHING AND FAILED
           YOU ARE BETTER OFF THAN IF YOU HAD TRIED TO DO
           NOTHING AND SUCCEEDED.

                   -- FROM THE BACK OF A SUGAR PACKET
 Job cpu time:       0 days  0 hours  0 minutes 12.1 seconds.
 Elapsed time:       0 days  0 hours  0 minutes  1.0 seconds.
 File lengths (MBytes):  RWF=     17 Int=      0 D2E=      0 Chk=      2 Scr=      2
 Normal termination of Gaussian 16 at Wed Dec 20 12:21:14 2023.
