%nprocshared=16
%mem=960MB
#T MP2/cc-pVDZ symm=veryloose

C=CC

0 1
C         1.296861       0.147850       0.000000
C         0.000000       0.472878      -0.000000
C        -1.141465      -0.501880       0.000000
H         2.080503       0.914489      -0.000000
H         1.625050      -0.900255       0.000000
H        -0.276356       1.537519      -0.000000
H        -0.784288      -1.546615       0.000000
H        -1.788642      -0.359115      -0.886874
H        -1.788642      -0.359115       0.886874


