 Entering Gaussian System, Link 0=g16
 Initial command:
 /home/software/g16/l1.exe "/home/software/g16tmp/Gau-142530.inp" -scrdir="/home/software/g16tmp/"
 Default is to use a total of   8 processors:
                                8 via shared-memory
                                1 via Linda
 Entering Link 1 = /home/software/g16/l1.exe PID=    142535.
  
 Copyright (c) 1988-2019, Gaussian, Inc.  All Rights Reserved.
  
 This is part of the Gaussian(R) 16 program.  It is based on
 the Gaussian(R) 09 system (copyright 2009, Gaussian, Inc.),
 the Gaussian(R) 03 system (copyright 2003, Gaussian, Inc.),
 the Gaussian(R) 98 system (copyright 1998, Gaussian, Inc.),
 the Gaussian(R) 94 system (copyright 1995, Gaussian, Inc.),
 the Gaussian 92(TM) system (copyright 1992, Gaussian, Inc.),
 the Gaussian 90(TM) system (copyright 1990, Gaussian, Inc.),
 the Gaussian 88(TM) system (copyright 1988, Gaussian, Inc.),
 the Gaussian 86(TM) system (copyright 1986, Carnegie Mellon
 University), and the Gaussian 82(TM) system (copyright 1983,
 Carnegie Mellon University). Gaussian is a federally registered
 trademark of Gaussian, Inc.
  
 This software contains proprietary and confidential information,
 including trade secrets, belonging to Gaussian, Inc.
  
 This software is provided under written license and may be
 used, copied, transmitted, or stored only in accord with that
 written license.
  
 The following legend is applicable only to US Government
 contracts under FAR:
  
                    RESTRICTED RIGHTS LEGEND
  
 Use, reproduction and disclosure by the US Government is
 subject to restrictions as set forth in subparagraphs (a)
 and (c) of the Commercial Computer Software - Restricted
 Rights clause in FAR 52.227-19.
  
 Gaussian, Inc.
 340 Quinnipiac St., Bldg. 40, Wallingford CT 06492
  
  
 ---------------------------------------------------------------
 Warning -- This program may not be used in any manner that
 competes with the business of Gaussian, Inc. or will provide
 assistance to any competitor of Gaussian, Inc.  The licensee
 of this program is prohibited from giving any competitor of
 Gaussian, Inc. access to this program.  By using this program,
 the user acknowledges that Gaussian, Inc. is engaged in the
 business of creating and licensing software in the field of
 computational chemistry and represents and warrants to the
 licensee that it is not a competitor of Gaussian, Inc. and that
 it will not use this program in any manner prohibited above.
 ---------------------------------------------------------------
  

 Cite this work as:
 Gaussian 16, Revision C.01,
 M. J. Frisch, G. W. Trucks, H. B. Schlegel, G. E. Scuseria, 
 M. A. Robb, J. R. Cheeseman, G. Scalmani, V. Barone, 
 G. A. Petersson, H. Nakatsuji, X. Li, M. Caricato, A. V. Marenich, 
 J. Bloino, B. G. Janesko, R. Gomperts, B. Mennucci, H. P. Hratchian, 
 J. V. Ortiz, A. F. Izmaylov, J. L. Sonnenberg, D. Williams-Young, 
 F. Ding, F. Lipparini, F. Egidi, J. Goings, B. Peng, A. Petrone, 
 T. Henderson, D. Ranasinghe, V. G. Zakrzewski, J. Gao, N. Rega, 
 G. Zheng, W. Liang, M. Hada, M. Ehara, K. Toyota, R. Fukuda, 
 J. Hasegawa, M. Ishida, T. Nakajima, Y. Honda, O. Kitao, H. Nakai, 
 T. Vreven, K. Throssell, J. A. Montgomery, Jr., J. E. Peralta, 
 F. Ogliaro, M. J. Bearpark, J. J. Heyd, E. N. Brothers, K. N. Kudin, 
 V. N. Staroverov, T. A. Keith, R. Kobayashi, J. Normand, 
 K. Raghavachari, A. P. Rendell, J. C. Burant, S. S. Iyengar, 
 J. Tomasi, M. Cossi, J. M. Millam, M. Klene, C. Adamo, R. Cammi, 
 J. W. Ochterski, R. L. Martin, K. Morokuma, O. Farkas, 
 J. B. Foresman, and D. J. Fox, Gaussian, Inc., Wallingford CT, 2019.
 
 ******************************************
 Gaussian 16:  ES64L-G16RevC.01  3-Jul-2019
                20-Dec-2023 
 ******************************************
 %nprocshared=16
 Will use up to   16 processors via shared memory.
 %mem=640MB
 -----------------------------
 #T MP2/cc-pVDZ symm=veryloose
 -----------------------------
 ------
 [CH2]C
 ------
 Symbolic Z-matrix:
 Charge =  0 Multiplicity = 2
 C                     0.01138   0.79576   0. 
 C                     0.01138  -0.69339   0. 
 H                    -0.06988   1.35723   0.93745 
 H                    -0.06988   1.35723  -0.93745 
 H                     0.51213  -1.10747   0.8951 
 H                     0.51213  -1.10747  -0.8951 
 H                    -1.02106  -1.1137    0. 
 
                    Distance matrix (angstroms):
                    1          2          3          4          5
     1  C    0.000000
     2  C    1.489148   0.000000
     3  H    1.095754   2.256209   0.000000
     4  H    1.095754   2.256209   1.874906   0.000000
     5  H    2.161991   1.106080   2.532837   3.125977   0.000000
     6  H    2.161991   1.106080   3.125977   2.532837   1.790206
     7  H    2.170706   1.114718   2.808748   2.808748   1.775363
                    6          7
     6  H    0.000000
     7  H    1.775363   0.000000
 Framework group  CS[SG(C2H),X(H4)]
 Deg. of freedom     9
                         Standard orientation:                         
 ---------------------------------------------------------------------
 Center     Atomic      Atomic             Coordinates (Angstroms)
 Number     Number       Type             X           Y           Z
 ---------------------------------------------------------------------
      1          6           0        0.011381    0.795755   -0.000000
      2          6           0        0.011381   -0.693393    0.000000
      3          1           0       -0.069884    1.357231    0.937453
      4          1           0       -0.069884    1.357231   -0.937453
      5          1           0        0.512127   -1.107466    0.895103
      6          1           0        0.512127   -1.107466   -0.895103
      7          1           0       -1.021061   -1.113702    0.000000
 ---------------------------------------------------------------------
 Rotational constants (GHZ):         101.5549556          22.5793816          20.9019059
    53 basis functions,   101 primitive gaussians,    55 cartesian basis functions
     9 alpha electrons        8 beta electrons
       nuclear repulsion energy        36.6990003110 Hartrees.
 NAtoms=    7 NActive=    7 NUniq=    5 SFac= 1.96D+00 NAtFMM=   60 NAOKFM=F Big=F
 ExpMin= 1.22D-01 ExpMax= 6.67D+03 ExpMxC= 2.28D+02 IAcc=3 IRadAn=         5 AccDes= 0.00D+00
 Harris functional with IExCor=  205 and IRadAn=       5 diagonalized for initial guess.
 HarFok:  IExCor=  205 AccDes= 0.00D+00 IRadAn=         5 IDoV= 1 UseB2=F ITyADJ=14
 ICtDFT=  3500011 ScaDFX=  1.000000  1.000000  1.000000  1.000000
 FoFCou: FMM=F IPFlag=           0 FMFlag=      100000 FMFlg1=           0
         NFxFlg=           0 DoJE=T BraDBF=F KetDBF=T FulRan=T
         wScrn=  0.000000 ICntrl=       500 IOpCl=  0 I1Cent=   200000004 NGrid=           0
         NMat0=    1 NMatS0=      1 NMatT0=    0 NMatD0=    1 NMtDS0=    0 NMtDT0=    0
 Petite list used in FoFCou.
 Initial guess orbital symmetries:
 Alpha Orbitals:
       Occupied  (A') (A') (A') (A') (A") (A') (A') (A") (A')
       Virtual   (A') (A") (A') (A') (A") (A') (A") (A') (A') (A')
                 (A') (A") (A') (A') (A") (A") (A') (A') (A') (A")
                 (A") (A') (A') (A") (A') (A") (A') (A") (A') (A")
                 (A') (A') (A") (A') (A") (A') (A') (A") (A') (A')
                 (A') (A") (A') (A")
 Beta  Orbitals:
       Occupied  (A') (A') (A') (A') (A") (A') (A') (A")
       Virtual   (A') (A') (A") (A') (A') (A") (A') (A") (A') (A')
                 (A') (A') (A") (A') (A') (A") (A") (A') (A') (A')
                 (A") (A") (A') (A') (A") (A') (A") (A') (A") (A')
                 (A") (A') (A') (A") (A') (A") (A') (A') (A") (A')
                 (A') (A') (A") (A') (A")
 The electronic state of the initial guess is 2-A'.
 Initial guess <Sx>= 0.0000 <Sy>= 0.0000 <Sz>= 0.5000 <S**2>= 0.7500 S= 0.5000
 SCF Done:  E(UHF) =  -78.6034410002     A.U. after   14 cycles
            NFock= 14  Conv=0.88D-08     -V/T= 2.0023
 <Sx>= 0.0000 <Sy>= 0.0000 <Sz>= 0.5000 <S**2>= 0.7632 S= 0.5066
 <L.S>=  0.00000000000    
 Annihilation of the first spin contaminant:
 S**2 before annihilation     0.7632,   after     0.7501
 ExpMin= 1.22D-01 ExpMax= 6.67D+03 ExpMxC= 2.28D+02 IAcc=3 IRadAn=         5 AccDes= 0.00D+00
 HarFok:  IExCor=  205 AccDes= 0.00D+00 IRadAn=         5 IDoV=-2 UseB2=F ITyADJ=14
 ICtDFT= 12500011 ScaDFX=  1.000000  1.000000  1.000000  1.000000
 NROrb=     51 NOA=     7 NOB=     6 NVA=    44 NVB=    45
 (S**2,0)=  0.76323D+00           (S**2,1)=  0.75378D+00
 E(PUHF)=      -0.78606778088D+02        E(PMP2)=      -0.78874261899D+02
 ANorm=    0.1044912421D+01
 E2 =    -0.2686690153D+00 EUMP2 =    -0.78872110015589D+02

 **********************************************************************

            Population analysis using the SCF Density.

 **********************************************************************

 Orbital symmetries:
 Alpha Orbitals:
       Occupied  (A') (A') (A') (A') (A") (A') (A') (A") (A')
       Virtual   (A') (A') (A") (A') (A") (A') (A") (A') (A') (A')
                 (A') (A") (A') (A") (A') (A") (A') (A') (A') (A")
                 (A") (A') (A') (A") (A") (A') (A') (A") (A") (A')
                 (A') (A') (A") (A') (A") (A') (A') (A") (A') (A')
                 (A') (A") (A') (A")
 Beta  Orbitals:
       Occupied  (A') (A') (A') (A') (A") (A') (A') (A")
       Virtual   (A') (A') (A') (A") (A') (A") (A') (A") (A') (A')
                 (A') (A") (A') (A') (A") (A') (A") (A') (A') (A')
                 (A") (A") (A') (A') (A") (A") (A') (A") (A') (A")
                 (A') (A') (A') (A") (A') (A') (A") (A') (A") (A')
                 (A') (A') (A") (A') (A")
 The electronic state is 2-A'.
 Alpha  occ. eigenvalues --  -11.23595 -11.22913  -1.02607  -0.83396  -0.61147
 Alpha  occ. eigenvalues --   -0.57015  -0.53956  -0.49818  -0.34877
 Alpha virt. eigenvalues --    0.19236   0.22409   0.23990   0.26732   0.29702
 Alpha virt. eigenvalues --    0.40890   0.58655   0.60818   0.64621   0.69571
 Alpha virt. eigenvalues --    0.69863   0.80380   0.86815   0.87740   0.88945
 Alpha virt. eigenvalues --    0.90122   0.91780   1.05392   1.12496   1.19683
 Alpha virt. eigenvalues --    1.39048   1.39476   1.57615   1.68282   1.73011
 Alpha virt. eigenvalues --    1.73057   1.84910   1.85504   1.90681   1.91484
 Alpha virt. eigenvalues --    1.92704   2.00603   2.05915   2.18367   2.30561
 Alpha virt. eigenvalues --    2.31584   2.47128   2.50239   2.51244   2.70598
 Alpha virt. eigenvalues --    2.73196   2.81254   2.92464   3.02878
  Beta  occ. eigenvalues --  -11.23257 -11.21077  -0.98906  -0.77983  -0.60052
  Beta  occ. eigenvalues --   -0.53785  -0.52693  -0.49240
  Beta virt. eigenvalues --    0.15285   0.19645   0.23775   0.24282   0.27225
  Beta virt. eigenvalues --    0.30143   0.41914   0.58863   0.61272   0.66699
  Beta virt. eigenvalues --    0.74340   0.80692   0.83216   0.87135   0.88145
  Beta virt. eigenvalues --    0.90503   0.91303   0.92399   1.08459   1.15287
  Beta virt. eigenvalues --    1.25862   1.39033   1.40682   1.60921   1.68755
  Beta virt. eigenvalues --    1.73269   1.74940   1.85711   1.87746   1.91011
  Beta virt. eigenvalues --    1.92960   1.93708   2.02330   2.07816   2.20727
  Beta virt. eigenvalues --    2.31804   2.31844   2.47919   2.50717   2.51895
  Beta virt. eigenvalues --    2.70868   2.73712   2.81492   2.93035   3.03654
          Condensed to atoms (all electrons):
          Atomic-Atomic Spin Densities.
 Mulliken charges and spin densities:
               1          2
     1  C   -0.150486   1.206599
     2  C   -0.079806  -0.149178
     3  H    0.052618  -0.079916
     4  H    0.052618  -0.079916
     5  H    0.041501   0.018708
     6  H    0.041501   0.018708
     7  H    0.042054   0.064994
 Sum of Mulliken charges =   0.00000   1.00000
 Mulliken charges and spin densities with hydrogens summed into heavy atoms:
               1          2
     1  C   -0.045250   1.046768
     2  C    0.045250  -0.046768
 Electronic spatial extent (au):  <R**2>=            100.0772
 Charge=              0.0000 electrons
 Dipole moment (field-independent basis, Debye):
    X=             -0.1059    Y=             -0.1523    Z=             -0.0000  Tot=              0.1855
 Unable to Open any file for archive entry.
 1\1\GINC-NODE06\SP\UMP2-FC\CC-pVDZ\C2H5(2)\XUHJ\20-Dec-2023\0\\#T MP2/
 cc-pVDZ symm=veryloose\\[CH2]C\\0,2\C,0,0.011381,0.795755,0.\C,0,0.011
 381,-0.693393,0.\H,0,-0.069884,1.357231,0.937453\H,0,-0.069884,1.35723
 1,-0.937453\H,0,0.512127,-1.107466,0.895103\H,0,0.512127,-1.107466,-0.
 895103\H,0,-1.021061,-1.113702,0.\\Version=ES64L-G16RevC.01\State=2-A'
 \HF=-78.603441\MP2=-78.87211\PUHF=-78.6067781\PMP2-0=-78.8742619\S2=0.
 763229\S2-1=0.753782\S2A=0.750119\RMSD=8.828e-09\PG=CS [SG(C2H1),X(H4)
 ]\\@
 The archive entry for this job was punched.


 DEFINE YOUR TERMS, YOU WILL PERMIT ME AGAIN TO SAY, 
 OR WE SHALL NEVER UNDERSTAND ONE ANOTHER.

                                    -- VOLTAIRE
 Job cpu time:       0 days  0 hours  0 minutes 12.7 seconds.
 Elapsed time:       0 days  0 hours  0 minutes  1.0 seconds.
 File lengths (MBytes):  RWF=     17 Int=      0 D2E=      0 Chk=      2 Scr=      2
 Normal termination of Gaussian 16 at Wed Dec 20 12:21:15 2023.
