 Entering Gaussian System, Link 0=g16
 Initial command:
 /home/software/g16/l1.exe "/home/software/g16/scr/Gau-349483.inp" -scrdir="/home/software/g16/scr/"
 Default is to use a total of   8 processors:
                                8 via shared-memory
                                1 via Linda
 Entering Link 1 = /home/software/g16/l1.exe PID=    349484.
  
 Copyright (c) 1988-2019, Gaussian, Inc.  All Rights Reserved.
  
 This is part of the Gaussian(R) 16 program.  It is based on
 the Gaussian(R) 09 system (copyright 2009, Gaussian, Inc.),
 the Gaussian(R) 03 system (copyright 2003, Gaussian, Inc.),
 the Gaussian(R) 98 system (copyright 1998, Gaussian, Inc.),
 the Gaussian(R) 94 system (copyright 1995, Gaussian, Inc.),
 the Gaussian 92(TM) system (copyright 1992, Gaussian, Inc.),
 the Gaussian 90(TM) system (copyright 1990, Gaussian, Inc.),
 the Gaussian 88(TM) system (copyright 1988, Gaussian, Inc.),
 the Gaussian 86(TM) system (copyright 1986, Carnegie Mellon
 University), and the Gaussian 82(TM) system (copyright 1983,
 Carnegie Mellon University). Gaussian is a federally registered
 trademark of Gaussian, Inc.
  
 This software contains proprietary and confidential information,
 including trade secrets, belonging to Gaussian, Inc.
  
 This software is provided under written license and may be
 used, copied, transmitted, or stored only in accord with that
 written license.
  
 The following legend is applicable only to US Government
 contracts under FAR:
  
                    RESTRICTED RIGHTS LEGEND
  
 Use, reproduction and disclosure by the US Government is
 subject to restrictions as set forth in subparagraphs (a)
 and (c) of the Commercial Computer Software - Restricted
 Rights clause in FAR 52.227-19.
  
 Gaussian, Inc.
 340 Quinnipiac St., Bldg. 40, Wallingford CT 06492
  
  
 ---------------------------------------------------------------
 Warning -- This program may not be used in any manner that
 competes with the business of Gaussian, Inc. or will provide
 assistance to any competitor of Gaussian, Inc.  The licensee
 of this program is prohibited from giving any competitor of
 Gaussian, Inc. access to this program.  By using this program,
 the user acknowledges that Gaussian, Inc. is engaged in the
 business of creating and licensing software in the field of
 computational chemistry and represents and warrants to the
 licensee that it is not a competitor of Gaussian, Inc. and that
 it will not use this program in any manner prohibited above.
 ---------------------------------------------------------------
  

 Cite this work as:
 Gaussian 16, Revision C.01,
 M. J. Frisch, G. W. Trucks, H. B. Schlegel, G. E. Scuseria, 
 M. A. Robb, J. R. Cheeseman, G. Scalmani, V. Barone, 
 G. A. Petersson, H. Nakatsuji, X. Li, M. Caricato, A. V. Marenich, 
 J. Bloino, B. G. Janesko, R. Gomperts, B. Mennucci, H. P. Hratchian, 
 J. V. Ortiz, A. F. Izmaylov, J. L. Sonnenberg, D. Williams-Young, 
 F. Ding, F. Lipparini, F. Egidi, J. Goings, B. Peng, A. Petrone, 
 T. Henderson, D. Ranasinghe, V. G. Zakrzewski, J. Gao, N. Rega, 
 G. Zheng, W. Liang, M. Hada, M. Ehara, K. Toyota, R. Fukuda, 
 J. Hasegawa, M. Ishida, T. Nakajima, Y. Honda, O. Kitao, H. Nakai, 
 T. Vreven, K. Throssell, J. A. Montgomery, Jr., J. E. Peralta, 
 F. Ogliaro, M. J. Bearpark, J. J. Heyd, E. N. Brothers, K. N. Kudin, 
 V. N. Staroverov, T. A. Keith, R. Kobayashi, J. Normand, 
 K. Raghavachari, A. P. Rendell, J. C. Burant, S. S. Iyengar, 
 J. Tomasi, M. Cossi, J. M. Millam, M. Klene, C. Adamo, R. Cammi, 
 J. W. Ochterski, R. L. Martin, K. Morokuma, O. Farkas, 
 J. B. Foresman, and D. J. Fox, Gaussian, Inc., Wallingford CT, 2019.
 
 ******************************************
 Gaussian 16:  ES64L-G16RevC.01  3-Jul-2019
                26-Dec-2023 
 ******************************************
 %nprocshared=16
 Will use up to   16 processors via shared memory.
 %mem=1600MB
 -----------------------------
 #T MP2/cc-pVDZ symm=veryloose
 -----------------------------
 -------
 C1CCCC1
 -------
 Symbolic Z-matrix:
 Charge =  0 Multiplicity = 1
 C                     1.01996  -0.73542   0.2553 
 C                    -0.38198  -1.22807  -0.1465 
 C                    -1.30704   0.01236   0.00436 
 C                    -0.35771   1.23742   0.13805 
 C                     1.03704   0.7132   -0.25122 
 H                     1.83284  -1.3571   -0.15839 
 H                     1.12669  -0.74416   1.35694 
 H                    -0.72089  -2.08986   0.45299 
 H                    -0.36316  -1.55942  -1.20037 
 H                    -1.9587   -0.07727   0.88996 
 H                    -1.97679   0.11245  -0.86643 
 H                    -0.33706   1.58694   1.18587 
 H                    -0.67764   2.09508  -0.47749 
 H                     1.85943   1.31788   0.16875 
 H                     1.15364   0.71851  -1.3518 
 
                    Distance matrix (angstroms):
                    1          2          3          4          5
     1  C    0.000000
     2  C    1.539345   0.000000
     3  C    2.457042   1.554719   0.000000
     4  C    2.409111   2.481980   1.555601   0.000000
     5  C    1.534713   2.406892   2.459927   1.540029   0.000000
     6  H    1.103811   2.218607   3.429391   3.408505   2.219914
     7  H    1.106833   2.184165   2.885275   2.759674   2.172125
     8  H    2.214531   1.103143   2.228033   3.361826   3.382806
     9  H    2.170476   1.104895   2.193803   3.100603   2.833061
    10  H    3.115827   2.210123   1.103164   2.203849   3.301762
    11  H    3.310230   2.204243   1.103110   2.212684   3.134097
    12  H    2.846185   3.114720   2.194566   1.104761   2.171820
    13  H    3.380911   3.352659   2.228471   1.103101   2.213809
    14  H    2.219964   3.406638   3.428988   2.218812   1.103785
    15  H    2.171302   2.756821   2.897028   2.184743   1.106746
                    6          7          8          9         10
     6  H    0.000000
     7  H    1.780608   0.000000
     8  H    2.726220   2.457959   0.000000
     9  H    2.439069   3.069873   1.772837   0.000000
    10  H    4.136761   3.190997   2.402837   3.018610   0.000000
    11  H    4.144167   3.912632   2.858018   2.347436   1.766688
    12  H    3.896511   2.757868   3.768717   3.948969   2.342408
    13  H    4.280405   3.831718   4.287352   3.738560   2.868822
    14  H    2.695037   2.490125   4.283868   3.885004   4.128525
    15  H    2.488711   3.078541   3.828586   2.740907   3.917321
                   11         12         13         14         15
    11  H    0.000000
    12  H    3.012431   0.000000
    13  H    2.402063   1.772279   0.000000
    14  H    4.152258   2.435460   2.731009   0.000000
    15  H    3.225287   3.068562   2.452130   1.780300   0.000000
 This structure is nearly, but not quite of a higher symmetry.
 Consider Symm=Loose if the higher symmetry is desired.
 Framework group  C1[X(C5H10)]
 Deg. of freedom    39
                         Standard orientation:                         
 ---------------------------------------------------------------------
 Center     Atomic      Atomic             Coordinates (Angstroms)
 Number     Number       Type             X           Y           Z
 ---------------------------------------------------------------------
      1          6           0        1.020044   -0.735298    0.255301
      2          6           0       -0.381837   -1.228116   -0.146498
      3          6           0       -1.307041    0.012203    0.004363
      4          6           0       -0.357854    1.237382    0.138053
      5          6           0        1.036962    0.713319   -0.251224
      6          1           0        1.832998   -1.356881   -0.158390
      7          1           0        1.126774   -0.744030    1.356941
      8          1           0       -0.720649   -2.089939    0.452994
      9          1           0       -0.362975   -1.559461   -1.200370
     10          1           0       -1.958695   -0.077495    0.889955
     11          1           0       -1.976801    0.112214   -0.866425
     12          1           0       -0.337242    1.586898    1.185865
     13          1           0       -0.677885    2.095004   -0.477494
     14          1           0        1.859277    1.318098    0.168754
     15          1           0        1.153555    0.718647   -1.351799
 ---------------------------------------------------------------------
 Rotational constants (GHZ):           6.4606375           6.4508163           3.7354743
   120 basis functions,   235 primitive gaussians,   125 cartesian basis functions
    20 alpha electrons       20 beta electrons
       nuclear repulsion energy       186.7897512605 Hartrees.
 NAtoms=   15 NActive=   15 NUniq=   15 SFac= 1.00D+00 NAtFMM=   60 NAOKFM=F Big=F
 ExpMin= 1.22D-01 ExpMax= 6.67D+03 ExpMxC= 2.28D+02 IAcc=3 IRadAn=         5 AccDes= 0.00D+00
 Harris functional with IExCor=  205 and IRadAn=       5 diagonalized for initial guess.
 HarFok:  IExCor=  205 AccDes= 0.00D+00 IRadAn=         5 IDoV= 1 UseB2=F ITyADJ=14
 ICtDFT=  3500011 ScaDFX=  1.000000  1.000000  1.000000  1.000000
 FoFCou: FMM=F IPFlag=           0 FMFlag=      100000 FMFlg1=           0
         NFxFlg=           0 DoJE=T BraDBF=F KetDBF=T FulRan=T
         wScrn=  0.000000 ICntrl=       500 IOpCl=  0 I1Cent=   200000004 NGrid=           0
         NMat0=    1 NMatS0=      1 NMatT0=    0 NMatD0=    1 NMtDS0=    0 NMtDT0=    0
 Petite list used in FoFCou.
 Integral accuracy reduced to 1.0D-05 until final iterations.
 Initial convergence to 1.0D-05 achieved.  Increase integral accuracy.
 SCF Done:  E(RHF) =  -195.175349120     A.U. after   11 cycles
            NFock= 11  Conv=0.22D-08     -V/T= 2.0019
 ExpMin= 1.22D-01 ExpMax= 6.67D+03 ExpMxC= 2.28D+02 IAcc=3 IRadAn=         5 AccDes= 0.00D+00
 HarFok:  IExCor=  205 AccDes= 0.00D+00 IRadAn=         5 IDoV=-2 UseB2=F ITyADJ=14
 ICtDFT= 12500011 ScaDFX=  1.000000  1.000000  1.000000  1.000000
 NROrb=    115 NOA=    15 NOB=    15 NVA=   100 NVB=   100
 ANorm=    0.1116879352D+01
 E2 =    -0.7147577273D+00 EUMP2 =    -0.19589010684697D+03

 **********************************************************************

            Population analysis using the SCF Density.

 **********************************************************************

 Orbital symmetries:
       Occupied  (A) (A) (A) (A) (A) (A) (A) (A) (A) (A) (A) (A)
                 (A) (A) (A) (A) (A) (A) (A) (A)
       Virtual   (A) (A) (A) (A) (A) (A) (A) (A) (A) (A) (A) (A)
                 (A) (A) (A) (A) (A) (A) (A) (A) (A) (A) (A) (A)
                 (A) (A) (A) (A) (A) (A) (A) (A) (A) (A) (A) (A)
                 (A) (A) (A) (A) (A) (A) (A) (A) (A) (A) (A) (A)
                 (A) (A) (A) (A) (A) (A) (A) (A) (A) (A) (A) (A)
                 (A) (A) (A) (A) (A) (A) (A) (A) (A) (A) (A) (A)
                 (A) (A) (A) (A) (A) (A) (A) (A) (A) (A) (A) (A)
                 (A) (A) (A) (A) (A) (A) (A) (A) (A) (A) (A) (A)
                 (A) (A) (A) (A)
 The electronic state is 1-A.
 Alpha  occ. eigenvalues --  -11.22155 -11.22117 -11.22117 -11.22060 -11.22043
 Alpha  occ. eigenvalues --   -1.11205  -0.95401  -0.95353  -0.77257  -0.76463
 Alpha  occ. eigenvalues --   -0.64393  -0.64028  -0.56509  -0.56361  -0.47397
 Alpha  occ. eigenvalues --   -0.47326  -0.46262  -0.45895  -0.45637  -0.44605
 Alpha virt. eigenvalues --    0.17359   0.19695   0.22743   0.22791   0.25754
 Alpha virt. eigenvalues --    0.26773   0.27039   0.27638   0.28817   0.33931
 Alpha virt. eigenvalues --    0.35226   0.35265   0.38705   0.44641   0.47872
 Alpha virt. eigenvalues --    0.55998   0.62697   0.63444   0.65088   0.67486
 Alpha virt. eigenvalues --    0.68822   0.74980   0.78131   0.81432   0.83805
 Alpha virt. eigenvalues --    0.84011   0.84909   0.86269   0.88447   0.88783
 Alpha virt. eigenvalues --    0.90454   0.90726   0.90950   0.91320   0.92621
 Alpha virt. eigenvalues --    0.93080   0.93714   0.94141   0.96515   1.06284
 Alpha virt. eigenvalues --    1.10270   1.14900   1.32677   1.33100   1.44431
 Alpha virt. eigenvalues --    1.46683   1.47099   1.50568   1.51928   1.58533
 Alpha virt. eigenvalues --    1.65344   1.65503   1.76207   1.77946   1.82879
 Alpha virt. eigenvalues --    1.83913   1.86662   1.87282   1.88964   1.90154
 Alpha virt. eigenvalues --    1.93590   1.93977   1.95638   1.96917   1.98367
 Alpha virt. eigenvalues --    1.99333   2.00993   2.02094   2.02750   2.04080
 Alpha virt. eigenvalues --    2.05604   2.06737   2.09943   2.11286   2.14756
 Alpha virt. eigenvalues --    2.15074   2.25388   2.27547   2.31683   2.40499
 Alpha virt. eigenvalues --    2.40699   2.43542   2.43870   2.48817   2.49091
 Alpha virt. eigenvalues --    2.50318   2.53185   2.59831   2.67371   2.74090
 Alpha virt. eigenvalues --    2.77345   2.77666   2.81055   2.82383   2.84737
 Alpha virt. eigenvalues --    2.90408   2.96275   2.97719   3.02280   3.12746
          Condensed to atoms (all electrons):
 Mulliken charges:
               1
     1  C   -0.056870
     2  C   -0.059576
     3  C   -0.053886
     4  C   -0.059510
     5  C   -0.056907
     6  H    0.027111
     7  H    0.027395
     8  H    0.027761
     9  H    0.029837
    10  H    0.031134
    11  H    0.031014
    12  H    0.030067
    13  H    0.027965
    14  H    0.027028
    15  H    0.027435
 Sum of Mulliken charges =  -0.00000
 Mulliken charges with hydrogens summed into heavy atoms:
               1
     1  C   -0.002363
     2  C   -0.001978
     3  C    0.008263
     4  C   -0.001478
     5  C   -0.002444
 Electronic spatial extent (au):  <R**2>=            416.4755
 Charge=             -0.0000 electrons
 Dipole moment (field-independent basis, Debye):
    X=              0.0148    Y=             -0.0007    Z=             -0.0001  Tot=              0.0148
 Unable to Open any file for archive entry.
 1\1\GINC-NODE05\SP\RMP2-FC\CC-pVDZ\C5H10\XUHJ\26-Dec-2023\0\\#T MP2/cc
 -pVDZ symm=veryloose\\C1CCCC1\\0,1\C,0,1.019958,-0.735417,0.255301\C,0
 ,-0.381981,-1.228071,-0.146498\C,0,-1.30704,0.012356,0.004363\C,0,-0.3
 57709,1.237424,0.138053\C,0,1.037045,0.713198,-0.251224\H,0,1.832839,-
 1.357095,-0.15839\H,0,1.126687,-0.744162,1.356941\H,0,-0.720893,-2.089
 855,0.452994\H,0,-0.363157,-1.559419,-1.20037\H,0,-1.958704,-0.077266,
 0.889955\H,0,-1.976788,0.112445,-0.866425\H,0,-0.337057,1.586937,1.185
 865\H,0,-0.67764,2.095083,-0.477494\H,0,1.859431,1.317881,0.168754\H,0
 ,1.153639,0.718512,-1.351799\\Version=ES64L-G16RevC.01\State=1-A\HF=-1
 95.1753491\MP2=-195.8901068\RMSD=2.246e-09\PG=C01 [X(C5H10)]\\@
 The archive entry for this job was punched.


 IF GOD HAD MEANT MAN TO SEE THE SUN RISE, HE
 WOULD HAVE SCHEDULED IT FOR A LATER HOUR.
 Job cpu time:       0 days  0 hours  0 minutes 37.1 seconds.
 Elapsed time:       0 days  0 hours  0 minutes  2.7 seconds.
 File lengths (MBytes):  RWF=     27 Int=      0 D2E=      0 Chk=      3 Scr=      2
 Normal termination of Gaussian 16 at Tue Dec 26 13:07:36 2023.
