%nprocshared=16
%mem=1600MB
#T MP2/cc-pVDZ symm=veryloose

C1CCCC1

0 1
C         1.019958      -0.735417       0.255301
C        -0.381981      -1.228071      -0.146498
C        -1.307040       0.012356       0.004363
C        -0.357709       1.237424       0.138053
C         1.037045       0.713198      -0.251224
H         1.832839      -1.357095      -0.158390
H         1.126687      -0.744162       1.356941
H        -0.720893      -2.089855       0.452994
H        -0.363157      -1.559419      -1.200370
H        -1.958704      -0.077266       0.889955
H        -1.976788       0.112445      -0.866425
H        -0.337057       1.586937       1.185865
H        -0.677640       2.095083      -0.477494
H         1.859431       1.317881       0.168754
H         1.153639       0.718512      -1.351799


