%nprocshared=8
%mem=10400MB
#T MP2/cc-pVDZ symm=veryloose

c1ccc2cc3cc4c5ccccc5c5ccccc5c4cc3cc2c1

0 1
C        -0.000000       0.714641       6.522457
C         0.000000      -0.714641       6.522457
C        -0.000000      -1.409445       5.339794
C        -0.000000      -0.724770       4.081616
C        -0.000000      -1.407059       2.859731
C        -0.000000      -0.721019       1.632620
C         0.000000      -1.391569       0.383649
C         0.000000      -0.724767      -0.832184
C         0.000000      -1.451513      -2.112390
C         0.000000      -2.863528      -2.154727
C         0.000000      -3.562842      -3.352652
C         0.000000      -2.857784      -4.563491
C         0.000000      -1.470435      -4.546849
C         0.000000      -0.736405      -3.339802
C         0.000000       0.736405      -3.339802
C         0.000000       1.470435      -4.546849
C         0.000000       2.857784      -4.563491
C         0.000000       3.562842      -3.352652
C         0.000000       2.863528      -2.154727
C         0.000000       1.451513      -2.112390
C         0.000000       0.724767      -0.832184
C         0.000000       1.391569       0.383649
C         0.000000       0.721019       1.632620
C         0.000000       1.407059       2.859731
C         0.000000       0.724770       4.081616
C         0.000000       1.409445       5.339794
H        -0.000000       1.251813       7.475524
H         0.000000      -1.251813       7.475524
H        -0.000000      -2.503866       5.337222
H        -0.000000      -2.501782       2.858576
H         0.000000      -2.481479       0.414796
H         0.000000      -3.434650      -1.226225
H         0.000000      -4.656638      -3.346419
H         0.000000      -3.392291      -5.517811
H         0.000000      -0.946149      -5.502308
H        -0.000000       0.946149      -5.502308
H         0.000000       3.392291      -5.517811
H         0.000000       4.656638      -3.346419
H         0.000000       3.434650      -1.226225
H         0.000000       2.481479       0.414796
H         0.000000       2.501782       2.858576
H         0.000000       2.503866       5.337222


