 Entering Gaussian System, Link 0=g16
 Initial command:
 /home/software/g16/l1.exe "/home/software/g16/scr/Gau-88800.inp" -scrdir="/home/software/g16/scr/"
 Default is to use a total of   8 processors:
                                8 via shared-memory
                                1 via Linda
 Entering Link 1 = /home/software/g16/l1.exe PID=     88801.
  
 Copyright (c) 1988-2019, Gaussian, Inc.  All Rights Reserved.
  
 This is part of the Gaussian(R) 16 program.  It is based on
 the Gaussian(R) 09 system (copyright 2009, Gaussian, Inc.),
 the Gaussian(R) 03 system (copyright 2003, Gaussian, Inc.),
 the Gaussian(R) 98 system (copyright 1998, Gaussian, Inc.),
 the Gaussian(R) 94 system (copyright 1995, Gaussian, Inc.),
 the Gaussian 92(TM) system (copyright 1992, Gaussian, Inc.),
 the Gaussian 90(TM) system (copyright 1990, Gaussian, Inc.),
 the Gaussian 88(TM) system (copyright 1988, Gaussian, Inc.),
 the Gaussian 86(TM) system (copyright 1986, Carnegie Mellon
 University), and the Gaussian 82(TM) system (copyright 1983,
 Carnegie Mellon University). Gaussian is a federally registered
 trademark of Gaussian, Inc.
  
 This software contains proprietary and confidential information,
 including trade secrets, belonging to Gaussian, Inc.
  
 This software is provided under written license and may be
 used, copied, transmitted, or stored only in accord with that
 written license.
  
 The following legend is applicable only to US Government
 contracts under FAR:
  
                    RESTRICTED RIGHTS LEGEND
  
 Use, reproduction and disclosure by the US Government is
 subject to restrictions as set forth in subparagraphs (a)
 and (c) of the Commercial Computer Software - Restricted
 Rights clause in FAR 52.227-19.
  
 Gaussian, Inc.
 340 Quinnipiac St., Bldg. 40, Wallingford CT 06492
  
  
 ---------------------------------------------------------------
 Warning -- This program may not be used in any manner that
 competes with the business of Gaussian, Inc. or will provide
 assistance to any competitor of Gaussian, Inc.  The licensee
 of this program is prohibited from giving any competitor of
 Gaussian, Inc. access to this program.  By using this program,
 the user acknowledges that Gaussian, Inc. is engaged in the
 business of creating and licensing software in the field of
 computational chemistry and represents and warrants to the
 licensee that it is not a competitor of Gaussian, Inc. and that
 it will not use this program in any manner prohibited above.
 ---------------------------------------------------------------
  

 Cite this work as:
 Gaussian 16, Revision C.01,
 M. J. Frisch, G. W. Trucks, H. B. Schlegel, G. E. Scuseria, 
 M. A. Robb, J. R. Cheeseman, G. Scalmani, V. Barone, 
 G. A. Petersson, H. Nakatsuji, X. Li, M. Caricato, A. V. Marenich, 
 J. Bloino, B. G. Janesko, R. Gomperts, B. Mennucci, H. P. Hratchian, 
 J. V. Ortiz, A. F. Izmaylov, J. L. Sonnenberg, D. Williams-Young, 
 F. Ding, F. Lipparini, F. Egidi, J. Goings, B. Peng, A. Petrone, 
 T. Henderson, D. Ranasinghe, V. G. Zakrzewski, J. Gao, N. Rega, 
 G. Zheng, W. Liang, M. Hada, M. Ehara, K. Toyota, R. Fukuda, 
 J. Hasegawa, M. Ishida, T. Nakajima, Y. Honda, O. Kitao, H. Nakai, 
 T. Vreven, K. Throssell, J. A. Montgomery, Jr., J. E. Peralta, 
 F. Ogliaro, M. J. Bearpark, J. J. Heyd, E. N. Brothers, K. N. Kudin, 
 V. N. Staroverov, T. A. Keith, R. Kobayashi, J. Normand, 
 K. Raghavachari, A. P. Rendell, J. C. Burant, S. S. Iyengar, 
 J. Tomasi, M. Cossi, J. M. Millam, M. Klene, C. Adamo, R. Cammi, 
 J. W. Ochterski, R. L. Martin, K. Morokuma, O. Farkas, 
 J. B. Foresman, and D. J. Fox, Gaussian, Inc., Wallingford CT, 2019.
 
 ******************************************
 Gaussian 16:  ES64L-G16RevC.01  3-Jul-2019
                15-Mar-2024 
 ******************************************
 %nprocshared=8
 Will use up to    8 processors via shared memory.
 %mem=4480MB
 -----------------------------
 #T MP2/cc-pVDZ symm=veryloose
 -----------------------------
 ------------------------------
 C1=c2ccc3c4c(ccc(c24)=C1)=CC=3
 ------------------------------
 Symbolic Z-matrix:
 Charge =  0 Multiplicity = 1
 C                     0.        0.75536   2.75267 
 C                     0.        1.20852   1.45417 
 C                     0.        2.46284   0.6866 
 C                     0.        2.46284  -0.6866 
 C                     0.        1.20852  -1.45417 
 C                     0.        0.       -0.66303 
 C                     0.       -1.20852  -1.45417 
 C                     0.       -2.46284  -0.6866 
 C                     0.       -2.46284   0.6866 
 C                     0.       -1.20852   1.45417 
 C                     0.        0.        0.66303 
 C                     0.       -0.75536   2.75267 
 C                     0.       -0.75536  -2.75267 
 C                     0.        0.75536  -2.75267 
 H                     0.        1.35469   3.6659 
 H                     0.        3.41807   1.21959 
 H                     0.        3.41807  -1.21959 
 H                     0.       -3.41807  -1.21959 
 H                     0.       -3.41807   1.21959 
 H                     0.       -1.35469   3.6659 
 H                     0.       -1.35469  -3.6659 
 H                     0.        1.35469  -3.6659 
 
                    Distance matrix (angstroms):
                    1          2          3          4          5
     1  C    0.000000
     2  C    1.375304   0.000000
     3  C    2.680318   1.470531   0.000000
     4  C    3.839799   2.481169   1.373206   0.000000
     5  C    4.231168   2.908330   2.481169   1.470531   0.000000
     6  C    3.498224   2.437838   2.808397   2.462951   1.444442
     7  C    4.642655   3.781597   4.249913   3.750737   2.417042
     8  C    4.710133   4.249913   5.113509   4.925676   3.750737
     9  C    3.824317   3.750737   4.925676   5.113509   4.249913
    10  C    2.354342   2.417042   3.750737   4.249913   3.781597
    11  C    2.221965   1.444442   2.462951   2.808397   2.437838
    12  C    1.510716   2.354342   3.824317   4.710133   4.642655
    13  C    5.708848   4.642655   4.710133   3.824317   2.354342
    14  C    5.505332   4.231168   3.839799   2.680318   1.375304
    15  H    1.092334   2.216559   3.178710   4.491354   5.122150
    16  H    3.072518   2.221969   1.093872   2.132150   3.468589
    17  H    4.782144   3.468589   2.132150   1.093872   2.221969
    18  H    5.761630   5.343629   6.182129   5.905015   4.632538
    19  H    4.446104   4.632538   5.905015   6.182129   5.343629
    20  H    2.299196   3.385531   4.842492   5.789456   5.725828
    21  H    6.756499   5.725828   5.789456   4.842492   3.385531
    22  H    6.446486   5.122150   4.491354   3.178710   2.216559
                    6          7          8          9         10
     6  C    0.000000
     7  C    1.444442   0.000000
     8  C    2.462951   1.470531   0.000000
     9  C    2.808397   2.481169   1.373206   0.000000
    10  C    2.437838   2.908330   2.481169   1.470531   0.000000
    11  C    1.326068   2.437838   2.808397   2.462951   1.444442
    12  C    3.498224   4.231168   3.839799   2.680318   1.375304
    13  C    2.221965   1.375304   2.680318   3.839799   4.231168
    14  C    2.221965   2.354342   3.824317   4.710133   4.642655
    15  H    4.535951   5.725828   5.789456   4.842492   3.385531
    16  H    3.902245   5.343629   6.182129   5.905015   4.632538
    17  H    3.463090   4.632538   5.905015   6.182129   5.343629
    18  H    3.463090   2.221969   1.093872   2.132150   3.468589
    19  H    3.902245   3.468589   2.132150   1.093872   2.221969
    20  H    4.535951   5.122150   4.491354   3.178710   2.216559
    21  H    3.294296   2.216559   3.178710   4.491354   5.122150
    22  H    3.294296   3.385531   4.842492   5.789456   5.725828
                   11         12         13         14         15
    11  C    0.000000
    12  C    2.221965   0.000000
    13  C    3.498224   5.505332   0.000000
    14  C    3.498224   5.708848   1.510716   0.000000
    15  H    3.294296   2.299196   6.756499   6.446486   0.000000
    16  H    3.463090   4.446104   5.761630   4.782144   3.200306
    17  H    3.902245   5.761630   4.446104   3.072518   5.303357
    18  H    3.902245   4.782144   3.072518   4.446104   6.829885
    19  H    3.463090   3.072518   4.782144   5.761630   5.363179
    20  H    3.294296   1.092334   6.446486   6.756499   2.709382
    21  H    4.535951   6.446486   1.092334   2.299196   7.816394
    22  H    4.535951   6.756499   2.299196   1.092334   7.331798
                   16         17         18         19         20
    16  H    0.000000
    17  H    2.439188   0.000000
    18  H    7.258275   6.836148   0.000000
    19  H    6.836148   7.258275   2.439188   0.000000
    20  H    5.363179   6.829885   5.303357   3.200306   0.000000
    21  H    6.829885   5.363179   3.200306   5.303357   7.331798
    22  H    5.303357   3.200306   5.363179   6.829885   7.816394
                   21         22
    21  H    0.000000
    22  H    2.709382   0.000000
 Framework group  D2H[C2"(C.C),SG(C12H8)]
 Deg. of freedom    11
                         Standard orientation:                         
 ---------------------------------------------------------------------
 Center     Atomic      Atomic             Coordinates (Angstroms)
 Number     Number       Type             X           Y           Z
 ---------------------------------------------------------------------
      1          6           0        0.000000    0.755358    2.752666
      2          6           0        0.000000    1.208521    1.454165
      3          6           0        0.000000    2.462838    0.686603
      4          6           0        0.000000    2.462838   -0.686603
      5          6           0        0.000000    1.208521   -1.454165
      6          6           0        0.000000    0.000000   -0.663034
      7          6           0       -0.000000   -1.208521   -1.454165
      8          6           0       -0.000000   -2.462838   -0.686603
      9          6           0       -0.000000   -2.462838    0.686603
     10          6           0       -0.000000   -1.208521    1.454165
     11          6           0       -0.000000    0.000000    0.663034
     12          6           0       -0.000000   -0.755358    2.752666
     13          6           0       -0.000000   -0.755358   -2.752666
     14          6           0        0.000000    0.755358   -2.752666
     15          1           0        0.000000    1.354691    3.665899
     16          1           0        0.000000    3.418074    1.219594
     17          1           0        0.000000    3.418074   -1.219594
     18          1           0       -0.000000   -3.418074   -1.219594
     19          1           0       -0.000000   -3.418074    1.219594
     20          1           0       -0.000000   -1.354691    3.665899
     21          1           0       -0.000000   -1.354691   -3.665899
     22          1           0        0.000000    1.354691   -3.665899
 ---------------------------------------------------------------------
 Rotational constants (GHZ):           1.1404591           0.9047957           0.5045252
   236 basis functions,   518 primitive gaussians,   250 cartesian basis functions
    46 alpha electrons       46 beta electrons
       nuclear repulsion energy       772.2511147369 Hartrees.
 NAtoms=   22 NActive=   22 NUniq=    6 SFac= 4.00D+00 NAtFMM=   60 NAOKFM=F Big=F
 ExpMin= 1.22D-01 ExpMax= 6.67D+03 ExpMxC= 2.28D+02 IAcc=3 IRadAn=         5 AccDes= 0.00D+00
 Harris functional with IExCor=  205 and IRadAn=       5 diagonalized for initial guess.
 HarFok:  IExCor=  205 AccDes= 0.00D+00 IRadAn=         5 IDoV= 1 UseB2=F ITyADJ=14
 ICtDFT=  3500011 ScaDFX=  1.000000  1.000000  1.000000  1.000000
 FoFCou: FMM=F IPFlag=           0 FMFlag=      100000 FMFlg1=           0
         NFxFlg=           0 DoJE=T BraDBF=F KetDBF=T FulRan=T
         wScrn=  0.000000 ICntrl=       500 IOpCl=  0 I1Cent=   200000004 NGrid=           0
         NMat0=    1 NMatS0=      1 NMatT0=    0 NMatD0=    1 NMtDS0=    0 NMtDT0=    0
 Petite list used in FoFCou.
 Initial guess orbital symmetries:
       Occupied  (AG) (B1U) (B2U) (AG) (B3G) (B1U) (B3G) (B2U)
                 (B1U) (AG) (B1U) (B3G) (B2U) (AG) (AG) (B1U) (B2U)
                 (AG) (AG) (B3G) (B2U) (B1U) (B1U) (B3G) (B2U)
                 (AG) (AG) (B3G) (AG) (B1U) (B2U) (B2U) (B1U) (B3U)
                 (B3G) (AG) (B2U) (AG) (B1U) (B2G) (B1G) (B3G)
                 (B3U) (AU) (B3U) (B1G)
       Virtual   (B2G) (AU) (B2G) (B3U) (B1G) (AU) (AG) (B2U) (B2U)
                 (B3G) (B1U) (AG) (B2G) (B2U) (B1U) (AG) (B3G)
                 (B1U) (B2U) (B3G) (AG) (B1U) (B3G) (AG) (B1U)
                 (B2U) (B3G) (B2U) (AG) (B1U) (B3U) (B2U) (B3G)
                 (AG) (B1U) (B2U) (B1G) (B1U) (B2G) (AG) (B3G)
                 (AG) (AU) (B3U) (B2U) (B3G) (B1U) (B3U) (AG) (B1U)
                 (B1G) (B2G) (B1G) (B2G) (AG) (B3G) (B2U) (AU)
                 (B1U) (B2U) (B3G) (B3U) (B1U) (AG) (AU) (B2G)
                 (B3U) (B3G) (B2U) (B1U) (B3G) (B1G) (AG) (AG)
                 (B2U) (B3G) (B3U) (B2G) (B2U) (B1U) (B1G) (B3G)
                 (B3U) (B1U) (AU) (B2G) (B2U) (B1G) (AG) (B1U)
                 (AU) (B3U) (AG) (B3G) (B1U) (B2U) (B3G) (AG) (B1U)
                 (AG) (B3U) (AG) (B2U) (B3G) (B1U) (B1G) (B2G)
                 (AU) (AG) (B2G) (B2U) (B1U) (AG) (B2U) (B2U) (B1G)
                 (B3G) (AU) (B1U) (AG) (B3U) (B2G) (B3G) (AG) (B1G)
                 (B2U) (B3G) (B3U) (B1U) (AU) (B1G) (AG) (B2U)
                 (B2G) (B1U) (AG) (B3U) (B3G) (B2U) (B2U) (B2G)
                 (AG) (B1U) (AU) (B1U) (B3G) (B3G) (AU) (B3U) (B1U)
                 (B1U) (B1G) (B2U) (B3G) (AG) (B2U) (B2G) (AG)
                 (B1U) (B1G) (B1U) (B3G) (B3G) (B2U) (AU) (AG)
                 (B3G) (AU) (B2U) (B2G) (B1U) (AG) (AG) (B2U) (B2U)
                 (B3G) (B1U) (AG) (B3G) (B1U) (B2U) (B1U) (B3G)
                 (AG) (B3G) (B1U) (B2U) (B3G) (B1U) (B3G)
 The electronic state of the initial guess is 1-AG.
 SCF Done:  E(RHF) =  -534.745727222     A.U. after   12 cycles
            NFock= 12  Conv=0.76D-08     -V/T= 2.0012
 ExpMin= 1.22D-01 ExpMax= 6.67D+03 ExpMxC= 2.28D+02 IAcc=3 IRadAn=         5 AccDes= 0.00D+00
 HarFok:  IExCor=  205 AccDes= 0.00D+00 IRadAn=         5 IDoV=-2 UseB2=F ITyADJ=14
 ICtDFT= 12500011 ScaDFX=  1.000000  1.000000  1.000000  1.000000
 NROrb=    222 NOA=    32 NOB=    32 NVA=   190 NVB=   190

 **** Warning!!: The largest alpha MO coefficient is  0.20756350D+02

 ANorm=    0.1308670053D+01
 E2 =    -0.1802403426D+01 EUMP2 =    -0.53654813064794D+03

 **********************************************************************

            Population analysis using the SCF Density.

 **********************************************************************

 Orbital symmetries:
       Occupied  (AG) (B1U) (B2U) (B3G) (B2U) (AG) (B3G) (B1U)
                 (B1U) (B3G) (AG) (B2U) (AG) (B1U) (AG) (B1U) (B2U)
                 (AG) (AG) (B3G) (B2U) (B1U) (B1U) (B3G) (B2U)
                 (AG) (AG) (B3G) (AG) (B2U) (B1U) (B1U) (B2U) (B3U)
                 (B3G) (B2U) (AG) (B1U) (AG) (B2G) (B1G) (B3G)
                 (B3U) (AU) (B3U) (B1G)
       Virtual   (B2G) (AU) (B2G) (AG) (B2U) (B1U) (B3U) (B3G)
                 (AG) (B1G) (B2U) (B1U) (B3G) (AU) (B2U) (AG) (B3G)
                 (B1U) (B1U) (B2U) (B2G) (AG) (AG) (B1U) (B2U)
                 (B3G) (B3G) (AG) (B2U) (B1U) (B3G) (B3U) (B2U)
                 (AG) (B1G) (B2U) (B2G) (B1U) (AG) (B1U) (B3G)
                 (AG) (B3U) (AU) (B3U) (B2U) (B1U) (AG) (B3G) (B1G)
                 (B1U) (B2G) (B1G) (B2G) (AU) (B2U) (AG) (B1U)
                 (B2U) (B3U) (AG) (B3G) (B1U) (B3G) (AU) (B2G)
                 (B3G) (B3U) (B2U) (B3G) (AG) (B2U) (B1G) (B1U)
                 (B3G) (AG) (B1U) (B3U) (B2U) (B2G) (B1G) (B1U)
                 (B3G) (B2U) (B3U) (B2G) (AU) (AG) (B1G) (AG) (AU)
                 (B1U) (B3G) (B3U) (B1U) (B2U) (B3G) (AG) (B1U)
                 (AG) (B3G) (B2U) (B3U) (AG) (B1G) (AU) (B2G) (AG)
                 (B1U) (B2G) (B2U) (B1U) (AG) (B2U) (B2U) (AU)
                 (B1G) (B1U) (B3U) (AG) (B3G) (B2G) (B3G) (AG)
                 (B1G) (B3U) (B3G) (B1G) (B2U) (B1U) (B2G) (AU)
                 (AG) (B2U) (B3G) (B1U) (B3U) (B2U) (AG) (B1U)
                 (B2G) (AG) (B2U) (B1U) (AU) (B3G) (B3G) (AU) (B1U)
                 (B3U) (B2U) (B1G) (B1U) (AG) (B3G) (B2U) (B2G)
                 (AG) (B1U) (B3G) (B1G) (B1U) (B3G) (AU) (B2U)
                 (AG) (B3G) (AU) (B2U) (B2G) (B1U) (AG) (B2U) (B3G)
                 (AG) (B2U) (B1U) (B3G) (AG) (B1U) (B1U) (B3G)
                 (B2U) (B3G) (AG) (B1U) (B2U) (B3G) (B1U) (B3G)
 The electronic state is 1-AG.
 Alpha  occ. eigenvalues --  -11.25919 -11.25919 -11.25854 -11.25854 -11.25673
 Alpha  occ. eigenvalues --  -11.25673 -11.25538 -11.25538 -11.24478 -11.24477
 Alpha  occ. eigenvalues --  -11.24477 -11.24476 -11.23287 -11.23113  -1.21124
 Alpha  occ. eigenvalues --   -1.15444  -1.10365  -1.04915  -1.00560  -1.00036
 Alpha  occ. eigenvalues --   -0.93070  -0.90474  -0.82643  -0.80031  -0.78140
 Alpha  occ. eigenvalues --   -0.77304  -0.69792  -0.68312  -0.63408  -0.62508
 Alpha  occ. eigenvalues --   -0.62267  -0.59715  -0.58457  -0.55904  -0.55086
 Alpha  occ. eigenvalues --   -0.53217  -0.52538  -0.51007  -0.50448  -0.47707
 Alpha  occ. eigenvalues --   -0.45285  -0.44859  -0.36444  -0.33749  -0.31578
 Alpha  occ. eigenvalues --   -0.24040
 Alpha virt. eigenvalues --   -0.00762   0.13375   0.16030   0.19674   0.20465
 Alpha virt. eigenvalues --    0.20619   0.21101   0.21216   0.21887   0.23797
 Alpha virt. eigenvalues --    0.24122   0.25183   0.26701   0.31685   0.34247
 Alpha virt. eigenvalues --    0.37248   0.38084   0.40399   0.40756   0.41345
 Alpha virt. eigenvalues --    0.41581   0.43094   0.47270   0.52244   0.53040
 Alpha virt. eigenvalues --    0.54816   0.57721   0.58536   0.60618   0.64731
 Alpha virt. eigenvalues --    0.65376   0.66419   0.66704   0.66996   0.68558
 Alpha virt. eigenvalues --    0.68983   0.70185   0.71509   0.71874   0.72815
 Alpha virt. eigenvalues --    0.73349   0.73475   0.73703   0.74337   0.75806
 Alpha virt. eigenvalues --    0.76570   0.78521   0.78605   0.78849   0.79213
 Alpha virt. eigenvalues --    0.81528   0.81847   0.85927   0.85974   0.86212
 Alpha virt. eigenvalues --    0.87831   0.88452   0.89813   0.91234   0.92141
 Alpha virt. eigenvalues --    0.92383   0.92773   0.92835   0.94938   0.97072
 Alpha virt. eigenvalues --    1.00081   1.01384   1.01461   1.03164   1.07912
 Alpha virt. eigenvalues --    1.09477   1.10350   1.10871   1.11233   1.14126
 Alpha virt. eigenvalues --    1.14576   1.15364   1.16169   1.16931   1.17784
 Alpha virt. eigenvalues --    1.19933   1.20242   1.20678   1.22729   1.22845
 Alpha virt. eigenvalues --    1.24780   1.25125   1.26562   1.26920   1.29937
 Alpha virt. eigenvalues --    1.30413   1.32695   1.34455   1.34552   1.35840
 Alpha virt. eigenvalues --    1.40630   1.41449   1.44547   1.51975   1.56977
 Alpha virt. eigenvalues --    1.59252   1.59756   1.61605   1.63054   1.63851
 Alpha virt. eigenvalues --    1.64877   1.65924   1.65936   1.66782   1.67032
 Alpha virt. eigenvalues --    1.67451   1.68577   1.72181   1.75140   1.78439
 Alpha virt. eigenvalues --    1.80015   1.80918   1.80964   1.84415   1.84420
 Alpha virt. eigenvalues --    1.84620   1.86647   1.88357   1.90881   1.91024
 Alpha virt. eigenvalues --    1.92534   1.94522   1.95400   1.98352   1.98942
 Alpha virt. eigenvalues --    1.99675   1.99953   2.01132   2.02425   2.03558
 Alpha virt. eigenvalues --    2.05358   2.05635   2.06387   2.08150   2.09513
 Alpha virt. eigenvalues --    2.10685   2.11544   2.12172   2.13221   2.13636
 Alpha virt. eigenvalues --    2.13957   2.16530   2.18157   2.23384   2.27470
 Alpha virt. eigenvalues --    2.27993   2.29040   2.30418   2.32905   2.33296
 Alpha virt. eigenvalues --    2.35305   2.36695   2.39321   2.42850   2.44404
 Alpha virt. eigenvalues --    2.44520   2.45796   2.50975   2.54563   2.55606
 Alpha virt. eigenvalues --    2.56095   2.58357   2.59574   2.65917   2.66553
 Alpha virt. eigenvalues --    2.74318   2.74674   2.78122   2.78573   2.79993
 Alpha virt. eigenvalues --    2.80108   2.87381   2.95749   2.98840   2.99496
 Alpha virt. eigenvalues --    3.01903   3.03131   3.03997   3.13436   3.13711
 Alpha virt. eigenvalues --    3.23508   3.44372   3.44399   3.67286   3.80363
          Condensed to atoms (all electrons):
 Mulliken charges:
               1
     1  C   -0.021628
     2  C   -0.068787
     3  C   -0.014075
     4  C   -0.014075
     5  C   -0.068787
     6  C    0.104573
     7  C   -0.068787
     8  C   -0.014075
     9  C   -0.014075
    10  C   -0.068787
    11  C    0.104573
    12  C   -0.021628
    13  C   -0.021628
    14  C   -0.021628
    15  H    0.026072
    16  H    0.026132
    17  H    0.026132
    18  H    0.026132
    19  H    0.026132
    20  H    0.026072
    21  H    0.026072
    22  H    0.026072
 Sum of Mulliken charges =   0.00000
 Mulliken charges with hydrogens summed into heavy atoms:
               1
     1  C    0.004444
     2  C   -0.068787
     3  C    0.012058
     4  C    0.012058
     5  C   -0.068787
     6  C    0.104573
     7  C   -0.068787
     8  C    0.012058
     9  C    0.012058
    10  C   -0.068787
    11  C    0.104573
    12  C    0.004444
    13  C    0.004444
    14  C    0.004444
 Electronic spatial extent (au):  <R**2>=           2158.9540
 Charge=             -0.0000 electrons
 Dipole moment (field-independent basis, Debye):
    X=             -0.0000    Y=              0.0000    Z=             -0.0000  Tot=              0.0000
 Unable to Open any file for archive entry.
 1\1\GINC-NODE03\SP\RMP2-FC\CC-pVDZ\C14H8\XUHJ\15-Mar-2024\0\\#T MP2/cc
 -pVDZ symm=veryloose\\C1=c2ccc3c4c(ccc(c24)=C1)=CC=3\\0,1\C,0,0.,0.755
 358,2.752666\C,0,0.,1.208521,1.454165\C,0,0.,2.462838,0.686603\C,0,0.,
 2.462838,-0.686603\C,0,0.,1.208521,-1.454165\C,0,0.,0.,-0.663034\C,0,0
 .,-1.208521,-1.454165\C,0,0.,-2.462838,-0.686603\C,0,0.,-2.462838,0.68
 6603\C,0,0.,-1.208521,1.454165\C,0,0.,0.,0.663034\C,0,0.,-0.755358,2.7
 52666\C,0,0.,-0.755358,-2.752666\C,0,0.,0.755358,-2.752666\H,0,0.,1.35
 4691,3.665899\H,0,0.,3.418074,1.219594\H,0,0.,3.418074,-1.219594\H,0,0
 .,-3.418074,-1.219594\H,0,0.,-3.418074,1.219594\H,0,0.,-1.354691,3.665
 899\H,0,0.,-1.354691,-3.665899\H,0,0.,1.354691,-3.665899\\Version=ES64
 L-G16RevC.01\State=1-AG\HF=-534.7457272\MP2=-536.5481306\RMSD=7.585e-0
 9\PG=D02H [C2"(C1.C1),SG(C12H8)]\\@
 The archive entry for this job was punched.


 KNOWLEDGE IS EXPERIMENT'S DAUGHTER.
 -- LEONARDO DA VINCI, IN "PENSIERI" CA. 1492
 Job cpu time:       0 days  0 hours  1 minutes 33.8 seconds.
 Elapsed time:       0 days  0 hours  0 minutes 13.5 seconds.
 File lengths (MBytes):  RWF=     39 Int=      0 D2E=      0 Chk=      5 Scr=      2
 Normal termination of Gaussian 16 at Fri Mar 15 11:44:59 2024.
