%nprocshared=8
%mem=8800MB
#T MP2/cc-pVDZ symm=veryloose

c1ccc2cc3cc4cc5ccccc5cc4cc3cc2c1

0 1
C         0.000000       6.125098       0.717160
C        -0.000000       6.125098      -0.717160
C        -0.000000       4.946161      -1.411830
C        -0.000000       3.682542      -0.728089
C        -0.000000       2.469762      -1.409278
C        -0.000000       1.227753      -0.728974
C        -0.000000       0.000000      -1.409919
C        -0.000000      -1.227753      -0.728974
C        -0.000000      -2.469762      -1.409278
C        -0.000000      -3.682542      -0.728089
C        -0.000000      -4.946161      -1.411830
C        -0.000000      -6.125098      -0.717160
C        -0.000000      -6.125098       0.717160
C        -0.000000      -4.946161       1.411830
C        -0.000000      -3.682542       0.728089
C        -0.000000      -2.469762       1.409278
C        -0.000000      -1.227753       0.728974
C         0.000000      -0.000000       1.409919
C         0.000000       1.227753       0.728974
C         0.000000       2.469762       1.409278
C         0.000000       3.682542       0.728089
C         0.000000       4.946161       1.411830
H         0.000000       7.079066       1.252689
H        -0.000000       7.079066      -1.252689
H        -0.000000       4.943930      -2.506240
H        -0.000000       2.470000      -2.503902
H        -0.000000       0.000000      -2.504421
H         0.000000      -2.470000      -2.503902
H        -0.000000      -4.943930      -2.506240
H        -0.000000      -7.079066      -1.252689
H        -0.000000      -7.079066       1.252689
H        -0.000000      -4.943930       2.506240
H        -0.000000      -2.470000       2.503902
H         0.000000      -0.000000       2.504421
H         0.000000       2.470000       2.503902
H         0.000000       4.943930       2.506240


