 Entering Gaussian System, Link 0=g16
 Initial command:
 /opt/g16/l1.exe "/tmp/Gau-2077128.inp" -scrdir="/tmp/"
 Entering Link 1 = /opt/g16/l1.exe PID=   2077130.
  
 Copyright (c) 1988-2019, Gaussian, Inc.  All Rights Reserved.
  
 This is part of the Gaussian(R) 16 program.  It is based on
 the Gaussian(R) 09 system (copyright 2009, Gaussian, Inc.),
 the Gaussian(R) 03 system (copyright 2003, Gaussian, Inc.),
 the Gaussian(R) 98 system (copyright 1998, Gaussian, Inc.),
 the Gaussian(R) 94 system (copyright 1995, Gaussian, Inc.),
 the Gaussian 92(TM) system (copyright 1992, Gaussian, Inc.),
 the Gaussian 90(TM) system (copyright 1990, Gaussian, Inc.),
 the Gaussian 88(TM) system (copyright 1988, Gaussian, Inc.),
 the Gaussian 86(TM) system (copyright 1986, Carnegie Mellon
 University), and the Gaussian 82(TM) system (copyright 1983,
 Carnegie Mellon University). Gaussian is a federally registered
 trademark of Gaussian, Inc.
  
 This software contains proprietary and confidential information,
 including trade secrets, belonging to Gaussian, Inc.
  
 This software is provided under written license and may be
 used, copied, transmitted, or stored only in accord with that
 written license.
  
 The following legend is applicable only to US Government
 contracts under FAR:
  
                    RESTRICTED RIGHTS LEGEND
  
 Use, reproduction and disclosure by the US Government is
 subject to restrictions as set forth in subparagraphs (a)
 and (c) of the Commercial Computer Software - Restricted
 Rights clause in FAR 52.227-19.
  
 Gaussian, Inc.
 340 Quinnipiac St., Bldg. 40, Wallingford CT 06492
  
  
 ---------------------------------------------------------------
 Warning -- This program may not be used in any manner that
 competes with the business of Gaussian, Inc. or will provide
 assistance to any competitor of Gaussian, Inc.  The licensee
 of this program is prohibited from giving any competitor of
 Gaussian, Inc. access to this program.  By using this program,
 the user acknowledges that Gaussian, Inc. is engaged in the
 business of creating and licensing software in the field of
 computational chemistry and represents and warrants to the
 licensee that it is not a competitor of Gaussian, Inc. and that
 it will not use this program in any manner prohibited above.
 ---------------------------------------------------------------
  

 Cite this work as:
 Gaussian 16, Revision C.01,
 M. J. Frisch, G. W. Trucks, H. B. Schlegel, G. E. Scuseria, 
 M. A. Robb, J. R. Cheeseman, G. Scalmani, V. Barone, 
 G. A. Petersson, H. Nakatsuji, X. Li, M. Caricato, A. V. Marenich, 
 J. Bloino, B. G. Janesko, R. Gomperts, B. Mennucci, H. P. Hratchian, 
 J. V. Ortiz, A. F. Izmaylov, J. L. Sonnenberg, D. Williams-Young, 
 F. Ding, F. Lipparini, F. Egidi, J. Goings, B. Peng, A. Petrone, 
 T. Henderson, D. Ranasinghe, V. G. Zakrzewski, J. Gao, N. Rega, 
 G. Zheng, W. Liang, M. Hada, M. Ehara, K. Toyota, R. Fukuda, 
 J. Hasegawa, M. Ishida, T. Nakajima, Y. Honda, O. Kitao, H. Nakai, 
 T. Vreven, K. Throssell, J. A. Montgomery, Jr., J. E. Peralta, 
 F. Ogliaro, M. J. Bearpark, J. J. Heyd, E. N. Brothers, K. N. Kudin, 
 V. N. Staroverov, T. A. Keith, R. Kobayashi, J. Normand, 
 K. Raghavachari, A. P. Rendell, J. C. Burant, S. S. Iyengar, 
 J. Tomasi, M. Cossi, J. M. Millam, M. Klene, C. Adamo, R. Cammi, 
 J. W. Ochterski, R. L. Martin, K. Morokuma, O. Farkas, 
 J. B. Foresman, and D. J. Fox, Gaussian, Inc., Wallingford CT, 2019.
 
 ******************************************
 Gaussian 16:  ES64L-G16RevC.01  3-Jul-2019
                 6-Nov-2024 
 ******************************************
 %nprocshared=16
 Will use up to   16 processors via shared memory.
 %mem=1600MB
 -------------------------------
 #T ROMP2/cc-pVDZ symm=veryloose
 -------------------------------
 -----
 [C]=C
 -----
 Symbolic Z-matrix:
 Charge =  0 Multiplicity = 3
 C                     0.        0.        0.83675 
 C                     0.        0.       -0.48317 
 H                     0.       -0.94381  -1.06074 
 H                     0.        0.94381  -1.06074 
 
                    Distance matrix (angstroms):
                    1          2          3          4
     1  C    0.000000
     2  C    1.319913   0.000000
     3  H    2.119247   1.106505   0.000000
     4  H    2.119247   1.106505   1.887610   0.000000
 Framework group  C2V[C2(CC),SGV(H2)]
 Deg. of freedom     3
                         Standard orientation:                         
 ---------------------------------------------------------------------
 Center     Atomic      Atomic             Coordinates (Angstroms)
 Number     Number       Type             X           Y           Z
 ---------------------------------------------------------------------
      1          6           0       -0.000000    0.000000    0.836746
      2          6           0        0.000000    0.000000   -0.483167
      3          1           0        0.000000    0.943805   -1.060736
      4          1           0       -0.000000   -0.943805   -1.060736
 ---------------------------------------------------------------------
 Rotational constants (GHZ):         281.4734999          37.9962510          33.4771531
    38 basis functions,    80 primitive gaussians,    40 cartesian basis functions
     8 alpha electrons        6 beta electrons
       nuclear repulsion energy        23.4487104462 Hartrees.
 NAtoms=    4 NActive=    4 NUniq=    3 SFac= 1.78D+00 NAtFMM=   60 NAOKFM=F Big=F
 ExpMin= 1.22D-01 ExpMax= 6.67D+03 ExpMxC= 2.28D+02 IAcc=3 IRadAn=         5 AccDes= 0.00D+00
 Harris functional with IExCor=  205 and IRadAn=       5 diagonalized for initial guess.
 HarFok:  IExCor=  205 AccDes= 0.00D+00 IRadAn=         5 IDoV= 1 UseB2=F ITyADJ=14
 ICtDFT=  3500011 ScaDFX=  1.000000  1.000000  1.000000  1.000000
 FoFCou: FMM=F IPFlag=           0 FMFlag=      100000 FMFlg1=           0
         NFxFlg=           0 DoJE=T BraDBF=F KetDBF=T FulRan=T
         wScrn=  0.000000 ICntrl=       500 IOpCl=  0 I1Cent=   200000004 NGrid=           0
         NMat0=    1 NMatS0=      1 NMatT0=    0 NMatD0=    1 NMtDS0=    0 NMtDT0=    0
 Petite list used in FoFCou.
 Initial guess orbital symmetries:
       Occupied  (A1) (A1) (A1) (A1) (B2) (B1) (A1) (B2)
       Virtual   (B1) (A1) (B2) (A1) (A1) (B1) (A1) (B2) (B1) (B2)
                 (A1) (B2) (A1) (A2) (A1) (B1) (A1) (A2) (B2) (B2)
                 (A1) (B1) (A1) (B1) (A2) (A1) (B2) (A1) (A1) (B2)
 The electronic state of the initial guess is 3-B2.
 SCF Done:  E(ROHF) =  -76.7212370656     A.U. after   14 cycles
            NFock= 14  Conv=0.26D-08     -V/T= 2.0020
 <Sx>= 0.0000 <Sy>= 0.0000 <Sz>= 1.0000 <S**2>= 2.0000 S= 1.0000
 <L.S>=  0.00000000000    
 Annihilation of the first spin contaminant:
 S**2 before annihilation     2.0000,   after     2.0000
 GenMOA:  NOpAll=  4 NOp2=4 NOpUse=  4 JSym2X=1
 <Sx>= 0.0000 <Sy>= 0.0000 <Sz>= 1.0000 <S**2>= 2.0000 S= 1.0000
 ExpMin= 1.22D-01 ExpMax= 6.67D+03 ExpMxC= 2.28D+02 IAcc=3 IRadAn=         5 AccDes= 0.00D+00
 HarFok:  IExCor=  205 AccDes= 0.00D+00 IRadAn=         5 IDoV=-2 UseB2=F ITyADJ=14
 ICtDFT= 12500011 ScaDFX=  1.000000  1.000000  1.000000  1.000000
 NROrb=     36 NOA=     6 NOB=     4 NVA=    30 NVB=    32
 Singles contribution to E2=   -0.3105938465D-02
 ANorm=    0.1042637975D+01
 E2 =    -0.2159365437D+00 EUMP2 =    -0.76937173609293D+02

 **********************************************************************

            Population analysis using the SCF Density.

 **********************************************************************

 Orbital symmetries:
       Occupied  (A1) (A1) (A1) (A1) (B2) (B1) (A1) (B2)
       Virtual   (B1) (A1) (B2) (A1) (A1) (B1) (B2) (A1) (B2) (B1)
                 (A1) (B2) (A1) (A2) (A1) (B1) (A1) (A2) (B2) (B2)
                 (A1) (B1) (A1) (B1) (A2) (A1) (B2) (A1) (A1) (B2)
 The electronic state is 3-B2.
 Alpha  occ. eigenvalues --  -11.30917 -11.26738  -1.06337  -0.76542  -0.62776
 Alpha  occ. eigenvalues --   -0.57603  -0.41053  -0.38217
 Alpha virt. eigenvalues --    0.14456   0.20821   0.25578   0.39810   0.57308
 Alpha virt. eigenvalues --    0.65552   0.66486   0.69120   0.76001   0.78366
 Alpha virt. eigenvalues --    0.78782   0.88545   0.97709   1.14055   1.19713
 Alpha virt. eigenvalues --    1.27533   1.33610   1.41257   1.60867   1.70505
 Alpha virt. eigenvalues --    1.78792   1.85518   1.92164   2.14681   2.15851
 Alpha virt. eigenvalues --    2.21754   2.30590   2.54015   2.77576   2.88788
          Condensed to atoms (all electrons):
          Atomic-Atomic Spin Densities.
 Mulliken charges and spin densities:
               1          2
     1  C   -0.095384   1.889356
     2  C   -0.056378   0.058768
     3  H    0.075881   0.025938
     4  H    0.075881   0.025938
 Sum of Mulliken charges =  -0.00000   2.00000
 Mulliken charges and spin densities with hydrogens summed into heavy atoms:
               1          2
     1  C   -0.095384   1.889356
     2  C    0.095384   0.110644
 Electronic spatial extent (au):  <R**2>=             62.0615
 Charge=              0.0000 electrons
 Dipole moment (field-independent basis, Debye):
    X=             -0.0000    Y=              0.0000    Z=             -0.4156  Tot=              0.4156
                          Isotropic Fermi Contact Couplings
        Atom                 a.u.       MegaHertz       Gauss      10(-4) cm-1
     1  C(13)              0.91390     513.69979     183.30086     171.35181
     2  C(13)              0.10727      60.29635      21.51524      20.11270
     3  H(1)               0.01395      31.18669      11.12819      10.40276
     4  H(1)               0.01395      31.18669      11.12819      10.40276
 --------------------------------------------------------
       Center         ----  Spin Dipole Couplings  ----
                      3XX-RR        3YY-RR        3ZZ-RR
 --------------------------------------------------------
     1   Atom       -1.024232      0.849585      0.174647
     2   Atom       -0.133948     -0.098237      0.232185
     3   Atom       -0.026294     -0.002677      0.028971
     4   Atom       -0.026294     -0.002677      0.028971
 --------------------------------------------------------
                        XY            XZ            YZ
 --------------------------------------------------------
     1   Atom       -0.000000     -0.000000     -0.000000
     2   Atom        0.000000      0.000000      0.000000
     3   Atom       -0.000000      0.000000     -0.025687
     4   Atom        0.000000      0.000000      0.025687
 --------------------------------------------------------


 ---------------------------------------------------------------------------------
              Anisotropic Spin Dipole Couplings in Principal Axis System
 ---------------------------------------------------------------------------------

       Atom             a.u.   MegaHertz   Gauss  10(-4) cm-1        Axes

              Baa    -1.0242  -137.442   -49.043   -45.846  1.0000 -0.0000 -0.0000
     1 C(13)  Bbb     0.1746    23.436     8.363     7.817  0.0000  0.0000  1.0000
              Bcc     0.8496   114.006    40.680    38.028  0.0000  1.0000 -0.0000
 
              Baa    -0.1339   -17.975    -6.414    -5.996  1.0000  0.0000 -0.0000
     2 C(13)  Bbb    -0.0982   -13.182    -4.704    -4.397 -0.0000  1.0000 -0.0000
              Bcc     0.2322    31.157    11.118    10.393  0.0000  0.0000  1.0000
 
              Baa    -0.0263   -14.029    -5.006    -4.680  1.0000  0.0000  0.0000
     3 H(1)   Bbb    -0.0170    -9.082    -3.241    -3.030 -0.0000  0.8731  0.4876
              Bcc     0.0433    23.112     8.247     7.709  0.0000 -0.4876  0.8731
 
              Baa    -0.0263   -14.029    -5.006    -4.680  1.0000 -0.0000 -0.0000
     4 H(1)   Bbb    -0.0170    -9.082    -3.241    -3.030  0.0000  0.8731 -0.4876
              Bcc     0.0433    23.112     8.247     7.709  0.0000  0.4876  0.8731
 

 ---------------------------------------------------------------------------------

 Unable to Open any file for archive entry.
 1\1\GINC-NODE01\SP\ROMP2-FC\CC-pVDZ\C2H2(3)\XUHJ\06-Nov-2024\0\\#T ROM
 P2/cc-pVDZ symm=veryloose\\[C]=C\\0,3\C,0,0.,0.,0.836746\C,0,0.,0.,-0.
 483167\H,0,0.,-0.943805,-1.060736\H,0,0.,0.943805,-1.060736\\Version=E
 S64L-G16RevC.01\State=3-B2\HF=-76.7212371\MP2=-76.9371736\RMSD=2.556e-
 09\PG=C02V [C2(C1C1),SGV(H2)]\\@
 The archive entry for this job was punched.


 LAWS OF PROGRAMMING DEFINITION:  A WORKING PROGRAM
                                  IS ONE THAT HAS
                                  ONLY UNOBSERVED
                                  BUGS.
 Job cpu time:       0 days  0 hours  0 minutes  9.7 seconds.
 Elapsed time:       0 days  0 hours  0 minutes  0.6 seconds.
 File lengths (MBytes):  RWF=      6 Int=      0 D2E=      0 Chk=      1 Scr=      1
 Normal termination of Gaussian 16 at Wed Nov  6 12:30:52 2024.
