%nprocshared=16
%mem=320MB
#T MP2/cc-pVDZ symm=veryloose

[H][H]

0 1
H         0.000000       0.000000       0.382265
H         0.000000       0.000000      -0.382265


