 Entering Gaussian System, Link 0=g16
 Initial command:
 /opt/g16/l1.exe "/tmp/Gau-2302958.inp" -scrdir="/tmp/"
 Default is to use a total of   8 processors:
                                8 via shared-memory
                                1 via Linda
 Entering Link 1 = /opt/g16/l1.exe PID=   2302959.
  
 Copyright (c) 1988-2019, Gaussian, Inc.  All Rights Reserved.
  
 This is part of the Gaussian(R) 16 program.  It is based on
 the Gaussian(R) 09 system (copyright 2009, Gaussian, Inc.),
 the Gaussian(R) 03 system (copyright 2003, Gaussian, Inc.),
 the Gaussian(R) 98 system (copyright 1998, Gaussian, Inc.),
 the Gaussian(R) 94 system (copyright 1995, Gaussian, Inc.),
 the Gaussian 92(TM) system (copyright 1992, Gaussian, Inc.),
 the Gaussian 90(TM) system (copyright 1990, Gaussian, Inc.),
 the Gaussian 88(TM) system (copyright 1988, Gaussian, Inc.),
 the Gaussian 86(TM) system (copyright 1986, Carnegie Mellon
 University), and the Gaussian 82(TM) system (copyright 1983,
 Carnegie Mellon University). Gaussian is a federally registered
 trademark of Gaussian, Inc.
  
 This software contains proprietary and confidential information,
 including trade secrets, belonging to Gaussian, Inc.
  
 This software is provided under written license and may be
 used, copied, transmitted, or stored only in accord with that
 written license.
  
 The following legend is applicable only to US Government
 contracts under FAR:
  
                    RESTRICTED RIGHTS LEGEND
  
 Use, reproduction and disclosure by the US Government is
 subject to restrictions as set forth in subparagraphs (a)
 and (c) of the Commercial Computer Software - Restricted
 Rights clause in FAR 52.227-19.
  
 Gaussian, Inc.
 340 Quinnipiac St., Bldg. 40, Wallingford CT 06492
  
  
 ---------------------------------------------------------------
 Warning -- This program may not be used in any manner that
 competes with the business of Gaussian, Inc. or will provide
 assistance to any competitor of Gaussian, Inc.  The licensee
 of this program is prohibited from giving any competitor of
 Gaussian, Inc. access to this program.  By using this program,
 the user acknowledges that Gaussian, Inc. is engaged in the
 business of creating and licensing software in the field of
 computational chemistry and represents and warrants to the
 licensee that it is not a competitor of Gaussian, Inc. and that
 it will not use this program in any manner prohibited above.
 ---------------------------------------------------------------
  

 Cite this work as:
 Gaussian 16, Revision C.01,
 M. J. Frisch, G. W. Trucks, H. B. Schlegel, G. E. Scuseria, 
 M. A. Robb, J. R. Cheeseman, G. Scalmani, V. Barone, 
 G. A. Petersson, H. Nakatsuji, X. Li, M. Caricato, A. V. Marenich, 
 J. Bloino, B. G. Janesko, R. Gomperts, B. Mennucci, H. P. Hratchian, 
 J. V. Ortiz, A. F. Izmaylov, J. L. Sonnenberg, D. Williams-Young, 
 F. Ding, F. Lipparini, F. Egidi, J. Goings, B. Peng, A. Petrone, 
 T. Henderson, D. Ranasinghe, V. G. Zakrzewski, J. Gao, N. Rega, 
 G. Zheng, W. Liang, M. Hada, M. Ehara, K. Toyota, R. Fukuda, 
 J. Hasegawa, M. Ishida, T. Nakajima, Y. Honda, O. Kitao, H. Nakai, 
 T. Vreven, K. Throssell, J. A. Montgomery, Jr., J. E. Peralta, 
 F. Ogliaro, M. J. Bearpark, J. J. Heyd, E. N. Brothers, K. N. Kudin, 
 V. N. Staroverov, T. A. Keith, R. Kobayashi, J. Normand, 
 K. Raghavachari, A. P. Rendell, J. C. Burant, S. S. Iyengar, 
 J. Tomasi, M. Cossi, J. M. Millam, M. Klene, C. Adamo, R. Cammi, 
 J. W. Ochterski, R. L. Martin, K. Morokuma, O. Farkas, 
 J. B. Foresman, and D. J. Fox, Gaussian, Inc., Wallingford CT, 2019.
 
 ******************************************
 Gaussian 16:  ES64L-G16RevC.01  3-Jul-2019
                28-Aug-2024 
 ******************************************
 %nprocshared=8
 Will use up to    8 processors via shared memory.
 %mem=640MB
 -----------------------------
 #T MP2/cc-pVDZ symm=veryloose
 -----------------------------
 -------
 C[CH]CC
 -------
 Symbolic Z-matrix:
 Charge =  0 Multiplicity = 2
 C                     1.98594   0.04306  -0.0672 
 C                     0.58113  -0.44433   0.0438 
 C                    -0.57206   0.50451   0.09197 
 C                    -1.93738  -0.16792  -0.08153 
 H                     2.68813  -0.76861  -0.3279 
 H                     2.35168   0.48873   0.88747 
 H                     2.08254   0.84008  -0.83109 
 H                     0.40652  -1.485     0.34671 
 H                    -0.43742   1.29061  -0.67988 
 H                    -0.56489   1.06173   1.0594 
 H                    -2.00474  -0.68083  -1.05774 
 H                    -2.75977   0.56693  -0.02442 
 H                    -2.10783  -0.92555   0.70527 
 
                    Distance matrix (angstroms):
                    1          2          3          4          5
     1  C    0.000000
     2  C    1.491093   0.000000
     3  C    2.604159   1.494144   0.000000
     4  C    3.929009   2.536727   1.531772   0.000000
     5  H    1.104470   2.163971   3.525052   4.670851   0.000000
     6  H    1.115256   2.171922   3.030076   4.445914   1.780800
     7  H    1.108190   2.160866   2.830467   4.211600   1.791039
     8  H    2.236266   1.097839   2.231738   2.722487   2.484772
     9  H    2.793641   2.138031   1.109880   2.176047   3.759439
    10  H    2.968776   2.147794   1.116455   2.167363   3.982071
    11  H    4.175014   2.820651   2.186191   1.104817   4.750100
    12  H    4.774725   3.491261   2.191687   1.104349   5.617418
    13  H    4.277133   2.810628   2.186271   1.105497   4.908495
                    6          7          8          9         10
     6  H    0.000000
     7  H    1.774638   0.000000
     8  H    2.823424   3.098750   0.000000
     9  H    3.298286   2.564380   3.077362   0.000000
    10  H    2.977290   3.260665   2.817337   1.758894   0.000000
    11  H    4.912248   4.366965   2.904025   2.546738   3.097095
    12  H    5.192742   4.916629   3.791241   2.519252   2.497396
    13  H    4.681947   4.799688   2.600669   3.101657   2.540741
                   11         12         13
    11  H    0.000000
    12  H    1.787381   0.000000
    13  H    1.782902   1.784648   0.000000
 Framework group  C1[X(C4H9)]
 Deg. of freedom    33
                         Standard orientation:                         
 ---------------------------------------------------------------------
 Center     Atomic      Atomic             Coordinates (Angstroms)
 Number     Number       Type             X           Y           Z
 ---------------------------------------------------------------------
      1          6           0        1.985939    0.043062   -0.067204
      2          6           0        0.581131   -0.444330    0.043796
      3          6           0       -0.572064    0.504505    0.091967
      4          6           0       -1.937375   -0.167916   -0.081529
      5          1           0        2.688132   -0.768612   -0.327902
      6          1           0        2.351681    0.488733    0.887472
      7          1           0        2.082536    0.840075   -0.831091
      8          1           0        0.406516   -1.485003    0.346713
      9          1           0       -0.437423    1.290612   -0.679876
     10          1           0       -0.564888    1.061729    1.059398
     11          1           0       -2.004743   -0.680833   -1.057745
     12          1           0       -2.759768    0.566927   -0.024418
     13          1           0       -2.107829   -0.925553    0.705271
 ---------------------------------------------------------------------
 Rotational constants (GHZ):          26.2953414           3.6185804           3.4035797
   101 basis functions,   195 primitive gaussians,   105 cartesian basis functions
    17 alpha electrons       16 beta electrons
       nuclear repulsion energy       121.5181258012 Hartrees.
 NAtoms=   13 NActive=   13 NUniq=   13 SFac= 1.00D+00 NAtFMM=   60 NAOKFM=F Big=F
 ExpMin= 1.22D-01 ExpMax= 6.67D+03 ExpMxC= 2.28D+02 IAcc=3 IRadAn=         5 AccDes= 0.00D+00
 Harris functional with IExCor=  205 and IRadAn=       5 diagonalized for initial guess.
 HarFok:  IExCor=  205 AccDes= 0.00D+00 IRadAn=         5 IDoV= 1 UseB2=F ITyADJ=14
 ICtDFT=  3500011 ScaDFX=  1.000000  1.000000  1.000000  1.000000
 FoFCou: FMM=F IPFlag=           0 FMFlag=      100000 FMFlg1=           0
         NFxFlg=           0 DoJE=T BraDBF=F KetDBF=T FulRan=T
         wScrn=  0.000000 ICntrl=       500 IOpCl=  0 I1Cent=   200000004 NGrid=           0
         NMat0=    1 NMatS0=      1 NMatT0=    0 NMatD0=    1 NMtDS0=    0 NMtDT0=    0
 Petite list used in FoFCou.
 Initial guess <Sx>= 0.0000 <Sy>= 0.0000 <Sz>= 0.5000 <S**2>= 0.7500 S= 0.5000
 Integral accuracy reduced to 1.0D-05 until final iterations.
 Initial convergence to 1.0D-05 achieved.  Increase integral accuracy.
 SCF Done:  E(UHF) =  -156.681657951     A.U. after   16 cycles
            NFock= 16  Conv=0.50D-08     -V/T= 2.0020
 <Sx>= 0.0000 <Sy>= 0.0000 <Sz>= 0.5000 <S**2>= 0.7640 S= 0.5070
 <L.S>=  0.00000000000    
 Annihilation of the first spin contaminant:
 S**2 before annihilation     0.7640,   after     0.7501
 ExpMin= 1.22D-01 ExpMax= 6.67D+03 ExpMxC= 2.28D+02 IAcc=3 IRadAn=         5 AccDes= 0.00D+00
 HarFok:  IExCor=  205 AccDes= 0.00D+00 IRadAn=         5 IDoV=-2 UseB2=F ITyADJ=14
 ICtDFT= 12500011 ScaDFX=  1.000000  1.000000  1.000000  1.000000
 NROrb=     97 NOA=    13 NOB=    12 NVA=    84 NVB=    85
 (S**2,0)=  0.76405D+00           (S**2,1)=  0.75397D+00
 E(PUHF)=      -0.15668516110D+03        E(PMP2)=      -0.15723878171D+03
 ANorm=    0.1091161946D+01
 E2 =    -0.5548690731D+00 EUMP2 =    -0.15723652702372D+03

 **********************************************************************

            Population analysis using the SCF Density.

 **********************************************************************

 Orbital symmetries:
 Alpha Orbitals:
       Occupied  (A) (A) (A) (A) (A) (A) (A) (A) (A) (A) (A) (A)
                 (A) (A) (A) (A) (A)
       Virtual   (A) (A) (A) (A) (A) (A) (A) (A) (A) (A) (A) (A)
                 (A) (A) (A) (A) (A) (A) (A) (A) (A) (A) (A) (A)
                 (A) (A) (A) (A) (A) (A) (A) (A) (A) (A) (A) (A)
                 (A) (A) (A) (A) (A) (A) (A) (A) (A) (A) (A) (A)
                 (A) (A) (A) (A) (A) (A) (A) (A) (A) (A) (A) (A)
                 (A) (A) (A) (A) (A) (A) (A) (A) (A) (A) (A) (A)
                 (A) (A) (A) (A) (A) (A) (A) (A) (A) (A) (A) (A)
 Beta  Orbitals:
       Occupied  (A) (A) (A) (A) (A) (A) (A) (A) (A) (A) (A) (A)
                 (A) (A) (A) (A)
       Virtual   (A) (A) (A) (A) (A) (A) (A) (A) (A) (A) (A) (A)
                 (A) (A) (A) (A) (A) (A) (A) (A) (A) (A) (A) (A)
                 (A) (A) (A) (A) (A) (A) (A) (A) (A) (A) (A) (A)
                 (A) (A) (A) (A) (A) (A) (A) (A) (A) (A) (A) (A)
                 (A) (A) (A) (A) (A) (A) (A) (A) (A) (A) (A) (A)
                 (A) (A) (A) (A) (A) (A) (A) (A) (A) (A) (A) (A)
                 (A) (A) (A) (A) (A) (A) (A) (A) (A) (A) (A) (A)
                 (A)
 The electronic state is 2-A.
 Alpha  occ. eigenvalues --  -11.22889 -11.22735 -11.22536 -11.22332  -1.07617
 Alpha  occ. eigenvalues --   -0.98332  -0.86275  -0.77489  -0.62063  -0.59044
 Alpha  occ. eigenvalues --   -0.58560  -0.55809  -0.51698  -0.48918  -0.47846
 Alpha  occ. eigenvalues --   -0.47466  -0.32447
 Alpha virt. eigenvalues --    0.18790   0.20267   0.21610   0.24177   0.26202
 Alpha virt. eigenvalues --    0.27261   0.28127   0.28614   0.29874   0.38934
 Alpha virt. eigenvalues --    0.40075   0.44134   0.58045   0.58919   0.59444
 Alpha virt. eigenvalues --    0.64819   0.67469   0.69618   0.72277   0.74272
 Alpha virt. eigenvalues --    0.83401   0.86777   0.87538   0.88005   0.88510
 Alpha virt. eigenvalues --    0.89188   0.89866   0.90490   0.91393   0.91687
 Alpha virt. eigenvalues --    0.94498   0.95141   0.99310   1.06152   1.12567
 Alpha virt. eigenvalues --    1.13843   1.29381   1.31582   1.43420   1.46096
 Alpha virt. eigenvalues --    1.50505   1.55390   1.60692   1.63101   1.68159
 Alpha virt. eigenvalues --    1.68878   1.69316   1.77607   1.82652   1.87792
 Alpha virt. eigenvalues --    1.89277   1.90712   1.91363   1.92481   1.94670
 Alpha virt. eigenvalues --    1.96397   1.97076   1.98890   1.99700   2.01639
 Alpha virt. eigenvalues --    2.05253   2.06219   2.15627   2.20443   2.23127
 Alpha virt. eigenvalues --    2.28815   2.32017   2.37537   2.39594   2.43552
 Alpha virt. eigenvalues --    2.51041   2.53409   2.55120   2.59032   2.65188
 Alpha virt. eigenvalues --    2.71396   2.73777   2.76515   2.80652   2.84204
 Alpha virt. eigenvalues --    2.87447   2.88805   2.99371   3.11838
  Beta  occ. eigenvalues --  -11.23079 -11.22881 -11.22286 -11.20336  -1.04836
  Beta  occ. eigenvalues --   -0.97304  -0.85300  -0.73537  -0.60132  -0.58206
  Beta  occ. eigenvalues --   -0.57646  -0.53708  -0.51265  -0.48133  -0.47327
  Beta  occ. eigenvalues --   -0.46711
  Beta virt. eigenvalues --    0.15140   0.19112   0.20445   0.22094   0.24496
  Beta virt. eigenvalues --    0.26505   0.27608   0.28783   0.29216   0.30604
  Beta virt. eigenvalues --    0.39225   0.41653   0.44842   0.58252   0.59379
  Beta virt. eigenvalues --    0.60114   0.65979   0.69253   0.72530   0.75327
  Beta virt. eigenvalues --    0.80618   0.85284   0.86958   0.88042   0.88404
  Beta virt. eigenvalues --    0.89803   0.90049   0.90394   0.90957   0.92030
  Beta virt. eigenvalues --    0.92515   0.95353   0.95573   0.99976   1.08578
  Beta virt. eigenvalues --    1.14736   1.16470   1.29989   1.32729   1.43677
  Beta virt. eigenvalues --    1.46399   1.50890   1.57174   1.62929   1.64975
  Beta virt. eigenvalues --    1.68737   1.68981   1.69971   1.78530   1.83933
  Beta virt. eigenvalues --    1.88161   1.89552   1.91064   1.91748   1.93046
  Beta virt. eigenvalues --    1.95119   1.96946   1.97354   1.99760   2.00563
  Beta virt. eigenvalues --    2.02723   2.06588   2.07002   2.16799   2.21259
  Beta virt. eigenvalues --    2.23746   2.29130   2.32354   2.38281   2.40336
  Beta virt. eigenvalues --    2.44066   2.51565   2.53895   2.55538   2.59681
  Beta virt. eigenvalues --    2.65618   2.71684   2.73786   2.76868   2.80942
  Beta virt. eigenvalues --    2.84481   2.87626   2.89058   2.99648   3.12449
          Condensed to atoms (all electrons):
          Atomic-Atomic Spin Densities.
 Mulliken charges and spin densities:
               1          2
     1  C   -0.010563  -0.148482
     2  C   -0.181360   1.169925
     3  C   -0.061479  -0.141684
     4  C   -0.051662   0.012520
     5  H    0.040083   0.012051
     6  H    0.036755   0.065834
     7  H    0.034647   0.025125
     8  H    0.031094  -0.079590
     9  H    0.029471   0.025520
    10  H    0.032166   0.062090
    11  H    0.035803   0.000542
    12  H    0.032368  -0.002020
    13  H    0.032679  -0.001831
 Sum of Mulliken charges =  -0.00000   1.00000
 Mulliken charges and spin densities with hydrogens summed into heavy atoms:
               1          2
     1  C    0.100921  -0.045471
     2  C   -0.150266   1.090335
     3  C    0.000158  -0.054075
     4  C    0.049187   0.009211
 Electronic spatial extent (au):  <R**2>=            419.9771
 Charge=             -0.0000 electrons
 Dipole moment (field-independent basis, Debye):
    X=              0.0423    Y=              0.0933    Z=              0.1316  Tot=              0.1667
 Unable to Open any file for archive entry.
 1\1\GINC-NODE08\SP\UMP2-FC\CC-pVDZ\C4H9(2)\UNKNOWN\28-Aug-2024\0\\#T M
 P2/cc-pVDZ symm=veryloose\\C[CH]CC\\0,2\C,0,1.985939,0.043062,-0.06720
 4\C,0,0.581131,-0.44433,0.043796\C,0,-0.572064,0.504505,0.091967\C,0,-
 1.937375,-0.167916,-0.081529\H,0,2.688132,-0.768612,-0.327902\H,0,2.35
 1681,0.488733,0.887472\H,0,2.082536,0.840075,-0.831091\H,0,0.406516,-1
 .485003,0.346713\H,0,-0.437423,1.290612,-0.679876\H,0,-0.564888,1.0617
 29,1.059398\H,0,-2.004743,-0.680833,-1.057745\H,0,-2.759768,0.566927,-
 0.024418\H,0,-2.107829,-0.925553,0.705271\\Version=ES64L-G16RevC.01\St
 ate=2-A\HF=-156.681658\MP2=-157.236527\PUHF=-156.6851611\PMP2-0=-157.2
 387817\S2=0.764049\S2-1=0.753972\S2A=0.750149\RMSD=5.044e-09\PG=C01 [X
 (C4H9)]\\@
 The archive entry for this job was punched.


 Spring appears, and we are once more children.
                                  -- Anonymous
 Job cpu time:       0 days  0 hours  0 minutes 23.5 seconds.
 Elapsed time:       0 days  0 hours  0 minutes  3.1 seconds.
 File lengths (MBytes):  RWF=     16 Int=      0 D2E=      0 Chk=      2 Scr=      1
 Normal termination of Gaussian 16 at Wed Aug 28 17:47:27 2024.
