 Entering Gaussian System, Link 0=g16
 Initial command:
 /home/software/g16/l1.exe "/home/software/g16tmp/Gau-148926.inp" -scrdir="/home/software/g16tmp/"
 Default is to use a total of   8 processors:
                                8 via shared-memory
                                1 via Linda
 Entering Link 1 = /home/software/g16/l1.exe PID=    148927.
  
 Copyright (c) 1988-2019, Gaussian, Inc.  All Rights Reserved.
  
 This is part of the Gaussian(R) 16 program.  It is based on
 the Gaussian(R) 09 system (copyright 2009, Gaussian, Inc.),
 the Gaussian(R) 03 system (copyright 2003, Gaussian, Inc.),
 the Gaussian(R) 98 system (copyright 1998, Gaussian, Inc.),
 the Gaussian(R) 94 system (copyright 1995, Gaussian, Inc.),
 the Gaussian 92(TM) system (copyright 1992, Gaussian, Inc.),
 the Gaussian 90(TM) system (copyright 1990, Gaussian, Inc.),
 the Gaussian 88(TM) system (copyright 1988, Gaussian, Inc.),
 the Gaussian 86(TM) system (copyright 1986, Carnegie Mellon
 University), and the Gaussian 82(TM) system (copyright 1983,
 Carnegie Mellon University). Gaussian is a federally registered
 trademark of Gaussian, Inc.
  
 This software contains proprietary and confidential information,
 including trade secrets, belonging to Gaussian, Inc.
  
 This software is provided under written license and may be
 used, copied, transmitted, or stored only in accord with that
 written license.
  
 The following legend is applicable only to US Government
 contracts under FAR:
  
                    RESTRICTED RIGHTS LEGEND
  
 Use, reproduction and disclosure by the US Government is
 subject to restrictions as set forth in subparagraphs (a)
 and (c) of the Commercial Computer Software - Restricted
 Rights clause in FAR 52.227-19.
  
 Gaussian, Inc.
 340 Quinnipiac St., Bldg. 40, Wallingford CT 06492
  
  
 ---------------------------------------------------------------
 Warning -- This program may not be used in any manner that
 competes with the business of Gaussian, Inc. or will provide
 assistance to any competitor of Gaussian, Inc.  The licensee
 of this program is prohibited from giving any competitor of
 Gaussian, Inc. access to this program.  By using this program,
 the user acknowledges that Gaussian, Inc. is engaged in the
 business of creating and licensing software in the field of
 computational chemistry and represents and warrants to the
 licensee that it is not a competitor of Gaussian, Inc. and that
 it will not use this program in any manner prohibited above.
 ---------------------------------------------------------------
  

 Cite this work as:
 Gaussian 16, Revision C.01,
 M. J. Frisch, G. W. Trucks, H. B. Schlegel, G. E. Scuseria, 
 M. A. Robb, J. R. Cheeseman, G. Scalmani, V. Barone, 
 G. A. Petersson, H. Nakatsuji, X. Li, M. Caricato, A. V. Marenich, 
 J. Bloino, B. G. Janesko, R. Gomperts, B. Mennucci, H. P. Hratchian, 
 J. V. Ortiz, A. F. Izmaylov, J. L. Sonnenberg, D. Williams-Young, 
 F. Ding, F. Lipparini, F. Egidi, J. Goings, B. Peng, A. Petrone, 
 T. Henderson, D. Ranasinghe, V. G. Zakrzewski, J. Gao, N. Rega, 
 G. Zheng, W. Liang, M. Hada, M. Ehara, K. Toyota, R. Fukuda, 
 J. Hasegawa, M. Ishida, T. Nakajima, Y. Honda, O. Kitao, H. Nakai, 
 T. Vreven, K. Throssell, J. A. Montgomery, Jr., J. E. Peralta, 
 F. Ogliaro, M. J. Bearpark, J. J. Heyd, E. N. Brothers, K. N. Kudin, 
 V. N. Staroverov, T. A. Keith, R. Kobayashi, J. Normand, 
 K. Raghavachari, A. P. Rendell, J. C. Burant, S. S. Iyengar, 
 J. Tomasi, M. Cossi, J. M. Millam, M. Klene, C. Adamo, R. Cammi, 
 J. W. Ochterski, R. L. Martin, K. Morokuma, O. Farkas, 
 J. B. Foresman, and D. J. Fox, Gaussian, Inc., Wallingford CT, 2019.
 
 ******************************************
 Gaussian 16:  ES64L-G16RevC.01  3-Jul-2019
                20-Dec-2023 
 ******************************************
 %nprocshared=16
 Will use up to   16 processors via shared memory.
 %mem=640MB
 -----------------------------
 #T MP2/cc-pVDZ symm=veryloose
 -----------------------------
 -----
 [CH]O
 -----
 Symbolic Z-matrix:
 Charge =  0 Multiplicity = 3
 C                     0.7146   -0.06138  -0.16837 
 O                    -0.53968   0.04012   0.26008 
 H                     1.17394   0.64071  -0.88939 
 H                    -1.14407  -0.59336  -0.18107 
 
                    Distance matrix (angstroms):
                    1          2          3          4
     1  C    0.000000
     2  O    1.329320   0.000000
     3  H    1.106251   2.149064   0.000000
     4  H    1.933342   0.980406   2.719891   0.000000
 This structure is nearly, but not quite of a higher symmetry.
 Consider Symm=Loose if the higher symmetry is desired.
 Framework group  C1[X(CH2O)]
 Deg. of freedom     6
                         Standard orientation:                         
 ---------------------------------------------------------------------
 Center     Atomic      Atomic             Coordinates (Angstroms)
 Number     Number       Type             X           Y           Z
 ---------------------------------------------------------------------
      1          6           0        0.247152   -0.209548    0.661644
      2          8           0       -0.077597    0.151921   -0.575680
      3          1           0       -0.309913   -0.967233    1.244210
      4          1           0       -0.552221    1.009151   -0.608627
 ---------------------------------------------------------------------
 Rotational constants (GHZ):         352.2735425          32.1266489          31.7208509
    38 basis functions,    80 primitive gaussians,    40 cartesian basis functions
     9 alpha electrons        7 beta electrons
       nuclear repulsion energy        30.1027412572 Hartrees.
 NAtoms=    4 NActive=    4 NUniq=    4 SFac= 1.00D+00 NAtFMM=   60 NAOKFM=F Big=F
 ExpMin= 1.22D-01 ExpMax= 1.17D+04 ExpMxC= 4.01D+02 IAcc=3 IRadAn=         5 AccDes= 0.00D+00
 Harris functional with IExCor=  205 and IRadAn=       5 diagonalized for initial guess.
 HarFok:  IExCor=  205 AccDes= 0.00D+00 IRadAn=         5 IDoV= 1 UseB2=F ITyADJ=14
 ICtDFT=  3500011 ScaDFX=  1.000000  1.000000  1.000000  1.000000
 FoFCou: FMM=F IPFlag=           0 FMFlag=      100000 FMFlg1=           0
         NFxFlg=           0 DoJE=T BraDBF=F KetDBF=T FulRan=T
         wScrn=  0.000000 ICntrl=       500 IOpCl=  0 I1Cent=   200000004 NGrid=           0
         NMat0=    1 NMatS0=      1 NMatT0=    0 NMatD0=    1 NMtDS0=    0 NMtDT0=    0
 Petite list used in FoFCou.
 Initial guess <Sx>= 0.0000 <Sy>= 0.0000 <Sz>= 1.0000 <S**2>= 2.0000 S= 1.0000
 SCF Done:  E(UHF) =  -113.788542016     A.U. after   15 cycles
            NFock= 15  Conv=0.71D-08     -V/T= 2.0005
 <Sx>= 0.0000 <Sy>= 0.0000 <Sz>= 1.0000 <S**2>= 2.0104 S= 1.0035
 <L.S>=  0.00000000000    
 Annihilation of the first spin contaminant:
 S**2 before annihilation     2.0104,   after     2.0001
 ExpMin= 1.22D-01 ExpMax= 1.17D+04 ExpMxC= 4.01D+02 IAcc=3 IRadAn=         5 AccDes= 0.00D+00
 HarFok:  IExCor=  205 AccDes= 0.00D+00 IRadAn=         5 IDoV=-2 UseB2=F ITyADJ=14
 ICtDFT= 12500011 ScaDFX=  1.000000  1.000000  1.000000  1.000000
 NROrb=     36 NOA=     7 NOB=     5 NVA=    29 NVB=    31
 (S**2,0)=  0.20104D+01           (S**2,1)=  0.20021D+01
 E(PUHF)=      -0.11379090264D+03        E(PMP2)=      -0.11406750297D+03
 ANorm=    0.1038132002D+01
 E2 =    -0.2775443298D+00 EUMP2 =    -0.11406608634625D+03

 **********************************************************************

            Population analysis using the SCF Density.

 **********************************************************************

 Orbital symmetries:
 Alpha Orbitals:
       Occupied  (A) (A) (A) (A) (A) (A) (A) (A) (A)
       Virtual   (A) (A) (A) (A) (A) (A) (A) (A) (A) (A) (A) (A)
                 (A) (A) (A) (A) (A) (A) (A) (A) (A) (A) (A) (A)
                 (A) (A) (A) (A) (A)
 Beta  Orbitals:
       Occupied  (A) (A) (A) (A) (A) (A) (A)
       Virtual   (A) (A) (A) (A) (A) (A) (A) (A) (A) (A) (A) (A)
                 (A) (A) (A) (A) (A) (A) (A) (A) (A) (A) (A) (A)
                 (A) (A) (A) (A) (A) (A) (A)
 The electronic state is 3-A.
 Alpha  occ. eigenvalues --  -20.59884 -11.30035  -1.41753  -0.91460  -0.71260
 Alpha  occ. eigenvalues --   -0.65010  -0.60040  -0.40608  -0.36495
 Alpha virt. eigenvalues --    0.18326   0.22400   0.38628   0.64501   0.66423
 Alpha virt. eigenvalues --    0.70369   0.77158   0.79147   0.94094   1.15866
 Alpha virt. eigenvalues --    1.22096   1.22439   1.28161   1.29373   1.47020
 Alpha virt. eigenvalues --    1.59508   1.73747   1.82015   1.82576   2.00381
 Alpha virt. eigenvalues --    2.02836   2.33712   2.39528   2.70241   3.23368
 Alpha virt. eigenvalues --    3.33859   3.40970   3.63811   3.99285
  Beta  occ. eigenvalues --  -20.59058 -11.25109  -1.38534  -0.80739  -0.65048
  Beta  occ. eigenvalues --   -0.58339  -0.51819
  Beta virt. eigenvalues --    0.13878   0.18053   0.20069   0.25191   0.43054
  Beta virt. eigenvalues --    0.74322   0.77402   0.80638   0.83427   0.84354
  Beta virt. eigenvalues --    0.99392   1.19459   1.26758   1.28860   1.34498
  Beta virt. eigenvalues --    1.37609   1.53084   1.60989   1.79689   1.84903
  Beta virt. eigenvalues --    1.87015   2.03456   2.07281   2.37514   2.40588
  Beta virt. eigenvalues --    2.72567   3.25154   3.36253   3.43168   3.65405
  Beta virt. eigenvalues --    4.00230
          Condensed to atoms (all electrons):
          Atomic-Atomic Spin Densities.
 Mulliken charges and spin densities:
               1          2
     1  C    0.019882   1.901954
     2  O   -0.288103   0.059982
     3  H    0.070498   0.005837
     4  H    0.197723   0.032227
 Sum of Mulliken charges =   0.00000   2.00000
 Mulliken charges and spin densities with hydrogens summed into heavy atoms:
               1          2
     1  C    0.090380   1.907791
     2  O   -0.090380   0.092209
 Electronic spatial extent (au):  <R**2>=             62.8798
 Charge=              0.0000 electrons
 Dipole moment (field-independent basis, Debye):
    X=             -1.2082    Y=              1.0258    Z=              0.5331  Tot=              1.6722
 Unable to Open any file for archive entry.
 1\1\GINC-NODE06\SP\UMP2-FC\CC-pVDZ\C1H2O1(3)\XUHJ\20-Dec-2023\0\\#T MP
 2/cc-pVDZ symm=veryloose\\[CH]O\\0,3\C,0,0.714598,-0.061384,-0.168369\
 O,0,-0.539682,0.04012,0.260083\H,0,1.173938,0.640708,-0.889385\H,0,-1.
 144071,-0.593361,-0.181065\\Version=ES64L-G16RevC.01\State=3-A\HF=-113
 .788542\MP2=-114.0660863\PUHF=-113.7909026\PMP2-0=-114.067503\S2=2.010
 411\S2-1=2.002057\S2A=2.00005\RMSD=7.050e-09\PG=C01 [X(C1H2O1)]\\@
 The archive entry for this job was punched.


 I CLAIM NOT TO HAVE CONTROLLED EVENTS,
 BUT CONFESS PLAINLY THAT EVENTS HAVE CONTROLLED ME.

                                         A. LINCOLN
 Job cpu time:       0 days  0 hours  0 minutes  9.2 seconds.
 Elapsed time:       0 days  0 hours  0 minutes  0.7 seconds.
 File lengths (MBytes):  RWF=     17 Int=      0 D2E=      0 Chk=      2 Scr=      2
 Normal termination of Gaussian 16 at Wed Dec 20 12:21:30 2023.
