%nprocshared=16
%mem=640MB
#T MP2/cc-pVDZ symm=veryloose

C=C

0 1
C        -0.000000       0.000000      -0.667353
C         0.000000       0.000000       0.667353
H        -0.000000      -0.933849      -1.243887
H        -0.000000       0.933849      -1.243887
H         0.000000      -0.933849       1.243887
H        -0.000000       0.933849       1.243887


