%nprocshared=16
%mem=320MB
#T MP2/cc-pVDZ symm=veryloose

C

0 1
C         0.000000       0.000000       0.000000
H         0.636794       0.636794       0.636794
H        -0.636794      -0.636794       0.636794
H         0.636794      -0.636794      -0.636794
H        -0.636794       0.636794      -0.636794


