 Entering Gaussian System, Link 0=g16
 Initial command:
 /opt/g16/l1.exe "/tmp/Gau-255309.inp" -scrdir="/tmp/"
 Default is to use a total of   8 processors:
                                8 via shared-memory
                                1 via Linda
 Entering Link 1 = /opt/g16/l1.exe PID=    255310.
  
 Copyright (c) 1988-2019, Gaussian, Inc.  All Rights Reserved.
  
 This is part of the Gaussian(R) 16 program.  It is based on
 the Gaussian(R) 09 system (copyright 2009, Gaussian, Inc.),
 the Gaussian(R) 03 system (copyright 2003, Gaussian, Inc.),
 the Gaussian(R) 98 system (copyright 1998, Gaussian, Inc.),
 the Gaussian(R) 94 system (copyright 1995, Gaussian, Inc.),
 the Gaussian 92(TM) system (copyright 1992, Gaussian, Inc.),
 the Gaussian 90(TM) system (copyright 1990, Gaussian, Inc.),
 the Gaussian 88(TM) system (copyright 1988, Gaussian, Inc.),
 the Gaussian 86(TM) system (copyright 1986, Carnegie Mellon
 University), and the Gaussian 82(TM) system (copyright 1983,
 Carnegie Mellon University). Gaussian is a federally registered
 trademark of Gaussian, Inc.
  
 This software contains proprietary and confidential information,
 including trade secrets, belonging to Gaussian, Inc.
  
 This software is provided under written license and may be
 used, copied, transmitted, or stored only in accord with that
 written license.
  
 The following legend is applicable only to US Government
 contracts under FAR:
  
                    RESTRICTED RIGHTS LEGEND
  
 Use, reproduction and disclosure by the US Government is
 subject to restrictions as set forth in subparagraphs (a)
 and (c) of the Commercial Computer Software - Restricted
 Rights clause in FAR 52.227-19.
  
 Gaussian, Inc.
 340 Quinnipiac St., Bldg. 40, Wallingford CT 06492
  
  
 ---------------------------------------------------------------
 Warning -- This program may not be used in any manner that
 competes with the business of Gaussian, Inc. or will provide
 assistance to any competitor of Gaussian, Inc.  The licensee
 of this program is prohibited from giving any competitor of
 Gaussian, Inc. access to this program.  By using this program,
 the user acknowledges that Gaussian, Inc. is engaged in the
 business of creating and licensing software in the field of
 computational chemistry and represents and warrants to the
 licensee that it is not a competitor of Gaussian, Inc. and that
 it will not use this program in any manner prohibited above.
 ---------------------------------------------------------------
  

 Cite this work as:
 Gaussian 16, Revision C.01,
 M. J. Frisch, G. W. Trucks, H. B. Schlegel, G. E. Scuseria, 
 M. A. Robb, J. R. Cheeseman, G. Scalmani, V. Barone, 
 G. A. Petersson, H. Nakatsuji, X. Li, M. Caricato, A. V. Marenich, 
 J. Bloino, B. G. Janesko, R. Gomperts, B. Mennucci, H. P. Hratchian, 
 J. V. Ortiz, A. F. Izmaylov, J. L. Sonnenberg, D. Williams-Young, 
 F. Ding, F. Lipparini, F. Egidi, J. Goings, B. Peng, A. Petrone, 
 T. Henderson, D. Ranasinghe, V. G. Zakrzewski, J. Gao, N. Rega, 
 G. Zheng, W. Liang, M. Hada, M. Ehara, K. Toyota, R. Fukuda, 
 J. Hasegawa, M. Ishida, T. Nakajima, Y. Honda, O. Kitao, H. Nakai, 
 T. Vreven, K. Throssell, J. A. Montgomery, Jr., J. E. Peralta, 
 F. Ogliaro, M. J. Bearpark, J. J. Heyd, E. N. Brothers, K. N. Kudin, 
 V. N. Staroverov, T. A. Keith, R. Kobayashi, J. Normand, 
 K. Raghavachari, A. P. Rendell, J. C. Burant, S. S. Iyengar, 
 J. Tomasi, M. Cossi, J. M. Millam, M. Klene, C. Adamo, R. Cammi, 
 J. W. Ochterski, R. L. Martin, K. Morokuma, O. Farkas, 
 J. B. Foresman, and D. J. Fox, Gaussian, Inc., Wallingford CT, 2019.
 
 ******************************************
 Gaussian 16:  ES64L-G16RevC.01  3-Jul-2019
                14-Sep-2024 
 ******************************************
 %nprocshared=8
 Will use up to    8 processors via shared memory.
 %mem=1200MB
 -----------------------------
 #T MP2/cc-pVDZ symm=veryloose
 -----------------------------
 -----
 CC[O]
 -----
 Symbolic Z-matrix:
 Charge =  0 Multiplicity = 2
 C                     1.18926  -0.19263  -0.00007 
 C                    -0.18582   0.47447  -0.00321 
 O                    -1.25304  -0.36484  -0.00451 
 H                     1.99746   0.56028   0.03615 
 H                     1.32201  -0.8005   -0.91242 
 H                     1.28975  -0.86106   0.87283 
 H                    -0.29014   1.20577  -0.84365 
 H                    -0.31541   1.12315   0.90288 
 
                    Distance matrix (angstroms):
                    1          2          3          4          5
     1  C    0.000000
     2  C    1.528358   0.000000
     3  O    2.448372   1.357721   0.000000
     4  H    1.105145   2.185314   3.379825   0.000000
     5  H    1.104311   2.173877   2.764955   1.791004   0.000000
     6  H    1.104021   2.174486   2.735277   1.794737   1.786568
     7  H    2.203584   1.118940   2.024392   2.534524   2.574660
     8  H    2.193314   1.121865   1.979046   2.533259   3.110765
                    6          7          8
     6  H    0.000000
     7  H    3.116756   0.000000
     8  H    2.552354   1.748670   0.000000
 Framework group  C1[X(C2H5O)]
 Deg. of freedom    18
                         Standard orientation:                         
 ---------------------------------------------------------------------
 Center     Atomic      Atomic             Coordinates (Angstroms)
 Number     Number       Type             X           Y           Z
 ---------------------------------------------------------------------
      1          6           0        1.189263   -0.192625   -0.000072
      2          6           0       -0.185819    0.474471   -0.003212
      3          8           0       -1.253041   -0.364840   -0.004511
      4          1           0        1.997455    0.560274    0.036147
      5          1           0        1.322010   -0.800495   -0.912418
      6          1           0        1.289748   -0.861059    0.872832
      7          1           0       -0.290141    1.205774   -0.843652
      8          1           0       -0.315410    1.123148    0.902882
 ---------------------------------------------------------------------
 Rotational constants (GHZ):          39.5751464           9.5338987           8.4960477
    67 basis functions,   134 primitive gaussians,    70 cartesian basis functions
    13 alpha electrons       12 beta electrons
       nuclear repulsion energy        74.0223492032 Hartrees.
 NAtoms=    8 NActive=    8 NUniq=    8 SFac= 1.00D+00 NAtFMM=   60 NAOKFM=F Big=F
 ExpMin= 1.22D-01 ExpMax= 1.17D+04 ExpMxC= 4.01D+02 IAcc=3 IRadAn=         5 AccDes= 0.00D+00
 Harris functional with IExCor=  205 and IRadAn=       5 diagonalized for initial guess.
 HarFok:  IExCor=  205 AccDes= 0.00D+00 IRadAn=         5 IDoV= 1 UseB2=F ITyADJ=14
 ICtDFT=  3500011 ScaDFX=  1.000000  1.000000  1.000000  1.000000
 FoFCou: FMM=F IPFlag=           0 FMFlag=      100000 FMFlg1=           0
         NFxFlg=           0 DoJE=T BraDBF=F KetDBF=T FulRan=T
         wScrn=  0.000000 ICntrl=       500 IOpCl=  0 I1Cent=   200000004 NGrid=           0
         NMat0=    1 NMatS0=      1 NMatT0=    0 NMatD0=    1 NMtDS0=    0 NMtDT0=    0
 Petite list used in FoFCou.
 Initial guess <Sx>= 0.0000 <Sy>= 0.0000 <Sz>= 0.5000 <S**2>= 0.7500 S= 0.5000
 SCF Done:  E(UHF) =  -153.470891116     A.U. after   22 cycles
            NFock= 22  Conv=0.60D-08     -V/T= 2.0009
 <Sx>= 0.0000 <Sy>= 0.0000 <Sz>= 0.5000 <S**2>= 0.7583 S= 0.5041
 <L.S>=  0.00000000000    
 Annihilation of the first spin contaminant:
 S**2 before annihilation     0.7583,   after     0.7501
 ExpMin= 1.22D-01 ExpMax= 1.17D+04 ExpMxC= 4.01D+02 IAcc=3 IRadAn=         5 AccDes= 0.00D+00
 HarFok:  IExCor=  205 AccDes= 0.00D+00 IRadAn=         5 IDoV=-2 UseB2=F ITyADJ=14
 ICtDFT= 12500011 ScaDFX=  1.000000  1.000000  1.000000  1.000000
 NROrb=     64 NOA=    10 NOB=     9 NVA=    54 NVB=    55
 (S**2,0)=  0.75829D+00           (S**2,1)=  0.75170D+00
 E(PUHF)=      -0.15347428753D+03        E(PMP2)=      -0.15390319145D+03
 ANorm=    0.1063659743D+01
 E2 =    -0.4302496673D+00 EUMP2 =    -0.15390114078369D+03

 **********************************************************************

            Population analysis using the SCF Density.

 **********************************************************************

 Orbital symmetries:
 Alpha Orbitals:
       Occupied  (A) (A) (A) (A) (A) (A) (A) (A) (A) (A) (A) (A)
                 (A)
       Virtual   (A) (A) (A) (A) (A) (A) (A) (A) (A) (A) (A) (A)
                 (A) (A) (A) (A) (A) (A) (A) (A) (A) (A) (A) (A)
                 (A) (A) (A) (A) (A) (A) (A) (A) (A) (A) (A) (A)
                 (A) (A) (A) (A) (A) (A) (A) (A) (A) (A) (A) (A)
                 (A) (A) (A) (A) (A) (A)
 Beta  Orbitals:
       Occupied  (A) (A) (A) (A) (A) (A) (A) (A) (A) (A) (A) (A)
       Virtual   (A) (A) (A) (A) (A) (A) (A) (A) (A) (A) (A) (A)
                 (A) (A) (A) (A) (A) (A) (A) (A) (A) (A) (A) (A)
                 (A) (A) (A) (A) (A) (A) (A) (A) (A) (A) (A) (A)
                 (A) (A) (A) (A) (A) (A) (A) (A) (A) (A) (A) (A)
                 (A) (A) (A) (A) (A) (A) (A)
 The electronic state is 2-A.
 Alpha  occ. eigenvalues --  -20.61224 -11.28940 -11.23317  -1.40757  -1.00797
 Alpha  occ. eigenvalues --   -0.83916  -0.70422  -0.64932  -0.60610  -0.56705
 Alpha  occ. eigenvalues --   -0.53683  -0.47700  -0.45951
 Alpha virt. eigenvalues --    0.18334   0.22448   0.23602   0.25834   0.27984
 Alpha virt. eigenvalues --    0.35105   0.39387   0.57781   0.62242   0.66478
 Alpha virt. eigenvalues --    0.73051   0.76362   0.80757   0.83888   0.85510
 Alpha virt. eigenvalues --    0.87916   0.87968   0.91400   1.09187   1.11808
 Alpha virt. eigenvalues --    1.13139   1.19147   1.29726   1.32990   1.44126
 Alpha virt. eigenvalues --    1.51094   1.53686   1.67021   1.80241   1.85073
 Alpha virt. eigenvalues --    1.85527   1.88867   1.89068   1.91513   1.94450
 Alpha virt. eigenvalues --    1.95625   2.06186   2.09361   2.19543   2.25431
 Alpha virt. eigenvalues --    2.30190   2.39693   2.46799   2.51687   2.69478
 Alpha virt. eigenvalues --    2.72071   2.73850   2.79517   2.84154   2.98739
 Alpha virt. eigenvalues --    3.04087   3.36269   3.43384   3.61969
  Beta  occ. eigenvalues --  -20.57225 -11.29264 -11.23313  -1.28171  -0.99318
  Beta  occ. eigenvalues --   -0.81891  -0.62851  -0.61596  -0.58241  -0.52913
  Beta  occ. eigenvalues --   -0.50425  -0.43041
  Beta virt. eigenvalues --    0.12351   0.18488   0.22549   0.24006   0.25881
  Beta virt. eigenvalues --    0.29643   0.36513   0.39393   0.58614   0.62338
  Beta virt. eigenvalues --    0.66860   0.75501   0.76998   0.80997   0.83904
  Beta virt. eigenvalues --    0.86330   0.88062   0.88299   0.91484   1.10396
  Beta virt. eigenvalues --    1.13706   1.17717   1.20135   1.34604   1.40134
  Beta virt. eigenvalues --    1.45504   1.51733   1.53884   1.67014   1.81489
  Beta virt. eigenvalues --    1.85440   1.85707   1.89281   1.89622   1.92011
  Beta virt. eigenvalues --    1.95171   1.96174   2.06737   2.10547   2.21018
  Beta virt. eigenvalues --    2.26326   2.31327   2.40592   2.47098   2.52032
  Beta virt. eigenvalues --    2.72063   2.72251   2.74458   2.80793   2.85885
  Beta virt. eigenvalues --    3.08542   3.11783   3.44754   3.45011   3.66064
          Condensed to atoms (all electrons):
          Atomic-Atomic Spin Densities.
 Mulliken charges and spin densities:
               1          2
     1  C   -0.085599   0.007635
     2  C    0.117195  -0.139770
     3  O   -0.248449   0.998970
     4  H    0.033325  -0.002860
     5  H    0.044957   0.000388
     6  H    0.045163  -0.001118
     7  H    0.040843   0.051969
     8  H    0.052565   0.084786
 Sum of Mulliken charges =  -0.00000   1.00000
 Mulliken charges and spin densities with hydrogens summed into heavy atoms:
               1          2
     1  C    0.037846   0.004045
     2  C    0.210603  -0.003015
     3  O   -0.248449   0.998970
 Electronic spatial extent (au):  <R**2>=            183.3404
 Charge=             -0.0000 electrons
 Dipole moment (field-independent basis, Debye):
    X=              1.4601    Y=              1.1329    Z=              0.0491  Tot=              1.8487
 Unable to Open any file for archive entry.
 1\1\GINC-NODE01\SP\UMP2-FC\CC-pVDZ\C2H5O1(2)\XUHJ\14-Sep-2024\0\\#T MP
 2/cc-pVDZ symm=veryloose\\CC[O]\\0,2\C,0,1.189263,-0.192625,-0.000072\
 C,0,-0.185819,0.474471,-0.003212\O,0,-1.253041,-0.36484,-0.004511\H,0,
 1.997455,0.560275,0.036147\H,0,1.32201,-0.800495,-0.912418\H,0,1.28974
 8,-0.861059,0.872832\H,0,-0.290141,1.205774,-0.843652\H,0,-0.31541,1.1
 23148,0.902882\\Version=ES64L-G16RevC.01\State=2-A\HF=-153.4708911\MP2
 =-153.9011408\PUHF=-153.4742875\PMP2-0=-153.9031914\S2=0.75829\S2-1=0.
 751696\S2A=0.750052\RMSD=6.001e-09\PG=C01 [X(C2H5O1)]\\@
 The archive entry for this job was punched.


 Standing in the middle of the road is very dangerous;
 you get knocked down by the traffic from both sides.
                                -- Margaret Thatcher
 Job cpu time:       0 days  0 hours  1 minutes 37.5 seconds.
 Elapsed time:       0 days  0 hours  0 minutes 16.4 seconds.
 File lengths (MBytes):  RWF=      6 Int=      0 D2E=      0 Chk=      2 Scr=      1
 Normal termination of Gaussian 16 at Sat Sep 14 12:11:58 2024.
