 Entering Gaussian System, Link 0=g16
 Initial command:
 /home/software/g16/l1.exe "/home/software/g16tmp/Gau-83351.inp" -scrdir="/home/software/g16tmp/"
 Default is to use a total of   8 processors:
                                8 via shared-memory
                                1 via Linda
 Entering Link 1 = /home/software/g16/l1.exe PID=     83352.
  
 Copyright (c) 1988-2019, Gaussian, Inc.  All Rights Reserved.
  
 This is part of the Gaussian(R) 16 program.  It is based on
 the Gaussian(R) 09 system (copyright 2009, Gaussian, Inc.),
 the Gaussian(R) 03 system (copyright 2003, Gaussian, Inc.),
 the Gaussian(R) 98 system (copyright 1998, Gaussian, Inc.),
 the Gaussian(R) 94 system (copyright 1995, Gaussian, Inc.),
 the Gaussian 92(TM) system (copyright 1992, Gaussian, Inc.),
 the Gaussian 90(TM) system (copyright 1990, Gaussian, Inc.),
 the Gaussian 88(TM) system (copyright 1988, Gaussian, Inc.),
 the Gaussian 86(TM) system (copyright 1986, Carnegie Mellon
 University), and the Gaussian 82(TM) system (copyright 1983,
 Carnegie Mellon University). Gaussian is a federally registered
 trademark of Gaussian, Inc.
  
 This software contains proprietary and confidential information,
 including trade secrets, belonging to Gaussian, Inc.
  
 This software is provided under written license and may be
 used, copied, transmitted, or stored only in accord with that
 written license.
  
 The following legend is applicable only to US Government
 contracts under FAR:
  
                    RESTRICTED RIGHTS LEGEND
  
 Use, reproduction and disclosure by the US Government is
 subject to restrictions as set forth in subparagraphs (a)
 and (c) of the Commercial Computer Software - Restricted
 Rights clause in FAR 52.227-19.
  
 Gaussian, Inc.
 340 Quinnipiac St., Bldg. 40, Wallingford CT 06492
  
  
 ---------------------------------------------------------------
 Warning -- This program may not be used in any manner that
 competes with the business of Gaussian, Inc. or will provide
 assistance to any competitor of Gaussian, Inc.  The licensee
 of this program is prohibited from giving any competitor of
 Gaussian, Inc. access to this program.  By using this program,
 the user acknowledges that Gaussian, Inc. is engaged in the
 business of creating and licensing software in the field of
 computational chemistry and represents and warrants to the
 licensee that it is not a competitor of Gaussian, Inc. and that
 it will not use this program in any manner prohibited above.
 ---------------------------------------------------------------
  

 Cite this work as:
 Gaussian 16, Revision C.01,
 M. J. Frisch, G. W. Trucks, H. B. Schlegel, G. E. Scuseria, 
 M. A. Robb, J. R. Cheeseman, G. Scalmani, V. Barone, 
 G. A. Petersson, H. Nakatsuji, X. Li, M. Caricato, A. V. Marenich, 
 J. Bloino, B. G. Janesko, R. Gomperts, B. Mennucci, H. P. Hratchian, 
 J. V. Ortiz, A. F. Izmaylov, J. L. Sonnenberg, D. Williams-Young, 
 F. Ding, F. Lipparini, F. Egidi, J. Goings, B. Peng, A. Petrone, 
 T. Henderson, D. Ranasinghe, V. G. Zakrzewski, J. Gao, N. Rega, 
 G. Zheng, W. Liang, M. Hada, M. Ehara, K. Toyota, R. Fukuda, 
 J. Hasegawa, M. Ishida, T. Nakajima, Y. Honda, O. Kitao, H. Nakai, 
 T. Vreven, K. Throssell, J. A. Montgomery, Jr., J. E. Peralta, 
 F. Ogliaro, M. J. Bearpark, J. J. Heyd, E. N. Brothers, K. N. Kudin, 
 V. N. Staroverov, T. A. Keith, R. Kobayashi, J. Normand, 
 K. Raghavachari, A. P. Rendell, J. C. Burant, S. S. Iyengar, 
 J. Tomasi, M. Cossi, J. M. Millam, M. Klene, C. Adamo, R. Cammi, 
 J. W. Ochterski, R. L. Martin, K. Morokuma, O. Farkas, 
 J. B. Foresman, and D. J. Fox, Gaussian, Inc., Wallingford CT, 2019.
 
 ******************************************
 Gaussian 16:  ES64L-G16RevC.01  3-Jul-2019
                20-Dec-2023 
 ******************************************
 %nprocshared=16
 Will use up to   16 processors via shared memory.
 %mem=320MB
 -----------------------------
 #T MP2/cc-pVDZ symm=veryloose
 -----------------------------
 ------
 [CH]-2
 ------
 Symbolic Z-matrix:
 Charge =  0 Multiplicity = 2
 C                     0.        0.        0.1624 
 H                     0.        0.       -0.97443 
 
 Framework group  C*V[C*(HC)]
 Deg. of freedom     1
                         Standard orientation:                         
 ---------------------------------------------------------------------
 Center     Atomic      Atomic             Coordinates (Angstroms)
 Number     Number       Type             X           Y           Z
 ---------------------------------------------------------------------
      1          6           0        0.000000    0.000000    0.162404
      2          1           0        0.000000    0.000000   -0.974426
 ---------------------------------------------------------------------
 Rotational constants (GHZ):           0.0000000         420.5953295         420.5953295
    19 basis functions,    40 primitive gaussians,    20 cartesian basis functions
     4 alpha electrons        3 beta electrons
       nuclear repulsion energy         2.7929094636 Hartrees.
 NAtoms=    2 NActive=    2 NUniq=    2 SFac= 1.00D+00 NAtFMM=   60 NAOKFM=F Big=F
 PrsmSu:  requested number of processors reduced to:  12 ShMem   1 Linda.
 ExpMin= 1.22D-01 ExpMax= 6.67D+03 ExpMxC= 2.28D+02 IAcc=3 IRadAn=         5 AccDes= 0.00D+00
 Harris functional with IExCor=  205 and IRadAn=       5 diagonalized for initial guess.
 HarFok:  IExCor=  205 AccDes= 0.00D+00 IRadAn=         5 IDoV= 1 UseB2=F ITyADJ=14
 ICtDFT=  3500011 ScaDFX=  1.000000  1.000000  1.000000  1.000000
 FoFCou: FMM=F IPFlag=           0 FMFlag=      100000 FMFlg1=           0
         NFxFlg=           0 DoJE=T BraDBF=F KetDBF=T FulRan=T
         wScrn=  0.000000 ICntrl=       500 IOpCl=  0 I1Cent=   200000004 NGrid=           0
         NMat0=    1 NMatS0=      1 NMatT0=    0 NMatD0=    1 NMtDS0=    0 NMtDT0=    0
 Petite list used in FoFCou.
 Initial guess orbital symmetries:
 Alpha Orbitals:
       Occupied  (SG) (SG) (SG) (PI)
       Virtual   (PI) (SG) (SG) (PI) (PI) (SG) (SG) (PI) (PI) (DLTA)
                 (DLTA) (SG) (PI) (PI) (SG)
 Beta  Orbitals:
       Occupied  (SG) (SG) (SG)
       Virtual   (PI) (PI) (SG) (SG) (PI) (PI) (SG) (SG) (PI) (PI)
                 (DLTA) (DLTA) (SG) (PI) (PI) (SG)
 Initial guess <Sx>= 0.0000 <Sy>= 0.0000 <Sz>= 0.5000 <S**2>= 0.7500 S= 0.5000
 SCF Done:  E(UHF) =  -38.2724230415     A.U. after   12 cycles
            NFock= 12  Conv=0.15D-08     -V/T= 2.0011
 <Sx>= 0.0000 <Sy>= 0.0000 <Sz>= 0.5000 <S**2>= 0.7571 S= 0.5036
 <L.S>=  0.00000000000    
 Annihilation of the first spin contaminant:
 S**2 before annihilation     0.7571,   after     0.7500
 ExpMin= 1.22D-01 ExpMax= 6.67D+03 ExpMxC= 2.28D+02 IAcc=3 IRadAn=         5 AccDes= 0.00D+00
 HarFok:  IExCor=  205 AccDes= 0.00D+00 IRadAn=         5 IDoV=-2 UseB2=F ITyADJ=14
 ICtDFT= 12500011 ScaDFX=  1.000000  1.000000  1.000000  1.000000
 NROrb=     18 NOA=     3 NOB=     2 NVA=    15 NVB=    16
 (S**2,0)=  0.75714D+00           (S**2,1)=  0.75081D+00
 E(PUHF)=      -0.38274927162D+02        E(PMP2)=      -0.38353531398D+02
 ANorm=    0.1015348571D+01
 E2 =    -0.7971406577D-01 EUMP2 =    -0.38352137107319D+02

 **********************************************************************

            Population analysis using the SCF Density.

 **********************************************************************

 Orbital symmetries:
 Alpha Orbitals:
       Occupied  (SG) (SG) (SG) (?A)
       Virtual   (?A) (SG) (SG) (?A) (?A) (SG) (SG) (PI) (PI) (DLTA)
                 (DLTA) (SG) (PI) (PI) (SG)
 Beta  Orbitals:
       Occupied  (SG) (SG) (SG)
       Virtual   (PI) (PI) (SG) (SG) (PI) (SG) (PI) (SG) (PI) (PI)
                 (?A) (?A) (?A) (PI) (PI) (SG)
 Unable to determine electronic state:  an orbital has unidentified symmetry.
 Alpha  occ. eigenvalues --  -11.32658  -0.87156  -0.46568  -0.41913
 Alpha virt. eigenvalues --    0.05041   0.20610   0.63867   0.64333   0.72532
 Alpha virt. eigenvalues --    0.74447   0.91754   1.21025   1.23693   1.36911
 Alpha virt. eigenvalues --    1.37058   1.82024   1.99151   1.99171   2.63117
  Beta  occ. eigenvalues --  -11.30277  -0.77659  -0.42858
  Beta virt. eigenvalues --    0.07301   0.12973   0.21766   0.65309   0.74246
  Beta virt. eigenvalues --    0.76164   0.79307   0.94979   1.24173   1.27701
  Beta virt. eigenvalues --    1.45442   1.45455   1.84507   1.99332   2.02185
  Beta virt. eigenvalues --    2.63806
          Condensed to atoms (all electrons):
          Atomic-Atomic Spin Densities.
 Mulliken charges and spin densities:
               1          2
     1  C   -0.070721   1.059612
     2  H    0.070721  -0.059612
 Sum of Mulliken charges =  -0.00000   1.00000
 Mulliken charges and spin densities with hydrogens summed into heavy atoms:
               1          2
     1  C   -0.000000   1.000000
 Electronic spatial extent (au):  <R**2>=             19.3246
 Charge=             -0.0000 electrons
 Dipole moment (field-independent basis, Debye):
    X=              0.0000    Y=              0.0000    Z=             -1.5820  Tot=              1.5820
 Unable to Open any file for archive entry.
 1\1\GINC-NODE07\SP\UMP2-FC\CC-pVDZ\C1H1(2)\XUHJ\20-Dec-2023\0\\#T MP2/
 cc-pVDZ symm=veryloose\\[CH]-2\\0,2\C,0,0.,0.,0.162404\H,0,0.,0.,-0.97
 4426\\Version=ES64L-G16RevC.01\HF=-38.272423\MP2=-38.3521371\PUHF=-38.
 2749272\PMP2-0=-38.3535314\S2=0.757142\S2-1=0.750806\S2A=0.75001\RMSD=
 1.546e-09\PG=C*V [C*(H1C1)]\\@
 The archive entry for this job was punched.


 Once you get people laughing, they're
 listening and you can tell them almost anything.
                                 -- Herb Gardner
 Job cpu time:       0 days  0 hours  0 minutes  8.1 seconds.
 Elapsed time:       0 days  0 hours  0 minutes  0.7 seconds.
 File lengths (MBytes):  RWF=     17 Int=      0 D2E=      0 Chk=      2 Scr=      2
 Normal termination of Gaussian 16 at Wed Dec 20 12:21:16 2023.
