 Entering Gaussian System, Link 0=g16
 Initial command:
 /home/software/g16/l1.exe "/home/software/g16tmp/Gau-83535.inp" -scrdir="/home/software/g16tmp/"
 Default is to use a total of   8 processors:
                                8 via shared-memory
                                1 via Linda
 Entering Link 1 = /home/software/g16/l1.exe PID=     83536.
  
 Copyright (c) 1988-2019, Gaussian, Inc.  All Rights Reserved.
  
 This is part of the Gaussian(R) 16 program.  It is based on
 the Gaussian(R) 09 system (copyright 2009, Gaussian, Inc.),
 the Gaussian(R) 03 system (copyright 2003, Gaussian, Inc.),
 the Gaussian(R) 98 system (copyright 1998, Gaussian, Inc.),
 the Gaussian(R) 94 system (copyright 1995, Gaussian, Inc.),
 the Gaussian 92(TM) system (copyright 1992, Gaussian, Inc.),
 the Gaussian 90(TM) system (copyright 1990, Gaussian, Inc.),
 the Gaussian 88(TM) system (copyright 1988, Gaussian, Inc.),
 the Gaussian 86(TM) system (copyright 1986, Carnegie Mellon
 University), and the Gaussian 82(TM) system (copyright 1983,
 Carnegie Mellon University). Gaussian is a federally registered
 trademark of Gaussian, Inc.
  
 This software contains proprietary and confidential information,
 including trade secrets, belonging to Gaussian, Inc.
  
 This software is provided under written license and may be
 used, copied, transmitted, or stored only in accord with that
 written license.
  
 The following legend is applicable only to US Government
 contracts under FAR:
  
                    RESTRICTED RIGHTS LEGEND
  
 Use, reproduction and disclosure by the US Government is
 subject to restrictions as set forth in subparagraphs (a)
 and (c) of the Commercial Computer Software - Restricted
 Rights clause in FAR 52.227-19.
  
 Gaussian, Inc.
 340 Quinnipiac St., Bldg. 40, Wallingford CT 06492
  
  
 ---------------------------------------------------------------
 Warning -- This program may not be used in any manner that
 competes with the business of Gaussian, Inc. or will provide
 assistance to any competitor of Gaussian, Inc.  The licensee
 of this program is prohibited from giving any competitor of
 Gaussian, Inc. access to this program.  By using this program,
 the user acknowledges that Gaussian, Inc. is engaged in the
 business of creating and licensing software in the field of
 computational chemistry and represents and warrants to the
 licensee that it is not a competitor of Gaussian, Inc. and that
 it will not use this program in any manner prohibited above.
 ---------------------------------------------------------------
  

 Cite this work as:
 Gaussian 16, Revision C.01,
 M. J. Frisch, G. W. Trucks, H. B. Schlegel, G. E. Scuseria, 
 M. A. Robb, J. R. Cheeseman, G. Scalmani, V. Barone, 
 G. A. Petersson, H. Nakatsuji, X. Li, M. Caricato, A. V. Marenich, 
 J. Bloino, B. G. Janesko, R. Gomperts, B. Mennucci, H. P. Hratchian, 
 J. V. Ortiz, A. F. Izmaylov, J. L. Sonnenberg, D. Williams-Young, 
 F. Ding, F. Lipparini, F. Egidi, J. Goings, B. Peng, A. Petrone, 
 T. Henderson, D. Ranasinghe, V. G. Zakrzewski, J. Gao, N. Rega, 
 G. Zheng, W. Liang, M. Hada, M. Ehara, K. Toyota, R. Fukuda, 
 J. Hasegawa, M. Ishida, T. Nakajima, Y. Honda, O. Kitao, H. Nakai, 
 T. Vreven, K. Throssell, J. A. Montgomery, Jr., J. E. Peralta, 
 F. Ogliaro, M. J. Bearpark, J. J. Heyd, E. N. Brothers, K. N. Kudin, 
 V. N. Staroverov, T. A. Keith, R. Kobayashi, J. Normand, 
 K. Raghavachari, A. P. Rendell, J. C. Burant, S. S. Iyengar, 
 J. Tomasi, M. Cossi, J. M. Millam, M. Klene, C. Adamo, R. Cammi, 
 J. W. Ochterski, R. L. Martin, K. Morokuma, O. Farkas, 
 J. B. Foresman, and D. J. Fox, Gaussian, Inc., Wallingford CT, 2019.
 
 ******************************************
 Gaussian 16:  ES64L-G16RevC.01  3-Jul-2019
                20-Dec-2023 
 ******************************************
 %nprocshared=16
 Will use up to   16 processors via shared memory.
 %mem=1280MB
 -----------------------------
 #T MP2/cc-pVDZ symm=veryloose
 -----------------------------
 -----
 C=CCC
 -----
 Symbolic Z-matrix:
 Charge =  0 Multiplicity = 1
 C                    -1.86119   0.01864  -0.28241 
 C                    -0.72237  -0.29263   0.34455 
 C                     0.54288   0.51918   0.3123 
 C                     1.72498  -0.24728  -0.29903 
 H                    -2.74468  -0.62799  -0.22525 
 H                    -1.95355   0.93671  -0.87819 
 H                    -0.67452  -1.22648   0.92518 
 H                     0.80845   0.81777   1.34598 
 H                     0.36914   1.45485  -0.25014 
 H                     1.92647  -1.18079   0.25805 
 H                     2.64655   0.36146  -0.28005 
 H                     1.51634  -0.523    -1.34808 
 
                    Distance matrix (angstroms):
                    1          2          3          4          5
     1  C    0.000000
     2  C    1.336742   0.000000
     3  C    2.526610   1.503636   0.000000
     4  C    3.596057   2.530968   1.535761   0.000000
     5  H    1.096330   2.127643   3.523203   4.486451   0.000000
     6  H    1.098335   2.126539   2.797093   3.907532   1.870960
     7  H    2.101614   1.100678   2.214720   2.866208   2.442795
     8  H    3.227574   2.139918   1.108229   2.163428   4.145320
     9  H    2.652943   2.144466   1.105444   2.176679   3.746287
    10  H    4.009619   2.795109   2.192521   1.105614   4.728502
    11  H    4.520758   3.488206   2.191166   1.104626   5.481544
    12  H    3.582839   2.816007   2.188752   1.104558   4.407724
                    6          7          8          9         10
     6  H    0.000000
     7  H    3.093128   0.000000
     8  H    3.548197   2.560312   0.000000
     9  H    2.461255   3.108072   1.773828   0.000000
    10  H    4.563913   2.685566   2.535306   3.103241   0.000000
    11  H    4.674351   3.873450   2.496160   2.526462   1.785103
    12  H    3.793632   3.234571   3.091393   2.536420   1.783403
                   11         12
    11  H    0.000000
    12  H    1.788943   0.000000
 Framework group  C1[X(C4H8)]
 Deg. of freedom    30
                         Standard orientation:                         
 ---------------------------------------------------------------------
 Center     Atomic      Atomic             Coordinates (Angstroms)
 Number     Number       Type             X           Y           Z
 ---------------------------------------------------------------------
      1          6           0       -1.861190    0.018638   -0.282408
      2          6           0       -0.722370   -0.292630    0.344554
      3          6           0        0.542876    0.519179    0.312304
      4          6           0        1.724983   -0.247275   -0.299034
      5          1           0       -2.744677   -0.627987   -0.225249
      6          1           0       -1.953545    0.936707   -0.878192
      7          1           0       -0.674517   -1.226477    0.925184
      8          1           0        0.808450    0.817768    1.345980
      9          1           0        0.369138    1.454849   -0.250140
     10          1           0        1.926465   -1.180788    0.258049
     11          1           0        2.646550    0.361456   -0.280052
     12          1           0        1.516340   -0.523001   -1.348077
 ---------------------------------------------------------------------
 Rotational constants (GHZ):          22.3671351           4.1168802           4.0275346
    96 basis functions,   188 primitive gaussians,   100 cartesian basis functions
    16 alpha electrons       16 beta electrons
       nuclear repulsion energy       116.5289269767 Hartrees.
 NAtoms=   12 NActive=   12 NUniq=   12 SFac= 1.00D+00 NAtFMM=   60 NAOKFM=F Big=F
 ExpMin= 1.22D-01 ExpMax= 6.67D+03 ExpMxC= 2.28D+02 IAcc=3 IRadAn=         5 AccDes= 0.00D+00
 Harris functional with IExCor=  205 and IRadAn=       5 diagonalized for initial guess.
 HarFok:  IExCor=  205 AccDes= 0.00D+00 IRadAn=         5 IDoV= 1 UseB2=F ITyADJ=14
 ICtDFT=  3500011 ScaDFX=  1.000000  1.000000  1.000000  1.000000
 FoFCou: FMM=F IPFlag=           0 FMFlag=      100000 FMFlg1=           0
         NFxFlg=           0 DoJE=T BraDBF=F KetDBF=T FulRan=T
         wScrn=  0.000000 ICntrl=       500 IOpCl=  0 I1Cent=   200000004 NGrid=           0
         NMat0=    1 NMatS0=      1 NMatT0=    0 NMatD0=    1 NMtDS0=    0 NMtDT0=    0
 Petite list used in FoFCou.
 SCF Done:  E(RHF) =  -156.118434650     A.U. after   12 cycles
            NFock= 12  Conv=0.39D-08     -V/T= 2.0024
 ExpMin= 1.22D-01 ExpMax= 6.67D+03 ExpMxC= 2.28D+02 IAcc=3 IRadAn=         5 AccDes= 0.00D+00
 HarFok:  IExCor=  205 AccDes= 0.00D+00 IRadAn=         5 IDoV=-2 UseB2=F ITyADJ=14
 ICtDFT= 12500011 ScaDFX=  1.000000  1.000000  1.000000  1.000000
 NROrb=     92 NOA=    12 NOB=    12 NVA=    80 NVB=    80
 ANorm=    0.1096157907D+01
 E2 =    -0.5624079015D+00 EUMP2 =    -0.15668084255128D+03

 **********************************************************************

            Population analysis using the SCF Density.

 **********************************************************************

 Orbital symmetries:
       Occupied  (A) (A) (A) (A) (A) (A) (A) (A) (A) (A) (A) (A)
                 (A) (A) (A) (A)
       Virtual   (A) (A) (A) (A) (A) (A) (A) (A) (A) (A) (A) (A)
                 (A) (A) (A) (A) (A) (A) (A) (A) (A) (A) (A) (A)
                 (A) (A) (A) (A) (A) (A) (A) (A) (A) (A) (A) (A)
                 (A) (A) (A) (A) (A) (A) (A) (A) (A) (A) (A) (A)
                 (A) (A) (A) (A) (A) (A) (A) (A) (A) (A) (A) (A)
                 (A) (A) (A) (A) (A) (A) (A) (A) (A) (A) (A) (A)
                 (A) (A) (A) (A) (A) (A) (A) (A)
 The electronic state is 1-A.
 Alpha  occ. eigenvalues --  -11.23713 -11.23405 -11.22766 -11.22716  -1.07598
 Alpha  occ. eigenvalues --   -0.98462  -0.85136  -0.74860  -0.63605  -0.60085
 Alpha  occ. eigenvalues --   -0.57921  -0.53007  -0.51408  -0.48163  -0.47084
 Alpha  occ. eigenvalues --   -0.35620
 Alpha virt. eigenvalues --    0.16811   0.19564   0.21217   0.22289   0.24117
 Alpha virt. eigenvalues --    0.26969   0.27768   0.28023   0.29641   0.37924
 Alpha virt. eigenvalues --    0.42311   0.50447   0.57959   0.60438   0.61806
 Alpha virt. eigenvalues --    0.62161   0.67705   0.71474   0.76355   0.77787
 Alpha virt. eigenvalues --    0.83658   0.85593   0.87092   0.87736   0.88375
 Alpha virt. eigenvalues --    0.89224   0.91202   0.92724   0.94045   0.95438
 Alpha virt. eigenvalues --    1.00528   1.03502   1.11531   1.19865   1.23463
 Alpha virt. eigenvalues --    1.26830   1.29450   1.35763   1.40228   1.45016
 Alpha virt. eigenvalues --    1.50572   1.60030   1.68147   1.69193   1.70675
 Alpha virt. eigenvalues --    1.74644   1.82374   1.85864   1.87968   1.89710
 Alpha virt. eigenvalues --    1.90511   1.92029   1.93094   1.94653   1.96417
 Alpha virt. eigenvalues --    1.98269   1.98890   2.00823   2.07000   2.14114
 Alpha virt. eigenvalues --    2.17962   2.20337   2.25347   2.29604   2.34703
 Alpha virt. eigenvalues --    2.43119   2.46581   2.51012   2.51310   2.56015
 Alpha virt. eigenvalues --    2.59145   2.66544   2.73017   2.75358   2.83169
 Alpha virt. eigenvalues --    2.86471   2.87999   2.98470   3.08305   3.33296
          Condensed to atoms (all electrons):
 Mulliken charges:
               1
     1  C   -0.044031
     2  C   -0.144386
     3  C   -0.038295
     4  C   -0.063998
     5  H    0.047710
     6  H    0.040016
     7  H    0.028204
     8  H    0.040509
     9  H    0.028136
    10  H    0.032068
    11  H    0.034057
    12  H    0.040010
 Sum of Mulliken charges =  -0.00000
 Mulliken charges with hydrogens summed into heavy atoms:
               1
     1  C    0.043695
     2  C   -0.116182
     3  C    0.030350
     4  C    0.042137
 Electronic spatial extent (au):  <R**2>=            370.3998
 Charge=             -0.0000 electrons
 Dipole moment (field-independent basis, Debye):
    X=              0.3372    Y=              0.0255    Z=              0.0874  Tot=              0.3493
 Unable to Open any file for archive entry.
 1\1\GINC-NODE07\SP\RMP2-FC\CC-pVDZ\C4H8\XUHJ\20-Dec-2023\0\\#T MP2/cc-
 pVDZ symm=veryloose\\C=CCC\\0,1\C,0,-1.86119,0.018638,-0.282408\C,0,-0
 .72237,-0.29263,0.344554\C,0,0.542876,0.519179,0.312304\C,0,1.724983,-
 0.247275,-0.299034\H,0,-2.744677,-0.627987,-0.225249\H,0,-1.953545,0.9
 36707,-0.878192\H,0,-0.674517,-1.226477,0.925184\H,0,0.80845,0.817768,
 1.34598\H,0,0.369138,1.454849,-0.25014\H,0,1.926465,-1.180788,0.258049
 \H,0,2.64655,0.361456,-0.280052\H,0,1.51634,-0.523001,-1.348077\\Versi
 on=ES64L-G16RevC.01\State=1-A\HF=-156.1184346\MP2=-156.6808426\RMSD=3.
 882e-09\PG=C01 [X(C4H8)]\\@
 The archive entry for this job was punched.


 THE NUMBERS ARE MEANINGLESS, BUT THE TRENDS ARE IMPORTANT.
     -- LARRY BURGGRAF
 Job cpu time:       0 days  0 hours  0 minutes 13.5 seconds.
 Elapsed time:       0 days  0 hours  0 minutes  1.1 seconds.
 File lengths (MBytes):  RWF=     22 Int=      0 D2E=      0 Chk=      2 Scr=      2
 Normal termination of Gaussian 16 at Wed Dec 20 12:21:17 2023.
