%nprocshared=16
%mem=1280MB
#T MP2/cc-pVDZ symm=veryloose

C=CCC

0 1
C        -1.861190       0.018638      -0.282408
C        -0.722370      -0.292630       0.344554
C         0.542876       0.519179       0.312304
C         1.724983      -0.247275      -0.299034
H        -2.744677      -0.627987      -0.225249
H        -1.953545       0.936707      -0.878192
H        -0.674517      -1.226477       0.925184
H         0.808450       0.817768       1.345980
H         0.369138       1.454849      -0.250140
H         1.926465      -1.180788       0.258049
H         2.646550       0.361456      -0.280052
H         1.516340      -0.523001      -1.348077


