 Entering Gaussian System, Link 0=g16
 Initial command:
 /home/software/g16/l1.exe "/home/software/g16tmp/Gau-83720.inp" -scrdir="/home/software/g16tmp/"
 Default is to use a total of   8 processors:
                                8 via shared-memory
                                1 via Linda
 Entering Link 1 = /home/software/g16/l1.exe PID=     83721.
  
 Copyright (c) 1988-2019, Gaussian, Inc.  All Rights Reserved.
  
 This is part of the Gaussian(R) 16 program.  It is based on
 the Gaussian(R) 09 system (copyright 2009, Gaussian, Inc.),
 the Gaussian(R) 03 system (copyright 2003, Gaussian, Inc.),
 the Gaussian(R) 98 system (copyright 1998, Gaussian, Inc.),
 the Gaussian(R) 94 system (copyright 1995, Gaussian, Inc.),
 the Gaussian 92(TM) system (copyright 1992, Gaussian, Inc.),
 the Gaussian 90(TM) system (copyright 1990, Gaussian, Inc.),
 the Gaussian 88(TM) system (copyright 1988, Gaussian, Inc.),
 the Gaussian 86(TM) system (copyright 1986, Carnegie Mellon
 University), and the Gaussian 82(TM) system (copyright 1983,
 Carnegie Mellon University). Gaussian is a federally registered
 trademark of Gaussian, Inc.
  
 This software contains proprietary and confidential information,
 including trade secrets, belonging to Gaussian, Inc.
  
 This software is provided under written license and may be
 used, copied, transmitted, or stored only in accord with that
 written license.
  
 The following legend is applicable only to US Government
 contracts under FAR:
  
                    RESTRICTED RIGHTS LEGEND
  
 Use, reproduction and disclosure by the US Government is
 subject to restrictions as set forth in subparagraphs (a)
 and (c) of the Commercial Computer Software - Restricted
 Rights clause in FAR 52.227-19.
  
 Gaussian, Inc.
 340 Quinnipiac St., Bldg. 40, Wallingford CT 06492
  
  
 ---------------------------------------------------------------
 Warning -- This program may not be used in any manner that
 competes with the business of Gaussian, Inc. or will provide
 assistance to any competitor of Gaussian, Inc.  The licensee
 of this program is prohibited from giving any competitor of
 Gaussian, Inc. access to this program.  By using this program,
 the user acknowledges that Gaussian, Inc. is engaged in the
 business of creating and licensing software in the field of
 computational chemistry and represents and warrants to the
 licensee that it is not a competitor of Gaussian, Inc. and that
 it will not use this program in any manner prohibited above.
 ---------------------------------------------------------------
  

 Cite this work as:
 Gaussian 16, Revision C.01,
 M. J. Frisch, G. W. Trucks, H. B. Schlegel, G. E. Scuseria, 
 M. A. Robb, J. R. Cheeseman, G. Scalmani, V. Barone, 
 G. A. Petersson, H. Nakatsuji, X. Li, M. Caricato, A. V. Marenich, 
 J. Bloino, B. G. Janesko, R. Gomperts, B. Mennucci, H. P. Hratchian, 
 J. V. Ortiz, A. F. Izmaylov, J. L. Sonnenberg, D. Williams-Young, 
 F. Ding, F. Lipparini, F. Egidi, J. Goings, B. Peng, A. Petrone, 
 T. Henderson, D. Ranasinghe, V. G. Zakrzewski, J. Gao, N. Rega, 
 G. Zheng, W. Liang, M. Hada, M. Ehara, K. Toyota, R. Fukuda, 
 J. Hasegawa, M. Ishida, T. Nakajima, Y. Honda, O. Kitao, H. Nakai, 
 T. Vreven, K. Throssell, J. A. Montgomery, Jr., J. E. Peralta, 
 F. Ogliaro, M. J. Bearpark, J. J. Heyd, E. N. Brothers, K. N. Kudin, 
 V. N. Staroverov, T. A. Keith, R. Kobayashi, J. Normand, 
 K. Raghavachari, A. P. Rendell, J. C. Burant, S. S. Iyengar, 
 J. Tomasi, M. Cossi, J. M. Millam, M. Klene, C. Adamo, R. Cammi, 
 J. W. Ochterski, R. L. Martin, K. Morokuma, O. Farkas, 
 J. B. Foresman, and D. J. Fox, Gaussian, Inc., Wallingford CT, 2019.
 
 ******************************************
 Gaussian 16:  ES64L-G16RevC.01  3-Jul-2019
                20-Dec-2023 
 ******************************************
 %nprocshared=16
 Will use up to   16 processors via shared memory.
 %mem=320MB
 -----------------------------
 #T MP2/cc-pVDZ symm=veryloose
 -----------------------------
 -----
 [CH3]
 -----
 Symbolic Z-matrix:
 Charge =  0 Multiplicity = 2
 C                     0.        0.        0. 
 H                     0.        1.0946    0. 
 H                    -0.94795  -0.5473    0. 
 H                     0.94795  -0.5473    0. 
 
                    Distance matrix (angstroms):
                    1          2          3          4
     1  C    0.000000
     2  H    1.094600   0.000000
     3  H    1.094601   1.895903   0.000000
     4  H    1.094601   1.895903   1.895904   0.000000
 Framework group  D3H[O(C),3C2(H)]
 Deg. of freedom     1
                         Standard orientation:                         
 ---------------------------------------------------------------------
 Center     Atomic      Atomic             Coordinates (Angstroms)
 Number     Number       Type             X           Y           Z
 ---------------------------------------------------------------------
      1          6           0        0.000000    0.000000    0.000000
      2          1           0        0.000000    1.094600    0.000000
      3          1           0        0.947951   -0.547300    0.000000
      4          1           0       -0.947951   -0.547300    0.000000
 ---------------------------------------------------------------------
 Rotational constants (GHZ):         279.0165149         279.0165149         139.5082575
    29 basis functions,    54 primitive gaussians,    30 cartesian basis functions
     5 alpha electrons        4 beta electrons
       nuclear repulsion energy         9.5393309082 Hartrees.
 NAtoms=    4 NActive=    4 NUniq=    2 SFac= 4.00D+00 NAtFMM=   60 NAOKFM=F Big=F
 PrsmSu:  requested number of processors reduced to:  12 ShMem   1 Linda.
 ExpMin= 1.22D-01 ExpMax= 6.67D+03 ExpMxC= 2.28D+02 IAcc=3 IRadAn=         5 AccDes= 0.00D+00
 Harris functional with IExCor=  205 and IRadAn=       5 diagonalized for initial guess.
 HarFok:  IExCor=  205 AccDes= 0.00D+00 IRadAn=         5 IDoV= 1 UseB2=F ITyADJ=14
 ICtDFT=  3500011 ScaDFX=  1.000000  1.000000  1.000000  1.000000
 FoFCou: FMM=F IPFlag=           0 FMFlag=      100000 FMFlg1=           0
         NFxFlg=           0 DoJE=T BraDBF=F KetDBF=T FulRan=T
         wScrn=  0.000000 ICntrl=       500 IOpCl=  0 I1Cent=   200000004 NGrid=           0
         NMat0=    1 NMatS0=      1 NMatT0=    0 NMatD0=    1 NMtDS0=    0 NMtDT0=    0
 Petite list used in FoFCou.
 Initial guess orbital symmetries:
 Alpha Orbitals:
       Occupied  (A1') (A1') (E') (E') (A2")
       Virtual   (A1') (E') (E') (E') (E') (A2") (A1') (E') (E')
                 (A1') (E") (E") (A2') (E') (E') (A1') (A2") (E")
                 (E") (E') (E') (A1') (E') (E')
 Beta  Orbitals:
       Occupied  (A1') (A1') (E') (E')
       Virtual   (A2") (A1') (E') (E') (E') (E') (A2") (A1') (E')
                 (E') (A1') (E") (E") (A2') (E') (E') (A1') (A2")
                 (E") (E") (E') (E') (A1') (E') (E')
 The electronic state of the initial guess is 2-A2".
 Initial guess <Sx>= 0.0000 <Sy>= 0.0000 <Sz>= 0.5000 <S**2>= 0.7500 S= 0.5000
 SCF Done:  E(UHF) =  -39.5634416484     A.U. after   11 cycles
            NFock= 11  Conv=0.44D-08     -V/T= 2.0032
 <Sx>= 0.0000 <Sy>= 0.0000 <Sz>= 0.5000 <S**2>= 0.7619 S= 0.5060
 <L.S>=  0.00000000000    
 Annihilation of the first spin contaminant:
 S**2 before annihilation     0.7619,   after     0.7501
 ExpMin= 1.22D-01 ExpMax= 6.67D+03 ExpMxC= 2.28D+02 IAcc=3 IRadAn=         5 AccDes= 0.00D+00
 HarFok:  IExCor=  205 AccDes= 0.00D+00 IRadAn=         5 IDoV=-2 UseB2=F ITyADJ=14
 ICtDFT= 12500011 ScaDFX=  1.000000  1.000000  1.000000  1.000000
 NROrb=     28 NOA=     4 NOB=     3 NVA=    24 NVB=    25
 (S**2,0)=  0.76194D+00           (S**2,1)=  0.75347D+00
 E(PUHF)=      -0.39566490986D+02        E(PMP2)=      -0.39692560388D+02
 ANorm=    0.1021358981D+01
 E2 =    -0.1271468296D+00 EUMP2 =    -0.39690588478048D+02

 **********************************************************************

            Population analysis using the SCF Density.

 **********************************************************************

 Orbital symmetries:
 Alpha Orbitals:
       Occupied  (A1') (A1') (E') (E') (A2")
       Virtual   (A1') (E') (E') (E') (E') (A2") (A1') (E') (E')
                 (A1') (E") (E") (A2') (E') (E') (A1') (A2") (E")
                 (E") (E') (E') (A1') (E') (E')
 Beta  Orbitals:
       Occupied  (A1') (A1') (E') (E')
       Virtual   (A2") (A1') (E') (E') (E') (E') (A1') (A2") (E')
                 (E') (A1') (E") (E") (A2') (E') (E') (A1') (A2")
                 (E") (E") (E') (E') (A1') (E') (E')
 The electronic state is 2-A2".
 Alpha  occ. eigenvalues --  -11.24399  -0.94064  -0.57221  -0.57221  -0.38348
 Alpha virt. eigenvalues --    0.19164   0.26656   0.26656   0.61570   0.61570
 Alpha virt. eigenvalues --    0.66831   0.69180   0.89006   0.89006   1.05119
 Alpha virt. eigenvalues --    1.18319   1.18319   1.61462   1.71193   1.71193
 Alpha virt. eigenvalues --    1.74809   1.85986   2.11179   2.11179   2.37217
 Alpha virt. eigenvalues --    2.37217   2.75938   2.83065   2.83065
  Beta  occ. eigenvalues --  -11.21936  -0.84732  -0.55721  -0.55721
  Beta virt. eigenvalues --    0.14310   0.20808   0.27392   0.27392   0.61949
  Beta virt. eigenvalues --    0.61949   0.74104   0.81553   0.90403   0.90403
  Beta virt. eigenvalues --    1.08761   1.24867   1.24867   1.60985   1.71642
  Beta virt. eigenvalues --    1.71642   1.82136   1.87291   2.14369   2.14369
  Beta virt. eigenvalues --    2.37630   2.37630   2.76508   2.84005   2.84005
          Condensed to atoms (all electrons):
          Atomic-Atomic Spin Densities.
 Mulliken charges and spin densities:
               1          2
     1  C   -0.192727   1.236703
     2  H    0.064242  -0.078901
     3  H    0.064242  -0.078901
     4  H    0.064242  -0.078901
 Sum of Mulliken charges =  -0.00000   1.00000
 Mulliken charges and spin densities with hydrogens summed into heavy atoms:
               1          2
     1  C   -0.000000   1.000000
 Electronic spatial extent (au):  <R**2>=             30.0259
 Charge=             -0.0000 electrons
 Dipole moment (field-independent basis, Debye):
    X=             -0.0000    Y=             -0.0000    Z=              0.0000  Tot=              0.0000
 Unable to Open any file for archive entry.
 1\1\GINC-NODE07\SP\UMP2-FC\CC-pVDZ\C1H3(2)\XUHJ\20-Dec-2023\0\\#T MP2/
 cc-pVDZ symm=veryloose\\[CH3]\\0,2\C,0,0.,0.,0.\H,0,0.,1.0946,0.\H,0,-
 0.947952,-0.5473,0.\H,0,0.947952,-0.5473,0.\\Version=ES64L-G16RevC.01\
 State=2-A2"\HF=-39.5634416\MP2=-39.6905885\PUHF=-39.566491\PMP2-0=-39.
 6925604\S2=0.761941\S2-1=0.753469\S2A=0.75008\RMSD=4.436e-09\PG=D03H [
 O(C1),3C2(H1)]\\@
 The archive entry for this job was punched.


 IT'S WHAT YOU LEARN AFTER YOU KNOW IT ALL
 THAT COUNTS.
 Job cpu time:       0 days  0 hours  0 minutes  8.9 seconds.
 Elapsed time:       0 days  0 hours  0 minutes  0.7 seconds.
 File lengths (MBytes):  RWF=     17 Int=      0 D2E=      0 Chk=      2 Scr=      2
 Normal termination of Gaussian 16 at Wed Dec 20 12:21:18 2023.
