 Entering Gaussian System, Link 0=g16
 Initial command:
 /opt/g16/l1.exe "/tmp/Gau-426738.inp" -scrdir="/tmp/"
 Entering Link 1 = /opt/g16/l1.exe PID=    426739.
  
 Copyright (c) 1988-2019, Gaussian, Inc.  All Rights Reserved.
  
 This is part of the Gaussian(R) 16 program.  It is based on
 the Gaussian(R) 09 system (copyright 2009, Gaussian, Inc.),
 the Gaussian(R) 03 system (copyright 2003, Gaussian, Inc.),
 the Gaussian(R) 98 system (copyright 1998, Gaussian, Inc.),
 the Gaussian(R) 94 system (copyright 1995, Gaussian, Inc.),
 the Gaussian 92(TM) system (copyright 1992, Gaussian, Inc.),
 the Gaussian 90(TM) system (copyright 1990, Gaussian, Inc.),
 the Gaussian 88(TM) system (copyright 1988, Gaussian, Inc.),
 the Gaussian 86(TM) system (copyright 1986, Carnegie Mellon
 University), and the Gaussian 82(TM) system (copyright 1983,
 Carnegie Mellon University). Gaussian is a federally registered
 trademark of Gaussian, Inc.
  
 This software contains proprietary and confidential information,
 including trade secrets, belonging to Gaussian, Inc.
  
 This software is provided under written license and may be
 used, copied, transmitted, or stored only in accord with that
 written license.
  
 The following legend is applicable only to US Government
 contracts under FAR:
  
                    RESTRICTED RIGHTS LEGEND
  
 Use, reproduction and disclosure by the US Government is
 subject to restrictions as set forth in subparagraphs (a)
 and (c) of the Commercial Computer Software - Restricted
 Rights clause in FAR 52.227-19.
  
 Gaussian, Inc.
 340 Quinnipiac St., Bldg. 40, Wallingford CT 06492
  
  
 ---------------------------------------------------------------
 Warning -- This program may not be used in any manner that
 competes with the business of Gaussian, Inc. or will provide
 assistance to any competitor of Gaussian, Inc.  The licensee
 of this program is prohibited from giving any competitor of
 Gaussian, Inc. access to this program.  By using this program,
 the user acknowledges that Gaussian, Inc. is engaged in the
 business of creating and licensing software in the field of
 computational chemistry and represents and warrants to the
 licensee that it is not a competitor of Gaussian, Inc. and that
 it will not use this program in any manner prohibited above.
 ---------------------------------------------------------------
  

 Cite this work as:
 Gaussian 16, Revision C.01,
 M. J. Frisch, G. W. Trucks, H. B. Schlegel, G. E. Scuseria, 
 M. A. Robb, J. R. Cheeseman, G. Scalmani, V. Barone, 
 G. A. Petersson, H. Nakatsuji, X. Li, M. Caricato, A. V. Marenich, 
 J. Bloino, B. G. Janesko, R. Gomperts, B. Mennucci, H. P. Hratchian, 
 J. V. Ortiz, A. F. Izmaylov, J. L. Sonnenberg, D. Williams-Young, 
 F. Ding, F. Lipparini, F. Egidi, J. Goings, B. Peng, A. Petrone, 
 T. Henderson, D. Ranasinghe, V. G. Zakrzewski, J. Gao, N. Rega, 
 G. Zheng, W. Liang, M. Hada, M. Ehara, K. Toyota, R. Fukuda, 
 J. Hasegawa, M. Ishida, T. Nakajima, Y. Honda, O. Kitao, H. Nakai, 
 T. Vreven, K. Throssell, J. A. Montgomery, Jr., J. E. Peralta, 
 F. Ogliaro, M. J. Bearpark, J. J. Heyd, E. N. Brothers, K. N. Kudin, 
 V. N. Staroverov, T. A. Keith, R. Kobayashi, J. Normand, 
 K. Raghavachari, A. P. Rendell, J. C. Burant, S. S. Iyengar, 
 J. Tomasi, M. Cossi, J. M. Millam, M. Klene, C. Adamo, R. Cammi, 
 J. W. Ochterski, R. L. Martin, K. Morokuma, O. Farkas, 
 J. B. Foresman, and D. J. Fox, Gaussian, Inc., Wallingford CT, 2019.
 
 ******************************************
 Gaussian 16:  ES64L-G16RevC.01  3-Jul-2019
                19-Dec-2024 
 ******************************************
 %nprocshared=16
 Will use up to   16 processors via shared memory.
 %mem=2400MB
 -----------------------------
 #T MP2/cc-pVDZ symm=veryloose
 -----------------------------
 ------
 C1#CC1
 ------
 Symbolic Z-matrix:
 Charge =  0 Multiplicity = 1
 C                     0.        0.66445  -0.61929 
 C                     0.       -0.66445  -0.61929 
 C                     0.        0.        0.76817 
 H                     0.       -0.89954   1.41125 
 H                     0.        0.89954   1.41125 
 
                    Distance matrix (angstroms):
                    1          2          3          4          5
     1  C    0.000000
     2  C    1.328898   0.000000
     3  C    1.538362   1.538362   0.000000
     4  H    2.563036   2.044104   1.105764   0.000000
     5  H    2.044104   2.563036   1.105764   1.799080   0.000000
 Framework group  C2V[C2(C),SGV(C2H2)]
 Deg. of freedom     4
                         Standard orientation:                         
 ---------------------------------------------------------------------
 Center     Atomic      Atomic             Coordinates (Angstroms)
 Number     Number       Type             X           Y           Z
 ---------------------------------------------------------------------
      1          6           0        0.000000    0.664449   -0.619294
      2          6           0       -0.000000   -0.664449   -0.619294
      3          6           0        0.000000   -0.000000    0.768173
      4          1           0        0.000000   -0.899540    1.411246
      5          1           0        0.000000    0.899540    1.411246
 ---------------------------------------------------------------------
 Rotational constants (GHZ):          41.3336177          25.1510074          15.6364291
    52 basis functions,   113 primitive gaussians,    55 cartesian basis functions
    10 alpha electrons       10 beta electrons
       nuclear repulsion energy        50.7235930737 Hartrees.
 NAtoms=    5 NActive=    5 NUniq=    3 SFac= 2.78D+00 NAtFMM=   60 NAOKFM=F Big=F
 ExpMin= 1.22D-01 ExpMax= 6.67D+03 ExpMxC= 2.28D+02 IAcc=3 IRadAn=         5 AccDes= 0.00D+00
 Harris functional with IExCor=  205 and IRadAn=       5 diagonalized for initial guess.
 HarFok:  IExCor=  205 AccDes= 0.00D+00 IRadAn=         5 IDoV= 1 UseB2=F ITyADJ=14
 ICtDFT=  3500011 ScaDFX=  1.000000  1.000000  1.000000  1.000000
 FoFCou: FMM=F IPFlag=           0 FMFlag=      100000 FMFlg1=           0
         NFxFlg=           0 DoJE=T BraDBF=F KetDBF=T FulRan=T
         wScrn=  0.000000 ICntrl=       500 IOpCl=  0 I1Cent=   200000004 NGrid=           0
         NMat0=    1 NMatS0=      1 NMatT0=    0 NMatD0=    1 NMtDS0=    0 NMtDT0=    0
 Petite list used in FoFCou.
 Initial guess orbital symmetries:
       Occupied  (A1) (A1) (B2) (A1) (A1) (B2) (A1) (B1) (B2) (A1)
       Virtual   (B1) (B2) (A2) (A1) (B2) (A1) (B2) (A1) (A1) (B1)
                 (A1) (B2) (B1) (A1) (A2) (B2) (B2) (A1) (B2) (B1)
                 (A2) (A1) (A1) (B1) (B2) (A2) (A1) (B1) (B2) (A1)
                 (B2) (A1) (B2) (A2) (B1) (A1) (B2) (A2) (B2) (A1)
                 (A1) (B2)
 The electronic state of the initial guess is 1-A1.
 SCF Done:  E(RHF) =  -114.538090655     A.U. after   11 cycles
            NFock= 11  Conv=0.40D-08     -V/T= 2.0012
 ExpMin= 1.22D-01 ExpMax= 6.67D+03 ExpMxC= 2.28D+02 IAcc=3 IRadAn=         5 AccDes= 0.00D+00
 HarFok:  IExCor=  205 AccDes= 0.00D+00 IRadAn=         5 IDoV=-2 UseB2=F ITyADJ=14
 ICtDFT= 12500011 ScaDFX=  1.000000  1.000000  1.000000  1.000000
 NROrb=     49 NOA=     7 NOB=     7 NVA=    42 NVB=    42
 ANorm=    0.1073649194D+01
 E2 =    -0.3652999075D+00 EUMP2 =    -0.11490339056289D+03

 **********************************************************************

            Population analysis using the SCF Density.

 **********************************************************************

 Orbital symmetries:
       Occupied  (A1) (A1) (B2) (A1) (A1) (B2) (A1) (B2) (B1) (A1)
       Virtual   (B1) (B2) (A1) (A2) (B2) (A1) (B2) (A1) (A1) (B1)
                 (B2) (A1) (B1) (A1) (A2) (B2) (B2) (A1) (B2) (A1)
                 (B1) (A2) (A1) (B1) (B2) (A2) (B2) (A1) (B1) (A1)
                 (B2) (A1) (B2) (A2) (B1) (A1) (A2) (B2) (B2) (A1)
                 (A1) (B2)
 The electronic state is 1-A1.
 Alpha  occ. eigenvalues --  -11.35903 -11.28346 -11.28160  -1.20052  -0.87960
 Alpha  occ. eigenvalues --   -0.72169  -0.55474  -0.46762  -0.46726  -0.41479
 Alpha virt. eigenvalues --    0.06597   0.13924   0.17449   0.18441   0.28008
 Alpha virt. eigenvalues --    0.35735   0.45019   0.57887   0.62227   0.63513
 Alpha virt. eigenvalues --    0.70206   0.70602   0.73283   0.76495   0.80273
 Alpha virt. eigenvalues --    0.84261   0.91172   0.92068   1.07356   1.12227
 Alpha virt. eigenvalues --    1.12684   1.13948   1.22883   1.34077   1.34231
 Alpha virt. eigenvalues --    1.61269   1.72370   1.72489   1.73022   1.88425
 Alpha virt. eigenvalues --    1.89705   2.05041   2.07091   2.08565   2.11439
 Alpha virt. eigenvalues --    2.17475   2.22658   2.24151   2.39656   2.43237
 Alpha virt. eigenvalues --    2.74101   3.06781
          Condensed to atoms (all electrons):
 Mulliken charges:
               1
     1  C   -0.103796
     2  C   -0.103796
     3  C   -0.085122
     4  H    0.146358
     5  H    0.146358
 Sum of Mulliken charges =  -0.00000
 Mulliken charges with hydrogens summed into heavy atoms:
               1
     1  C   -0.103796
     2  C   -0.103796
     3  C    0.207593
 Electronic spatial extent (au):  <R**2>=            110.0538
 Charge=             -0.0000 electrons
 Dipole moment (field-independent basis, Debye):
    X=              0.0000    Y=              0.0000    Z=              3.1282  Tot=              3.1282
 Unable to Open any file for archive entry.
 1\1\GINC-GPU\SP\RMP2-FC\CC-pVDZ\C3H2\XUHJ\19-Dec-2024\0\\#T MP2/cc-pVD
 Z symm=veryloose\\C1#CC1\\0,1\C,0,0.,0.664449,-0.619294\C,0,0.,-0.6644
 49,-0.619294\C,0,0.,0.,0.768173\H,0,0.,-0.89954,1.411246\H,0,0.,0.8995
 4,1.411246\\Version=ES64L-G16RevC.01\State=1-A1\HF=-114.5380907\MP2=-1
 14.9033906\RMSD=3.958e-09\PG=C02V [C2(C1),SGV(C2H2)]\\@
 The archive entry for this job was punched.


 What some people mistake for the high cost
 of living is really the cost of living high.
                              -- Doug Larson
 Job cpu time:       0 days  0 hours  0 minutes 31.1 seconds.
 Elapsed time:       0 days  0 hours  0 minutes  2.6 seconds.
 File lengths (MBytes):  RWF=      6 Int=      0 D2E=      0 Chk=      1 Scr=      1
 Normal termination of Gaussian 16 at Thu Dec 19 23:00:02 2024.
