 Entering Gaussian System, Link 0=g16
 Initial command:
 /opt/g16/l1.exe "/tmp/Gau-2079540.inp" -scrdir="/tmp/"
 Entering Link 1 = /opt/g16/l1.exe PID=   2079542.
  
 Copyright (c) 1988-2019, Gaussian, Inc.  All Rights Reserved.
  
 This is part of the Gaussian(R) 16 program.  It is based on
 the Gaussian(R) 09 system (copyright 2009, Gaussian, Inc.),
 the Gaussian(R) 03 system (copyright 2003, Gaussian, Inc.),
 the Gaussian(R) 98 system (copyright 1998, Gaussian, Inc.),
 the Gaussian(R) 94 system (copyright 1995, Gaussian, Inc.),
 the Gaussian 92(TM) system (copyright 1992, Gaussian, Inc.),
 the Gaussian 90(TM) system (copyright 1990, Gaussian, Inc.),
 the Gaussian 88(TM) system (copyright 1988, Gaussian, Inc.),
 the Gaussian 86(TM) system (copyright 1986, Carnegie Mellon
 University), and the Gaussian 82(TM) system (copyright 1983,
 Carnegie Mellon University). Gaussian is a federally registered
 trademark of Gaussian, Inc.
  
 This software contains proprietary and confidential information,
 including trade secrets, belonging to Gaussian, Inc.
  
 This software is provided under written license and may be
 used, copied, transmitted, or stored only in accord with that
 written license.
  
 The following legend is applicable only to US Government
 contracts under FAR:
  
                    RESTRICTED RIGHTS LEGEND
  
 Use, reproduction and disclosure by the US Government is
 subject to restrictions as set forth in subparagraphs (a)
 and (c) of the Commercial Computer Software - Restricted
 Rights clause in FAR 52.227-19.
  
 Gaussian, Inc.
 340 Quinnipiac St., Bldg. 40, Wallingford CT 06492
  
  
 ---------------------------------------------------------------
 Warning -- This program may not be used in any manner that
 competes with the business of Gaussian, Inc. or will provide
 assistance to any competitor of Gaussian, Inc.  The licensee
 of this program is prohibited from giving any competitor of
 Gaussian, Inc. access to this program.  By using this program,
 the user acknowledges that Gaussian, Inc. is engaged in the
 business of creating and licensing software in the field of
 computational chemistry and represents and warrants to the
 licensee that it is not a competitor of Gaussian, Inc. and that
 it will not use this program in any manner prohibited above.
 ---------------------------------------------------------------
  

 Cite this work as:
 Gaussian 16, Revision C.01,
 M. J. Frisch, G. W. Trucks, H. B. Schlegel, G. E. Scuseria, 
 M. A. Robb, J. R. Cheeseman, G. Scalmani, V. Barone, 
 G. A. Petersson, H. Nakatsuji, X. Li, M. Caricato, A. V. Marenich, 
 J. Bloino, B. G. Janesko, R. Gomperts, B. Mennucci, H. P. Hratchian, 
 J. V. Ortiz, A. F. Izmaylov, J. L. Sonnenberg, D. Williams-Young, 
 F. Ding, F. Lipparini, F. Egidi, J. Goings, B. Peng, A. Petrone, 
 T. Henderson, D. Ranasinghe, V. G. Zakrzewski, J. Gao, N. Rega, 
 G. Zheng, W. Liang, M. Hada, M. Ehara, K. Toyota, R. Fukuda, 
 J. Hasegawa, M. Ishida, T. Nakajima, Y. Honda, O. Kitao, H. Nakai, 
 T. Vreven, K. Throssell, J. A. Montgomery, Jr., J. E. Peralta, 
 F. Ogliaro, M. J. Bearpark, J. J. Heyd, E. N. Brothers, K. N. Kudin, 
 V. N. Staroverov, T. A. Keith, R. Kobayashi, J. Normand, 
 K. Raghavachari, A. P. Rendell, J. C. Burant, S. S. Iyengar, 
 J. Tomasi, M. Cossi, J. M. Millam, M. Klene, C. Adamo, R. Cammi, 
 J. W. Ochterski, R. L. Martin, K. Morokuma, O. Farkas, 
 J. B. Foresman, and D. J. Fox, Gaussian, Inc., Wallingford CT, 2019.
 
 ******************************************
 Gaussian 16:  ES64L-G16RevC.01  3-Jul-2019
                 6-Nov-2024 
 ******************************************
 %nprocshared=16
 Will use up to   16 processors via shared memory.
 %mem=1600MB
 -------------------------------
 #T ROMP2/cc-pVDZ symm=veryloose
 -------------------------------
 -----
 [C]#C
 -----
 Symbolic Z-matrix:
 Charge =  0 Multiplicity = 2
 C                     0.        0.        0.7359 
 C                     0.        0.       -0.47693 
 H                     0.        0.       -1.55381 
 
                    Distance matrix (angstroms):
                    1          2          3
     1  C    0.000000
     2  C    1.212820   0.000000
     3  H    2.289709   1.076889   0.000000
 Framework group  C*V[C*(HCC)]
 Deg. of freedom     2
                         Standard orientation:                         
 ---------------------------------------------------------------------
 Center     Atomic      Atomic             Coordinates (Angstroms)
 Number     Number       Type             X           Y           Z
 ---------------------------------------------------------------------
      1          6           0        0.000000    0.000000    0.735895
      2          6           0        0.000000    0.000000   -0.476925
      3          1           0        0.000000    0.000000   -1.553814
 ---------------------------------------------------------------------
 Rotational constants (GHZ):           0.0000000          43.6945583          43.6945583
    33 basis functions,    73 primitive gaussians,    35 cartesian basis functions
     7 alpha electrons        6 beta electrons
       nuclear repulsion energy        20.0425408317 Hartrees.
 NAtoms=    3 NActive=    3 NUniq=    3 SFac= 1.00D+00 NAtFMM=   60 NAOKFM=F Big=F
 ExpMin= 1.22D-01 ExpMax= 6.67D+03 ExpMxC= 2.28D+02 IAcc=3 IRadAn=         5 AccDes= 0.00D+00
 Harris functional with IExCor=  205 and IRadAn=       5 diagonalized for initial guess.
 HarFok:  IExCor=  205 AccDes= 0.00D+00 IRadAn=         5 IDoV= 1 UseB2=F ITyADJ=14
 ICtDFT=  3500011 ScaDFX=  1.000000  1.000000  1.000000  1.000000
 FoFCou: FMM=F IPFlag=           0 FMFlag=      100000 FMFlg1=           0
         NFxFlg=           0 DoJE=T BraDBF=F KetDBF=T FulRan=T
         wScrn=  0.000000 ICntrl=       500 IOpCl=  0 I1Cent=   200000004 NGrid=           0
         NMat0=    1 NMatS0=      1 NMatT0=    0 NMatD0=    1 NMtDS0=    0 NMtDT0=    0
 Petite list used in FoFCou.
 Initial guess orbital symmetries:
       Occupied  (SG) (SG) (SG) (SG) (PI) (PI) (SG)
       Virtual   (PI) (PI) (SG) (SG) (SG) (PI) (PI) (PI) (PI) (SG)
                 (SG) (SG) (DLTA) (DLTA) (PI) (PI) (SG) (DLTA)
                 (DLTA) (PI) (PI) (SG) (SG) (PI) (PI) (SG)
 The electronic state of the initial guess is 2-SG.
 SCF Done:  E(ROHF) =  -76.1406517316     A.U. after   12 cycles
            NFock= 12  Conv=0.22D-08     -V/T= 2.0027
 <Sx>= 0.0000 <Sy>= 0.0000 <Sz>= 0.5000 <S**2>= 0.7500 S= 0.5000
 <L.S>=  0.00000000000    
 Annihilation of the first spin contaminant:
 S**2 before annihilation     0.7500,   after     0.7500
 GenMOA:  NOpAll=  4 NOp2=4 NOpUse=  4 JSym2X=1
 <Sx>= 0.0000 <Sy>= 0.0000 <Sz>= 0.5000 <S**2>= 0.7500 S= 0.5000
 ExpMin= 1.22D-01 ExpMax= 6.67D+03 ExpMxC= 2.28D+02 IAcc=3 IRadAn=         5 AccDes= 0.00D+00
 HarFok:  IExCor=  205 AccDes= 0.00D+00 IRadAn=         5 IDoV=-2 UseB2=F ITyADJ=14
 ICtDFT= 12500011 ScaDFX=  1.000000  1.000000  1.000000  1.000000
 NROrb=     31 NOA=     5 NOB=     4 NVA=    26 NVB=    27
 Singles contribution to E2=   -0.2229482077D-02
 ANorm=    0.1049576285D+01
 E2 =    -0.2292209667D+00 EUMP2 =    -0.76369872698309D+02

 **********************************************************************

            Population analysis using the SCF Density.

 **********************************************************************

 Orbital symmetries:
       Occupied  (SG) (SG) (SG) (SG) (PI) (PI) (SG)
       Virtual   (PI) (PI) (SG) (SG) (SG) (PI) (PI) (PI) (PI) (SG)
                 (SG) (DLTA) (DLTA) (SG) (PI) (PI) (SG) (DLTA)
                 (DLTA) (PI) (PI) (SG) (PI) (PI) (SG) (SG)
 The electronic state is 2-SG.
 Alpha  occ. eigenvalues --  -11.31205 -11.27041  -1.05370  -0.74637  -0.59623
 Alpha  occ. eigenvalues --   -0.43179  -0.43179
 Alpha virt. eigenvalues --    0.17659   0.17659   0.20202   0.41195   0.53115
 Alpha virt. eigenvalues --    0.64554   0.64554   0.77626   0.79428   0.79428
 Alpha virt. eigenvalues --    0.92548   1.23138   1.23323   1.23323   1.27196
 Alpha virt. eigenvalues --    1.27196   1.32115   1.65537   1.65537   1.78609
 Alpha virt. eigenvalues --    1.78609   2.07623   2.43419   2.43419   2.51977
 Alpha virt. eigenvalues --    3.34645
          Condensed to atoms (all electrons):
          Atomic-Atomic Spin Densities.
 Mulliken charges and spin densities:
               1          2
     1  C   -0.091741   0.943410
     2  C   -0.003851   0.050929
     3  H    0.095592   0.005661
 Sum of Mulliken charges =   0.00000   1.00000
 Mulliken charges and spin densities with hydrogens summed into heavy atoms:
               1          2
     1  C   -0.091741   0.943410
     2  C    0.091741   0.056590
 Electronic spatial extent (au):  <R**2>=             50.1760
 Charge=              0.0000 electrons
 Dipole moment (field-independent basis, Debye):
    X=              0.0000    Y=              0.0000    Z=             -0.7726  Tot=              0.7726
                          Isotropic Fermi Contact Couplings
        Atom                 a.u.       MegaHertz       Gauss      10(-4) cm-1
     1  C(13)              0.86974     977.75173     348.88613     326.14287
     2  C(13)              0.16090     180.87861      64.54199      60.33461
     3  H(1)               0.00290      12.96369       4.62577       4.32422
 --------------------------------------------------------
       Center         ----  Spin Dipole Couplings  ----
                      3XX-RR        3YY-RR        3ZZ-RR
 --------------------------------------------------------
     1   Atom       -0.418600     -0.418600      0.837200
     2   Atom       -0.076599     -0.076599      0.153198
     3   Atom       -0.010077     -0.010077      0.020155
 --------------------------------------------------------
                        XY            XZ            YZ
 --------------------------------------------------------
     1   Atom        0.000000      0.000000      0.000000
     2   Atom        0.000000      0.000000      0.000000
     3   Atom        0.000000      0.000000      0.000000
 --------------------------------------------------------


 ---------------------------------------------------------------------------------
              Anisotropic Spin Dipole Couplings in Principal Axis System
 ---------------------------------------------------------------------------------

       Atom             a.u.   MegaHertz   Gauss  10(-4) cm-1        Axes

              Baa    -0.4186   -56.172   -20.044   -18.737  1.0000  0.0000  0.0000
     1 C(13)  Bbb    -0.4186   -56.172   -20.044   -18.737 -0.0000  1.0000  0.0000
              Bcc     0.8372   112.344    40.087    37.474  0.0000  0.0000  1.0000
 
              Baa    -0.0766   -10.279    -3.668    -3.429  1.0000  0.0000  0.0000
     2 C(13)  Bbb    -0.0766   -10.279    -3.668    -3.429 -0.0000  1.0000  0.0000
              Bcc     0.1532    20.558     7.336     6.857  0.0000  0.0000  1.0000
 
              Baa    -0.0101    -5.377    -1.919    -1.793  1.0000  0.0000  0.0000
     3 H(1)   Bbb    -0.0101    -5.377    -1.919    -1.793 -0.0000  1.0000  0.0000
              Bcc     0.0202    10.754     3.837     3.587  0.0000  0.0000  1.0000
 

 ---------------------------------------------------------------------------------

 Unable to Open any file for archive entry.
 1\1\GINC-NODE01\SP\ROMP2-FC\CC-pVDZ\C2H1(2)\XUHJ\06-Nov-2024\0\\#T ROM
 P2/cc-pVDZ symm=veryloose\\[C]#C\\0,2\C,0,0.,0.,0.735895\C,0,0.,0.,-0.
 476925\H,0,0.,0.,-1.553814\\Version=ES64L-G16RevC.01\State=2-SG\HF=-76
 .1406517\MP2=-76.3698727\RMSD=2.178e-09\PG=C*V [C*(H1C1C1)]\\@
 The archive entry for this job was punched.


 GARBAGE IN, GARBAGE OUT
 Job cpu time:       0 days  0 hours  0 minutes  9.9 seconds.
 Elapsed time:       0 days  0 hours  0 minutes  0.6 seconds.
 File lengths (MBytes):  RWF=      6 Int=      0 D2E=      0 Chk=      1 Scr=      1
 Normal termination of Gaussian 16 at Wed Nov  6 12:31:08 2024.
