%nprocshared=16
%mem=1280MB
#T MP2/cc-pVDZ symm=veryloose

CCOC

0 1
C        -1.442928      -1.174743      -0.000000
C        -0.000000      -0.702817      -0.000000
O         0.020687       0.703509       0.000000
C         1.309839       1.246346       0.000000
H        -1.492029      -2.277873      -0.000000
H        -1.970380      -0.798092      -0.893466
H        -1.970380      -0.798092       0.893466
H         0.536963      -1.095828      -0.892714
H         0.536963      -1.095828       0.892714
H         1.212134       2.344657       0.000000
H         1.889885       0.940135      -0.898834
H         1.889885       0.940135       0.898834


