 Entering Gaussian System, Link 0=g16
 Initial command:
 /home/software/g16/l1.exe "/home/software/g16tmp/Gau-139187.inp" -scrdir="/home/software/g16tmp/"
 Default is to use a total of   8 processors:
                                8 via shared-memory
                                1 via Linda
 Entering Link 1 = /home/software/g16/l1.exe PID=    139188.
  
 Copyright (c) 1988-2019, Gaussian, Inc.  All Rights Reserved.
  
 This is part of the Gaussian(R) 16 program.  It is based on
 the Gaussian(R) 09 system (copyright 2009, Gaussian, Inc.),
 the Gaussian(R) 03 system (copyright 2003, Gaussian, Inc.),
 the Gaussian(R) 98 system (copyright 1998, Gaussian, Inc.),
 the Gaussian(R) 94 system (copyright 1995, Gaussian, Inc.),
 the Gaussian 92(TM) system (copyright 1992, Gaussian, Inc.),
 the Gaussian 90(TM) system (copyright 1990, Gaussian, Inc.),
 the Gaussian 88(TM) system (copyright 1988, Gaussian, Inc.),
 the Gaussian 86(TM) system (copyright 1986, Carnegie Mellon
 University), and the Gaussian 82(TM) system (copyright 1983,
 Carnegie Mellon University). Gaussian is a federally registered
 trademark of Gaussian, Inc.
  
 This software contains proprietary and confidential information,
 including trade secrets, belonging to Gaussian, Inc.
  
 This software is provided under written license and may be
 used, copied, transmitted, or stored only in accord with that
 written license.
  
 The following legend is applicable only to US Government
 contracts under FAR:
  
                    RESTRICTED RIGHTS LEGEND
  
 Use, reproduction and disclosure by the US Government is
 subject to restrictions as set forth in subparagraphs (a)
 and (c) of the Commercial Computer Software - Restricted
 Rights clause in FAR 52.227-19.
  
 Gaussian, Inc.
 340 Quinnipiac St., Bldg. 40, Wallingford CT 06492
  
  
 ---------------------------------------------------------------
 Warning -- This program may not be used in any manner that
 competes with the business of Gaussian, Inc. or will provide
 assistance to any competitor of Gaussian, Inc.  The licensee
 of this program is prohibited from giving any competitor of
 Gaussian, Inc. access to this program.  By using this program,
 the user acknowledges that Gaussian, Inc. is engaged in the
 business of creating and licensing software in the field of
 computational chemistry and represents and warrants to the
 licensee that it is not a competitor of Gaussian, Inc. and that
 it will not use this program in any manner prohibited above.
 ---------------------------------------------------------------
  

 Cite this work as:
 Gaussian 16, Revision C.01,
 M. J. Frisch, G. W. Trucks, H. B. Schlegel, G. E. Scuseria, 
 M. A. Robb, J. R. Cheeseman, G. Scalmani, V. Barone, 
 G. A. Petersson, H. Nakatsuji, X. Li, M. Caricato, A. V. Marenich, 
 J. Bloino, B. G. Janesko, R. Gomperts, B. Mennucci, H. P. Hratchian, 
 J. V. Ortiz, A. F. Izmaylov, J. L. Sonnenberg, D. Williams-Young, 
 F. Ding, F. Lipparini, F. Egidi, J. Goings, B. Peng, A. Petrone, 
 T. Henderson, D. Ranasinghe, V. G. Zakrzewski, J. Gao, N. Rega, 
 G. Zheng, W. Liang, M. Hada, M. Ehara, K. Toyota, R. Fukuda, 
 J. Hasegawa, M. Ishida, T. Nakajima, Y. Honda, O. Kitao, H. Nakai, 
 T. Vreven, K. Throssell, J. A. Montgomery, Jr., J. E. Peralta, 
 F. Ogliaro, M. J. Bearpark, J. J. Heyd, E. N. Brothers, K. N. Kudin, 
 V. N. Staroverov, T. A. Keith, R. Kobayashi, J. Normand, 
 K. Raghavachari, A. P. Rendell, J. C. Burant, S. S. Iyengar, 
 J. Tomasi, M. Cossi, J. M. Millam, M. Klene, C. Adamo, R. Cammi, 
 J. W. Ochterski, R. L. Martin, K. Morokuma, O. Farkas, 
 J. B. Foresman, and D. J. Fox, Gaussian, Inc., Wallingford CT, 2019.
 
 ******************************************
 Gaussian 16:  ES64L-G16RevC.01  3-Jul-2019
                20-Dec-2023 
 ******************************************
 %nprocshared=16
 Will use up to   16 processors via shared memory.
 %mem=1280MB
 -----------------------------
 #T MP2/cc-pVDZ symm=veryloose
 -----------------------------
 ----
 CCOC
 ----
 Symbolic Z-matrix:
 Charge =  0 Multiplicity = 1
 C                    -1.44293  -1.17474   0. 
 C                     0.       -0.70282   0. 
 O                     0.02069   0.70351   0. 
 C                     1.30984   1.24635   0. 
 H                    -1.49203  -2.27787   0. 
 H                    -1.97038  -0.79809  -0.89347 
 H                    -1.97038  -0.79809   0.89347 
 H                     0.53696  -1.09583  -0.89271 
 H                     0.53696  -1.09583   0.89271 
 H                     1.21213   2.34466   0. 
 H                     1.88989   0.94014  -0.89883 
 H                     1.88989   0.94014   0.89883 
 
                    Distance matrix (angstroms):
                    1          2          3          4          5
     1  C    0.000000
     2  C    1.518142   0.000000
     3  O    2.381176   1.406478   0.000000
     4  C    3.665978   2.348386   1.398780   0.000000
     5  H    1.104222   2.169551   3.343194   4.502287   0.000000
     6  H    1.103790   2.165584   2.649044   3.967095   1.793559
     7  H    1.103790   2.165584   2.649044   3.967095   1.793559
     8  H    2.173277   1.113429   2.073908   2.622986   2.512166
     9  H    2.173277   1.113429   2.073908   2.622986   2.512166
    10  H    4.408575   3.279690   2.028032   1.102648   5.355397
    11  H    4.048241   2.660613   2.087533   1.112709   4.754032
    12  H    4.048241   2.660613   2.087533   1.112709   4.754032
                    6          7          8          9         10
     6  H    0.000000
     7  H    1.786932   0.000000
     8  H    2.524959   3.092872   0.000000
     9  H    3.092872   2.524959   1.785428   0.000000
    10  H    4.561091   4.561091   3.617973   3.617973   0.000000
    11  H    4.233569   4.597327   2.444500   3.030707   1.799981
    12  H    4.597327   4.233569   3.030707   2.444500   1.799981
                   11         12
    11  H    0.000000
    12  H    1.797668   0.000000
 Framework group  CS[SG(C3H2O),X(H6)]
 Deg. of freedom    18
                         Standard orientation:                         
 ---------------------------------------------------------------------
 Center     Atomic      Atomic             Coordinates (Angstroms)
 Number     Number       Type             X           Y           Z
 ---------------------------------------------------------------------
      1          6           0       -1.442928    1.174743    0.000000
      2          6           0        0.000000    0.702817    0.000000
      3          8           0        0.020687   -0.703509    0.000000
      4          6           0        1.309839   -1.246346    0.000000
      5          1           0       -1.492029    2.277873    0.000000
      6          1           0       -1.970380    0.798092    0.893466
      7          1           0       -1.970380    0.798092   -0.893466
      8          1           0        0.536963    1.095828    0.892714
      9          1           0        0.536963    1.095828   -0.892714
     10          1           0        1.212134   -2.344657    0.000000
     11          1           0        1.889885   -0.940135    0.898834
     12          1           0        1.889885   -0.940135   -0.898834
 ---------------------------------------------------------------------
 Rotational constants (GHZ):          28.2646383           4.1439644           3.8831103
    96 basis functions,   188 primitive gaussians,   100 cartesian basis functions
    17 alpha electrons       17 beta electrons
       nuclear repulsion energy       133.3935583830 Hartrees.
 NAtoms=   12 NActive=   12 NUniq=    9 SFac= 1.78D+00 NAtFMM=   60 NAOKFM=F Big=F
 ExpMin= 1.22D-01 ExpMax= 1.17D+04 ExpMxC= 4.01D+02 IAcc=3 IRadAn=         5 AccDes= 0.00D+00
 Harris functional with IExCor=  205 and IRadAn=       5 diagonalized for initial guess.
 HarFok:  IExCor=  205 AccDes= 0.00D+00 IRadAn=         5 IDoV= 1 UseB2=F ITyADJ=14
 ICtDFT=  3500011 ScaDFX=  1.000000  1.000000  1.000000  1.000000
 FoFCou: FMM=F IPFlag=           0 FMFlag=      100000 FMFlg1=           0
         NFxFlg=           0 DoJE=T BraDBF=F KetDBF=T FulRan=T
         wScrn=  0.000000 ICntrl=       500 IOpCl=  0 I1Cent=   200000004 NGrid=           0
         NMat0=    1 NMatS0=      1 NMatT0=    0 NMatD0=    1 NMtDS0=    0 NMtDT0=    0
 Petite list used in FoFCou.
 Initial guess orbital symmetries:
       Occupied  (A') (A') (A') (A') (A') (A') (A') (A') (A') (A")
                 (A') (A") (A') (A') (A") (A') (A")
       Virtual   (A') (A') (A') (A") (A') (A') (A') (A") (A') (A")
                 (A') (A') (A") (A') (A") (A') (A') (A') (A") (A")
                 (A') (A') (A') (A") (A') (A") (A') (A') (A') (A")
                 (A') (A') (A") (A') (A") (A') (A") (A') (A') (A')
                 (A") (A") (A') (A") (A") (A') (A") (A') (A") (A')
                 (A') (A') (A") (A") (A') (A') (A') (A") (A') (A')
                 (A') (A") (A') (A") (A') (A') (A") (A') (A') (A')
                 (A') (A") (A') (A") (A") (A') (A") (A') (A')
 The electronic state of the initial guess is 1-A'.
 SCF Done:  E(RHF) =  -193.118068507     A.U. after   11 cycles
            NFock= 11  Conv=0.61D-08     -V/T= 2.0017
 ExpMin= 1.22D-01 ExpMax= 1.17D+04 ExpMxC= 4.01D+02 IAcc=3 IRadAn=         5 AccDes= 0.00D+00
 HarFok:  IExCor=  205 AccDes= 0.00D+00 IRadAn=         5 IDoV=-2 UseB2=F ITyADJ=14
 ICtDFT= 12500011 ScaDFX=  1.000000  1.000000  1.000000  1.000000
 NROrb=     92 NOA=    13 NOB=    13 NVA=    79 NVB=    79
 ANorm=    0.1092839582D+01
 E2 =    -0.6218563817D+00 EUMP2 =    -0.19373992488919D+03

 **********************************************************************

            Population analysis using the SCF Density.

 **********************************************************************

 Orbital symmetries:
       Occupied  (A') (A') (A') (A') (A') (A') (A') (A') (A") (A')
                 (A') (A") (A') (A') (A") (A') (A")
       Virtual   (A') (A') (A") (A') (A') (A') (A") (A") (A') (A')
                 (A') (A') (A") (A") (A') (A') (A') (A") (A') (A")
                 (A') (A') (A") (A') (A") (A') (A') (A') (A') (A")
                 (A') (A') (A") (A') (A') (A") (A") (A') (A') (A')
                 (A") (A") (A") (A') (A") (A') (A") (A') (A") (A')
                 (A') (A") (A") (A') (A') (A') (A') (A") (A') (A')
                 (A') (A") (A') (A") (A') (A') (A") (A') (A') (A')
                 (A') (A") (A') (A") (A") (A') (A") (A') (A')
 The electronic state is 1-A'.
 Alpha  occ. eigenvalues --  -20.55108 -11.27946 -11.27803 -11.22353  -1.37714
 Alpha  occ. eigenvalues --   -1.02171  -0.90928  -0.82430  -0.66381  -0.65244
 Alpha  occ. eigenvalues --   -0.62289  -0.57507  -0.53079  -0.50417  -0.49574
 Alpha  occ. eigenvalues --   -0.46924  -0.41391
 Alpha virt. eigenvalues --    0.18467   0.20523   0.23962   0.24541   0.26322
 Alpha virt. eigenvalues --    0.27796   0.28288   0.30045   0.31694   0.40088
 Alpha virt. eigenvalues --    0.42896   0.58972   0.59594   0.64859   0.65566
 Alpha virt. eigenvalues --    0.70323   0.74429   0.75908   0.83533   0.84070
 Alpha virt. eigenvalues --    0.86166   0.86933   0.88170   0.89143   0.89886
 Alpha virt. eigenvalues --    0.90210   0.92183   0.93663   1.11350   1.12754
 Alpha virt. eigenvalues --    1.13105   1.17553   1.23347   1.40525   1.45607
 Alpha virt. eigenvalues --    1.46247   1.49021   1.54484   1.55360   1.66214
 Alpha virt. eigenvalues --    1.66695   1.68228   1.81287   1.84128   1.86107
 Alpha virt. eigenvalues --    1.88005   1.90062   1.91851   1.92220   1.94533
 Alpha virt. eigenvalues --    1.97571   1.97653   1.98794   2.02147   2.08704
 Alpha virt. eigenvalues --    2.11144   2.14872   2.21435   2.28929   2.32441
 Alpha virt. eigenvalues --    2.35209   2.35747   2.44538   2.49605   2.52577
 Alpha virt. eigenvalues --    2.56110   2.72289   2.72522   2.73608   2.75545
 Alpha virt. eigenvalues --    2.78943   2.79955   2.86929   2.89780   3.34874
 Alpha virt. eigenvalues --    3.38914   3.47352   3.64751   3.74416
          Condensed to atoms (all electrons):
 Mulliken charges:
               1
     1  C   -0.057042
     2  C    0.151867
     3  O   -0.475085
     4  C    0.164486
     5  H    0.029291
     6  H    0.044094
     7  H    0.044094
     8  H    0.013250
     9  H    0.013250
    10  H    0.044418
    11  H    0.013687
    12  H    0.013687
 Sum of Mulliken charges =   0.00000
 Mulliken charges with hydrogens summed into heavy atoms:
               1
     1  C    0.060437
     2  C    0.178368
     3  O   -0.475085
     4  C    0.236279
 Electronic spatial extent (au):  <R**2>=            370.2471
 Charge=             -0.0000 electrons
 Dipole moment (field-independent basis, Debye):
    X=              1.0558    Y=              0.7375    Z=              0.0000  Tot=              1.2879
 Unable to Open any file for archive entry.
 1\1\GINC-NODE04\SP\RMP2-FC\CC-pVDZ\C3H8O1\XUHJ\20-Dec-2023\0\\#T MP2/c
 c-pVDZ symm=veryloose\\CCOC\\0,1\C,0,-1.442928,-1.174743,0.\C,0,0.,-0.
 702817,0.\O,0,0.020687,0.703509,0.\C,0,1.309839,1.246346,0.\H,0,-1.492
 029,-2.277873,0.\H,0,-1.97038,-0.798092,-0.893466\H,0,-1.97038,-0.7980
 92,0.893466\H,0,0.536963,-1.095828,-0.892714\H,0,0.536963,-1.095828,0.
 892714\H,0,1.212134,2.344657,0.\H,0,1.889885,0.940135,-0.898834\H,0,1.
 889885,0.940135,0.898834\\Version=ES64L-G16RevC.01\State=1-A'\HF=-193.
 1180685\MP2=-193.7399249\RMSD=6.099e-09\PG=CS [SG(C3H2O1),X(H6)]\\@
 The archive entry for this job was punched.


 THERE'S NOTHING SO GREAT AS THE GREAT OUTDOORS.

                                       -- ZIGGY
 Job cpu time:       0 days  0 hours  0 minutes 22.1 seconds.
 Elapsed time:       0 days  0 hours  0 minutes  1.8 seconds.
 File lengths (MBytes):  RWF=     22 Int=      0 D2E=      0 Chk=      2 Scr=      2
 Normal termination of Gaussian 16 at Wed Dec 20 12:21:20 2023.
