 Entering Gaussian System, Link 0=g16
 Initial command:
 /opt/g16/l1.exe "/tmp/scratch/Gau-2212710.inp" -scrdir="/tmp/scratch/"
 Entering Link 1 = /opt/g16/l1.exe PID=   2212712.
  
 Copyright (c) 1988-2019, Gaussian, Inc.  All Rights Reserved.
  
 This is part of the Gaussian(R) 16 program.  It is based on
 the Gaussian(R) 09 system (copyright 2009, Gaussian, Inc.),
 the Gaussian(R) 03 system (copyright 2003, Gaussian, Inc.),
 the Gaussian(R) 98 system (copyright 1998, Gaussian, Inc.),
 the Gaussian(R) 94 system (copyright 1995, Gaussian, Inc.),
 the Gaussian 92(TM) system (copyright 1992, Gaussian, Inc.),
 the Gaussian 90(TM) system (copyright 1990, Gaussian, Inc.),
 the Gaussian 88(TM) system (copyright 1988, Gaussian, Inc.),
 the Gaussian 86(TM) system (copyright 1986, Carnegie Mellon
 University), and the Gaussian 82(TM) system (copyright 1983,
 Carnegie Mellon University). Gaussian is a federally registered
 trademark of Gaussian, Inc.
  
 This software contains proprietary and confidential information,
 including trade secrets, belonging to Gaussian, Inc.
  
 This software is provided under written license and may be
 used, copied, transmitted, or stored only in accord with that
 written license.
  
 The following legend is applicable only to US Government
 contracts under FAR:
  
                    RESTRICTED RIGHTS LEGEND
  
 Use, reproduction and disclosure by the US Government is
 subject to restrictions as set forth in subparagraphs (a)
 and (c) of the Commercial Computer Software - Restricted
 Rights clause in FAR 52.227-19.
  
 Gaussian, Inc.
 340 Quinnipiac St., Bldg. 40, Wallingford CT 06492
  
  
 ---------------------------------------------------------------
 Warning -- This program may not be used in any manner that
 competes with the business of Gaussian, Inc. or will provide
 assistance to any competitor of Gaussian, Inc.  The licensee
 of this program is prohibited from giving any competitor of
 Gaussian, Inc. access to this program.  By using this program,
 the user acknowledges that Gaussian, Inc. is engaged in the
 business of creating and licensing software in the field of
 computational chemistry and represents and warrants to the
 licensee that it is not a competitor of Gaussian, Inc. and that
 it will not use this program in any manner prohibited above.
 ---------------------------------------------------------------
  

 Cite this work as:
 Gaussian 16, Revision C.01,
 M. J. Frisch, G. W. Trucks, H. B. Schlegel, G. E. Scuseria, 
 M. A. Robb, J. R. Cheeseman, G. Scalmani, V. Barone, 
 G. A. Petersson, H. Nakatsuji, X. Li, M. Caricato, A. V. Marenich, 
 J. Bloino, B. G. Janesko, R. Gomperts, B. Mennucci, H. P. Hratchian, 
 J. V. Ortiz, A. F. Izmaylov, J. L. Sonnenberg, D. Williams-Young, 
 F. Ding, F. Lipparini, F. Egidi, J. Goings, B. Peng, A. Petrone, 
 T. Henderson, D. Ranasinghe, V. G. Zakrzewski, J. Gao, N. Rega, 
 G. Zheng, W. Liang, M. Hada, M. Ehara, K. Toyota, R. Fukuda, 
 J. Hasegawa, M. Ishida, T. Nakajima, Y. Honda, O. Kitao, H. Nakai, 
 T. Vreven, K. Throssell, J. A. Montgomery, Jr., J. E. Peralta, 
 F. Ogliaro, M. J. Bearpark, J. J. Heyd, E. N. Brothers, K. N. Kudin, 
 V. N. Staroverov, T. A. Keith, R. Kobayashi, J. Normand, 
 K. Raghavachari, A. P. Rendell, J. C. Burant, S. S. Iyengar, 
 J. Tomasi, M. Cossi, J. M. Millam, M. Klene, C. Adamo, R. Cammi, 
 J. W. Ochterski, R. L. Martin, K. Morokuma, O. Farkas, 
 J. B. Foresman, and D. J. Fox, Gaussian, Inc., Wallingford CT, 2019.
 
 ******************************************
 Gaussian 16:  ES64L-G16RevC.01  3-Jul-2019
                25-Aug-2024 
 ******************************************
 %nprocshared=8
 Will use up to    8 processors via shared memory.
 %mem=720MB
 -----------------------------
 #T MP2/cc-pVDZ symm=veryloose
 -----------------------------
 --------------
 C1=Cc2ccccc2C1
 --------------
 Symbolic Z-matrix:
 Charge =  0 Multiplicity = 1
 C                    -0.86424  -2.29048   0. 
 C                    -1.6217   -1.17144   0. 
 C                    -0.75523   0.01269   0. 
 C                    -1.05487   1.37834   0. 
 C                     0.        2.29898   0. 
 C                     1.3313    1.86238   0. 
 C                     1.63355   0.4919    0. 
 C                     0.58967  -0.42683   0. 
 C                     0.60542  -1.93839   0. 
 H                    -1.23614  -3.31768   0. 
 H                    -2.71386  -1.1333    0. 
 H                    -2.09347   1.72295   0. 
 H                    -0.21678   3.37167   0. 
 H                     2.14244   2.59674   0. 
 H                     2.6759    0.1573    0. 
 H                     1.12768  -2.34954   0.88692 
 H                     1.12768  -2.34954  -0.88692 
 
                    Distance matrix (angstroms):
                    1          2          3          4          5
     1  C    0.000000
     2  C    1.351288   0.000000
     3  C    2.305747   1.467297   0.000000
     4  C    3.673765   2.612030   1.398134   0.000000
     5  C    4.670117   3.830632   2.407792   1.400116   0.000000
     6  C    4.697504   4.233704   2.788350   2.434765   1.401062
     7  C    3.739053   3.655588   2.436362   2.830787   2.435982
     8  C    2.363687   2.333366   1.414891   2.441955   2.788860
     9  C    1.511240   2.355475   2.378675   3.709082   4.280404
    10  H    1.092458   2.180596   3.364920   4.699521   5.751080
    11  H    2.181784   1.092831   2.269264   3.010080   4.375565
    12  H    4.197450   2.932588   2.171606   1.094280   2.171275
    13  H    5.699038   4.755381   3.401854   2.162346   1.094371
    14  H    5.738028   5.326157   3.882493   3.421592   2.163033
    15  H    4.303971   4.498323   3.434171   3.925505   3.427424
    16  H    2.181252   3.119878   3.148352   4.409905   4.864876
    17  H    2.181252   3.119878   3.148352   4.409905   4.864876
                    6          7          8          9         10
     6  C    0.000000
     7  C    1.403411   0.000000
     8  C    2.406340   1.390590   0.000000
     9  C    3.869464   2.638820   1.511647   0.000000
    10  H    5.781412   4.769485   3.419152   2.300817   0.000000
    11  H    5.033625   4.641252   3.378227   3.415526   2.637276
    12  H    3.427606   3.925065   3.438136   4.548564   5.113021
    13  H    2.162056   3.422973   3.883157   5.373335   6.766570
    14  H    1.094186   2.165484   3.398979   4.788514   6.811399
    15  H    2.171462   1.094743   2.166464   2.945984   5.232544
    16  H    4.309097   3.019320   2.184697   1.108343   2.703991
    17  H    4.309097   3.019320   2.184697   1.108343   2.703991
                   11         12         13         14         15
    11  H    0.000000
    12  H    2.922844   0.000000
    13  H    5.150739   2.498050   0.000000
    14  H    6.123467   4.325097   2.483228   0.000000
    15  H    5.542129   5.019778   4.324319   2.497088   0.000000
    16  H    4.125938   5.267602   5.943600   5.126599   3.076984
    17  H    4.125938   5.267602   5.943600   5.126599   3.076984
                   16         17
    16  H    0.000000
    17  H    1.773834   0.000000
 Framework group  CS[SG(C9H6),X(H2)]
 Deg. of freedom    30
                         Standard orientation:                         
 ---------------------------------------------------------------------
 Center     Atomic      Atomic             Coordinates (Angstroms)
 Number     Number       Type             X           Y           Z
 ---------------------------------------------------------------------
      1          6           0        2.362157    0.642973    0.000000
      2          6           0        1.899805   -0.626755    0.000000
      3          6           0        0.432527   -0.619168    0.000000
      4          6           0       -0.498038   -1.662636    0.000000
      5          6           0       -1.862328   -1.347935    0.000000
      6          6           0       -2.289249   -0.013502    0.000000
      7          6           0       -1.356297    1.034908    0.000000
      8          6           0        0.000000    0.727992    0.000000
      9          6           0        1.215228    1.627046    0.000000
     10          1           0        3.412321    0.944007    0.000000
     11          1           0        2.509286   -1.533845    0.000000
     12          1           0       -0.168214   -2.706027    0.000000
     13          1           0       -2.604166   -2.152500    0.000000
     14          1           0       -3.359737    0.212988    0.000000
     15          1           0       -1.696427    2.075472    0.000000
     16          1           0        1.242055    2.291186    0.886917
     17          1           0        1.242055    2.291186   -0.886917
 ---------------------------------------------------------------------
 Rotational constants (GHZ):           3.7643602           1.5717463           1.1165578
   166 basis functions,   353 primitive gaussians,   175 cartesian basis functions
    31 alpha electrons       31 beta electrons
       nuclear repulsion energy       393.3319190325 Hartrees.
 NAtoms=   17 NActive=   17 NUniq=   16 SFac= 1.13D+00 NAtFMM=   60 NAOKFM=F Big=F
 ExpMin= 1.22D-01 ExpMax= 6.67D+03 ExpMxC= 2.28D+02 IAcc=3 IRadAn=         5 AccDes= 0.00D+00
 Harris functional with IExCor=  205 and IRadAn=       5 diagonalized for initial guess.
 HarFok:  IExCor=  205 AccDes= 0.00D+00 IRadAn=         5 IDoV= 1 UseB2=F ITyADJ=14
 ICtDFT=  3500011 ScaDFX=  1.000000  1.000000  1.000000  1.000000
 FoFCou: FMM=F IPFlag=           0 FMFlag=      100000 FMFlg1=           0
         NFxFlg=           0 DoJE=T BraDBF=F KetDBF=T FulRan=T
         wScrn=  0.000000 ICntrl=       500 IOpCl=  0 I1Cent=   200000004 NGrid=           0
         NMat0=    1 NMatS0=      1 NMatT0=    0 NMatD0=    1 NMtDS0=    0 NMtDT0=    0
 Petite list used in FoFCou.
 Initial guess orbital symmetries:
       Occupied  (A') (A') (A') (A') (A') (A') (A') (A') (A') (A')
                 (A') (A') (A') (A') (A') (A') (A') (A') (A') (A')
                 (A') (A") (A') (A') (A') (A') (A") (A') (A") (A")
                 (A")
       Virtual   (A") (A") (A") (A') (A") (A') (A') (A') (A') (A')
                 (A') (A") (A') (A') (A') (A') (A') (A') (A') (A')
                 (A') (A') (A') (A") (A') (A') (A') (A") (A') (A')
                 (A") (A') (A') (A") (A') (A") (A") (A") (A') (A')
                 (A") (A') (A') (A') (A") (A') (A') (A") (A') (A')
                 (A') (A") (A') (A") (A') (A') (A") (A') (A") (A")
                 (A') (A') (A") (A') (A") (A') (A') (A') (A') (A')
                 (A") (A') (A') (A") (A') (A") (A") (A') (A') (A")
                 (A') (A') (A') (A") (A') (A") (A') (A') (A') (A")
                 (A") (A') (A") (A') (A') (A") (A') (A") (A') (A')
                 (A") (A') (A') (A") (A') (A') (A') (A") (A') (A')
                 (A') (A") (A') (A') (A") (A') (A") (A') (A") (A')
                 (A') (A') (A') (A') (A') (A') (A") (A') (A') (A')
                 (A') (A') (A') (A') (A')
 The electronic state of the initial guess is 1-A'.
 Integral accuracy reduced to 1.0D-05 until final iterations.
 Initial convergence to 1.0D-05 achieved.  Increase integral accuracy.
 SCF Done:  E(RHF) =  -345.488560887     A.U. after   15 cycles
            NFock= 15  Conv=0.52D-08     -V/T= 2.0015
 ExpMin= 1.22D-01 ExpMax= 6.67D+03 ExpMxC= 2.28D+02 IAcc=3 IRadAn=         5 AccDes= 0.00D+00
 HarFok:  IExCor=  205 AccDes= 0.00D+00 IRadAn=         5 IDoV=-2 UseB2=F ITyADJ=14
 ICtDFT= 12500011 ScaDFX=  1.000000  1.000000  1.000000  1.000000
 NROrb=    157 NOA=    22 NOB=    22 NVA=   135 NVB=   135
 Estimated scratch disk usage=   141488010 words.
 Actual    scratch disk usage=   106928522 words.
 (rs|ai) integrals will be sorted in core.
 ANorm=    0.1203614474D+01
 E2 =    -0.1176738591D+01 EUMP2 =    -0.34666529947810D+03

 **********************************************************************

            Population analysis using the SCF Density.

 **********************************************************************

 Orbital symmetries:
       Occupied  (A') (A') (A') (A') (A') (A') (A') (A') (A') (A')
                 (A') (A') (A') (A') (A') (A') (A') (A') (A') (A')
                 (A") (A') (A') (A') (A') (A') (A") (A') (A") (A")
                 (A")
       Virtual   (A") (A") (A') (A') (A") (A') (A') (A') (A') (A")
                 (A') (A') (A") (A') (A') (A') (A') (A') (A') (A')
                 (A') (A') (A') (A") (A') (A") (A') (A") (A') (A')
                 (A') (A') (A") (A') (A") (A') (A") (A") (A') (A")
                 (A') (A') (A') (A") (A') (A') (A") (A') (A') (A')
                 (A') (A") (A') (A') (A") (A') (A") (A') (A') (A')
                 (A") (A") (A') (A") (A') (A") (A') (A') (A') (A')
                 (A') (A') (A") (A") (A') (A") (A") (A") (A') (A')
                 (A') (A') (A") (A') (A") (A') (A') (A") (A') (A")
                 (A') (A") (A') (A') (A') (A") (A') (A") (A') (A")
                 (A') (A') (A') (A') (A") (A') (A') (A") (A') (A')
                 (A') (A") (A') (A") (A') (A') (A") (A') (A") (A')
                 (A') (A') (A') (A') (A') (A') (A") (A') (A') (A')
                 (A') (A') (A') (A') (A')
 The electronic state is 1-A'.
 Alpha  occ. eigenvalues --  -11.24411 -11.24166 -11.23916 -11.23874 -11.23832
 Alpha  occ. eigenvalues --  -11.23749 -11.23681 -11.23644 -11.23556  -1.17489
 Alpha  occ. eigenvalues --   -1.09716  -1.02276  -0.97104  -0.93875  -0.82399
 Alpha  occ. eigenvalues --   -0.78657  -0.75316  -0.68451  -0.64019  -0.62438
 Alpha  occ. eigenvalues --   -0.59539  -0.57991  -0.57755  -0.53572  -0.50824
 Alpha  occ. eigenvalues --   -0.49271  -0.48903  -0.46985  -0.39937  -0.32616
 Alpha  occ. eigenvalues --   -0.29107
 Alpha virt. eigenvalues --    0.11232   0.13663   0.19063   0.20187   0.20768
 Alpha virt. eigenvalues --    0.21001   0.23048   0.24054   0.26246   0.26675
 Alpha virt. eigenvalues --    0.27221   0.36502   0.37358   0.38037   0.40232
 Alpha virt. eigenvalues --    0.44475   0.46416   0.48353   0.52099   0.59118
 Alpha virt. eigenvalues --    0.59840   0.62553   0.66533   0.67464   0.68797
 Alpha virt. eigenvalues --    0.70369   0.71049   0.71161   0.72854   0.73173
 Alpha virt. eigenvalues --    0.74135   0.74902   0.76036   0.76531   0.78989
 Alpha virt. eigenvalues --    0.79345   0.83636   0.84541   0.85725   0.86319
 Alpha virt. eigenvalues --    0.86814   0.87396   0.89887   0.90268   0.92040
 Alpha virt. eigenvalues --    0.95238   0.95346   0.96640   0.97989   1.01987
 Alpha virt. eigenvalues --    1.09383   1.10737   1.11309   1.12661   1.13288
 Alpha virt. eigenvalues --    1.17153   1.18577   1.19580   1.20449   1.23207
 Alpha virt. eigenvalues --    1.23269   1.24522   1.27634   1.28797   1.32244
 Alpha virt. eigenvalues --    1.33452   1.34529   1.39926   1.45231   1.50878
 Alpha virt. eigenvalues --    1.55538   1.55897   1.56500   1.60086   1.63588
 Alpha virt. eigenvalues --    1.67055   1.73865   1.74899   1.75279   1.76319
 Alpha virt. eigenvalues --    1.79005   1.83121   1.83732   1.86345   1.88657
 Alpha virt. eigenvalues --    1.89849   1.92729   1.92792   1.93588   1.94798
 Alpha virt. eigenvalues --    1.95888   1.96254   1.97582   1.99900   2.02178
 Alpha virt. eigenvalues --    2.03795   2.05081   2.08253   2.10261   2.11358
 Alpha virt. eigenvalues --    2.11765   2.13427   2.15764   2.17055   2.18806
 Alpha virt. eigenvalues --    2.21636   2.24560   2.24971   2.28639   2.29786
 Alpha virt. eigenvalues --    2.30447   2.39090   2.40050   2.41296   2.43196
 Alpha virt. eigenvalues --    2.49515   2.55691   2.57825   2.63079   2.65428
 Alpha virt. eigenvalues --    2.69805   2.72631   2.76237   2.79011   2.82364
 Alpha virt. eigenvalues --    2.87270   2.89521   2.97601   2.97816   3.01407
 Alpha virt. eigenvalues --    3.11813   3.13688   3.22359   3.47270   3.87176
          Condensed to atoms (all electrons):
 Mulliken charges:
               1
     1  C   -0.118927
     2  C    0.033176
     3  C   -0.038907
     4  C   -0.018019
     5  C   -0.014275
     6  C   -0.022593
     7  C   -0.018247
     8  C   -0.189672
     9  C    0.122059
    10  H    0.029497
    11  H    0.020103
    12  H    0.015674
    13  H    0.026711
    14  H    0.025819
    15  H    0.013640
    16  H    0.066980
    17  H    0.066980
 Sum of Mulliken charges =  -0.00000
 Mulliken charges with hydrogens summed into heavy atoms:
               1
     1  C   -0.089429
     2  C    0.053279
     3  C   -0.038907
     4  C   -0.002345
     5  C    0.012436
     6  C    0.003226
     7  C   -0.004607
     8  C   -0.189672
     9  C    0.256019
 Electronic spatial extent (au):  <R**2>=           1055.5148
 Charge=             -0.0000 electrons
 Dipole moment (field-independent basis, Debye):
    X=              0.4554    Y=              0.4933    Z=             -0.0000  Tot=              0.6714
 Unable to Open any file for archive entry.
 1\1\GINC-NODE01\SP\RMP2-FC\CC-pVDZ\C9H8\XUHJ\25-Aug-2024\0\\#T MP2/cc-
 pVDZ symm=veryloose\\C1=Cc2ccccc2C1\\0,1\C,0,-0.864237,-2.290475,0.\C,
 0,-1.621699,-1.171444,0.\C,0,-0.755225,0.012694,0.\C,0,-1.05487,1.3783
 41,0.\C,0,0.,2.298979,0.\C,0,1.331297,1.862376,0.\C,0,1.633545,0.49189
 9,0.\C,0,0.589668,-0.426829,0.\C,0,0.605418,-1.938394,0.\H,0,-1.236136
 ,-3.317683,0.\H,0,-2.713864,-1.133296,0.\H,0,-2.093472,1.722948,0.\H,0
 ,-0.216777,3.371665,0.\H,0,2.142441,2.596738,0.\H,0,2.6759,0.157298,0.
 \H,0,1.127684,-2.34954,0.886917\H,0,1.127684,-2.34954,-0.886917\\Versi
 on=ES64L-G16RevC.01\State=1-A'\HF=-345.4885609\MP2=-346.6652995\RMSD=5
 .151e-09\PG=CS [SG(C9H6),X(H2)]\\@
 The archive entry for this job was punched.


 A MAN IS EXACTLY AS GREAT AS THE TIDE SURGING
 BENEATH HIM.      - BISMARCK
 Job cpu time:       0 days  0 hours  0 minutes 47.2 seconds.
 Elapsed time:       0 days  0 hours  0 minutes  5.9 seconds.
 File lengths (MBytes):  RWF=    837 Int=      0 D2E=      0 Chk=      3 Scr=      1
 Normal termination of Gaussian 16 at Sun Aug 25 18:09:41 2024.
