 Entering Gaussian System, Link 0=g16
 Initial command:
 /home/software/g16/l1.exe "/home/software/g16/scr/Gau-91717.inp" -scrdir="/home/software/g16/scr/"
 Default is to use a total of   8 processors:
                                8 via shared-memory
                                1 via Linda
 Entering Link 1 = /home/software/g16/l1.exe PID=     91718.
  
 Copyright (c) 1988-2019, Gaussian, Inc.  All Rights Reserved.
  
 This is part of the Gaussian(R) 16 program.  It is based on
 the Gaussian(R) 09 system (copyright 2009, Gaussian, Inc.),
 the Gaussian(R) 03 system (copyright 2003, Gaussian, Inc.),
 the Gaussian(R) 98 system (copyright 1998, Gaussian, Inc.),
 the Gaussian(R) 94 system (copyright 1995, Gaussian, Inc.),
 the Gaussian 92(TM) system (copyright 1992, Gaussian, Inc.),
 the Gaussian 90(TM) system (copyright 1990, Gaussian, Inc.),
 the Gaussian 88(TM) system (copyright 1988, Gaussian, Inc.),
 the Gaussian 86(TM) system (copyright 1986, Carnegie Mellon
 University), and the Gaussian 82(TM) system (copyright 1983,
 Carnegie Mellon University). Gaussian is a federally registered
 trademark of Gaussian, Inc.
  
 This software contains proprietary and confidential information,
 including trade secrets, belonging to Gaussian, Inc.
  
 This software is provided under written license and may be
 used, copied, transmitted, or stored only in accord with that
 written license.
  
 The following legend is applicable only to US Government
 contracts under FAR:
  
                    RESTRICTED RIGHTS LEGEND
  
 Use, reproduction and disclosure by the US Government is
 subject to restrictions as set forth in subparagraphs (a)
 and (c) of the Commercial Computer Software - Restricted
 Rights clause in FAR 52.227-19.
  
 Gaussian, Inc.
 340 Quinnipiac St., Bldg. 40, Wallingford CT 06492
  
  
 ---------------------------------------------------------------
 Warning -- This program may not be used in any manner that
 competes with the business of Gaussian, Inc. or will provide
 assistance to any competitor of Gaussian, Inc.  The licensee
 of this program is prohibited from giving any competitor of
 Gaussian, Inc. access to this program.  By using this program,
 the user acknowledges that Gaussian, Inc. is engaged in the
 business of creating and licensing software in the field of
 computational chemistry and represents and warrants to the
 licensee that it is not a competitor of Gaussian, Inc. and that
 it will not use this program in any manner prohibited above.
 ---------------------------------------------------------------
  

 Cite this work as:
 Gaussian 16, Revision C.01,
 M. J. Frisch, G. W. Trucks, H. B. Schlegel, G. E. Scuseria, 
 M. A. Robb, J. R. Cheeseman, G. Scalmani, V. Barone, 
 G. A. Petersson, H. Nakatsuji, X. Li, M. Caricato, A. V. Marenich, 
 J. Bloino, B. G. Janesko, R. Gomperts, B. Mennucci, H. P. Hratchian, 
 J. V. Ortiz, A. F. Izmaylov, J. L. Sonnenberg, D. Williams-Young, 
 F. Ding, F. Lipparini, F. Egidi, J. Goings, B. Peng, A. Petrone, 
 T. Henderson, D. Ranasinghe, V. G. Zakrzewski, J. Gao, N. Rega, 
 G. Zheng, W. Liang, M. Hada, M. Ehara, K. Toyota, R. Fukuda, 
 J. Hasegawa, M. Ishida, T. Nakajima, Y. Honda, O. Kitao, H. Nakai, 
 T. Vreven, K. Throssell, J. A. Montgomery, Jr., J. E. Peralta, 
 F. Ogliaro, M. J. Bearpark, J. J. Heyd, E. N. Brothers, K. N. Kudin, 
 V. N. Staroverov, T. A. Keith, R. Kobayashi, J. Normand, 
 K. Raghavachari, A. P. Rendell, J. C. Burant, S. S. Iyengar, 
 J. Tomasi, M. Cossi, J. M. Millam, M. Klene, C. Adamo, R. Cammi, 
 J. W. Ochterski, R. L. Martin, K. Morokuma, O. Farkas, 
 J. B. Foresman, and D. J. Fox, Gaussian, Inc., Wallingford CT, 2019.
 
 ******************************************
 Gaussian 16:  ES64L-G16RevC.01  3-Jul-2019
                15-Mar-2024 
 ******************************************
 %nprocshared=8
 Will use up to    8 processors via shared memory.
 %mem=4480MB
 -----------------------------
 #T MP2/cc-pVDZ symm=veryloose
 -----------------------------
 ----------------------
 c1ccc2c(c1)ccc1ccccc12
 ----------------------
 Symbolic Z-matrix:
 Charge =  0 Multiplicity = 1
 C                     0.        3.56482  -0.29891 
 C                     0.        2.88368  -1.53278 
 C                     0.        1.49857  -1.56769 
 C                     0.        0.72875  -0.37922 
 C                     0.        1.42462   0.8682 
 C                     0.        2.8407    0.87971 
 C                     0.        0.68126   2.09706 
 C                     0.       -0.68126   2.09706 
 C                     0.       -1.42462   0.8682 
 C                     0.       -2.8407    0.87971 
 C                     0.       -3.56482  -0.29891 
 C                     0.       -2.88368  -1.53278 
 C                     0.       -1.49857  -1.56769 
 C                     0.       -0.72875  -0.37922 
 H                     0.        4.65852  -0.27544 
 H                     0.        3.44964  -2.46903 
 H                     0.        0.99999  -2.5385 
 H                     0.        3.35605   1.84526 
 H                     0.        1.2373    3.03955 
 H                     0.       -1.2373    3.03955 
 H                     0.       -3.35605   1.84526 
 H                     0.       -4.65852  -0.27544 
 H                     0.       -3.44964  -2.46903 
 H                     0.       -0.99999  -2.5385 
 
                    Distance matrix (angstroms):
                    1          2          3          4          5
     1  C    0.000000
     2  C    1.409393   0.000000
     3  C    2.424708   1.385554   0.000000
     4  C    2.837210   2.444265   1.416008   0.000000
     5  C    2.437744   2.809544   2.437004   1.428381   0.000000
     6  C    1.383291   2.412871   2.791248   2.458704   1.416126
     7  C    3.749083   4.245749   3.754775   2.476727   1.436208
     8  C    4.875436   5.087682   4.264033   2.849570   2.438204
     9  C    5.124132   4.932157   3.805070   2.488586   2.849248
    10  C    6.513058   6.211977   4.981866   3.784955   4.265343
    11  C    7.129648   6.565488   5.219934   4.294326   5.124132
    12  C    6.565488   5.767360   4.382385   3.792146   4.932157
    13  C    5.219934   4.382385   2.997132   2.524560   3.805070
    14  C    4.294326   3.792146   2.524560   1.457502   2.488586
    15  H    1.093943   2.175077   3.413970   3.931134   3.430152
    16  H    2.173175   1.094018   2.149212   3.430826   3.903559
    17  H    3.405009   2.135354   1.091351   2.176251   3.433054
    18  H    2.154310   3.410906   3.885671   3.442526   2.164500
    19  H    4.069727   4.859708   4.614637   3.456381   2.179418
    20  H    5.848567   6.155379   5.358320   3.943769   3.435204
    21  H    7.245411   7.095449   5.934264   4.651224   4.879498
    22  H    8.223373   7.646282   6.291229   5.388266   6.189707
    23  H    7.342487   6.402148   5.029628   4.671860   5.907244
    24  H    5.084614   4.011781   2.680536   2.766054   4.181426
                    6          7          8          9         10
     6  C    0.000000
     7  C    2.478940   0.000000
     8  C    3.726413   1.362516   0.000000
     9  C    4.265343   2.438204   1.436208   0.000000
    10  C    5.681406   3.726413   2.478940   1.416126   0.000000
    11  C    6.513058   4.875436   3.749083   2.437744   1.383291
    12  C    6.211977   5.087682   4.245749   2.809544   2.412871
    13  C    4.981866   4.264033   3.754775   2.437004   2.791248
    14  C    3.784955   2.849570   2.476727   1.428381   2.458704
    15  H    2.153786   4.631122   5.843107   6.189707   7.587663
    16  H    3.403653   5.339766   6.157392   5.907244   7.126181
    17  H    3.882309   4.646498   4.931020   4.181426   5.141504
    18  H    1.094474   2.686619   4.045153   4.879498   6.271527
    19  H    2.689947   1.094293   2.137560   3.435204   4.614655
    20  H    4.614655   2.137560   1.094293   2.179418   2.689947
    21  H    6.271527   4.045153   2.686619   2.164500   1.094474
    22  H    7.587663   5.843107   4.631122   3.430152   2.153786
    23  H    7.126181   6.157392   5.339766   3.903559   3.403653
    24  H    5.141504   4.931020   4.646498   3.433054   3.882309
                   11         12         13         14         15
    11  C    0.000000
    12  C    1.409393   0.000000
    13  C    2.424708   1.385554   0.000000
    14  C    2.837210   2.444265   1.416008   0.000000
    15  H    8.223373   7.646282   6.291229   5.388266   0.000000
    16  H    7.342487   6.402148   5.029628   4.671860   2.504645
    17  H    5.084614   4.011781   2.680536   2.766054   4.301886
    18  H    7.245411   7.095449   5.934264   4.651224   2.488725
    19  H    5.848567   6.155379   5.358320   3.943769   4.763803
    20  H    4.069727   4.859708   4.614637   3.456381   6.763858
    21  H    2.154310   3.410906   3.885671   3.442526   8.290392
    22  H    1.093943   2.175077   3.413970   3.931134   9.317030
    23  H    2.173175   1.094018   2.149212   3.430826   8.399645
    24  H    3.405009   2.135354   1.091351   2.176251   6.094273
                   16         17         18         19         20
    16  H    0.000000
    17  H    2.450630   0.000000
    18  H    4.315305   4.976776   0.000000
    19  H    5.936236   5.583091   2.432165   0.000000
    20  H    7.232695   6.009998   4.746074   2.474604   0.000000
    21  H    8.057947   6.180002   6.712102   4.746074   2.432165
    22  H    8.399645   6.094273   8.290392   6.763858   4.763803
    23  H    6.899278   4.450175   8.057947   7.232695   5.936236
    24  H    4.450175   1.999988   6.180002   6.009998   5.583091
                   21         22         23         24
    21  H    0.000000
    22  H    2.488725   0.000000
    23  H    4.315305   2.504645   0.000000
    24  H    4.976776   4.301886   2.450630   0.000000
 Framework group  C2V[SGV(C14H10)]
 Deg. of freedom    23
                         Standard orientation:                         
 ---------------------------------------------------------------------
 Center     Atomic      Atomic             Coordinates (Angstroms)
 Number     Number       Type             X           Y           Z
 ---------------------------------------------------------------------
      1          6           0        0.000000    3.564824   -0.298913
      2          6           0        0.000000    2.883680   -1.532782
      3          6           0        0.000000    1.498566   -1.567687
      4          6           0        0.000000    0.728751   -0.379216
      5          6           0        0.000000    1.424624    0.868195
      6          6           0        0.000000    2.840703    0.879706
      7          6           0        0.000000    0.681258    2.097056
      8          6           0       -0.000000   -0.681258    2.097056
      9          6           0       -0.000000   -1.424624    0.868195
     10          6           0       -0.000000   -2.840703    0.879706
     11          6           0       -0.000000   -3.564824   -0.298913
     12          6           0       -0.000000   -2.883680   -1.532782
     13          6           0       -0.000000   -1.498566   -1.567687
     14          6           0       -0.000000   -0.728751   -0.379216
     15          1           0        0.000000    4.658515   -0.275436
     16          1           0        0.000000    3.449639   -2.469033
     17          1           0        0.000000    0.999994   -2.538497
     18          1           0        0.000000    3.356051    1.845257
     19          1           0        0.000000    1.237302    3.039548
     20          1           0       -0.000000   -1.237302    3.039548
     21          1           0       -0.000000   -3.356051    1.845257
     22          1           0       -0.000000   -4.658515   -0.275436
     23          1           0       -0.000000   -3.449639   -2.469033
     24          1           0       -0.000000   -0.999994   -2.538497
 ---------------------------------------------------------------------
 Rotational constants (GHZ):           1.6090593           0.5491698           0.4094314
   246 basis functions,   532 primitive gaussians,   260 cartesian basis functions
    47 alpha electrons       47 beta electrons
       nuclear repulsion energy       773.3040256521 Hartrees.
 NAtoms=   24 NActive=   24 NUniq=   12 SFac= 4.00D+00 NAtFMM=   60 NAOKFM=F Big=F
 ExpMin= 1.22D-01 ExpMax= 6.67D+03 ExpMxC= 2.28D+02 IAcc=3 IRadAn=         5 AccDes= 0.00D+00
 Harris functional with IExCor=  205 and IRadAn=       5 diagonalized for initial guess.
 HarFok:  IExCor=  205 AccDes= 0.00D+00 IRadAn=         5 IDoV= 1 UseB2=F ITyADJ=14
 ICtDFT=  3500011 ScaDFX=  1.000000  1.000000  1.000000  1.000000
 FoFCou: FMM=F IPFlag=           0 FMFlag=      100000 FMFlg1=           0
         NFxFlg=           0 DoJE=T BraDBF=F KetDBF=T FulRan=T
         wScrn=  0.000000 ICntrl=       500 IOpCl=  0 I1Cent=   200000004 NGrid=           0
         NMat0=    1 NMatS0=      1 NMatT0=    0 NMatD0=    1 NMtDS0=    0 NMtDT0=    0
 Petite list used in FoFCou.
 Initial guess orbital symmetries:
       Occupied  (B2) (A1) (A1) (B2) (A1) (B2) (B2) (A1) (B2) (A1)
                 (B2) (A1) (A1) (B2) (A1) (B2) (A1) (A1) (B2) (B2)
                 (A1) (A1) (B2) (A1) (B2) (A1) (B2) (A1) (A1) (B2)
                 (B2) (A1) (A1) (A1) (B2) (B1) (B2) (B2) (A1) (A2)
                 (A1) (B2) (B1) (B1) (A2) (A2) (B1)
       Virtual   (A2) (B1) (B1) (A2) (A2) (B1) (A1) (A1) (B2) (A1)
                 (B2) (A1) (A2) (B2) (A1) (B2) (A1) (B2) (A1) (B2)
                 (B2) (A1) (A1) (B2) (A1) (B2) (B2) (A1) (B2) (A1)
                 (B2) (B1) (A1) (A2) (A1) (B2) (A1) (B2) (B1) (A1)
                 (B2) (A1) (B2) (B1) (A1) (B2) (A2) (A1) (B2) (A1)
                 (B2) (A2) (B1) (B1) (A2) (B1) (A1) (A1) (B2) (A1)
                 (A2) (B2) (B2) (A2) (A1) (B2) (B1) (B2) (A1) (B1)
                 (A2) (B2) (B1) (A1) (B2) (A1) (A1) (A2) (B2) (A2)
                 (B2) (B2) (B1) (A1) (B1) (A1) (B1) (B2) (A2) (A1)
                 (B1) (A2) (B2) (B1) (A1) (B2) (A2) (A1) (A1) (B2)
                 (B2) (A1) (A1) (B2) (B2) (A2) (A1) (B1) (A1) (B2)
                 (A1) (A2) (B2) (A1) (B1) (B2) (B1) (A2) (B2) (A2)
                 (A1) (A1) (A1) (B2) (A1) (B1) (B2) (A1) (B2) (A2)
                 (B1) (A1) (B2) (B1) (A2) (A1) (B1) (B2) (A2) (A1)
                 (B2) (A1) (B2) (A2) (B1) (A1) (B2) (A1) (A2) (B2)
                 (B1) (A1) (B2) (B2) (A1) (B2) (B1) (A1) (A2) (B2)
                 (B2) (A1) (A2) (B2) (A1) (A2) (B2) (B1) (A1) (B2)
                 (B1) (B2) (A1) (A1) (A2) (A2) (A1) (B2) (A1) (B2)
                 (B2) (A1) (A1) (B2) (B2) (A1) (A1) (B2) (B2) (A1)
                 (A1) (B2) (B2) (A1) (B2) (B2) (B2) (A1) (B2)
 The electronic state of the initial guess is 1-A1.
 SCF Done:  E(RHF) =  -536.046867633     A.U. after   14 cycles
            NFock= 14  Conv=0.29D-08     -V/T= 2.0014
 ExpMin= 1.22D-01 ExpMax= 6.67D+03 ExpMxC= 2.28D+02 IAcc=3 IRadAn=         5 AccDes= 0.00D+00
 HarFok:  IExCor=  205 AccDes= 0.00D+00 IRadAn=         5 IDoV=-2 UseB2=F ITyADJ=14
 ICtDFT= 12500011 ScaDFX=  1.000000  1.000000  1.000000  1.000000
 NROrb=    232 NOA=    33 NOB=    33 NVA=   199 NVB=   199

 **** Warning!!: The largest alpha MO coefficient is  0.16879335D+02

 ANorm=    0.1305580095D+01
 E2 =    -0.1813399850D+01 EUMP2 =    -0.53786026748270D+03

 **********************************************************************

            Population analysis using the SCF Density.

 **********************************************************************

 Orbital symmetries:
       Occupied  (A1) (B2) (A1) (B2) (A1) (B2) (A1) (B2) (A1) (B2)
                 (B2) (A1) (B2) (A1) (A1) (B2) (A1) (A1) (B2) (B2)
                 (A1) (A1) (B2) (A1) (B2) (B2) (A1) (A1) (A1) (B2)
                 (B2) (A1) (A1) (B2) (A1) (B2) (B1) (B2) (A1) (A2)
                 (A1) (B2) (B1) (B1) (A2) (A2) (B1)
       Virtual   (A2) (B1) (B1) (A2) (A1) (A1) (B2) (B2) (A1) (B2)
                 (A1) (A2) (A1) (B2) (B1) (B2) (A1) (B2) (A1) (A2)
                 (A1) (B2) (B2) (A1) (A1) (B2) (B2) (A1) (A1) (B2)
                 (A1) (B2) (B1) (A1) (A2) (B2) (B1) (A1) (A1) (B1)
                 (B2) (A1) (B2) (A2) (B2) (A1) (B2) (A1) (B2) (B1)
                 (A1) (A2) (B2) (B1) (A2) (B1) (A1) (A1) (A2) (B2)
                 (B2) (A2) (A1) (B2) (A1) (B1) (A1) (B2) (B2) (B1)
                 (A2) (B1) (B2) (A1) (B2) (A1) (B2) (A1) (A2) (B2)
                 (A2) (A1) (B2) (B1) (A1) (B1) (B2) (A1) (B1) (A2)
                 (B2) (B1) (A2) (B2) (A1) (A1) (B1) (A1) (A2) (B2)
                 (B2) (A1) (A1) (B2) (B2) (A1) (A2) (A1) (B1) (B2)
                 (A2) (B2) (A1) (B1) (A1) (B1) (A2) (B2) (A2) (B2)
                 (A1) (A1) (B2) (A1) (B1) (A1) (A1) (B1) (A2) (A2)
                 (B2) (B1) (B2) (A1) (B2) (A1) (B2) (A2) (B1) (A1)
                 (B2) (B2) (A1) (A2) (B1) (B2) (A1) (A1) (A2) (B1)
                 (B2) (B2) (A1) (B2) (B2) (A1) (B1) (A1) (A2) (B2)
                 (B2) (A1) (A2) (B2) (A1) (A2) (B2) (B1) (A1) (B2)
                 (B1) (B2) (A1) (A1) (A2) (A2) (A1) (B2) (A1) (B2)
                 (B2) (A1) (B2) (A1) (B2) (A1) (A1) (B2) (B2) (A1)
                 (B2) (A1) (B2) (A1) (B2) (B2) (B2) (A1) (B2)
 The electronic state is 1-A1.
 Alpha  occ. eigenvalues --  -11.25354 -11.25274 -11.24990 -11.24988 -11.24486
 Alpha  occ. eigenvalues --  -11.24447 -11.24447 -11.24400 -11.24400 -11.24345
 Alpha  occ. eigenvalues --  -11.24318 -11.24318 -11.24255 -11.24255  -1.18508
 Alpha  occ. eigenvalues --   -1.14247  -1.09218  -1.05198  -1.02686  -0.98672
 Alpha  occ. eigenvalues --   -0.97846  -0.85930  -0.85253  -0.83082  -0.79555
 Alpha  occ. eigenvalues --   -0.73313  -0.71271  -0.67818  -0.65794  -0.65319
 Alpha  occ. eigenvalues --   -0.60730  -0.59674  -0.59074  -0.58932  -0.57316
 Alpha  occ. eigenvalues --   -0.55116  -0.54367  -0.51546  -0.51133  -0.48966
 Alpha  occ. eigenvalues --   -0.47953  -0.46732  -0.42768  -0.38031  -0.34847
 Alpha  occ. eigenvalues --   -0.29351  -0.28165
 Alpha virt. eigenvalues --    0.08549   0.08977   0.13939   0.18048   0.18341
 Alpha virt. eigenvalues --    0.19101   0.19192   0.21908   0.22606   0.24325
 Alpha virt. eigenvalues --    0.24578   0.24657   0.26672   0.29294   0.32872
 Alpha virt. eigenvalues --    0.33103   0.38115   0.41665   0.42211   0.42564
 Alpha virt. eigenvalues --    0.44181   0.44973   0.46260   0.46607   0.49066
 Alpha virt. eigenvalues --    0.50358   0.55779   0.57796   0.59233   0.64373
 Alpha virt. eigenvalues --    0.65604   0.65853   0.66141   0.66850   0.68577
 Alpha virt. eigenvalues --    0.68673   0.69344   0.70029   0.71553   0.71807
 Alpha virt. eigenvalues --    0.72115   0.72666   0.73021   0.73650   0.74082
 Alpha virt. eigenvalues --    0.74799   0.74802   0.75586   0.77295   0.77689
 Alpha virt. eigenvalues --    0.77689   0.78241   0.78832   0.79719   0.84326
 Alpha virt. eigenvalues --    0.84620   0.85268   0.86867   0.88097   0.88923
 Alpha virt. eigenvalues --    0.90390   0.91306   0.91520   0.93561   0.94211
 Alpha virt. eigenvalues --    0.95498   0.95640   0.95657   1.00984   1.02689
 Alpha virt. eigenvalues --    1.02742   1.09326   1.09725   1.10689   1.12101
 Alpha virt. eigenvalues --    1.12366   1.13663   1.14325   1.14463   1.14495
 Alpha virt. eigenvalues --    1.16665   1.17180   1.19032   1.19613   1.19682
 Alpha virt. eigenvalues --    1.21037   1.21121   1.23641   1.23822   1.24925
 Alpha virt. eigenvalues --    1.26072   1.28181   1.28543   1.29671   1.30179
 Alpha virt. eigenvalues --    1.32063   1.33022   1.33974   1.34382   1.37176
 Alpha virt. eigenvalues --    1.39277   1.44932   1.53990   1.54758   1.58432
 Alpha virt. eigenvalues --    1.60391   1.61779   1.63764   1.64649   1.65559
 Alpha virt. eigenvalues --    1.67988   1.68361   1.70929   1.72423   1.72996
 Alpha virt. eigenvalues --    1.74371   1.74889   1.76685   1.78718   1.79878
 Alpha virt. eigenvalues --    1.82430   1.83500   1.87322   1.87917   1.87989
 Alpha virt. eigenvalues --    1.88174   1.90387   1.90842   1.91081   1.92365
 Alpha virt. eigenvalues --    1.92827   1.93271   1.93868   1.96156   1.96294
 Alpha virt. eigenvalues --    1.98661   2.01406   2.02015   2.02292   2.02381
 Alpha virt. eigenvalues --    2.02395   2.05953   2.06968   2.07342   2.07465
 Alpha virt. eigenvalues --    2.10209   2.11385   2.12707   2.13379   2.13393
 Alpha virt. eigenvalues --    2.15120   2.16643   2.17898   2.19635   2.20279
 Alpha virt. eigenvalues --    2.20366   2.22833   2.24105   2.24778   2.25406
 Alpha virt. eigenvalues --    2.29418   2.32419   2.32455   2.33902   2.34289
 Alpha virt. eigenvalues --    2.36638   2.39964   2.45497   2.46444   2.47258
 Alpha virt. eigenvalues --    2.47337   2.52570   2.55360   2.57489   2.64174
 Alpha virt. eigenvalues --    2.65656   2.69914   2.70965   2.71869   2.73710
 Alpha virt. eigenvalues --    2.79394   2.81812   2.82529   2.82694   2.92288
 Alpha virt. eigenvalues --    2.98095   3.00561   3.02323   3.03648   3.06484
 Alpha virt. eigenvalues --    3.07902   3.09483   3.15829   3.22066   3.22348
 Alpha virt. eigenvalues --    3.32773   3.73239   3.81609   3.97448
          Condensed to atoms (all electrons):
 Mulliken charges:
               1
     1  C   -0.013484
     2  C    0.002684
     3  C   -0.025851
     4  C   -0.038298
     5  C   -0.100470
     6  C    0.026986
     7  C    0.031035
     8  C    0.031035
     9  C   -0.100470
    10  C    0.026986
    11  C   -0.013484
    12  C    0.002684
    13  C   -0.025851
    14  C   -0.038298
    15  H    0.029077
    16  H    0.027225
    17  H    0.023832
    18  H    0.018516
    19  H    0.018748
    20  H    0.018748
    21  H    0.018516
    22  H    0.029077
    23  H    0.027225
    24  H    0.023832
 Sum of Mulliken charges =  -0.00000
 Mulliken charges with hydrogens summed into heavy atoms:
               1
     1  C    0.015592
     2  C    0.029909
     3  C   -0.002018
     4  C   -0.038298
     5  C   -0.100470
     6  C    0.045502
     7  C    0.049783
     8  C    0.049783
     9  C   -0.100470
    10  C    0.045502
    11  C    0.015592
    12  C    0.029909
    13  C   -0.002018
    14  C   -0.038298
 Electronic spatial extent (au):  <R**2>=           2633.5116
 Charge=              0.0000 electrons
 Dipole moment (field-independent basis, Debye):
    X=             -0.0000    Y=             -0.0000    Z=             -0.0323  Tot=              0.0323
 Unable to Open any file for archive entry.
 1\1\GINC-NODE03\SP\RMP2-FC\CC-pVDZ\C14H10\XUHJ\15-Mar-2024\0\\#T MP2/c
 c-pVDZ symm=veryloose\\c1ccc2c(c1)ccc1ccccc12\\0,1\C,0,0.,3.564824,-0.
 298913\C,0,0.,2.88368,-1.532782\C,0,0.,1.498566,-1.567687\C,0,0.,0.728
 751,-0.379216\C,0,0.,1.424624,0.868195\C,0,0.,2.840703,0.879706\C,0,0.
 ,0.681258,2.097056\C,0,0.,-0.681258,2.097056\C,0,0.,-1.424624,0.868195
 \C,0,0.,-2.840703,0.879706\C,0,0.,-3.564824,-0.298913\C,0,0.,-2.88368,
 -1.532782\C,0,0.,-1.498566,-1.567687\C,0,0.,-0.728751,-0.379216\H,0,0.
 ,4.658515,-0.275436\H,0,0.,3.449639,-2.469033\H,0,0.,0.999994,-2.53849
 7\H,0,0.,3.356051,1.845257\H,0,0.,1.237302,3.039548\H,0,0.,-1.237302,3
 .039548\H,0,0.,-3.356051,1.845257\H,0,0.,-4.658515,-0.275436\H,0,0.,-3
 .449639,-2.469033\H,0,0.,-0.999994,-2.538497\\Version=ES64L-G16RevC.01
 \State=1-A1\HF=-536.0468676\MP2=-537.8602675\RMSD=2.883e-09\PG=C02V [S
 GV(C14H10)]\\@
 The archive entry for this job was punched.


 ... THE UNIVERSE IS NOT ONLY QUEERER THAN WE SUPPOSE,
 BUT QUEERER THAN WE CAN SUPPOSE ... 

                                   -- J. B. S. HALDANE
 Job cpu time:       0 days  0 hours  2 minutes 30.2 seconds.
 Elapsed time:       0 days  0 hours  0 minutes 21.7 seconds.
 File lengths (MBytes):  RWF=     41 Int=      0 D2E=      0 Chk=      6 Scr=      2
 Normal termination of Gaussian 16 at Fri Mar 15 11:52:08 2024.
