%nprocshared=8
%mem=8800MB
#T MP2/cc-pVDZ symm=veryloose

c1ccc2cc3c(ccc4c5ccccc5ccc34)cc2c1

0 1
C         0.584523      -5.847452      -0.000000
C        -0.819027      -5.599386      -0.000000
C        -1.297217      -4.310579      -0.000000
C        -0.403531      -3.196094      -0.000000
C        -0.866717      -1.867193       0.000000
C         0.000000      -0.769890      -0.000000
C         1.419124      -1.032355      -0.000000
C         2.326274       0.078429      -0.000000
C         1.874690       1.363356      -0.000000
C         0.469942       1.676875       0.000000
C         0.007242       3.050980       0.000000
C         0.887215       4.166391       0.000000
C         0.409388       5.464102       0.000000
C        -0.980309       5.716770       0.000000
C        -1.864293       4.656417       0.000000
C        -1.398468       3.316640       0.000000
C        -2.309129       2.219495       0.000000
C        -1.860434       0.926882       0.000000
C        -0.465700       0.615019       0.000000
C         1.888282      -2.348753      -0.000000
C         1.014853      -3.448306      -0.000000
C         1.475102      -4.800469      -0.000000
H         0.949268      -6.878899      -0.000000
H        -1.515215      -6.443276      -0.000000
H        -2.374672      -4.117772       0.000000
H        -1.947574      -1.717693       0.000000
H         3.400728      -0.128242      -0.000000
H         2.604541       2.173199      -0.000000
H         1.966702       4.010924      -0.000000
H         1.114658       6.300433       0.000000
H        -1.350421       6.746152       0.000000
H        -2.944300       4.833707       0.000000
H        -3.383064       2.429153       0.000000
H        -2.593618       0.119754       0.000000
H         2.968519      -2.526078      -0.000000
H         2.553591      -4.986649      -0.000000


