 Entering Gaussian System, Link 0=g16
 Initial command:
 /home/software/g16/l1.exe "/home/software/g16/scr/Gau-185563.inp" -scrdir="/home/software/g16/scr/"
 Default is to use a total of   8 processors:
                                8 via shared-memory
                                1 via Linda
 Entering Link 1 = /home/software/g16/l1.exe PID=    185564.
  
 Copyright (c) 1988-2019, Gaussian, Inc.  All Rights Reserved.
  
 This is part of the Gaussian(R) 16 program.  It is based on
 the Gaussian(R) 09 system (copyright 2009, Gaussian, Inc.),
 the Gaussian(R) 03 system (copyright 2003, Gaussian, Inc.),
 the Gaussian(R) 98 system (copyright 1998, Gaussian, Inc.),
 the Gaussian(R) 94 system (copyright 1995, Gaussian, Inc.),
 the Gaussian 92(TM) system (copyright 1992, Gaussian, Inc.),
 the Gaussian 90(TM) system (copyright 1990, Gaussian, Inc.),
 the Gaussian 88(TM) system (copyright 1988, Gaussian, Inc.),
 the Gaussian 86(TM) system (copyright 1986, Carnegie Mellon
 University), and the Gaussian 82(TM) system (copyright 1983,
 Carnegie Mellon University). Gaussian is a federally registered
 trademark of Gaussian, Inc.
  
 This software contains proprietary and confidential information,
 including trade secrets, belonging to Gaussian, Inc.
  
 This software is provided under written license and may be
 used, copied, transmitted, or stored only in accord with that
 written license.
  
 The following legend is applicable only to US Government
 contracts under FAR:
  
                    RESTRICTED RIGHTS LEGEND
  
 Use, reproduction and disclosure by the US Government is
 subject to restrictions as set forth in subparagraphs (a)
 and (c) of the Commercial Computer Software - Restricted
 Rights clause in FAR 52.227-19.
  
 Gaussian, Inc.
 340 Quinnipiac St., Bldg. 40, Wallingford CT 06492
  
  
 ---------------------------------------------------------------
 Warning -- This program may not be used in any manner that
 competes with the business of Gaussian, Inc. or will provide
 assistance to any competitor of Gaussian, Inc.  The licensee
 of this program is prohibited from giving any competitor of
 Gaussian, Inc. access to this program.  By using this program,
 the user acknowledges that Gaussian, Inc. is engaged in the
 business of creating and licensing software in the field of
 computational chemistry and represents and warrants to the
 licensee that it is not a competitor of Gaussian, Inc. and that
 it will not use this program in any manner prohibited above.
 ---------------------------------------------------------------
  

 Cite this work as:
 Gaussian 16, Revision C.01,
 M. J. Frisch, G. W. Trucks, H. B. Schlegel, G. E. Scuseria, 
 M. A. Robb, J. R. Cheeseman, G. Scalmani, V. Barone, 
 G. A. Petersson, H. Nakatsuji, X. Li, M. Caricato, A. V. Marenich, 
 J. Bloino, B. G. Janesko, R. Gomperts, B. Mennucci, H. P. Hratchian, 
 J. V. Ortiz, A. F. Izmaylov, J. L. Sonnenberg, D. Williams-Young, 
 F. Ding, F. Lipparini, F. Egidi, J. Goings, B. Peng, A. Petrone, 
 T. Henderson, D. Ranasinghe, V. G. Zakrzewski, J. Gao, N. Rega, 
 G. Zheng, W. Liang, M. Hada, M. Ehara, K. Toyota, R. Fukuda, 
 J. Hasegawa, M. Ishida, T. Nakajima, Y. Honda, O. Kitao, H. Nakai, 
 T. Vreven, K. Throssell, J. A. Montgomery, Jr., J. E. Peralta, 
 F. Ogliaro, M. J. Bearpark, J. J. Heyd, E. N. Brothers, K. N. Kudin, 
 V. N. Staroverov, T. A. Keith, R. Kobayashi, J. Normand, 
 K. Raghavachari, A. P. Rendell, J. C. Burant, S. S. Iyengar, 
 J. Tomasi, M. Cossi, J. M. Millam, M. Klene, C. Adamo, R. Cammi, 
 J. W. Ochterski, R. L. Martin, K. Morokuma, O. Farkas, 
 J. B. Foresman, and D. J. Fox, Gaussian, Inc., Wallingford CT, 2019.
 
 ******************************************
 Gaussian 16:  ES64L-G16RevC.01  3-Jul-2019
                26-Dec-2023 
 ******************************************
 %nprocshared=16
 Will use up to   16 processors via shared memory.
 %mem=1600MB
 -----------------------------
 #T MP2/cc-pVDZ symm=veryloose
 -----------------------------
 ---------
 C1=CCC=C1
 ---------
 Symbolic Z-matrix:
 Charge =  0 Multiplicity = 1
 C                    -0.99344   0.00013  -0.7353 
 C                     0.28374   0.00054  -1.18169 
 C                     1.21726  -0.00017   0. 
 C                     0.28374   0.00054   1.18169 
 C                    -0.99344   0.00013   0.7353 
 H                    -1.89406   0.00013  -1.3548 
 H                     0.61357   0.00091  -2.22289 
 H                     1.88754   0.88373   0. 
 H                     1.88627  -0.8851    0. 
 H                     0.61357   0.00091   2.22289 
 H                    -1.89406   0.00013   1.3548 
 
                    Distance matrix (angstroms):
                    1          2          3          4          5
     1  C    0.000000
     2  C    1.352947   0.000000
     3  C    2.329774   1.505933   0.000000
     4  C    2.303486   2.363378   1.505933   0.000000
     5  C    1.470600   2.303486   2.329774   1.352947   0.000000
     6  H    1.093113   2.184672   3.393489   3.343145   2.275884
     7  H    2.189843   1.092196   2.303410   3.420522   3.366510
     8  H    3.101851   2.179126   1.109310   2.179126   3.101851
     9  H    3.101131   2.179179   1.109360   2.179179   3.101131
    10  H    3.366510   3.420522   2.303410   1.092196   2.189843
    11  H    2.275884   3.343145   3.393489   2.184672   1.093113
                    6          7          8          9         10
     6  H    0.000000
     7  H    2.653632   0.000000
     8  H    4.112996   2.709917   0.000000
     9  H    4.112175   2.710357   1.768837   0.000000
    10  H    4.368994   4.445788   2.709917   2.710357   0.000000
    11  H    2.709608   4.368994   4.112996   4.112175   2.653632
                   11
    11  H    0.000000
 This structure is nearly, but not quite of a higher symmetry.
 Consider Symm=Loose if the higher symmetry is desired.
 Framework group  C2V[C2(C),SGV(C4H4),SGV'(H2)]
 Deg. of freedom    10
                         Standard orientation:                         
 ---------------------------------------------------------------------
 Center     Atomic      Atomic             Coordinates (Angstroms)
 Number     Number       Type             X           Y           Z
 ---------------------------------------------------------------------
      1          6           0       -0.000000   -0.735300   -0.993441
      2          6           0       -0.000000   -1.181689    0.283744
      3          6           0        0.000000    0.000000    1.217256
      4          6           0        0.000000    1.181689    0.283744
      5          6           0        0.000000    0.735300   -0.993441
      6          1           0       -0.000000   -1.354804   -1.894058
      7          1           0       -0.000000   -2.222894    0.613567
      8          1           0        0.883617   -0.000000    1.887495
      9          1           0       -0.883617    0.000000    1.887495
     10          1           0        0.000000    2.222894    0.613567
     11          1           0        0.000000    1.354804   -1.894058
 ---------------------------------------------------------------------
 Rotational constants (GHZ):           8.4059184           8.1879028           4.2577272
   100 basis functions,   207 primitive gaussians,   105 cartesian basis functions
    18 alpha electrons       18 beta electrons
       nuclear repulsion energy       156.0596242837 Hartrees.
 NAtoms=   11 NActive=   11 NUniq=    6 SFac= 3.36D+00 NAtFMM=   60 NAOKFM=F Big=F
 ExpMin= 1.22D-01 ExpMax= 6.67D+03 ExpMxC= 2.28D+02 IAcc=3 IRadAn=         5 AccDes= 0.00D+00
 Harris functional with IExCor=  205 and IRadAn=       5 diagonalized for initial guess.
 HarFok:  IExCor=  205 AccDes= 0.00D+00 IRadAn=         5 IDoV= 1 UseB2=F ITyADJ=14
 ICtDFT=  3500011 ScaDFX=  1.000000  1.000000  1.000000  1.000000
 FoFCou: FMM=F IPFlag=           0 FMFlag=      100000 FMFlg1=           0
         NFxFlg=           0 DoJE=T BraDBF=F KetDBF=T FulRan=T
         wScrn=  0.000000 ICntrl=       500 IOpCl=  0 I1Cent=   200000004 NGrid=           0
         NMat0=    1 NMatS0=      1 NMatT0=    0 NMatD0=    1 NMtDS0=    0 NMtDT0=    0
 Petite list used in FoFCou.
 Initial guess orbital symmetries:
       Occupied  (A1) (A1) (B2) (A1) (B2) (A1) (B2) (A1) (A1) (B2)
                 (A1) (B1) (B2) (A1) (B2) (A1) (B1) (A2)
       Virtual   (B1) (A2) (A1) (B2) (A1) (B2) (A1) (B1) (B2) (A1)
                 (A1) (B2) (B2) (A1) (B1) (B2) (A1) (A1) (B2) (A2)
                 (A1) (B1) (B1) (A2) (B2) (A1) (B1) (A1) (A1) (B2)
                 (B2) (A1) (B2) (A2) (B1) (A1) (B1) (B2) (A2) (B2)
                 (A1) (A1) (A1) (B2) (A2) (B1) (A1) (A2) (A1) (B2)
                 (B1) (B1) (B2) (A1) (A1) (A1) (B1) (B2) (A2) (B1)
                 (A2) (B2) (B2) (A1) (B2) (B2) (A1) (B1) (A1) (A2)
                 (B2) (A2) (A1) (A1) (A1) (B2) (A1) (B2) (B1) (B2)
                 (A1) (B2)
 The electronic state of the initial guess is 1-A1.
 SCF Done:  E(RHF) =  -192.807338692     A.U. after   11 cycles
            NFock= 11  Conv=0.87D-08     -V/T= 2.0017
 ExpMin= 1.22D-01 ExpMax= 6.67D+03 ExpMxC= 2.28D+02 IAcc=3 IRadAn=         5 AccDes= 0.00D+00
 HarFok:  IExCor=  205 AccDes= 0.00D+00 IRadAn=         5 IDoV=-2 UseB2=F ITyADJ=14
 ICtDFT= 12500011 ScaDFX=  1.000000  1.000000  1.000000  1.000000
 NROrb=     95 NOA=    13 NOB=    13 NVA=    82 NVB=    82

 **** Warning!!: The largest alpha MO coefficient is  0.10206748D+02

 ANorm=    0.1117740689D+01
 E2 =    -0.6655110110D+00 EUMP2 =    -0.19347284970319D+03

 **********************************************************************

            Population analysis using the SCF Density.

 **********************************************************************

 Orbital symmetries:
       Occupied  (A1) (A1) (B2) (A1) (B2) (A1) (B2) (A1) (A1) (B2)
                 (A1) (B1) (B2) (A1) (A1) (B2) (B1) (A2)
       Virtual   (B1) (A1) (A1) (B2) (A2) (A1) (B2) (B1) (B2) (A1)
                 (A1) (B2) (A1) (B2) (A1) (B1) (B2) (A2) (B2) (A1)
                 (B1) (A1) (B1) (B2) (A2) (A1) (B1) (A1) (A1) (B2)
                 (A1) (B2) (B2) (A2) (B1) (A1) (B2) (B1) (B2) (A2)
                 (A1) (A1) (B2) (A1) (B1) (A2) (A2) (A1) (A1) (B2)
                 (B1) (B1) (A1) (B2) (A1) (B1) (A1) (B2) (A2) (B1)
                 (B2) (A2) (B2) (B2) (A1) (A1) (B2) (B1) (A1) (A2)
                 (B2) (A2) (A1) (A1) (B2) (A1) (A1) (B1) (B2) (B2)
                 (A1) (B2)
 The electronic state is 1-A1.
 Alpha  occ. eigenvalues --  -11.23721 -11.23311 -11.23249 -11.23075 -11.23067
 Alpha  occ. eigenvalues --   -1.14606  -0.95962  -0.95047  -0.74972  -0.72148
 Alpha  occ. eigenvalues --   -0.68802  -0.58530  -0.55474  -0.52252  -0.50332
 Alpha  occ. eigenvalues --   -0.49812  -0.40873  -0.30421
 Alpha virt. eigenvalues --    0.12839   0.19306   0.22697   0.23288   0.24555
 Alpha virt. eigenvalues --    0.25049   0.25382   0.26180   0.36550   0.38041
 Alpha virt. eigenvalues --    0.45552   0.46443   0.58805   0.61224   0.66321
 Alpha virt. eigenvalues --    0.68958   0.70091   0.73253   0.73988   0.74110
 Alpha virt. eigenvalues --    0.75582   0.78711   0.81945   0.83415   0.84997
 Alpha virt. eigenvalues --    0.87566   0.88876   0.90531   0.93559   0.96008
 Alpha virt. eigenvalues --    0.98639   1.02249   1.07378   1.13513   1.17107
 Alpha virt. eigenvalues --    1.17308   1.23321   1.24478   1.27435   1.30983
 Alpha virt. eigenvalues --    1.33068   1.44939   1.50493   1.52270   1.61018
 Alpha virt. eigenvalues --    1.61397   1.74526   1.74665   1.79405   1.80494
 Alpha virt. eigenvalues --    1.84059   1.87657   1.91703   1.93228   1.95213
 Alpha virt. eigenvalues --    1.98720   2.01901   2.02250   2.03295   2.04470
 Alpha virt. eigenvalues --    2.08999   2.09153   2.12621   2.17770   2.18877
 Alpha virt. eigenvalues --    2.28505   2.28585   2.35490   2.40465   2.45243
 Alpha virt. eigenvalues --    2.49104   2.53658   2.58597   2.73112   2.75277
 Alpha virt. eigenvalues --    2.77265   2.85397   2.88794   2.90182   2.94874
 Alpha virt. eigenvalues --    3.27757   3.58327
          Condensed to atoms (all electrons):
 Mulliken charges:
               1
     1  C   -0.024692
     2  C   -0.106736
     3  C    0.030988
     4  C   -0.106736
     5  C   -0.024692
     6  H    0.025134
     7  H    0.028257
     8  H    0.062543
     9  H    0.062543
    10  H    0.028257
    11  H    0.025134
 Sum of Mulliken charges =  -0.00000
 Mulliken charges with hydrogens summed into heavy atoms:
               1
     1  C    0.000442
     2  C   -0.078478
     3  C    0.156073
     4  C   -0.078478
     5  C    0.000442
 Electronic spatial extent (au):  <R**2>=            334.8282
 Charge=             -0.0000 electrons
 Dipole moment (field-independent basis, Debye):
    X=             -0.0000    Y=              0.0000    Z=              0.3619  Tot=              0.3619
 Unable to Open any file for archive entry.
 1\1\GINC-NODE07\SP\RMP2-FC\CC-pVDZ\C5H6\XUHJ\26-Dec-2023\0\\#T MP2/cc-
 pVDZ symm=veryloose\\C1=CCC=C1\\0,1\C,0,-0.993441,0.00013,-0.7353\C,0,
 0.283744,0.000537,-1.181689\C,0,1.217256,-0.000171,0.\C,0,0.283744,0.0
 00537,1.181689\C,0,-0.993441,0.00013,0.7353\H,0,-1.894058,0.000133,-1.
 354804\H,0,0.613567,0.000907,-2.222894\H,0,1.887541,0.883733,0.\H,0,1.
 886265,-0.885104,0.\H,0,0.613567,0.000907,2.222894\H,0,-1.894058,0.000
 133,1.354804\\Version=ES64L-G16RevC.01\State=1-A1\HF=-192.8073387\MP2=
 -193.4728497\RMSD=8.672e-09\PG=C02V [C2(C1),SGV(C4H4),SGV'(H2)]\\@
 The archive entry for this job was punched.


 IT IS THE BEHAVIOR AND DISTRIBUTION OF THE ELECTRONS 
 AROUND THE NUCLEUS THAT GIVES THE FUNDAMENTAL 
 CHARACTER OF AN ATOM:  IT MUST BE THE SAME FOR MOLECULES.

                               -- C. A. COULSON, 1951
 Job cpu time:       0 days  0 hours  0 minutes 14.3 seconds.
 Elapsed time:       0 days  0 hours  0 minutes  1.1 seconds.
 File lengths (MBytes):  RWF=     22 Int=      0 D2E=      0 Chk=      2 Scr=      2
 Normal termination of Gaussian 16 at Tue Dec 26 13:07:24 2023.
