 Entering Gaussian System, Link 0=g16
 Initial command:
 /opt/g16/l1.exe "/tmp/Gau-177395.inp" -scrdir="/tmp/"
 Default is to use a total of   8 processors:
                                8 via shared-memory
                                1 via Linda
 Entering Link 1 = /opt/g16/l1.exe PID=    177396.
  
 Copyright (c) 1988-2019, Gaussian, Inc.  All Rights Reserved.
  
 This is part of the Gaussian(R) 16 program.  It is based on
 the Gaussian(R) 09 system (copyright 2009, Gaussian, Inc.),
 the Gaussian(R) 03 system (copyright 2003, Gaussian, Inc.),
 the Gaussian(R) 98 system (copyright 1998, Gaussian, Inc.),
 the Gaussian(R) 94 system (copyright 1995, Gaussian, Inc.),
 the Gaussian 92(TM) system (copyright 1992, Gaussian, Inc.),
 the Gaussian 90(TM) system (copyright 1990, Gaussian, Inc.),
 the Gaussian 88(TM) system (copyright 1988, Gaussian, Inc.),
 the Gaussian 86(TM) system (copyright 1986, Carnegie Mellon
 University), and the Gaussian 82(TM) system (copyright 1983,
 Carnegie Mellon University). Gaussian is a federally registered
 trademark of Gaussian, Inc.
  
 This software contains proprietary and confidential information,
 including trade secrets, belonging to Gaussian, Inc.
  
 This software is provided under written license and may be
 used, copied, transmitted, or stored only in accord with that
 written license.
  
 The following legend is applicable only to US Government
 contracts under FAR:
  
                    RESTRICTED RIGHTS LEGEND
  
 Use, reproduction and disclosure by the US Government is
 subject to restrictions as set forth in subparagraphs (a)
 and (c) of the Commercial Computer Software - Restricted
 Rights clause in FAR 52.227-19.
  
 Gaussian, Inc.
 340 Quinnipiac St., Bldg. 40, Wallingford CT 06492
  
  
 ---------------------------------------------------------------
 Warning -- This program may not be used in any manner that
 competes with the business of Gaussian, Inc. or will provide
 assistance to any competitor of Gaussian, Inc.  The licensee
 of this program is prohibited from giving any competitor of
 Gaussian, Inc. access to this program.  By using this program,
 the user acknowledges that Gaussian, Inc. is engaged in the
 business of creating and licensing software in the field of
 computational chemistry and represents and warrants to the
 licensee that it is not a competitor of Gaussian, Inc. and that
 it will not use this program in any manner prohibited above.
 ---------------------------------------------------------------
  

 Cite this work as:
 Gaussian 16, Revision C.01,
 M. J. Frisch, G. W. Trucks, H. B. Schlegel, G. E. Scuseria, 
 M. A. Robb, J. R. Cheeseman, G. Scalmani, V. Barone, 
 G. A. Petersson, H. Nakatsuji, X. Li, M. Caricato, A. V. Marenich, 
 J. Bloino, B. G. Janesko, R. Gomperts, B. Mennucci, H. P. Hratchian, 
 J. V. Ortiz, A. F. Izmaylov, J. L. Sonnenberg, D. Williams-Young, 
 F. Ding, F. Lipparini, F. Egidi, J. Goings, B. Peng, A. Petrone, 
 T. Henderson, D. Ranasinghe, V. G. Zakrzewski, J. Gao, N. Rega, 
 G. Zheng, W. Liang, M. Hada, M. Ehara, K. Toyota, R. Fukuda, 
 J. Hasegawa, M. Ishida, T. Nakajima, Y. Honda, O. Kitao, H. Nakai, 
 T. Vreven, K. Throssell, J. A. Montgomery, Jr., J. E. Peralta, 
 F. Ogliaro, M. J. Bearpark, J. J. Heyd, E. N. Brothers, K. N. Kudin, 
 V. N. Staroverov, T. A. Keith, R. Kobayashi, J. Normand, 
 K. Raghavachari, A. P. Rendell, J. C. Burant, S. S. Iyengar, 
 J. Tomasi, M. Cossi, J. M. Millam, M. Klene, C. Adamo, R. Cammi, 
 J. W. Ochterski, R. L. Martin, K. Morokuma, O. Farkas, 
 J. B. Foresman, and D. J. Fox, Gaussian, Inc., Wallingford CT, 2019.
 
 ******************************************
 Gaussian 16:  ES64L-G16RevC.01  3-Jul-2019
                14-Sep-2024 
 ******************************************
 %nprocshared=8
 Will use up to    8 processors via shared memory.
 %mem=1600MB
 -----------------------------
 #T MP2/cc-pVDZ symm=veryloose
 -----------------------------
 -----
 OC#CO
 -----
 Symbolic Z-matrix:
 Charge =  0 Multiplicity = 1
 O                    -1.85571   0.02579  -0.50327 
 C                    -0.58562   0.02367  -0.14653 
 C                     0.59049  -0.01876   0.12628 
 O                     1.88357  -0.00041   0.38696 
 H                    -2.38193   0.54609   0.13169 
 H                     2.12976  -0.77869   0.92032 
 
                    Distance matrix (angstroms):
                    1          2          3          4          5
     1  O    0.000000
     2  C    1.319241   0.000000
     3  C    2.526301   1.208078   0.000000
     4  O    3.843880   2.526281   1.319226   0.000000
     5  H    0.975085   1.891310   3.025614   4.307937   0.000000
     6  H    4.307874   3.025763   1.891391   0.975094   4.767842
                    6
     6  H    0.000000
 This structure is nearly, but not quite of a higher symmetry.
 Consider Symm=Loose if the higher symmetry is desired.
 Framework group  C1[X(C2H2O2)]
 Deg. of freedom    12
                         Standard orientation:                         
 ---------------------------------------------------------------------
 Center     Atomic      Atomic             Coordinates (Angstroms)
 Number     Number       Type             X           Y           Z
 ---------------------------------------------------------------------
      1          8           0        0.264552   -0.419788   -1.857791
      2          6           0        0.091473   -0.148773   -0.578341
      3          6           0       -0.112557    0.147383    0.574965
      4          8           0       -0.385063    0.414529    1.837792
      5          1           0        0.937739   -1.116972   -1.965236
      6          1           0        0.152853    1.167378    2.145484
 ---------------------------------------------------------------------
 Rotational constants (GHZ):         330.7549090           3.6545736           3.6521744
    66 basis functions,   146 primitive gaussians,    70 cartesian basis functions
    15 alpha electrons       15 beta electrons
       nuclear repulsion energy        99.4125260231 Hartrees.
 NAtoms=    6 NActive=    6 NUniq=    6 SFac= 1.00D+00 NAtFMM=   60 NAOKFM=F Big=F
 ExpMin= 1.22D-01 ExpMax= 1.17D+04 ExpMxC= 4.01D+02 IAcc=3 IRadAn=         5 AccDes= 0.00D+00
 Harris functional with IExCor=  205 and IRadAn=       5 diagonalized for initial guess.
 HarFok:  IExCor=  205 AccDes= 0.00D+00 IRadAn=         5 IDoV= 1 UseB2=F ITyADJ=14
 ICtDFT=  3500011 ScaDFX=  1.000000  1.000000  1.000000  1.000000
 FoFCou: FMM=F IPFlag=           0 FMFlag=      100000 FMFlg1=           0
         NFxFlg=           0 DoJE=T BraDBF=F KetDBF=T FulRan=T
         wScrn=  0.000000 ICntrl=       500 IOpCl=  0 I1Cent=   200000004 NGrid=           0
         NMat0=    1 NMatS0=      1 NMatT0=    0 NMatD0=    1 NMtDS0=    0 NMtDT0=    0
 Petite list used in FoFCou.
 SCF Done:  E(RHF) =  -226.525341438     A.U. after   13 cycles
            NFock= 13  Conv=0.61D-08     -V/T= 2.0014
 ExpMin= 1.22D-01 ExpMax= 1.17D+04 ExpMxC= 4.01D+02 IAcc=3 IRadAn=         5 AccDes= 0.00D+00
 HarFok:  IExCor=  205 AccDes= 0.00D+00 IRadAn=         5 IDoV=-2 UseB2=F ITyADJ=14
 ICtDFT= 12500011 ScaDFX=  1.000000  1.000000  1.000000  1.000000
 NROrb=     62 NOA=    11 NOB=    11 NVA=    51 NVB=    51

 **** Warning!!: The largest alpha MO coefficient is  0.10332098D+02

 ANorm=    0.1091628911D+01
 E2 =    -0.6187199547D+00 EUMP2 =    -0.22714406139255D+03

 **********************************************************************

            Population analysis using the SCF Density.

 **********************************************************************

 Orbital symmetries:
       Occupied  (A) (A) (A) (A) (A) (A) (A) (A) (A) (A) (A) (A)
                 (A) (A) (A)
       Virtual   (A) (A) (A) (A) (A) (A) (A) (A) (A) (A) (A) (A)
                 (A) (A) (A) (A) (A) (A) (A) (A) (A) (A) (A) (A)
                 (A) (A) (A) (A) (A) (A) (A) (A) (A) (A) (A) (A)
                 (A) (A) (A) (A) (A) (A) (A) (A) (A) (A) (A) (A)
                 (A) (A) (A)
 The electronic state is 1-A.
 Alpha  occ. eigenvalues --  -20.62425 -20.62424 -11.28834 -11.28484  -1.43047
 Alpha  occ. eigenvalues --   -1.42554  -1.00975  -0.81216  -0.77212  -0.65667
 Alpha  occ. eigenvalues --   -0.64615  -0.59935  -0.59778  -0.35900  -0.35687
 Alpha virt. eigenvalues --    0.16279   0.16894   0.28653   0.28856   0.35405
 Alpha virt. eigenvalues --    0.42999   0.54724   0.66635   0.67296   0.71620
 Alpha virt. eigenvalues --    0.77910   0.78680   0.83340   0.83621   0.91808
 Alpha virt. eigenvalues --    1.09066   1.19360   1.21196   1.21840   1.25257
 Alpha virt. eigenvalues --    1.27032   1.32478   1.32667   1.35847   1.41984
 Alpha virt. eigenvalues --    1.47877   1.51590   1.53902   1.59594   1.69829
 Alpha virt. eigenvalues --    1.72063   1.77635   1.78380   2.17508   2.18524
 Alpha virt. eigenvalues --    2.20651   2.30967   2.41072   2.41843   2.81395
 Alpha virt. eigenvalues --    3.20961   3.21607   3.23698   3.31348   3.34553
 Alpha virt. eigenvalues --    3.56306   3.62401   3.77638   3.85542   4.04943
 Alpha virt. eigenvalues --    4.06611
          Condensed to atoms (all electrons):
 Mulliken charges:
               1
     1  O   -0.264034
     2  C    0.062542
     3  C    0.062570
     4  O   -0.264054
     5  H    0.201480
     6  H    0.201496
 Sum of Mulliken charges =  -0.00000
 Mulliken charges with hydrogens summed into heavy atoms:
               1
     1  O   -0.062554
     2  C    0.062542
     3  C    0.062570
     4  O   -0.062558
 Electronic spatial extent (au):  <R**2>=            314.5227
 Charge=             -0.0000 electrons
 Dipole moment (field-independent basis, Debye):
    X=              2.2672    Y=              0.1042    Z=              0.3749  Tot=              2.3003
 Unable to Open any file for archive entry.
 1\1\GINC-NODE01\SP\RMP2-FC\CC-pVDZ\C2H2O2\XUHJ\14-Sep-2024\0\\#T MP2/c
 c-pVDZ symm=veryloose\\OC#CO\\0,1\O,0,-1.855707,0.025794,-0.503272\C,0
 ,-0.585618,0.023672,-0.146529\C,0,0.590489,-0.018756,0.126281\O,0,1.88
 3574,-0.000406,0.386956\H,0,-2.381928,0.546086,0.131692\H,0,2.129763,-
 0.778687,0.920321\\Version=ES64L-G16RevC.01\State=1-A\HF=-226.5253414\
 MP2=-227.1440614\RMSD=6.068e-09\PG=C01 [X(C2H2O2)]\\@
 The archive entry for this job was punched.


 HO!  SUCH BUGS AND GOBLINS IN MY LIFE!

                            -- HAMLET, ACT 5, SCENE 2
 Job cpu time:       0 days  0 hours  0 minutes 27.5 seconds.
 Elapsed time:       0 days  0 hours  0 minutes  4.9 seconds.
 File lengths (MBytes):  RWF=      6 Int=      0 D2E=      0 Chk=      1 Scr=      1
 Normal termination of Gaussian 16 at Sat Sep 14 10:34:16 2024.
