11

C        -0.000000       1.276474      -0.259168
C         0.000000       0.000000       0.584962
C        -0.000000      -1.276474      -0.259168
H         0.000000       2.182479       0.373212
H        -0.891432       1.322723      -0.912315
H         0.891432       1.322723      -0.912315
H        -0.883367       0.000000       1.251540
H         0.883367      -0.000000       1.251540
H        -0.891432      -1.322723      -0.912315
H        -0.000000      -2.182479       0.373212
H         0.891432      -1.322723      -0.912315
