26

C        -3.528771       0.000000       0.000000
C        -2.836527       1.212281       0.000000
C        -1.430665       1.237581       0.000000
C        -0.682240       2.465970       0.000000
C         0.682240       2.465970       0.000000
C         1.430665       1.237581       0.000000
C         2.836527       1.212281       0.000000
C         3.528771      -0.000000       0.000000
C         2.836527      -1.212281      -0.000000
C         1.430665      -1.237581      -0.000000
C         0.682240      -2.465970      -0.000000
C        -0.682240      -2.465970      -0.000000
C        -1.430665      -1.237581      -0.000000
C        -2.836527      -1.212281      -0.000000
C        -0.713697       0.000000       0.000000
C         0.713697      -0.000000       0.000000
H        -4.622889       0.000000       0.000000
H        -3.385169       2.159102       0.000000
H        -1.234958       3.410580       0.000000
H         1.234958       3.410580       0.000000
H         3.385169       2.159102       0.000000
H         4.622889      -0.000000       0.000000
H         3.385169      -2.159102      -0.000000
H         1.234958      -3.410580      -0.000000
H        -1.234958      -3.410580      -0.000000
H        -3.385169      -2.159102      -0.000000
