12

C        -0.000000      -1.966250       0.000000
C         0.416662      -0.524044       0.000000
C        -0.416662       0.524044       0.000000
C         0.000000       1.966250       0.000000
H         0.394117      -2.499577      -0.886887
H        -1.099203      -2.071335       0.000000
H         0.394117      -2.499577       0.886887
H         1.500345      -0.331894      -0.000000
H        -1.500345       0.331894      -0.000000
H         1.099203       2.071335       0.000000
H        -0.394117       2.499577       0.886887
H        -0.394117       2.499577      -0.886887
