24

C         0.609534      -0.000000      -0.000000
C        -0.609534       0.000000      -0.000000
C        -2.035827       0.000000       0.000000
C        -2.754829       1.214639       0.000000
C        -4.149026       1.210236       0.000000
C        -4.851454       0.000000       0.000000
C        -4.149026      -1.210236       0.000000
C        -2.754829      -1.214639       0.000000
C         2.035827      -0.000000       0.000000
C         2.754829      -1.214639       0.000000
C         4.149026      -1.210236       0.000000
C         4.851454      -0.000000       0.000000
C         4.149026       1.210236      -0.000000
C         2.754829       1.214639      -0.000000
H        -2.203435       2.158166       0.000000
H        -4.693400       2.159344       0.000000
H        -5.945451       0.000000       0.000000
H        -4.693400      -2.159344       0.000000
H        -2.203435      -2.158166       0.000000
H         2.203435      -2.158166      -0.000000
H         4.693400      -2.159344       0.000000
H         5.945451      -0.000000       0.000000
H         4.693400       2.159344      -0.000000
H         2.203435       2.158166      -0.000000
