12

C         0.000000       1.085298       0.116015
C         1.085298      -0.000000      -0.116015
C         0.000000      -1.085298       0.116015
C        -1.085298       0.000000      -0.116015
H         0.000000       1.959759      -0.556967
H         0.000000       1.449408       1.158018
H         1.959759      -0.000000       0.556967
H         1.449408      -0.000000      -1.158018
H         0.000000      -1.449408       1.158018
H         0.000000      -1.959759      -0.556967
H        -1.959759       0.000000       0.556967
H        -1.449408       0.000000      -1.158018
