22

C         0.000000       0.755358       2.752666
C         0.000000       1.208521       1.454165
C        -0.000000       2.462838       0.686603
C         0.000000       2.462838      -0.686603
C         0.000000       1.208521      -1.454165
C        -0.000000      -0.000000      -0.663034
C        -0.000000      -1.208521      -1.454165
C        -0.000000      -2.462838      -0.686603
C        -0.000000      -2.462838       0.686603
C        -0.000000      -1.208521       1.454165
C        -0.000000       0.000000       0.663034
C        -0.000000      -0.755358       2.752666
C        -0.000000      -0.755358      -2.752666
C         0.000000       0.755358      -2.752666
H         0.000000       1.354691       3.665899
H         0.000000       3.418074       1.219594
H         0.000000       3.418074      -1.219594
H        -0.000000      -3.418074      -1.219594
H        -0.000000      -3.418074       1.219594
H        -0.000000      -1.354691       3.665899
H        -0.000000      -1.354691      -3.665899
H         0.000000       1.354691      -3.665899
