17

C        -0.864237      -2.290475      -0.000000
C        -1.621699      -1.171444      -0.000000
C        -0.755225       0.012694      -0.000000
C        -1.054870       1.378341      -0.000000
C         0.000000       2.298979       0.000000
C         1.331297       1.862376       0.000000
C         1.633545       0.491899       0.000000
C         0.589668      -0.426829       0.000000
C         0.605418      -1.938394       0.000000
H        -1.236136      -3.317683      -0.000000
H        -2.713864      -1.133296      -0.000000
H        -2.093472       1.722948      -0.000000
H        -0.216777       3.371665      -0.000000
H         2.142441       2.596738       0.000000
H         2.675900       0.157298       0.000000
H         1.127684      -2.349540       0.886917
H         1.127684      -2.349540      -0.886917
