11

C        -0.993441       0.000130      -0.735300
C         0.283744       0.000537      -1.181689
C         1.217256      -0.000171      -0.000000
C         0.283744       0.000537       1.181689
C        -0.993441       0.000130       0.735300
H        -1.894058       0.000133      -1.354804
H         0.613567       0.000907      -2.222894
H         1.887541       0.883733      -0.000000
H         1.886265      -0.885104      -0.000000
H         0.613567       0.000907       2.222894
H        -1.894058       0.000133       1.354804
