 Entering Gaussian System, Link 0=g16
 Initial command:
 /home/software/g16/l1.exe "/home/software/g16tmp/Gau-335800.inp" -scrdir="/home/software/g16tmp/"
 Default is to use a total of   8 processors:
                                8 via shared-memory
                                1 via Linda
 Entering Link 1 = /home/software/g16/l1.exe PID=    335801.
  
 Copyright (c) 1988-2019, Gaussian, Inc.  All Rights Reserved.
  
 This is part of the Gaussian(R) 16 program.  It is based on
 the Gaussian(R) 09 system (copyright 2009, Gaussian, Inc.),
 the Gaussian(R) 03 system (copyright 2003, Gaussian, Inc.),
 the Gaussian(R) 98 system (copyright 1998, Gaussian, Inc.),
 the Gaussian(R) 94 system (copyright 1995, Gaussian, Inc.),
 the Gaussian 92(TM) system (copyright 1992, Gaussian, Inc.),
 the Gaussian 90(TM) system (copyright 1990, Gaussian, Inc.),
 the Gaussian 88(TM) system (copyright 1988, Gaussian, Inc.),
 the Gaussian 86(TM) system (copyright 1986, Carnegie Mellon
 University), and the Gaussian 82(TM) system (copyright 1983,
 Carnegie Mellon University). Gaussian is a federally registered
 trademark of Gaussian, Inc.
  
 This software contains proprietary and confidential information,
 including trade secrets, belonging to Gaussian, Inc.
  
 This software is provided under written license and may be
 used, copied, transmitted, or stored only in accord with that
 written license.
  
 The following legend is applicable only to US Government
 contracts under FAR:
  
                    RESTRICTED RIGHTS LEGEND
  
 Use, reproduction and disclosure by the US Government is
 subject to restrictions as set forth in subparagraphs (a)
 and (c) of the Commercial Computer Software - Restricted
 Rights clause in FAR 52.227-19.
  
 Gaussian, Inc.
 340 Quinnipiac St., Bldg. 40, Wallingford CT 06492
  
  
 ---------------------------------------------------------------
 Warning -- This program may not be used in any manner that
 competes with the business of Gaussian, Inc. or will provide
 assistance to any competitor of Gaussian, Inc.  The licensee
 of this program is prohibited from giving any competitor of
 Gaussian, Inc. access to this program.  By using this program,
 the user acknowledges that Gaussian, Inc. is engaged in the
 business of creating and licensing software in the field of
 computational chemistry and represents and warrants to the
 licensee that it is not a competitor of Gaussian, Inc. and that
 it will not use this program in any manner prohibited above.
 ---------------------------------------------------------------
  

 Cite this work as:
 Gaussian 16, Revision C.01,
 M. J. Frisch, G. W. Trucks, H. B. Schlegel, G. E. Scuseria, 
 M. A. Robb, J. R. Cheeseman, G. Scalmani, V. Barone, 
 G. A. Petersson, H. Nakatsuji, X. Li, M. Caricato, A. V. Marenich, 
 J. Bloino, B. G. Janesko, R. Gomperts, B. Mennucci, H. P. Hratchian, 
 J. V. Ortiz, A. F. Izmaylov, J. L. Sonnenberg, D. Williams-Young, 
 F. Ding, F. Lipparini, F. Egidi, J. Goings, B. Peng, A. Petrone, 
 T. Henderson, D. Ranasinghe, V. G. Zakrzewski, J. Gao, N. Rega, 
 G. Zheng, W. Liang, M. Hada, M. Ehara, K. Toyota, R. Fukuda, 
 J. Hasegawa, M. Ishida, T. Nakajima, Y. Honda, O. Kitao, H. Nakai, 
 T. Vreven, K. Throssell, J. A. Montgomery, Jr., J. E. Peralta, 
 F. Ogliaro, M. J. Bearpark, J. J. Heyd, E. N. Brothers, K. N. Kudin, 
 V. N. Staroverov, T. A. Keith, R. Kobayashi, J. Normand, 
 K. Raghavachari, A. P. Rendell, J. C. Burant, S. S. Iyengar, 
 J. Tomasi, M. Cossi, J. M. Millam, M. Klene, C. Adamo, R. Cammi, 
 J. W. Ochterski, R. L. Martin, K. Morokuma, O. Farkas, 
 J. B. Foresman, and D. J. Fox, Gaussian, Inc., Wallingford CT, 2019.
 
 ******************************************
 Gaussian 16:  ES64L-G16RevC.01  3-Jul-2019
                19-Dec-2023 
 ******************************************
 %nprocshared=16
 Will use up to   16 processors via shared memory.
 %mem=640MB
 ----------------------------------------------------------------------
 #N opt freq B3LYP/def2SVPP symm=veryloose em=gd3bj scale=0.961 press=0
 .987
 ----------------------------------------------------------------------
 1/18=20,19=15,26=3,38=1,113=-987000,114=961000/1,3;
 2/9=110,12=2,17=2,18=2,40=1/2;
 3/5=43,7=202,11=2,25=1,30=1,71=1,74=-5,124=41/1,2,3;
 4//1;
 5/5=2,38=5/2;
 6/7=2,8=2,9=2,10=2,28=1/1;
 7//1,2,3,16;
 1/18=20,19=15,26=3/3(2);
 2/9=110/2;
 99//99;
 2/9=110/2;
 3/5=43,7=202,11=2,25=1,30=1,71=1,74=-5,124=41/1,2,3;
 4/5=5,16=3,69=1/1;
 5/5=2,38=5/2;
 7//1,2,3,16;
 1/18=20,19=15,26=3/3(-5);
 2/9=110/2;
 6/7=2,8=2,9=2,10=2,19=2,28=1/1;
 99/9=1/99;
 ------
 [C]C_1
 ------
 Symbolic Z-matrix:
 Charge =  0 Multiplicity = 4
 C                     0.93843  -0.05776   0.05518 
 C                     2.45244  -0.05775   0.05517 
 H                     2.82225   0.98463  -0.03111 
 H                     2.82225  -0.65367  -0.80441 
 H                     2.82226  -0.50421   1.00105 
 

 GradGradGradGradGradGradGradGradGradGradGradGradGradGradGradGradGradGrad
 Berny optimization.
 Initialization pass.
                           ----------------------------
                           !    Initial Parameters    !
                           ! (Angstroms and Degrees)  !
 --------------------------                            --------------------------
 ! Name  Definition              Value          Derivative Info.                !
 --------------------------------------------------------------------------------
 ! R1    R(1,2)                  1.514          estimate D2E/DX2                !
 ! R2    R(2,3)                  1.1094         estimate D2E/DX2                !
 ! R3    R(2,4)                  1.1094         estimate D2E/DX2                !
 ! R4    R(2,5)                  1.1094         estimate D2E/DX2                !
 ! A1    A(1,2,3)              109.4722         estimate D2E/DX2                !
 ! A2    A(1,2,4)              109.472          estimate D2E/DX2                !
 ! A3    A(1,2,5)              109.4717         estimate D2E/DX2                !
 ! A4    A(3,2,4)              109.4711         estimate D2E/DX2                !
 ! A5    A(3,2,5)              109.4698         estimate D2E/DX2                !
 ! A6    A(4,2,5)              109.4705         estimate D2E/DX2                !
 ! D1    D(3,2,5,4)           -119.9986         estimate D2E/DX2                !
 --------------------------------------------------------------------------------
 Trust Radius=3.00D-01 FncErr=1.00D-07 GrdErr=1.00D-06 EigMax=2.50D+02 EigMin=1.00D-04
 Number of steps in this run=     21 maximum allowed number of steps=    100.
 GradGradGradGradGradGradGradGradGradGradGradGradGradGradGradGradGradGrad

                          Input orientation:                          
 ---------------------------------------------------------------------
 Center     Atomic      Atomic             Coordinates (Angstroms)
 Number     Number       Type             X           Y           Z
 ---------------------------------------------------------------------
      1          6           0        0.938430   -0.057760    0.055180
      2          6           0        2.452440   -0.057750    0.055170
      3          1           0        2.822250    0.984630   -0.031110
      4          1           0        2.822250   -0.653670   -0.804410
      5          1           0        2.822260   -0.504210    1.001050
 ---------------------------------------------------------------------
                    Distance matrix (angstroms):
                    1          2          3          4          5
     1  C    0.000000
     2  C    1.514010   0.000000
     3  H    2.154716   1.109396   0.000000
     4  H    2.154711   1.109395   1.811635   0.000000
     5  H    2.154716   1.109406   1.811629   1.811636   0.000000
 Stoichiometry    C2H3(4)
 Framework group  C3V[C3(CC),3SGV(H)]
 Deg. of freedom     3
 Full point group                 C3V     NOp   6
 Largest Abelian subgroup         CS      NOp   2
 Largest concise Abelian subgroup CS      NOp   2
                         Standard orientation:                         
 ---------------------------------------------------------------------
 Center     Atomic      Atomic             Coordinates (Angstroms)
 Number     Number       Type             X           Y           Z
 ---------------------------------------------------------------------
      1          6           0       -0.000000    0.000000    0.982369
      2          6           0        0.000000   -0.000000   -0.531641
      3          1           0       -0.000000    1.045943   -0.901459
      4          1           0       -0.905813   -0.522971   -0.901459
      5          1           0        0.905813   -0.522971   -0.901459
 ---------------------------------------------------------------------
 Rotational constants (GHZ):         152.7899628          26.8580526          26.8580526
 Standard basis: def2SVPP (5D, 7F)
 There are    26 symmetry adapted cartesian basis functions of A'  symmetry.
 There are    10 symmetry adapted cartesian basis functions of A"  symmetry.
 There are    24 symmetry adapted basis functions of A'  symmetry.
 There are    10 symmetry adapted basis functions of A"  symmetry.
    34 basis functions,    62 primitive gaussians,    36 cartesian basis functions
     9 alpha electrons        6 beta electrons
       nuclear repulsion energy        26.4655738497 Hartrees.
 NAtoms=    5 NActive=    5 NUniq=    3 SFac= 2.78D+00 NAtFMM=   60 NAOKFM=F Big=F
 Integral buffers will be    131072 words long.
 Raffenetti 2 integral format.
 Two-electron integral symmetry is turned on.
 Nuclear repulsion after empirical dispersion term =       26.4623358200 Hartrees.
 One-electron integrals computed using PRISM.
   6 Symmetry operations used in ECPInt.
 ECPInt:  NShTT=     171 NPrTT=     701 LenC2=     172 LenP2D=     656.
 LDataN:  DoStor=T MaxTD1= 4 Len=   56
 NBasis=    34 RedAO= T EigKep=  6.61D-03  NBF=    24    10
 NBsUse=    34 1.00D-06 EigRej= -1.00D+00 NBFU=    24    10
 ExpMin= 1.22D-01 ExpMax= 1.24D+03 ExpMxC= 1.86D+02 IAcc=3 IRadAn=         5 AccDes= 0.00D+00
 Harris functional with IExCor=  402 and IRadAn=       5 diagonalized for initial guess.
 HarFok:  IExCor=  402 AccDes= 0.00D+00 IRadAn=         5 IDoV= 1 UseB2=F ITyADJ=14
 ICtDFT=  3500011 ScaDFX=  1.000000  1.000000  1.000000  1.000000
 FoFCou: FMM=F IPFlag=           0 FMFlag=      100000 FMFlg1=           0
         NFxFlg=           0 DoJE=T BraDBF=F KetDBF=T FulRan=T
         wScrn=  0.000000 ICntrl=       500 IOpCl=  0 I1Cent=   200000004 NGrid=           0
         NMat0=    1 NMatS0=      1 NMatT0=    0 NMatD0=    1 NMtDS0=    0 NMtDT0=    0
 Petite list used in FoFCou.
 Initial guess orbital symmetries:
 Alpha Orbitals:
       Occupied  (A1) (A1) (A1) (A1) (E) (E) (A1) (E) (E)
       Virtual   (A1) (E) (E) (A1) (A1) (A1) (E) (E) (E) (E) (A1)
                 (E) (E) (A1) (A1) (E) (E) (E) (E) (A1) (E) (E)
                 (E) (E) (A1)
 Beta  Orbitals:
       Occupied  (A1) (A1) (A1) (A1) (E) (E)
       Virtual   (A1) (E) (E) (A1) (E) (E) (A1) (A1) (A1) (E) (E)
                 (E) (E) (A1) (E) (E) (A1) (A1) (E) (E) (E) (E)
                 (A1) (E) (E) (E) (E) (A1)
 The electronic state of the initial guess is 4-A1.
 Initial guess <Sx>= 0.0000 <Sy>= 0.0000 <Sz>= 1.5000 <S**2>= 3.7500 S= 1.5000
 Keep R1 and R2 ints in memory in symmetry-blocked form, NReq=14011640.
 Requested convergence on RMS density matrix=1.00D-08 within 128 cycles.
 Requested convergence on MAX density matrix=1.00D-06.
 Requested convergence on             energy=1.00D-06.
 No special actions if energy rises.
 Integral accuracy reduced to 1.0D-05 until final iterations.
 Initial convergence to 1.0D-05 achieved.  Increase integral accuracy.
 SCF Done:  E(UB3LYP) =  -77.7119053316     A.U. after   12 cycles
            NFock= 12  Conv=0.45D-08     -V/T= 2.0102
 <Sx>= 0.0000 <Sy>= 0.0000 <Sz>= 1.5000 <S**2>= 3.7530 S= 1.5007
 <L.S>=  0.00000000000    
 Annihilation of the first spin contaminant:
 S**2 before annihilation     3.7530,   after     3.7500

 **********************************************************************

            Population analysis using the SCF Density.

 **********************************************************************

 Orbital symmetries:
 Alpha Orbitals:
       Occupied  (A1) (A1) (A1) (A1) (E) (E) (A1) (E) (E)
       Virtual   (A1) (E) (E) (A1) (A1) (A1) (E) (E) (E) (E) (A1)
                 (A1) (E) (E) (A1) (E) (E) (E) (E) (A1) (E) (E)
                 (E) (E) (A1)
 Beta  Orbitals:
       Occupied  (A1) (A1) (A1) (A1) (E) (E)
       Virtual   (A1) (E) (E) (A1) (E) (E) (A1) (A1) (E) (E) (A1)
                 (E) (E) (A1) (A1) (E) (E) (A1) (E) (E) (E) (E)
                 (A1) (E) (E) (E) (E) (A1)
 The electronic state is 4-A1.
 Alpha  occ. eigenvalues --  -10.23377 -10.22021  -0.76017  -0.55825  -0.44001
 Alpha  occ. eigenvalues --   -0.44001  -0.35432  -0.21933  -0.21933
 Alpha virt. eigenvalues --    0.06691   0.12200   0.12200   0.21173   0.39094
 Alpha virt. eigenvalues --    0.43753   0.46164   0.46164   0.51216   0.51216
 Alpha virt. eigenvalues --    0.61280   0.65816   0.67102   0.67102   0.84285
 Alpha virt. eigenvalues --    1.41424   1.41424   1.64362   1.64362   1.82437
 Alpha virt. eigenvalues --    2.02916   2.02916   2.18670   2.18670   2.50362
  Beta  occ. eigenvalues --  -10.21773 -10.18971  -0.72601  -0.46934  -0.42297
  Beta  occ. eigenvalues --   -0.42297
  Beta virt. eigenvalues --   -0.14671  -0.01877  -0.01877   0.07281   0.12911
  Beta virt. eigenvalues --    0.12911   0.25296   0.45958   0.48611   0.48611
  Beta virt. eigenvalues --    0.49254   0.59243   0.59243   0.65168   0.67463
  Beta virt. eigenvalues --    0.67717   0.67717   0.85459   1.47650   1.47650
  Beta virt. eigenvalues --    1.79333   1.79333   1.89637   2.07035   2.07035
  Beta virt. eigenvalues --    2.24404   2.24404   2.57532
          Condensed to atoms (all electrons):
               1          2          3          4          5
     1  C    5.896808   0.335454  -0.031881  -0.031881  -0.031881
     2  C    0.335454   4.809781   0.372197   0.372197   0.372197
     3  H   -0.031881   0.372197   0.578079  -0.025605  -0.025605
     4  H   -0.031881   0.372197  -0.025605   0.578079  -0.025605
     5  H   -0.031881   0.372197  -0.025605  -0.025605   0.578079
          Atomic-Atomic Spin Densities.
               1          2          3          4          5
     1  C    3.029131  -0.118481  -0.028144  -0.028144  -0.028144
     2  C   -0.118481   0.109332   0.006271   0.006271   0.006271
     3  H   -0.028144   0.006271   0.096640  -0.010030  -0.010030
     4  H   -0.028144   0.006271  -0.010030   0.096640  -0.010030
     5  H   -0.028144   0.006271  -0.010030  -0.010030   0.096640
 Mulliken charges and spin densities:
               1          2
     1  C   -0.136620   2.826219
     2  C   -0.261826   0.009663
     3  H    0.132815   0.054706
     4  H    0.132815   0.054706
     5  H    0.132815   0.054706
 Sum of Mulliken charges =   0.00000   3.00000
 Mulliken charges and spin densities with hydrogens summed into heavy atoms:
               1          2
     1  C   -0.136620   2.826219
     2  C    0.136620   0.173781
 Electronic spatial extent (au):  <R**2>=             77.1418
 Charge=              0.0000 electrons
 Dipole moment (field-independent basis, Debye):
    X=              0.0000    Y=             -0.0000    Z=             -1.2224  Tot=              1.2224
 Quadrupole moment (field-independent basis, Debye-Ang):
   XX=            -13.3281   YY=            -13.3281   ZZ=            -13.6710
   XY=             -0.0000   XZ=             -0.0000   YZ=              0.0000
 Traceless Quadrupole moment (field-independent basis, Debye-Ang):
   XX=              0.1143   YY=              0.1143   ZZ=             -0.2286
   XY=             -0.0000   XZ=             -0.0000   YZ=              0.0000
 Octapole moment (field-independent basis, Debye-Ang**2):
  XXX=              0.0000  YYY=              0.5979  ZZZ=             -3.1893  XYY=              0.0000
  XXY=             -0.5979  XXZ=             -2.1803  XZZ=              0.0000  YZZ=             -0.0000
  YYZ=             -2.1803  XYZ=              0.0000
 Hexadecapole moment (field-independent basis, Debye-Ang**3):
 XXXX=            -21.2970 YYYY=            -21.2970 ZZZZ=            -68.7952 XXXY=              0.0000
 XXXZ=             -0.0000 YYYX=              0.0000 YYYZ=             -0.5461 ZZZX=             -0.0000
 ZZZY=              0.0000 XXYY=             -7.0990 XXZZ=            -15.4932 YYZZ=            -15.4932
 XXYZ=              0.5461 YYXZ=             -0.0000 ZZXY=             -0.0000
 N-N= 2.646233582004D+01 E-N=-2.325018719557D+02  KE= 7.693044652535D+01
 Symmetry A'   KE= 7.372714230790D+01
 Symmetry A"   KE= 3.203304217455D+00
 Symmetry A'   SP= 2.000000000000D+00
 Symmetry A"   SP= 1.000000000000D+00
                          Isotropic Fermi Contact Couplings
        Atom                 a.u.       MegaHertz       Gauss      10(-4) cm-1
     1  C(13)              1.40697     527.23567     188.13080     175.86689
     2  C(13)              0.07510      28.14265      10.04200       9.38738
     3  H(1)               0.02521      37.55679      13.40120      12.52760
     4  H(1)               0.02521      37.55679      13.40120      12.52760
     5  H(1)               0.02521      37.55679      13.40120      12.52760
 --------------------------------------------------------
       Center         ----  Spin Dipole Couplings  ----
                      3XX-RR        3YY-RR        3ZZ-RR
 --------------------------------------------------------
     1   Atom        0.267576      0.267576     -0.535152
     2   Atom       -0.164318     -0.164318      0.328637
     3   Atom       -0.039199      0.003785      0.035414
     4   Atom       -0.006961     -0.028453      0.035414
     5   Atom       -0.006961     -0.028453      0.035414
 --------------------------------------------------------
                        XY            XZ            YZ
 --------------------------------------------------------
     1   Atom        0.000000      0.000000      0.000000
     2   Atom       -0.000000     -0.000000     -0.000000
     3   Atom        0.000000      0.000000     -0.037194
     4   Atom        0.018613      0.032211      0.018597
     5   Atom       -0.018613     -0.032211      0.018597
 --------------------------------------------------------


 ---------------------------------------------------------------------------------
              Anisotropic Spin Dipole Couplings in Principal Axis System
 ---------------------------------------------------------------------------------

       Atom             a.u.   MegaHertz   Gauss  10(-4) cm-1        Axes

              Baa    -0.5352   -71.812   -25.624   -23.954 -0.0000 -0.0000  1.0000
     1 C(13)  Bbb     0.2676    35.906    12.812    11.977 -0.1259  0.9920  0.0000
              Bcc     0.2676    35.906    12.812    11.977  0.9920  0.1259  0.0000
 
              Baa    -0.1643   -22.050    -7.868    -7.355  0.9241  0.3822  0.0000
     2 C(13)  Bbb    -0.1643   -22.050    -7.868    -7.355 -0.3822  0.9241  0.0000
              Bcc     0.3286    44.100    15.736    14.710 -0.0000 -0.0000  1.0000
 
              Baa    -0.0392   -20.915    -7.463    -6.976  1.0000 -0.0000 -0.0000
     3 H(1)   Bbb    -0.0208   -11.107    -3.963    -3.705  0.0000  0.8341  0.5517
              Bcc     0.0600    32.022    11.426    10.681 -0.0000 -0.5517  0.8341
 
              Baa    -0.0392   -20.915    -7.463    -6.976 -0.5000  0.8660 -0.0000
     4 H(1)   Bbb    -0.0208   -11.107    -3.963    -3.705  0.7223  0.4170 -0.5517
              Bcc     0.0600    32.022    11.426    10.681  0.4778  0.2758  0.8341
 
              Baa    -0.0392   -20.915    -7.463    -6.976  0.5000  0.8660 -0.0000
     5 H(1)   Bbb    -0.0208   -11.107    -3.963    -3.705  0.7223 -0.4170  0.5517
              Bcc     0.0600    32.022    11.426    10.681 -0.4778  0.2758  0.8341
 

 ---------------------------------------------------------------------------------

   6 Symmetry operations used in ECPInt.
 ECPInt:  NShTT=     171 NPrTT=     701 LenC2=     172 LenP2D=     656.
 LDataN:  DoStor=T MaxTD1= 5 Len=  102
 Calling FoFJK, ICntrl=      2127 FMM=F ISym2X=1 I1Cent= 0 IOpClX= 1 NMat=1 NMatS=1 NMatT=0.
 ***** Axes restored to original set *****
 -------------------------------------------------------------------
 Center     Atomic                   Forces (Hartrees/Bohr)
 Number     Number              X              Y              Z
 -------------------------------------------------------------------
      1        6           0.007296107    0.000000048   -0.000000028
      2        6          -0.012629273   -0.000000083    0.000000048
      3        1           0.001777733   -0.001585646    0.000131257
      4        1           0.001777721    0.000906518    0.001307581
      5        1           0.001777712    0.000679162   -0.001438858
 -------------------------------------------------------------------
 Cartesian Forces:  Max     0.012629273 RMS     0.003914139

 GradGradGradGradGradGradGradGradGradGradGradGradGradGradGradGradGradGrad
 Berny optimization.
 FormGI is forming the generalized inverse of G from B-inverse, IUseBI=4.
 Internal  Forces:  Max     0.007296107 RMS     0.002585532
 Search for a local minimum.
 Step number   1 out of a maximum of   21
 All quantities printed in internal units (Hartrees-Bohrs-Radians)
 Mixed Optimization -- RFO/linear search
 Second derivative matrix not updated -- first step.
 The second derivative matrix:
                          R1        R2        R3        R4        A1
           R1           0.30951
           R2           0.00000   0.32664
           R3           0.00000   0.00000   0.32664
           R4           0.00000   0.00000   0.00000   0.32664
           A1           0.00000   0.00000   0.00000   0.00000   0.16000
           A2           0.00000   0.00000   0.00000   0.00000   0.00000
           A3           0.00000   0.00000   0.00000   0.00000   0.00000
           A4           0.00000   0.00000   0.00000   0.00000   0.00000
           A5           0.00000   0.00000   0.00000   0.00000   0.00000
           A6           0.00000   0.00000   0.00000   0.00000   0.00000
           D1           0.00000   0.00000   0.00000   0.00000   0.00000
                          A2        A3        A4        A5        A6
           A2           0.16000
           A3           0.00000   0.16000
           A4           0.00000   0.00000   0.16000
           A5           0.00000   0.00000   0.00000   0.16000
           A6           0.00000   0.00000   0.00000   0.00000   0.16000
           D1           0.00000   0.00000   0.00000   0.00000   0.00000
                          D1
           D1           0.00230
 ITU=  0
     Eigenvalues ---    0.07239   0.16000   0.16000   0.16000   0.16000
     Eigenvalues ---    0.30951   0.32664   0.32664   0.32664
 RFO step:  Lambda=-3.76182450D-04 EMin= 7.23912889D-02
 Linear search not attempted -- first point.
 Iteration  1 RMS(Cart)=  0.00967957 RMS(Int)=  0.00020218
 Iteration  2 RMS(Cart)=  0.00011907 RMS(Int)=  0.00016047
 Iteration  3 RMS(Cart)=  0.00000001 RMS(Int)=  0.00016047
 ClnCor:  largest displacement from symmetrization is 8.74D-05 for atom     5.
 Variable       Old X    -DE/DX   Delta X   Delta X   Delta X     New X
                                 (Linear)    (Quad)   (Total)
    R1        2.86106  -0.00730   0.00000  -0.02354  -0.02354   2.83752
    R2        2.09646  -0.00091   0.00000  -0.00278  -0.00275   2.09370
    R3        2.09646  -0.00091   0.00000  -0.00278  -0.00275   2.09370
    R4        2.09646  -0.00091   0.00000  -0.00278  -0.00275   2.09370
    A1        1.91065   0.00128   0.00000   0.01419   0.01419   1.92484
    A2        1.91065   0.00128   0.00000   0.01419   0.01419   1.92484
    A3        1.91065   0.00128   0.00000   0.01419   0.01419   1.92484
    A4        1.91062  -0.00026   0.00000  -0.01395  -0.01440   1.89621
    A5        1.91062  -0.00180   0.00000  -0.01430  -0.01440   1.89621
    A6        1.91062  -0.00180   0.00000  -0.01430  -0.01440   1.89621
    D1       -2.09435   0.00252   0.00000   0.03460   0.03433  -2.06003
         Item               Value     Threshold  Converged?
 Maximum Force            0.007296     0.000450     NO 
 RMS     Force            0.002586     0.000300     NO 
 Maximum Displacement     0.020931     0.001800     NO 
 RMS     Displacement     0.009725     0.001200     NO 
 Predicted change in Energy=-1.869523D-04
 GradGradGradGradGradGradGradGradGradGradGradGradGradGradGradGradGradGrad

                          Input orientation:                          
 ---------------------------------------------------------------------
 Center     Atomic      Atomic             Coordinates (Angstroms)
 Number     Number       Type             X           Y           Z
 ---------------------------------------------------------------------
      1          6           0        0.939813   -0.057760    0.055179
      2          6           0        2.441364   -0.057751    0.055173
      3          1           0        2.825475    0.977932   -0.030564
      4          1           0        2.825483   -0.649837   -0.798885
      5          1           0        2.825489   -0.501339    0.994965
 ---------------------------------------------------------------------
                    Distance matrix (angstroms):
                    1          2          3          4          5
     1  C    0.000000
     2  C    1.501551   0.000000
     3  H    2.153075   1.107939   0.000000
     4  H    2.153075   1.107939   1.799986   0.000000
     5  H    2.153075   1.107939   1.799986   1.799986   0.000000
 Stoichiometry    C2H3(4)
 Framework group  C3V[C3(CC),3SGV(H)]
 Deg. of freedom     3
 Full point group                 C3V     NOp   6
 Largest Abelian subgroup         CS      NOp   2
 Largest concise Abelian subgroup CS      NOp   2
                         Standard orientation:                         
 ---------------------------------------------------------------------
 Center     Atomic      Atomic             Coordinates (Angstroms)
 Number     Number       Type             X           Y           Z
 ---------------------------------------------------------------------
      1          6           0        0.000000    0.000000    0.977754
      2          6           0       -0.000000   -0.000000   -0.523797
      3          1           0       -0.000000    1.039222   -0.907915
      4          1           0       -0.899993   -0.519611   -0.907915
      5          1           0        0.899993   -0.519611   -0.907915
 ---------------------------------------------------------------------
 Rotational constants (GHZ):         154.7725201          27.1430840          27.1430840
 Standard basis: def2SVPP (5D, 7F)
 There are    26 symmetry adapted cartesian basis functions of A'  symmetry.
 There are    10 symmetry adapted cartesian basis functions of A"  symmetry.
 There are    24 symmetry adapted basis functions of A'  symmetry.
 There are    10 symmetry adapted basis functions of A"  symmetry.
    34 basis functions,    62 primitive gaussians,    36 cartesian basis functions
     9 alpha electrons        6 beta electrons
       nuclear repulsion energy        26.5903107698 Hartrees.
 NAtoms=    5 NActive=    5 NUniq=    3 SFac= 2.78D+00 NAtFMM=   60 NAOKFM=F Big=F
 Integral buffers will be    131072 words long.
 Raffenetti 2 integral format.
 Two-electron integral symmetry is turned on.
 Nuclear repulsion after empirical dispersion term =       26.5870720059 Hartrees.
 One-electron integrals computed using PRISM.
   6 Symmetry operations used in ECPInt.
 ECPInt:  NShTT=     171 NPrTT=     701 LenC2=     172 LenP2D=     656.
 LDataN:  DoStor=T MaxTD1= 4 Len=   56
 NBasis=    34 RedAO= T EigKep=  6.44D-03  NBF=    24    10
 NBsUse=    34 1.00D-06 EigRej= -1.00D+00 NBFU=    24    10
 Initial guess from the checkpoint file:  "/home/software/g16tmp/Gau-335801.chk"
 B after Tr=    -0.000000    0.000000    0.000001
         Rot=    1.000000    0.000000   -0.000000    0.000000 Ang=   0.00 deg.
 Initial guess orbital symmetries:
 Alpha Orbitals:
       Occupied  (A1) (A1) (A1) (A1) (E) (E) (A1) (E) (E)
       Virtual   (A1) (E) (E) (A1) (A1) (A1) (E) (E) (E) (E) (A1)
                 (A1) (E) (E) (A1) (E) (E) (E) (E) (A1) (E) (E)
                 (E) (E) (A1)
 Beta  Orbitals:
       Occupied  (A1) (A1) (A1) (A1) (E) (E)
       Virtual   (A1) (E) (E) (A1) (E) (E) (A1) (A1) (E) (E) (A1)
                 (E) (E) (A1) (A1) (E) (E) (A1) (E) (E) (E) (E)
                 (A1) (E) (E) (E) (E) (A1)
 Initial guess <Sx>= 0.0000 <Sy>= 0.0000 <Sz>= 1.5000 <S**2>= 3.7529 S= 1.5007
 ExpMin= 1.22D-01 ExpMax= 1.24D+03 ExpMxC= 1.86D+02 IAcc=3 IRadAn=         5 AccDes= 0.00D+00
 Harris functional with IExCor=  402 and IRadAn=       5 diagonalized for initial guess.
 HarFok:  IExCor=  402 AccDes= 0.00D+00 IRadAn=         5 IDoV= 1 UseB2=F ITyADJ=14
 ICtDFT=  3500011 ScaDFX=  1.000000  1.000000  1.000000  1.000000
 FoFCou: FMM=F IPFlag=           0 FMFlag=      100000 FMFlg1=           0
         NFxFlg=           0 DoJE=T BraDBF=F KetDBF=T FulRan=T
         wScrn=  0.000000 ICntrl=       500 IOpCl=  0 I1Cent=   200000004 NGrid=           0
         NMat0=    1 NMatS0=      1 NMatT0=    0 NMatD0=    1 NMtDS0=    0 NMtDT0=    0
 Petite list used in FoFCou.
 Keep R1 and R2 ints in memory in symmetry-blocked form, NReq=14011640.
 Requested convergence on RMS density matrix=1.00D-08 within 128 cycles.
 Requested convergence on MAX density matrix=1.00D-06.
 Requested convergence on             energy=1.00D-06.
 No special actions if energy rises.
 Integral accuracy reduced to 1.0D-05 until final iterations.
 Initial convergence to 1.0D-05 achieved.  Increase integral accuracy.
 SCF Done:  E(UB3LYP) =  -77.7121689973     A.U. after   11 cycles
            NFock= 11  Conv=0.73D-08     -V/T= 2.0099
 <Sx>= 0.0000 <Sy>= 0.0000 <Sz>= 1.5000 <S**2>= 3.7530 S= 1.5008
 <L.S>=  0.00000000000    
 Annihilation of the first spin contaminant:
 S**2 before annihilation     3.7530,   after     3.7500
   6 Symmetry operations used in ECPInt.
 ECPInt:  NShTT=     171 NPrTT=     701 LenC2=     172 LenP2D=     656.
 LDataN:  DoStor=T MaxTD1= 5 Len=  102
 Calling FoFJK, ICntrl=      2127 FMM=F ISym2X=1 I1Cent= 0 IOpClX= 1 NMat=1 NMatS=1 NMatT=0.
 ***** Axes restored to original set *****
 -------------------------------------------------------------------
 Center     Atomic                   Forces (Hartrees/Bohr)
 Number     Number              X              Y              Z
 -------------------------------------------------------------------
      1        6           0.003246052    0.000000021   -0.000000012
      2        6          -0.006295445   -0.000000041    0.000000024
      3        1           0.001016463    0.000248252   -0.000020554
      4        1           0.001016465   -0.000141913   -0.000204716
      5        1           0.001016466   -0.000106319    0.000225258
 -------------------------------------------------------------------
 Cartesian Forces:  Max     0.006295445 RMS     0.001887772

 GradGradGradGradGradGradGradGradGradGradGradGradGradGradGradGradGradGrad
 Berny optimization.
 Using GEDIIS/GDIIS optimizer.
 FormGI is forming the generalized inverse of G from B-inverse, IUseBI=4.
 Internal  Forces:  Max     0.003246052 RMS     0.001141955
 Search for a local minimum.
 Step number   2 out of a maximum of   21
 All quantities printed in internal units (Hartrees-Bohrs-Radians)
 Mixed Optimization -- RFO/linear search
 Update second derivatives using D2CorX and points    1    2
 DE= -2.64D-04 DEPred=-1.87D-04 R= 1.41D+00
 TightC=F SS=  1.41D+00  RLast= 5.46D-02 DXNew= 5.0454D-01 1.6383D-01
 Trust test= 1.41D+00 RLast= 5.46D-02 DXMaxT set to 3.00D-01
 The second derivative matrix:
                          R1        R2        R3        R4        A1
           R1           0.24128
           R2           0.00931   0.33433
           R3           0.00931   0.00769   0.33433
           R4           0.00931   0.00769   0.00769   0.33433
           A1           0.02995   0.00031   0.00031   0.00031   0.14900
           A2           0.02995   0.00031   0.00031   0.00031  -0.01100
           A3           0.02995   0.00031   0.00031   0.00031  -0.01100
           A4          -0.04197  -0.00458  -0.00458  -0.00458   0.01337
           A5          -0.02532   0.00156   0.00156   0.00156   0.01019
           A6          -0.02532   0.00156   0.00156   0.00156   0.01019
           D1          -0.02626  -0.01006  -0.01006  -0.01006   0.00484
                          A2        A3        A4        A5        A6
           A2           0.14900
           A3          -0.01100   0.14900
           A4           0.01337   0.01337   0.14603
           A5           0.01019   0.01019  -0.01340   0.15100
           A6           0.01019   0.01019  -0.01340  -0.00900   0.15100
           D1           0.00484   0.00484  -0.00046  -0.00687  -0.00687
                          D1
           D1           0.01297
 ITU=  1  0
 Use linear search instead of GDIIS.
     Eigenvalues ---    0.05474   0.14893   0.16000   0.16000   0.16000
     Eigenvalues ---    0.24907   0.32664   0.32664   0.35218
 RFO step:  Lambda=-2.28346596D-05 EMin= 5.47372492D-02
 Quartic linear search produced a step of  0.62349.
 Iteration  1 RMS(Cart)=  0.00569117 RMS(Int)=  0.00018110
 Iteration  2 RMS(Cart)=  0.00005942 RMS(Int)=  0.00017023
 Iteration  3 RMS(Cart)=  0.00000000 RMS(Int)=  0.00017023
 ClnCor:  largest displacement from symmetrization is 1.86D-04 for atom     5.
 Variable       Old X    -DE/DX   Delta X   Delta X   Delta X     New X
                                 (Linear)    (Quad)   (Total)
    R1        2.83752  -0.00325  -0.01468  -0.00360  -0.01828   2.81924
    R2        2.09370   0.00059  -0.00172   0.00450   0.00282   2.09652
    R3        2.09370   0.00059  -0.00172   0.00450   0.00282   2.09652
    R4        2.09370   0.00059  -0.00172   0.00450   0.00282   2.09652
    A1        1.92484   0.00051   0.00885   0.00067   0.00951   1.93436
    A2        1.92484   0.00051   0.00885   0.00067   0.00951   1.93436
    A3        1.92484   0.00051   0.00885   0.00067   0.00951   1.93436
    A4        1.89621  -0.00012  -0.00898  -0.00033  -0.00989   1.88632
    A5        1.89621  -0.00073  -0.00898  -0.00087  -0.00989   1.88632
    A6        1.89621  -0.00073  -0.00898  -0.00087  -0.00989   1.88632
    D1       -2.06003   0.00096   0.02140   0.00137   0.02253  -2.03750
         Item               Value     Threshold  Converged?
 Maximum Force            0.003246     0.000450     NO 
 RMS     Force            0.001142     0.000300     NO 
 Maximum Displacement     0.015465     0.001800     NO 
 RMS     Displacement     0.005695     0.001200     NO 
 Predicted change in Energy=-6.061165D-05
 GradGradGradGradGradGradGradGradGradGradGradGradGradGradGradGradGradGrad

                          Input orientation:                          
 ---------------------------------------------------------------------
 Center     Atomic      Atomic             Coordinates (Angstroms)
 Number     Number       Type             X           Y           Z
 ---------------------------------------------------------------------
      1          6           0        0.941305   -0.057760    0.055179
      2          6           0        2.433180   -0.057751    0.055173
      3          1           0        2.827692    0.975634   -0.030374
      4          1           0        2.827700   -0.648524   -0.796990
      5          1           0        2.827706   -0.500354    0.992880
 ---------------------------------------------------------------------
                    Distance matrix (angstroms):
                    1          2          3          4          5
     1  C    0.000000
     2  C    1.491875   0.000000
     3  H    2.152598   1.109433   0.000000
     4  H    2.152598   1.109433   1.795992   0.000000
     5  H    2.152598   1.109433   1.795992   1.795992   0.000000
 Stoichiometry    C2H3(4)
 Framework group  C3V[C3(CC),3SGV(H)]
 Deg. of freedom     3
 Full point group                 C3V     NOp   6
 Largest Abelian subgroup         CS      NOp   2
 Largest concise Abelian subgroup CS      NOp   2
                         Standard orientation:                         
 ---------------------------------------------------------------------
 Center     Atomic      Atomic             Coordinates (Angstroms)
 Number     Number       Type             X           Y           Z
 ---------------------------------------------------------------------
      1          6           0       -0.000000   -0.000000    0.974029
      2          6           0        0.000000    0.000000   -0.517846
      3          1           0       -0.000000    1.036917   -0.912366
      4          1           0       -0.897996   -0.518458   -0.912366
      5          1           0        0.897996   -0.518458   -0.912366
 ---------------------------------------------------------------------
 Rotational constants (GHZ):         155.4615939          27.3591264          27.3591264
 Standard basis: def2SVPP (5D, 7F)
 There are    26 symmetry adapted cartesian basis functions of A'  symmetry.
 There are    10 symmetry adapted cartesian basis functions of A"  symmetry.
 There are    24 symmetry adapted basis functions of A'  symmetry.
 There are    10 symmetry adapted basis functions of A"  symmetry.
    34 basis functions,    62 primitive gaussians,    36 cartesian basis functions
     9 alpha electrons        6 beta electrons
       nuclear repulsion energy        26.6639602084 Hartrees.
 NAtoms=    5 NActive=    5 NUniq=    3 SFac= 2.78D+00 NAtFMM=   60 NAOKFM=F Big=F
 Integral buffers will be    131072 words long.
 Raffenetti 2 integral format.
 Two-electron integral symmetry is turned on.
 Nuclear repulsion after empirical dispersion term =       26.6607210549 Hartrees.
 One-electron integrals computed using PRISM.
   6 Symmetry operations used in ECPInt.
 ECPInt:  NShTT=     171 NPrTT=     701 LenC2=     172 LenP2D=     656.
 LDataN:  DoStor=T MaxTD1= 4 Len=   56
 NBasis=    34 RedAO= T EigKep=  6.32D-03  NBF=    24    10
 NBsUse=    34 1.00D-06 EigRej= -1.00D+00 NBFU=    24    10
 Initial guess from the checkpoint file:  "/home/software/g16tmp/Gau-335801.chk"
 B after Tr=     0.000000   -0.000000    0.000000
         Rot=    1.000000    0.000000   -0.000000    0.000000 Ang=   0.00 deg.
 Initial guess orbital symmetries:
 Alpha Orbitals:
       Occupied  (A1) (A1) (A1) (A1) (E) (E) (A1) (E) (E)
       Virtual   (A1) (E) (E) (A1) (A1) (A1) (E) (E) (E) (E) (A1)
                 (A1) (E) (E) (A1) (E) (E) (E) (E) (A1) (E) (E)
                 (E) (E) (A1)
 Beta  Orbitals:
       Occupied  (A1) (A1) (A1) (A1) (E) (E)
       Virtual   (A1) (E) (E) (A1) (E) (E) (A1) (A1) (E) (E) (A1)
                 (E) (E) (A1) (E) (E) (A1) (A1) (E) (E) (E) (E)
                 (A1) (E) (E) (E) (E) (A1)
 Initial guess <Sx>= 0.0000 <Sy>= 0.0000 <Sz>= 1.5000 <S**2>= 3.7530 S= 1.5008
 Keep R1 and R2 ints in memory in symmetry-blocked form, NReq=14011640.
 Requested convergence on RMS density matrix=1.00D-08 within 128 cycles.
 Requested convergence on MAX density matrix=1.00D-06.
 Requested convergence on             energy=1.00D-06.
 No special actions if energy rises.
 SCF Done:  E(UB3LYP) =  -77.7122276205     A.U. after   10 cycles
            NFock= 10  Conv=0.34D-08     -V/T= 2.0099
 <Sx>= 0.0000 <Sy>= 0.0000 <Sz>= 1.5000 <S**2>= 3.7531 S= 1.5008
 <L.S>=  0.00000000000    
 Annihilation of the first spin contaminant:
 S**2 before annihilation     3.7531,   after     3.7500
   6 Symmetry operations used in ECPInt.
 ECPInt:  NShTT=     171 NPrTT=     701 LenC2=     172 LenP2D=     656.
 LDataN:  DoStor=T MaxTD1= 5 Len=  102
 Calling FoFJK, ICntrl=      2127 FMM=F ISym2X=1 I1Cent= 0 IOpClX= 1 NMat=1 NMatS=1 NMatT=0.
 ***** Axes restored to original set *****
 -------------------------------------------------------------------
 Center     Atomic                   Forces (Hartrees/Bohr)
 Number     Number              X              Y              Z
 -------------------------------------------------------------------
      1        6          -0.000190394   -0.000000001    0.000000001
      2        6          -0.000059015   -0.000000000    0.000000000
      3        1           0.000083136    0.000087911   -0.000007278
      4        1           0.000083136   -0.000050257   -0.000072495
      5        1           0.000083137   -0.000037652    0.000079771
 -------------------------------------------------------------------
 Cartesian Forces:  Max     0.000190394 RMS     0.000074749

 GradGradGradGradGradGradGradGradGradGradGradGradGradGradGradGradGradGrad
 Berny optimization.
 Using GEDIIS/GDIIS optimizer.
 FormGI is forming the generalized inverse of G from B-inverse, IUseBI=4.
 Internal  Forces:  Max     0.000190394 RMS     0.000086285
 Search for a local minimum.
 Step number   3 out of a maximum of   21
 All quantities printed in internal units (Hartrees-Bohrs-Radians)
 Mixed Optimization -- En-DIIS/RFO-DIIS
 Update second derivatives using D2CorX and points    1    2    3
 DE= -5.86D-05 DEPred=-6.06D-05 R= 9.67D-01
 TightC=F SS=  1.41D+00  RLast= 3.78D-02 DXNew= 5.0454D-01 1.1347D-01
 Trust test= 9.67D-01 RLast= 3.78D-02 DXMaxT set to 3.00D-01
 The second derivative matrix:
                          R1        R2        R3        R4        A1
           R1           0.25359
           R2           0.01320   0.33389
           R3           0.01320   0.00725   0.33389
           R4           0.01320   0.00725   0.00725   0.33389
           A1           0.02806  -0.00027  -0.00027  -0.00027   0.14929
           A2           0.02806  -0.00027  -0.00027  -0.00027  -0.01071
           A3           0.02806  -0.00027  -0.00027  -0.00027  -0.01071
           A4          -0.04088  -0.00449  -0.00449  -0.00449   0.01321
           A5          -0.02359   0.00243   0.00243   0.00243   0.00992
           A6          -0.02359   0.00243   0.00243   0.00243   0.00992
           D1          -0.02588  -0.01138  -0.01138  -0.01138   0.00479
                          A2        A3        A4        A5        A6
           A2           0.14929
           A3          -0.01071   0.14929
           A4           0.01321   0.01321   0.14609
           A5           0.00992   0.00992  -0.01319   0.15117
           A6           0.00992   0.00992  -0.01319  -0.00883   0.15117
           D1           0.00479   0.00479  -0.00067  -0.00650  -0.00650
                          D1
           D1           0.01161
 ITU=  1  1  0
 Use linear search instead of GDIIS.
     Eigenvalues ---    0.05576   0.14888   0.16000   0.16000   0.16000
     Eigenvalues ---    0.25743   0.32664   0.32664   0.35379
 RFO step:  Lambda=-3.08213134D-07 EMin= 5.57581022D-02
 Quartic linear search produced a step of  0.00204.
 Iteration  1 RMS(Cart)=  0.00035958 RMS(Int)=  0.00000024
 Iteration  2 RMS(Cart)=  0.00000008 RMS(Int)=  0.00000022
 ClnCor:  largest displacement from symmetrization is 2.73D-06 for atom     5.
 Variable       Old X    -DE/DX   Delta X   Delta X   Delta X     New X
                                 (Linear)    (Quad)   (Total)
    R1        2.81924   0.00019  -0.00004   0.00059   0.00055   2.81979
    R2        2.09652   0.00011   0.00001   0.00032   0.00033   2.09685
    R3        2.09652   0.00011   0.00001   0.00032   0.00033   2.09685
    R4        2.09652   0.00011   0.00001   0.00032   0.00033   2.09685
    A1        1.93436   0.00003   0.00002   0.00030   0.00032   1.93468
    A2        1.93436   0.00003   0.00002   0.00030   0.00032   1.93468
    A3        1.93436   0.00003   0.00002   0.00030   0.00032   1.93468
    A4        1.88632  -0.00001  -0.00002  -0.00031  -0.00034   1.88599
    A5        1.88632  -0.00004  -0.00002  -0.00032  -0.00034   1.88599
    A6        1.88632  -0.00004  -0.00002  -0.00032  -0.00034   1.88599
    D1       -2.03750   0.00005   0.00005   0.00071   0.00075  -2.03674
         Item               Value     Threshold  Converged?
 Maximum Force            0.000190     0.000450     YES
 RMS     Force            0.000086     0.000300     YES
 Maximum Displacement     0.000891     0.001800     YES
 RMS     Displacement     0.000360     0.001200     YES
 Predicted change in Energy=-1.544039D-07
 Optimization completed.
    -- Stationary point found.
                           ----------------------------
                           !   Optimized Parameters   !
                           ! (Angstroms and Degrees)  !
 --------------------------                            --------------------------
 ! Name  Definition              Value          Derivative Info.                !
 --------------------------------------------------------------------------------
 ! R1    R(1,2)                  1.4919         -DE/DX =    0.0002              !
 ! R2    R(2,3)                  1.1094         -DE/DX =    0.0001              !
 ! R3    R(2,4)                  1.1094         -DE/DX =    0.0001              !
 ! R4    R(2,5)                  1.1094         -DE/DX =    0.0001              !
 ! A1    A(1,2,3)              110.8305         -DE/DX =    0.0                 !
 ! A2    A(1,2,4)              110.8305         -DE/DX =    0.0                 !
 ! A3    A(1,2,5)              110.8305         -DE/DX =    0.0                 !
 ! A4    A(3,2,4)              108.0784         -DE/DX =    0.0                 !
 ! A5    A(3,2,5)              108.0784         -DE/DX =    0.0                 !
 ! A6    A(4,2,5)              108.0784         -DE/DX =    0.0                 !
 ! D1    D(3,2,5,4)           -116.7401         -DE/DX =    0.0001              !
 --------------------------------------------------------------------------------
 GradGradGradGradGradGradGradGradGradGradGradGradGradGradGradGradGradGrad

                          Input orientation:                          
 ---------------------------------------------------------------------
 Center     Atomic      Atomic             Coordinates (Angstroms)
 Number     Number       Type             X           Y           Z
 ---------------------------------------------------------------------
      1          6           0        0.941305   -0.057760    0.055179
      2          6           0        2.433180   -0.057751    0.055173
      3          1           0        2.827692    0.975634   -0.030374
      4          1           0        2.827700   -0.648524   -0.796990
      5          1           0        2.827706   -0.500354    0.992880
 ---------------------------------------------------------------------
                    Distance matrix (angstroms):
                    1          2          3          4          5
     1  C    0.000000
     2  C    1.491875   0.000000
     3  H    2.152598   1.109433   0.000000
     4  H    2.152598   1.109433   1.795992   0.000000
     5  H    2.152598   1.109433   1.795992   1.795992   0.000000
 Stoichiometry    C2H3(4)
 Framework group  C3V[C3(CC),3SGV(H)]
 Deg. of freedom     3
 Full point group                 C3V     NOp   6
 Largest Abelian subgroup         CS      NOp   2
 Largest concise Abelian subgroup CS      NOp   2
                         Standard orientation:                         
 ---------------------------------------------------------------------
 Center     Atomic      Atomic             Coordinates (Angstroms)
 Number     Number       Type             X           Y           Z
 ---------------------------------------------------------------------
      1          6           0       -0.000000    0.000000    0.974029
      2          6           0        0.000000   -0.000000   -0.517846
      3          1           0       -0.000000    1.036917   -0.912366
      4          1           0       -0.897996   -0.518458   -0.912366
      5          1           0        0.897996   -0.518458   -0.912366
 ---------------------------------------------------------------------
 Rotational constants (GHZ):         155.4615939          27.3591264          27.3591264

 **********************************************************************

            Population analysis using the SCF Density.

 **********************************************************************

 Orbital symmetries:
 Alpha Orbitals:
       Occupied  (A1) (A1) (A1) (A1) (E) (E) (A1) (E) (E)
       Virtual   (A1) (E) (E) (A1) (A1) (A1) (E) (E) (E) (E) (A1)
                 (A1) (E) (E) (A1) (E) (E) (E) (E) (A1) (E) (E)
                 (E) (E) (A1)
 Beta  Orbitals:
       Occupied  (A1) (A1) (A1) (A1) (E) (E)
       Virtual   (A1) (E) (E) (A1) (E) (E) (A1) (A1) (E) (E) (A1)
                 (E) (E) (A1) (E) (E) (A1) (A1) (E) (E) (E) (E)
                 (A1) (E) (E) (E) (E) (A1)
 The electronic state is 4-A1.
 Alpha  occ. eigenvalues --  -10.23425 -10.21772  -0.76329  -0.56111  -0.43853
 Alpha  occ. eigenvalues --   -0.43853  -0.35847  -0.21957  -0.21957
 Alpha virt. eigenvalues --    0.06754   0.12284   0.12284   0.22361   0.38943
 Alpha virt. eigenvalues --    0.43491   0.46155   0.46155   0.51231   0.51231
 Alpha virt. eigenvalues --    0.62219   0.66239   0.67051   0.67051   0.84794
 Alpha virt. eigenvalues --    1.41550   1.41550   1.64031   1.64031   1.84401
 Alpha virt. eigenvalues --    2.02402   2.02402   2.21150   2.21150   2.51634
  Beta  occ. eigenvalues --  -10.21550 -10.18999  -0.72846  -0.47539  -0.42044
  Beta  occ. eigenvalues --   -0.42044
  Beta virt. eigenvalues --   -0.14682  -0.02001  -0.02001   0.07354   0.13075
  Beta virt. eigenvalues --    0.13075   0.26303   0.45602   0.48762   0.48762
  Beta virt. eigenvalues --    0.49338   0.59188   0.59188   0.65614   0.67657
  Beta virt. eigenvalues --    0.67657   0.68415   0.86020   1.47758   1.47758
  Beta virt. eigenvalues --    1.78879   1.78879   1.91588   2.06565   2.06565
  Beta virt. eigenvalues --    2.27007   2.27007   2.58836
          Condensed to atoms (all electrons):
               1          2          3          4          5
     1  C    5.878412   0.345486  -0.031868  -0.031868  -0.031868
     2  C    0.345486   4.801792   0.371411   0.371411   0.371411
     3  H   -0.031868   0.371411   0.584930  -0.027204  -0.027204
     4  H   -0.031868   0.371411  -0.027204   0.584930  -0.027204
     5  H   -0.031868   0.371411  -0.027204  -0.027204   0.584930
          Atomic-Atomic Spin Densities.
               1          2          3          4          5
     1  C    3.038268  -0.121516  -0.029532  -0.029532  -0.029532
     2  C   -0.121516   0.088854   0.007189   0.007189   0.007189
     3  H   -0.029532   0.007189   0.106588  -0.011633  -0.011633
     4  H   -0.029532   0.007189  -0.011633   0.106588  -0.011633
     5  H   -0.029532   0.007189  -0.011633  -0.011633   0.106588
 Mulliken charges and spin densities:
               1          2
     1  C   -0.128296   2.828157
     2  C   -0.261511  -0.011094
     3  H    0.129936   0.060979
     4  H    0.129936   0.060979
     5  H    0.129936   0.060979
 Sum of Mulliken charges =  -0.00000   3.00000
 Mulliken charges and spin densities with hydrogens summed into heavy atoms:
               1          2
     1  C   -0.128296   2.828157
     2  C    0.128296   0.171843
 Electronic spatial extent (au):  <R**2>=             76.4425
 Charge=             -0.0000 electrons
 Dipole moment (field-independent basis, Debye):
    X=             -0.0000    Y=              0.0000    Z=             -1.1751  Tot=              1.1751
 Quadrupole moment (field-independent basis, Debye-Ang):
   XX=            -13.3533   YY=            -13.3533   ZZ=            -13.5533
   XY=              0.0000   XZ=              0.0000   YZ=             -0.0000
 Traceless Quadrupole moment (field-independent basis, Debye-Ang):
   XX=              0.0667   YY=              0.0667   ZZ=             -0.1333
   XY=              0.0000   XZ=              0.0000   YZ=             -0.0000
 Octapole moment (field-independent basis, Debye-Ang**2):
  XXX=             -0.0000  YYY=              0.5560  ZZZ=             -3.1555  XYY=              0.0000
  XXY=             -0.5560  XXZ=             -2.1033  XZZ=             -0.0000  YZZ=              0.0000
  YYZ=             -2.1033  XYZ=             -0.0000
 Hexadecapole moment (field-independent basis, Debye-Ang**3):
 XXXX=            -21.2944 YYYY=            -21.2944 ZZZZ=            -67.7114 XXXY=              0.0000
 XXXZ=              0.0000 YYYX=              0.0000 YYYZ=             -0.5203 ZZZX=             -0.0000
 ZZZY=             -0.0000 XXYY=             -7.0981 XXZZ=            -15.3015 YYZZ=            -15.3015
 XXYZ=              0.5203 YYXZ=             -0.0000 ZZXY=              0.0000
 N-N= 2.666072105490D+01 E-N=-2.329091933732D+02  KE= 7.695187960489D+01
 Symmetry A'   KE= 7.374768204082D+01
 Symmetry A"   KE= 3.204197564066D+00
 Symmetry A'   SP= 2.000000000000D+00
 Symmetry A"   SP= 1.000000000000D+00
                          Isotropic Fermi Contact Couplings
        Atom                 a.u.       MegaHertz       Gauss      10(-4) cm-1
     1  C(13)              1.42704     534.75500     190.81388     178.37507
     2  C(13)              0.07525      28.19702      10.06140       9.40551
     3  H(1)               0.02758      41.08715      14.66092      13.70520
     4  H(1)               0.02758      41.08715      14.66092      13.70520
     5  H(1)               0.02758      41.08715      14.66092      13.70520
 --------------------------------------------------------
       Center         ----  Spin Dipole Couplings  ----
                      3XX-RR        3YY-RR        3ZZ-RR
 --------------------------------------------------------
     1   Atom        0.263125      0.263125     -0.526249
     2   Atom       -0.161102     -0.161102      0.322203
     3   Atom       -0.038118      0.002508      0.035610
     4   Atom       -0.007649     -0.027962      0.035610
     5   Atom       -0.007649     -0.027962      0.035610
 --------------------------------------------------------
                        XY            XZ            YZ
 --------------------------------------------------------
     1   Atom        0.000000      0.000000      0.000000
     2   Atom        0.000000      0.000000      0.000000
     3   Atom        0.000000      0.000000     -0.036722
     4   Atom        0.017592      0.031802      0.018361
     5   Atom       -0.017592     -0.031802      0.018361
 --------------------------------------------------------


 ---------------------------------------------------------------------------------
              Anisotropic Spin Dipole Couplings in Principal Axis System
 ---------------------------------------------------------------------------------

       Atom             a.u.   MegaHertz   Gauss  10(-4) cm-1        Axes

              Baa    -0.5262   -70.618   -25.198   -23.555 -0.0000 -0.0000  1.0000
     1 C(13)  Bbb     0.2631    35.309    12.599    11.778 -0.4931  0.8700  0.0000
              Bcc     0.2631    35.309    12.599    11.778  0.8700  0.4931  0.0000
 
              Baa    -0.1611   -21.618    -7.714    -7.211 -0.5877  0.8091  0.0000
     2 C(13)  Bbb    -0.1611   -21.618    -7.714    -7.211  0.8091  0.5877 -0.0000
              Bcc     0.3222    43.237    15.428    14.422  0.0000  0.0000  1.0000
 
              Baa    -0.0381   -20.338    -7.257    -6.784  1.0000 -0.0000 -0.0000
     3 H(1)   Bbb    -0.0212   -11.322    -4.040    -3.777  0.0000  0.8399  0.5427
              Bcc     0.0593    31.660    11.297    10.561 -0.0000 -0.5427  0.8399
 
              Baa    -0.0381   -20.338    -7.257    -6.784 -0.5000  0.8660 -0.0000
     4 H(1)   Bbb    -0.0212   -11.322    -4.040    -3.777  0.7274  0.4200 -0.5427
              Bcc     0.0593    31.660    11.297    10.561  0.4700  0.2714  0.8399
 
              Baa    -0.0381   -20.338    -7.257    -6.784  0.5000  0.8660  0.0000
     5 H(1)   Bbb    -0.0212   -11.322    -4.040    -3.777  0.7274 -0.4200  0.5427
              Bcc     0.0593    31.660    11.297    10.561 -0.4700  0.2714  0.8399
 

 ---------------------------------------------------------------------------------

 Unable to Open any file for archive entry.
 1\1\GINC-NODE01\FOpt\UB3LYP\def2SVPP\C2H3(4)\XUHJ\19-Dec-2023\0\\#N op
 t freq B3LYP/def2SVPP symm=veryloose em=gd3bj scale=0.961 press=0.987\
 \[C]C_1\\0,4\C,0.9413049472,-0.0577604422,0.0551790529\C,2.433180071,-
 0.0577506301,0.0551733876\H,2.8276922872,0.9756338321,-0.0303735898\H,
 2.8277000581,-0.6485235272,-0.7969903199\H,2.8277058805,-0.5003544108,
 0.992879578\\Version=ES64L-G16RevC.01\State=4-A1\HF=-77.7122276\S2=3.7
 53133\S2-1=0.\S2A=3.750003\RMSD=3.376e-09\RMSF=7.475e-05\Dipole=0.4623
 325,0.000003,-0.0000018\Quadrupole=-0.0991366,0.0495683,0.0495683,-0.0
 00001,0.0000006,0.\PG=C03V [C3(C1C1),3SGV(H1)]\\@
 The archive entry for this job was punched.


 THE PROBLEM WITH THE LADDER OF SUCCESS IS YOU CAN'T
 CLIMB IT WHILE YOU'RE TWIDDLING YOUR THUMBS.
 Job cpu time:       0 days  0 hours  1 minutes  6.5 seconds.
 Elapsed time:       0 days  0 hours  0 minutes  5.3 seconds.
 File lengths (MBytes):  RWF=      6 Int=      0 D2E=      0 Chk=      1 Scr=      1
 Normal termination of Gaussian 16 at Tue Dec 19 12:49:23 2023.
 Link1:  Proceeding to internal job step number  2.
 --------------------------------------------------------------------
 #N Geom=AllCheck Guess=TCheck SCRF=Check GenChk UB3LYP/def2SVPP Freq
 --------------------------------------------------------------------
 1/10=4,29=7,30=1,38=1,40=1,113=-987000,114=961000/1,3;
 2/12=2,17=2,18=2,40=1/2;
 3/5=43,7=202,11=2,14=-4,25=1,30=1,70=2,71=2,74=-5,116=2,124=41,140=1/1,2,3;
 4/5=101/1;
 5/5=2,38=6,98=1/2;
 8/6=4,10=90,11=11/1;
 11/6=1,8=1,9=11,15=111,16=1/1,2,10;
 10/6=1/2;
 6/7=2,8=2,9=2,10=2,28=1/1;
 7/8=1,10=1,25=1/1,2,3,16;
 1/10=4,30=1/3;
 99//99;
 Structure from the checkpoint file:  "/home/software/g16tmp/Gau-335801.chk"
 ------
 [C]C_1
 ------
 Charge =  0 Multiplicity = 4
 Redundant internal coordinates found in file.  (old form).
 C,0,0.9413049472,-0.0577604422,0.0551790529
 C,0,2.433180071,-0.0577506301,0.0551733876
 H,0,2.8276922872,0.9756338321,-0.0303735898
 H,0,2.8277000581,-0.6485235272,-0.7969903199
 H,0,2.8277058805,-0.5003544108,0.992879578
 Recover connectivity data from disk.

 GradGradGradGradGradGradGradGradGradGradGradGradGradGradGradGradGradGrad
 Berny optimization.
 Initialization pass.
                           ----------------------------
                           !    Initial Parameters    !
                           ! (Angstroms and Degrees)  !
 --------------------------                            --------------------------
 ! Name  Definition              Value          Derivative Info.                !
 --------------------------------------------------------------------------------
 ! R1    R(1,2)                  1.4919         calculate D2E/DX2 analytically  !
 ! R2    R(2,3)                  1.1094         calculate D2E/DX2 analytically  !
 ! R3    R(2,4)                  1.1094         calculate D2E/DX2 analytically  !
 ! R4    R(2,5)                  1.1094         calculate D2E/DX2 analytically  !
 ! A1    A(1,2,3)              110.8305         calculate D2E/DX2 analytically  !
 ! A2    A(1,2,4)              110.8305         calculate D2E/DX2 analytically  !
 ! A3    A(1,2,5)              110.8305         calculate D2E/DX2 analytically  !
 ! A4    A(3,2,4)              108.0784         calculate D2E/DX2 analytically  !
 ! A5    A(3,2,5)              108.0784         calculate D2E/DX2 analytically  !
 ! A6    A(4,2,5)              108.0784         calculate D2E/DX2 analytically  !
 ! D1    D(3,2,5,4)           -116.7401         calculate D2E/DX2 analytically  !
 --------------------------------------------------------------------------------
 Trust Radius=3.00D-01 FncErr=1.00D-07 GrdErr=1.00D-07 EigMax=2.50D+02 EigMin=1.00D-04
 Number of steps in this run=      2 maximum allowed number of steps=      2.
 GradGradGradGradGradGradGradGradGradGradGradGradGradGradGradGradGradGrad

                          Input orientation:                          
 ---------------------------------------------------------------------
 Center     Atomic      Atomic             Coordinates (Angstroms)
 Number     Number       Type             X           Y           Z
 ---------------------------------------------------------------------
      1          6           0        0.941305   -0.057760    0.055179
      2          6           0        2.433180   -0.057751    0.055173
      3          1           0        2.827692    0.975634   -0.030374
      4          1           0        2.827700   -0.648524   -0.796990
      5          1           0        2.827706   -0.500354    0.992880
 ---------------------------------------------------------------------
                    Distance matrix (angstroms):
                    1          2          3          4          5
     1  C    0.000000
     2  C    1.491875   0.000000
     3  H    2.152598   1.109433   0.000000
     4  H    2.152598   1.109433   1.795992   0.000000
     5  H    2.152598   1.109433   1.795992   1.795992   0.000000
 Stoichiometry    C2H3(4)
 Framework group  C3V[C3(CC),3SGV(H)]
 Deg. of freedom     3
 Full point group                 C3V     NOp   6
 Largest Abelian subgroup         CS      NOp   2
 Largest concise Abelian subgroup CS      NOp   2
                         Standard orientation:                         
 ---------------------------------------------------------------------
 Center     Atomic      Atomic             Coordinates (Angstroms)
 Number     Number       Type             X           Y           Z
 ---------------------------------------------------------------------
      1          6           0        0.000000   -0.000000    0.974029
      2          6           0        0.000000    0.000000   -0.517846
      3          1           0       -0.000000    1.036917   -0.912366
      4          1           0       -0.897996   -0.518458   -0.912366
      5          1           0        0.897996   -0.518458   -0.912366
 ---------------------------------------------------------------------
 Rotational constants (GHZ):         155.4615939          27.3591264          27.3591264
 Standard basis: def2SVPP (5D, 7F)
 There are    26 symmetry adapted cartesian basis functions of A'  symmetry.
 There are    10 symmetry adapted cartesian basis functions of A"  symmetry.
 There are    24 symmetry adapted basis functions of A'  symmetry.
 There are    10 symmetry adapted basis functions of A"  symmetry.
    34 basis functions,    62 primitive gaussians,    36 cartesian basis functions
     9 alpha electrons        6 beta electrons
       nuclear repulsion energy        26.6639602084 Hartrees.
 NAtoms=    5 NActive=    5 NUniq=    3 SFac= 2.78D+00 NAtFMM=   60 NAOKFM=F Big=F
 Integral buffers will be    131072 words long.
 Raffenetti 2 integral format.
 Two-electron integral symmetry is turned on.
 Nuclear repulsion after empirical dispersion term =       26.6607210549 Hartrees.
 One-electron integrals computed using PRISM.
   6 Symmetry operations used in ECPInt.
 ECPInt:  NShTT=     171 NPrTT=     701 LenC2=     172 LenP2D=     656.
 LDataN:  DoStor=T MaxTD1= 4 Len=   56
 NBasis=    34 RedAO= T EigKep=  6.32D-03  NBF=    24    10
 NBsUse=    34 1.00D-06 EigRej= -1.00D+00 NBFU=    24    10
 Initial guess from the checkpoint file:  "/home/software/g16tmp/Gau-335801.chk"
 B after Tr=     0.000000    0.000000   -0.000000
         Rot=    1.000000   -0.000000    0.000000    0.000000 Ang=   0.00 deg.
 Initial guess orbital symmetries:
 Alpha Orbitals:
       Occupied  (A1) (A1) (A1) (A1) (E) (E) (A1) (E) (E)
       Virtual   (A1) (E) (E) (A1) (A1) (A1) (E) (E) (E) (E) (A1)
                 (A1) (E) (E) (A1) (E) (E) (E) (E) (A1) (E) (E)
                 (E) (E) (A1)
 Beta  Orbitals:
       Occupied  (A1) (A1) (A1) (A1) (E) (E)
       Virtual   (A1) (E) (E) (A1) (E) (E) (A1) (A1) (E) (E) (A1)
                 (E) (E) (A1) (E) (E) (A1) (A1) (E) (E) (E) (E)
                 (A1) (E) (E) (E) (E) (A1)
 Initial guess <Sx>= 0.0000 <Sy>= 0.0000 <Sz>= 1.5000 <S**2>= 3.7531 S= 1.5008
 Keep R1 and R2 ints in memory in symmetry-blocked form, NReq=14011640.
 Requested convergence on RMS density matrix=1.00D-08 within 128 cycles.
 Requested convergence on MAX density matrix=1.00D-06.
 Requested convergence on             energy=1.00D-06.
 No special actions if energy rises.
 Skip diagonalization as Alpha Fock matrix is already diagonal.
 SCF Done:  E(UB3LYP) =  -77.7122276205     A.U. after    1 cycles
            NFock=  1  Conv=0.16D-09     -V/T= 2.0099
 <Sx>= 0.0000 <Sy>= 0.0000 <Sz>= 1.5000 <S**2>= 3.7531 S= 1.5008
 <L.S>=  0.00000000000    
 Annihilation of the first spin contaminant:
 S**2 before annihilation     3.7531,   after     3.7500
 DoSCS=F DFT=T ScalE2(SS,OS)=  1.000000  1.000000
 Range of M.O.s used for correlation:     1    34
 NBasis=    34 NAE=     9 NBE=     6 NFC=     0 NFV=     0
 NROrb=     34 NOA=     9 NOB=     6 NVA=    25 NVB=    28
   6 Symmetry operations used in ECPInt.
 ECPInt:  NShTT=     171 NPrTT=     701 LenC2=     172 LenP2D=     656.
 LDataN:  DoStor=T MaxTD1= 5 Len=  102
 Symmetrizing basis deriv contribution to polar:
 IMax=3 JMax=2 DiffMx= 0.00D+00
 G2DrvN: will do     6 centers at a time, making    1 passes.
 Calling FoFCou, ICntrl=  3107 FMM=F I1Cent=   0 AccDes= 0.00D+00.
 End of G2Drv F.D. properties file   721 does not exist.
 End of G2Drv F.D. properties file   722 does not exist.
 End of G2Drv F.D. properties file   788 does not exist.
          IDoAtm=11111
          Differentiating once with respect to electric field.
                with respect to dipole field.
          Differentiating once with respect to nuclear coordinates.
 Keep R1 and R2 ints in memory in symmetry-blocked form, NReq=13960130.
          There are    12 degrees of freedom in the 1st order CPHF.  IDoFFX=4 NUNeed=    12.
     12 vectors produced by pass  0 Test12= 3.28D-15 8.33D-09 XBig12= 3.32D+01 3.27D+00.
 AX will form    12 AO Fock derivatives at one time.
     12 vectors produced by pass  1 Test12= 3.28D-15 8.33D-09 XBig12= 2.81D+00 6.50D-01.
     12 vectors produced by pass  2 Test12= 3.28D-15 8.33D-09 XBig12= 7.51D-02 8.27D-02.
     12 vectors produced by pass  3 Test12= 3.28D-15 8.33D-09 XBig12= 2.47D-03 1.87D-02.
     12 vectors produced by pass  4 Test12= 3.28D-15 8.33D-09 XBig12= 8.90D-06 9.77D-04.
     12 vectors produced by pass  5 Test12= 3.28D-15 8.33D-09 XBig12= 2.59D-08 5.04D-05.
      5 vectors produced by pass  6 Test12= 3.28D-15 8.33D-09 XBig12= 3.93D-11 1.37D-06.
      2 vectors produced by pass  7 Test12= 3.28D-15 8.33D-09 XBig12= 5.87D-14 6.58D-08.
 InvSVY:  IOpt=1 It=  1 EMax= 1.78D-15
 Solved reduced A of dimension    79 with    12 vectors.
 Isotropic polarizability for W=    0.000000       18.61 Bohr**3.
 End of Minotr F.D. properties file   721 does not exist.
 End of Minotr F.D. properties file   722 does not exist.
 End of Minotr F.D. properties file   788 does not exist.

 **********************************************************************

            Population analysis using the SCF Density.

 **********************************************************************

 Orbital symmetries:
 Alpha Orbitals:
       Occupied  (A1) (A1) (A1) (A1) (E) (E) (A1) (E) (E)
       Virtual   (A1) (E) (E) (A1) (A1) (A1) (E) (E) (E) (E) (A1)
                 (A1) (E) (E) (A1) (E) (E) (E) (E) (A1) (E) (E)
                 (E) (E) (A1)
 Beta  Orbitals:
       Occupied  (A1) (A1) (A1) (A1) (E) (E)
       Virtual   (A1) (E) (E) (A1) (E) (E) (A1) (A1) (E) (E) (A1)
                 (E) (E) (A1) (E) (E) (A1) (A1) (E) (E) (E) (E)
                 (A1) (E) (E) (E) (E) (A1)
 The electronic state is 4-A1.
 Alpha  occ. eigenvalues --  -10.23425 -10.21772  -0.76329  -0.56111  -0.43853
 Alpha  occ. eigenvalues --   -0.43853  -0.35847  -0.21957  -0.21957
 Alpha virt. eigenvalues --    0.06754   0.12284   0.12284   0.22361   0.38943
 Alpha virt. eigenvalues --    0.43491   0.46155   0.46155   0.51231   0.51231
 Alpha virt. eigenvalues --    0.62219   0.66239   0.67051   0.67051   0.84794
 Alpha virt. eigenvalues --    1.41550   1.41550   1.64031   1.64031   1.84401
 Alpha virt. eigenvalues --    2.02402   2.02402   2.21150   2.21150   2.51634
  Beta  occ. eigenvalues --  -10.21550 -10.18999  -0.72846  -0.47539  -0.42044
  Beta  occ. eigenvalues --   -0.42044
  Beta virt. eigenvalues --   -0.14682  -0.02001  -0.02001   0.07354   0.13075
  Beta virt. eigenvalues --    0.13075   0.26303   0.45602   0.48762   0.48762
  Beta virt. eigenvalues --    0.49338   0.59188   0.59188   0.65614   0.67657
  Beta virt. eigenvalues --    0.67657   0.68415   0.86020   1.47758   1.47758
  Beta virt. eigenvalues --    1.78879   1.78879   1.91588   2.06565   2.06565
  Beta virt. eigenvalues --    2.27007   2.27007   2.58836
          Condensed to atoms (all electrons):
               1          2          3          4          5
     1  C    5.878412   0.345486  -0.031868  -0.031868  -0.031868
     2  C    0.345486   4.801792   0.371411   0.371411   0.371411
     3  H   -0.031868   0.371411   0.584930  -0.027204  -0.027204
     4  H   -0.031868   0.371411  -0.027204   0.584930  -0.027204
     5  H   -0.031868   0.371411  -0.027204  -0.027204   0.584930
          Atomic-Atomic Spin Densities.
               1          2          3          4          5
     1  C    3.038268  -0.121516  -0.029532  -0.029532  -0.029532
     2  C   -0.121516   0.088854   0.007189   0.007189   0.007189
     3  H   -0.029532   0.007189   0.106588  -0.011633  -0.011633
     4  H   -0.029532   0.007189  -0.011633   0.106588  -0.011633
     5  H   -0.029532   0.007189  -0.011633  -0.011633   0.106588
 Mulliken charges and spin densities:
               1          2
     1  C   -0.128296   2.828157
     2  C   -0.261511  -0.011094
     3  H    0.129936   0.060979
     4  H    0.129936   0.060979
     5  H    0.129936   0.060979
 Sum of Mulliken charges =   0.00000   3.00000
 Mulliken charges and spin densities with hydrogens summed into heavy atoms:
               1          2
     1  C   -0.128296   2.828157
     2  C    0.128296   0.171843
 APT charges:
               1
     1  C   -0.158610
     2  C    0.171695
     3  H   -0.004361
     4  H   -0.004362
     5  H   -0.004362
 Sum of APT charges =   0.00000
 APT charges with hydrogens summed into heavy atoms:
               1
     1  C   -0.158610
     2  C    0.158611
 Electronic spatial extent (au):  <R**2>=             76.4425
 Charge=              0.0000 electrons
 Dipole moment (field-independent basis, Debye):
    X=             -0.0000    Y=             -0.0000    Z=             -1.1751  Tot=              1.1751
 Quadrupole moment (field-independent basis, Debye-Ang):
   XX=            -13.3533   YY=            -13.3533   ZZ=            -13.5533
   XY=             -0.0000   XZ=              0.0000   YZ=              0.0000
 Traceless Quadrupole moment (field-independent basis, Debye-Ang):
   XX=              0.0667   YY=              0.0667   ZZ=             -0.1333
   XY=             -0.0000   XZ=              0.0000   YZ=              0.0000
 Octapole moment (field-independent basis, Debye-Ang**2):
  XXX=             -0.0000  YYY=              0.5560  ZZZ=             -3.1555  XYY=              0.0000
  XXY=             -0.5560  XXZ=             -2.1033  XZZ=             -0.0000  YZZ=             -0.0000
  YYZ=             -2.1033  XYZ=              0.0000
 Hexadecapole moment (field-independent basis, Debye-Ang**3):
 XXXX=            -21.2944 YYYY=            -21.2944 ZZZZ=            -67.7114 XXXY=              0.0000
 XXXZ=             -0.0000 YYYX=              0.0000 YYYZ=             -0.5203 ZZZX=              0.0000
 ZZZY=             -0.0000 XXYY=             -7.0981 XXZZ=            -15.3015 YYZZ=            -15.3015
 XXYZ=              0.5203 YYXZ=             -0.0000 ZZXY=              0.0000
 N-N= 2.666072105490D+01 E-N=-2.329091933626D+02  KE= 7.695187960175D+01
 Symmetry A'   KE= 7.374768203946D+01
 Symmetry A"   KE= 3.204197562297D+00
 Symmetry A'   SP= 2.000000000000D+00
 Symmetry A"   SP= 1.000000000000D+00
  Exact polarizability:      15.865       0.000      15.865       0.000       0.000      24.089
 Approx polarizability:      19.264      -0.000      19.264       0.000      -0.000      29.334
                          Isotropic Fermi Contact Couplings
        Atom                 a.u.       MegaHertz       Gauss      10(-4) cm-1
     1  C(13)              1.42704     534.75499     190.81388     178.37506
     2  C(13)              0.07525      28.19702      10.06140       9.40551
     3  H(1)               0.02758      41.08715      14.66092      13.70520
     4  H(1)               0.02758      41.08715      14.66092      13.70520
     5  H(1)               0.02758      41.08715      14.66092      13.70520
 --------------------------------------------------------
       Center         ----  Spin Dipole Couplings  ----
                      3XX-RR        3YY-RR        3ZZ-RR
 --------------------------------------------------------
     1   Atom        0.263125      0.263125     -0.526249
     2   Atom       -0.161102     -0.161102      0.322203
     3   Atom       -0.038118      0.002508      0.035610
     4   Atom       -0.007649     -0.027962      0.035610
     5   Atom       -0.007649     -0.027962      0.035610
 --------------------------------------------------------
                        XY            XZ            YZ
 --------------------------------------------------------
     1   Atom       -0.000000      0.000000      0.000000
     2   Atom        0.000000      0.000000     -0.000000
     3   Atom       -0.000000      0.000000     -0.036722
     4   Atom        0.017592      0.031802      0.018361
     5   Atom       -0.017592     -0.031802      0.018361
 --------------------------------------------------------


 ---------------------------------------------------------------------------------
              Anisotropic Spin Dipole Couplings in Principal Axis System
 ---------------------------------------------------------------------------------

       Atom             a.u.   MegaHertz   Gauss  10(-4) cm-1        Axes

              Baa    -0.5262   -70.618   -25.198   -23.555 -0.0000 -0.0000  1.0000
     1 C(13)  Bbb     0.2631    35.309    12.599    11.778  0.0056  1.0000  0.0000
              Bcc     0.2631    35.309    12.599    11.778  1.0000 -0.0056  0.0000
 
              Baa    -0.1611   -21.618    -7.714    -7.211  0.9904 -0.1385 -0.0000
     2 C(13)  Bbb    -0.1611   -21.618    -7.714    -7.211  0.1385  0.9904  0.0000
              Bcc     0.3222    43.237    15.428    14.422  0.0000 -0.0000  1.0000
 
              Baa    -0.0381   -20.338    -7.257    -6.784  1.0000  0.0000 -0.0000
     3 H(1)   Bbb    -0.0212   -11.322    -4.040    -3.777 -0.0000  0.8399  0.5427
              Bcc     0.0593    31.660    11.297    10.561  0.0000 -0.5427  0.8399
 
              Baa    -0.0381   -20.338    -7.257    -6.784 -0.5000  0.8660  0.0000
     4 H(1)   Bbb    -0.0212   -11.322    -4.040    -3.777  0.7274  0.4200 -0.5427
              Bcc     0.0593    31.660    11.297    10.561  0.4700  0.2714  0.8399
 
              Baa    -0.0381   -20.338    -7.257    -6.784  0.5000  0.8660  0.0000
     5 H(1)   Bbb    -0.0212   -11.322    -4.040    -3.777  0.7274 -0.4200  0.5427
              Bcc     0.0593    31.660    11.297    10.561 -0.4700  0.2714  0.8399
 

 ---------------------------------------------------------------------------------

   6 Symmetry operations used in ECPInt.
 ECPInt:  NShTT=     171 NPrTT=     701 LenC2=     172 LenP2D=     656.
 LDataN:  DoStor=T MaxTD1= 6 Len=  172
 Calling FoFJK, ICntrl=    100127 FMM=F ISym2X=1 I1Cent= 0 IOpClX= 1 NMat=1 NMatS=1 NMatT=0.
 Full mass-weighted force constant matrix:
 Low frequencies ---  -34.8534  -20.0318  -20.0243   -0.0005    0.0013    0.0034
 Low frequencies --- 1012.3191 1012.3192 1033.5301
 Diagonal vibrational polarizability:
        0.3538387       0.3538437       0.6818942
 Harmonic frequencies (cm**-1), IR intensities (KM/Mole), Raman scattering
 activities (A**4/AMU), depolarization ratios for plane and unpolarized
 incident light, reduced masses (AMU), force constants (mDyne/A),
 and normal coordinates:
                      1                      2                      3
                      E                      E                     A1
 Frequencies --   1012.3190              1012.3191              1033.5301
 Red. masses --      1.2786                 1.2786                 8.7434
 Frc consts  --      0.7720                 0.7720                 5.5027
 IR Inten    --     10.6379                10.6377                22.1730
  Atom  AN      X      Y      Z        X      Y      Z        X      Y      Z
     1   6    -0.00   0.08   0.00    -0.08  -0.00  -0.00    -0.00  -0.00   0.63
     2   6     0.00  -0.14  -0.00     0.14   0.00   0.00     0.00   0.00  -0.55
     3   1    -0.00   0.15   0.73    -0.30  -0.00  -0.00    -0.00   0.05  -0.31
     4   1    -0.07   0.26  -0.37    -0.18   0.07   0.64    -0.04  -0.02  -0.31
     5   1     0.07   0.26  -0.37    -0.18  -0.07  -0.64     0.04  -0.02  -0.31
                      4                      5                      6
                     A1                      E                      E
 Frequencies --   1358.7245              1432.1664              1432.1666
 Red. masses --      1.1360                 1.0472                 1.0472
 Frc consts  --      1.2357                 1.2656                 1.2656
 IR Inten    --      4.1254                 3.5370                 3.5373
  Atom  AN      X      Y      Z        X      Y      Z        X      Y      Z
     1   6    -0.00   0.00  -0.03    -0.01   0.00   0.00    -0.00  -0.01  -0.00
     2   6     0.00  -0.00  -0.10    -0.06   0.00  -0.00    -0.00  -0.06   0.00
     3   1    -0.00   0.22   0.53     0.72   0.00   0.00     0.00  -0.16  -0.34
     4   1    -0.19  -0.11   0.53     0.06  -0.38   0.30    -0.38   0.50   0.17
     5   1     0.19  -0.11   0.53     0.06   0.38  -0.30     0.38   0.50   0.17
                      7                      8                      9
                     A1                      E                      E
 Frequencies --   2950.8134              3030.3522              3030.3524
 Red. masses --      1.0294                 1.1045                 1.1045
 Frc consts  --      5.2808                 5.9756                 5.9756
 IR Inten    --     20.4308                 9.5828                 9.5821
  Atom  AN      X      Y      Z        X      Y      Z        X      Y      Z
     1   6    -0.00   0.00   0.00     0.00  -0.00   0.00     0.00   0.00  -0.00
     2   6    -0.00   0.00   0.04    -0.09   0.00  -0.00    -0.00  -0.09   0.00
     3   1    -0.00   0.54  -0.19    -0.02  -0.00   0.00    -0.00   0.76  -0.28
     4   1    -0.47  -0.27  -0.19     0.57   0.34   0.24     0.34   0.18   0.14
     5   1     0.47  -0.27  -0.19     0.57  -0.34  -0.24    -0.34   0.18   0.14

 -------------------
 - Thermochemistry -
 -------------------
 Temperature   298.150 Kelvin.  Pressure   0.98700 Atm.
 Thermochemistry will use frequencies scaled by 0.9610.
 Atom     1 has atomic number  6 and mass  12.00000
 Atom     2 has atomic number  6 and mass  12.00000
 Atom     3 has atomic number  1 and mass   1.00783
 Atom     4 has atomic number  1 and mass   1.00783
 Atom     5 has atomic number  1 and mass   1.00783
 Molecular mass:    27.02348 amu.
 Principal axes and moments of inertia in atomic units:
                           1         2         3
     Eigenvalues --    11.60892  65.96487  65.96487
           X            0.00000   0.81373   0.58124
           Y            0.00000  -0.58124   0.81373
           Z            1.00000   0.00000  -0.00000
 This molecule is a prolate symmetric top.
 Rotational symmetry number  3.
 Rotational temperatures (Kelvin)      7.46098     1.31303     1.31303
 Rotational constants (GHZ):         155.46159    27.35913    27.35913
 Zero-point vibrational energy      93651.6 (Joules/Mol)
                                   22.38327 (Kcal/Mol)
 Vibrational temperatures:   1399.70  1399.70  1429.03  1878.66  1980.21
          (Kelvin)           1980.21  4079.99  4189.96  4189.96
 
 Zero-point correction=                           0.035670 (Hartree/Particle)
 Thermal correction to Energy=                    0.038650
 Thermal correction to Enthalpy=                  0.039594
 Thermal correction to Gibbs Free Energy=         0.013295
 Sum of electronic and zero-point Energies=            -77.676558
 Sum of electronic and thermal Energies=               -77.673578
 Sum of electronic and thermal Enthalpies=             -77.672634
 Sum of electronic and thermal Free Energies=          -77.698933
 
                     E (Thermal)             CV                S
                      KCal/Mol        Cal/Mol-Kelvin    Cal/Mol-Kelvin
 Total                   24.253              7.538             55.350
 Electronic               0.000              0.000              2.755
 Translational            0.889              2.981             35.844
 Rotational               0.889              2.981             16.380
 Vibrational             22.476              1.576              0.371
                       Q            Log10(Q)             Ln(Q)
 Total Bot       0.766857D-06         -6.115286        -14.080965
 Total V=0       0.195780D+11         10.291768         23.697671
 Vib (Bot)       0.404085D-16        -16.393527        -37.747491
 Vib (V=0)       0.103164D+01          0.013526          0.031146
 Electronic      0.400000D+01          0.602060          1.386294
 Translational   0.559434D+07          6.747749         15.537265
 Rotational      0.848072D+03          2.928433          6.742966
 ***** Axes restored to original set *****
 -------------------------------------------------------------------
 Center     Atomic                   Forces (Hartrees/Bohr)
 Number     Number              X              Y              Z
 -------------------------------------------------------------------
      1        6          -0.000190394   -0.000000001    0.000000001
      2        6          -0.000059014   -0.000000000    0.000000000
      3        1           0.000083135    0.000087911   -0.000007278
      4        1           0.000083136   -0.000050257   -0.000072494
      5        1           0.000083136   -0.000037652    0.000079771
 -------------------------------------------------------------------
 Cartesian Forces:  Max     0.000190394 RMS     0.000074749
 FormGI is forming the generalized inverse of G from B-inverse, IUseBI=4.

 GradGradGradGradGradGradGradGradGradGradGradGradGradGradGradGradGradGrad
 Berny optimization.
 Internal  Forces:  Max     0.000190394 RMS     0.000086285
 Search for a local minimum.
 Step number   1 out of a maximum of    2
 All quantities printed in internal units (Hartrees-Bohrs-Radians)
 Second derivative matrix not updated -- analytic derivatives used.
 The second derivative matrix:
                          R1        R2        R3        R4        A1
           R1           0.27367
           R2           0.01452   0.31984
           R3           0.01452   0.00243   0.31984
           R4           0.01452   0.00243   0.00243   0.31984
           A1           0.01307   0.00411  -0.00390  -0.00580   0.11047
           A2           0.01307  -0.00390   0.00411  -0.00580  -0.04190
           A3           0.01307  -0.00390  -0.00390   0.00220  -0.04256
           A4          -0.00335   0.00474   0.00474  -0.00805   0.00675
           A5          -0.01888   0.00806  -0.00893   0.00896  -0.01411
           A6          -0.01888  -0.00893   0.00806   0.00896  -0.01992
           D1           0.02396  -0.00513  -0.00513  -0.00002   0.01009
                          A2        A3        A4        A5        A6
           A2           0.11047
           A3          -0.04256   0.10917
           A4           0.00675   0.00237   0.04875
           A5          -0.01992  -0.01380  -0.03269   0.10536
           A6          -0.01411  -0.01380  -0.03269  -0.02250   0.10536
           D1           0.01009   0.01184  -0.02277  -0.00540  -0.00540
                          D1
           D1           0.03255
 ITU=  0
     Eigenvalues ---    0.05503   0.12182   0.12538   0.15263   0.15291
     Eigenvalues ---    0.27383   0.31915   0.31935   0.33521
 Angle between quadratic step and forces=  35.88 degrees.
 Linear search not attempted -- first point.
 Iteration  1 RMS(Cart)=  0.00033251 RMS(Int)=  0.00000011
 Iteration  2 RMS(Cart)=  0.00000007 RMS(Int)=  0.00000007
 ClnCor:  largest displacement from symmetrization is 4.94D-08 for atom     5.
 Variable       Old X    -DE/DX   Delta X   Delta X   Delta X     New X
                                 (Linear)    (Quad)   (Total)
    R1        2.81924   0.00019   0.00000   0.00049   0.00049   2.81973
    R2        2.09652   0.00011   0.00000   0.00034   0.00034   2.09687
    R3        2.09652   0.00011   0.00000   0.00034   0.00034   2.09687
    R4        2.09652   0.00011   0.00000   0.00034   0.00034   2.09687
    A1        1.93436   0.00003   0.00000   0.00029   0.00029   1.93465
    A2        1.93436   0.00003   0.00000   0.00029   0.00029   1.93465
    A3        1.93436   0.00003   0.00000   0.00029   0.00029   1.93465
    A4        1.88632  -0.00001   0.00000  -0.00031  -0.00031   1.88602
    A5        1.88632  -0.00004   0.00000  -0.00031  -0.00031   1.88602
    A6        1.88632  -0.00004   0.00000  -0.00031  -0.00031   1.88602
    D1       -2.03750   0.00005   0.00000   0.00069   0.00069  -2.03681
         Item               Value     Threshold  Converged?
 Maximum Force            0.000190     0.000450     YES
 RMS     Force            0.000086     0.000300     YES
 Maximum Displacement     0.000812     0.001800     YES
 RMS     Displacement     0.000333     0.001200     YES
 Predicted change in Energy=-1.468896D-07
 Optimization completed.
    -- Stationary point found.
                           ----------------------------
                           !   Optimized Parameters   !
                           ! (Angstroms and Degrees)  !
 --------------------------                            --------------------------
 ! Name  Definition              Value          Derivative Info.                !
 --------------------------------------------------------------------------------
 ! R1    R(1,2)                  1.4919         -DE/DX =    0.0002              !
 ! R2    R(2,3)                  1.1094         -DE/DX =    0.0001              !
 ! R3    R(2,4)                  1.1094         -DE/DX =    0.0001              !
 ! R4    R(2,5)                  1.1094         -DE/DX =    0.0001              !
 ! A1    A(1,2,3)              110.8305         -DE/DX =    0.0                 !
 ! A2    A(1,2,4)              110.8305         -DE/DX =    0.0                 !
 ! A3    A(1,2,5)              110.8305         -DE/DX =    0.0                 !
 ! A4    A(3,2,4)              108.0784         -DE/DX =    0.0                 !
 ! A5    A(3,2,5)              108.0784         -DE/DX =    0.0                 !
 ! A6    A(4,2,5)              108.0784         -DE/DX =    0.0                 !
 ! D1    D(3,2,5,4)           -116.7401         -DE/DX =    0.0001              !
 --------------------------------------------------------------------------------
 GradGradGradGradGradGradGradGradGradGradGradGradGradGradGradGradGradGrad


 ----------------------------------------------------------------------

 Electric dipole moment (input orientation):
 (Debye = 10**-18 statcoulomb cm , SI units = C m)
                  (au)            (Debye)         (10**-30 SI)
   Tot        0.462333D+00      0.117513D+01      0.391982D+01
   x          0.462333D+00      0.117513D+01      0.391982D+01
   y          0.000000D+00      0.000000D+00      0.000000D+00
   z          0.000000D+00      0.000000D+00      0.000000D+00

 Dipole polarizability, Alpha (input orientation).
 (esu units = cm**3 , SI units = C**2 m**2 J**-1)
 Alpha(0;0):
               (au)            (10**-24 esu)      (10**-40 SI)
   iso        0.186062D+02      0.275715D+01      0.306774D+01
   aniso      0.822370D+01      0.121863D+01      0.135590D+01
   xx         0.240886D+02      0.356957D+01      0.397168D+01
   yx        -0.507838D-04     -0.752538D-05     -0.837312D-05
   yy         0.158649D+02      0.235093D+01      0.261577D+01
   zx        -0.225475D-04     -0.334119D-05     -0.371757D-05
   zy         0.000000D+00      0.000000D+00      0.000000D+00
   zz         0.158650D+02      0.235095D+01      0.261578D+01

 ----------------------------------------------------------------------

 Dipole orientation:
     6         -0.10427933         -0.10916380          1.77880744
     6         -0.10427933         -0.10916380          4.59804283
     1          0.05736535          1.84364597          5.34357633
     1          1.50608120         -1.22555709          5.34357633
     1         -1.87628455         -0.94558029          5.34357633

 Electric dipole moment (dipole orientation):
 (Debye = 10**-18 statcoulomb cm , SI units = C m)
                  (au)            (Debye)         (10**-30 SI)
   Tot        0.462333D+00      0.117513D+01      0.391982D+01
   x          0.000000D+00      0.000000D+00      0.000000D+00
   y          0.000000D+00      0.000000D+00      0.000000D+00
   z          0.462333D+00      0.117513D+01      0.391982D+01

 Dipole polarizability, Alpha (dipole orientation).
 (esu units = cm**3 , SI units = C**2 m**2 J**-1)
 Alpha(0;0):
               (au)            (10**-24 esu)      (10**-40 SI)
   iso        0.186062D+02      0.275715D+01      0.306774D+01
   aniso      0.822370D+01      0.121863D+01      0.135590D+01
   xx         0.158650D+02      0.235095D+01      0.261578D+01
   yx         0.000000D+00      0.000000D+00      0.000000D+00
   yy         0.158649D+02      0.235093D+01      0.261577D+01
   zx         0.000000D+00      0.000000D+00      0.000000D+00
   zy        -0.104872D-03     -0.155404D-04     -0.172910D-04
   zz         0.240886D+02      0.356957D+01      0.397168D+01

 ----------------------------------------------------------------------
 Unable to Open any file for archive entry.
 1\1\GINC-NODE01\Freq\UB3LYP\def2SVPP\C2H3(4)\XUHJ\19-Dec-2023\0\\#N Ge
 om=AllCheck Guess=TCheck SCRF=Check GenChk UB3LYP/def2SVPP Freq\\[C]C_
 1\\0,4\C,0.9413049472,-0.0577604422,0.0551790529\C,2.433180071,-0.0577
 506301,0.0551733876\H,2.8276922872,0.9756338321,-0.0303735898\H,2.8277
 000581,-0.6485235272,-0.7969903199\H,2.8277058805,-0.5003544108,0.9928
 79578\\Version=ES64L-G16RevC.01\State=4-A1\HF=-77.7122276\S2=3.753133\
 S2-1=0.\S2A=3.750003\RMSD=1.644e-10\RMSF=7.475e-05\ZeroPoint=0.03567\T
 hermal=0.0386496\ETot=-77.6735781\HTot=-77.6726339\GTot=-77.6989326\Di
 pole=0.4623325,0.000003,-0.0000018\DipoleDeriv=-0.3572749,0.0000049,0.
 0000006,-0.0000009,-0.0592781,0.0000001,0.000001,0.0000001,-0.0592763,
 0.4898368,-0.0000069,-0.000001,-0.0000057,0.01262,0.0000007,-0.0000011
 ,0.0000007,0.0126288,-0.044185,-0.0883015,0.0073102,-0.0619125,-0.0542
 327,0.0116337,0.0051257,0.0116337,0.0853354,-0.0441871,0.0504814,0.072
 8186,0.0353963,0.0403698,-0.0662519,0.0510584,-0.0662525,-0.0092674,-0
 .0441879,0.0378205,-0.0801283,0.026519,0.0605197,0.0546178,-0.0561837,
 0.0546183,-0.0294164\Polar=24.0886286,-0.0000508,15.8648861,-0.0000225
 ,0.0000079,15.8649805\Quadrupole=-0.0991366,0.0495683,0.0495683,-0.000
 001,0.0000006,0.\PG=C03V [C3(C1C1),3SGV(H1)]\NImag=0\\0.27367479,0.000
 00167,0.02868953,-0.00000094,0.00000001,0.02868965,-0.19641245,-0.0000
 0104,0.00000059,0.38845487,-0.00000149,-0.04036851,0.,-0.00000035,0.51
 553102,0.00000063,0.,-0.04036863,0.00000044,-0.00000007,0.51553015,-0.
 02575385,-0.02453873,0.00203146,-0.06401317,-0.08154289,0.00675035,0.0
 8050832,-0.00571655,0.00629682,-0.00040073,-0.07398095,-0.26908113,0.0
 1845351,0.08734735,0.28612290,0.00047332,-0.00040067,0.00148898,0.0061
 2435,0.01845354,-0.04769485,-0.00723092,-0.02019999,0.04378446,-0.0257
 5412,0.01402827,0.02023542,-0.06401427,0.04661813,0.06724431,0.0046293
 2,-0.00453748,-0.00829091,0.08050963,0.00326790,0.00303817,0.00228243,
 0.04229492,-0.11902149,-0.10508883,0.00928498,-0.01352885,-0.02236249,
 -0.04993638,0.12186146,0.00471406,0.00228231,0.00474783,0.06100845,-0.
 10508890,-0.19775314,-0.00176670,0.00220062,0.00307030,-0.07203108,0.1
 1503467,0.20804459,-0.02575429,0.01050986,-0.02226654,-0.06401514,0.03
 492662,-0.07399573,0.00462939,-0.00311239,0.00892416,0.00462947,-0.004
 91144,0.00807522,0.08051061,0.00244826,0.00234400,-0.00188170,0.031687
 67,-0.08705981,0.08663536,0.00944925,-0.00980979,0.02450962,-0.0061725
 4,0.00765071,-0.01442863,-0.03741264,0.08687488,-0.00518705,-0.0018816
 4,0.00544218,-0.06713386,0.08663540,-0.22971395,0.00021582,-0.00005341
 ,-0.00064883,-0.00715781,0.01013428,-0.01810941,0.07926296,-0.09483468
 ,0.24303019\\0.00019039,0.,0.,0.00005901,0.,0.,-0.00008314,-0.00008791
 ,0.00000728,-0.00008314,0.00005026,0.00007249,-0.00008314,0.00003765,-
 0.00007977\\\@
 The archive entry for this job was punched.


 FROM AN ANONYMOUS WRITER, ON PERSPECTIVE:

 MAN, DESPITE HIS ARTISTIC PRETENSIONS, HIS SOPHISTICATION AND MANY 
 ACCOMPLISHMENTS, OWES THE FACT OF HIS EXISTENCE TO A SIX-INCH LAYER OF 
 TOPSOIL AND THE FACT THAT IT RAINS.
 Job cpu time:       0 days  0 hours  0 minutes 43.4 seconds.
 Elapsed time:       0 days  0 hours  0 minutes  3.3 seconds.
 File lengths (MBytes):  RWF=      6 Int=      0 D2E=      0 Chk=      1 Scr=      1
 Normal termination of Gaussian 16 at Tue Dec 19 12:49:26 2023.
