%nprocshared=8
%mem=10400MB
#N opt freq B3LYP/def2SVPP symm=veryloose em=gd3bj scale=0.961 press=0.987

c1ccc2cc3cc4c(ccc5c6ccccc6ccc45)cc3cc2c1_2

0 1
C          7.06340       -0.48850       -0.61650
C          6.93860        0.57670        0.27010
C          5.67200        1.00560        0.66990
C          4.51370        0.37380        0.18750
C          3.23120        0.79260        0.57950
C          2.07170        0.16010        0.09650
C          0.78310        0.57630        0.48660
C         -0.41130       -0.03800        0.01990
C         -0.24250       -1.11470       -0.87780
C         -1.36030       -1.77140       -1.38230
C         -2.64620       -1.38030       -1.01310
C         -2.88860       -0.31490       -0.12220
C         -4.22590        0.08590        0.25680
C         -5.41870       -0.52930       -0.21060
C         -6.69130       -0.10450        0.18600
C         -6.82100        0.95530        1.06830
C         -5.67840        1.58580        1.55020
C         -4.39590        1.16460        1.15620
C         -3.27870        1.82140        1.66080
C         -1.99270        1.42980        1.29120
C         -1.74900        0.36400        0.39990
C          1.03960       -1.53690       -1.27260
C          2.20010       -0.91310       -0.79690
C          3.48120       -1.33610       -1.19230
C          4.64040       -0.70600       -0.71130
C          5.92190       -1.12620       -1.10450
H          8.04870       -0.82420       -0.92920
H          7.82610        1.07480        0.65130
H          5.59500        1.83990        1.36350
H          3.13400        1.62590        1.27300
H          0.72490        1.41090        1.17980
H         -1.25030       -2.60330       -2.07510
H         -3.46480       -1.94380       -1.45100
H         -5.38120       -1.36450       -0.90370
H         -7.57520       -0.60650       -0.19860
H         -7.80520        1.29190        1.38170
H         -5.79650        2.41690        2.24270
H         -3.38990        2.65310        2.35350
H         -1.17540        1.99430        1.72990
H          1.13660       -2.37070       -1.96660
H          3.57730       -2.16950       -1.88580
H          6.03990       -1.95700       -1.79660

