 Entering Gaussian System, Link 0=g16
 Initial command:
 /home/software/g16/l1.exe "/home/software/g16/scr/Gau-131435.inp" -scrdir="/home/software/g16/scr/"
 Default is to use a total of   8 processors:
                                8 via shared-memory
                                1 via Linda
 Entering Link 1 = /home/software/g16/l1.exe PID=    131436.
  
 Copyright (c) 1988-2019, Gaussian, Inc.  All Rights Reserved.
  
 This is part of the Gaussian(R) 16 program.  It is based on
 the Gaussian(R) 09 system (copyright 2009, Gaussian, Inc.),
 the Gaussian(R) 03 system (copyright 2003, Gaussian, Inc.),
 the Gaussian(R) 98 system (copyright 1998, Gaussian, Inc.),
 the Gaussian(R) 94 system (copyright 1995, Gaussian, Inc.),
 the Gaussian 92(TM) system (copyright 1992, Gaussian, Inc.),
 the Gaussian 90(TM) system (copyright 1990, Gaussian, Inc.),
 the Gaussian 88(TM) system (copyright 1988, Gaussian, Inc.),
 the Gaussian 86(TM) system (copyright 1986, Carnegie Mellon
 University), and the Gaussian 82(TM) system (copyright 1983,
 Carnegie Mellon University). Gaussian is a federally registered
 trademark of Gaussian, Inc.
  
 This software contains proprietary and confidential information,
 including trade secrets, belonging to Gaussian, Inc.
  
 This software is provided under written license and may be
 used, copied, transmitted, or stored only in accord with that
 written license.
  
 The following legend is applicable only to US Government
 contracts under FAR:
  
                    RESTRICTED RIGHTS LEGEND
  
 Use, reproduction and disclosure by the US Government is
 subject to restrictions as set forth in subparagraphs (a)
 and (c) of the Commercial Computer Software - Restricted
 Rights clause in FAR 52.227-19.
  
 Gaussian, Inc.
 340 Quinnipiac St., Bldg. 40, Wallingford CT 06492
  
  
 ---------------------------------------------------------------
 Warning -- This program may not be used in any manner that
 competes with the business of Gaussian, Inc. or will provide
 assistance to any competitor of Gaussian, Inc.  The licensee
 of this program is prohibited from giving any competitor of
 Gaussian, Inc. access to this program.  By using this program,
 the user acknowledges that Gaussian, Inc. is engaged in the
 business of creating and licensing software in the field of
 computational chemistry and represents and warrants to the
 licensee that it is not a competitor of Gaussian, Inc. and that
 it will not use this program in any manner prohibited above.
 ---------------------------------------------------------------
  

 Cite this work as:
 Gaussian 16, Revision C.01,
 M. J. Frisch, G. W. Trucks, H. B. Schlegel, G. E. Scuseria, 
 M. A. Robb, J. R. Cheeseman, G. Scalmani, V. Barone, 
 G. A. Petersson, H. Nakatsuji, X. Li, M. Caricato, A. V. Marenich, 
 J. Bloino, B. G. Janesko, R. Gomperts, B. Mennucci, H. P. Hratchian, 
 J. V. Ortiz, A. F. Izmaylov, J. L. Sonnenberg, D. Williams-Young, 
 F. Ding, F. Lipparini, F. Egidi, J. Goings, B. Peng, A. Petrone, 
 T. Henderson, D. Ranasinghe, V. G. Zakrzewski, J. Gao, N. Rega, 
 G. Zheng, W. Liang, M. Hada, M. Ehara, K. Toyota, R. Fukuda, 
 J. Hasegawa, M. Ishida, T. Nakajima, Y. Honda, O. Kitao, H. Nakai, 
 T. Vreven, K. Throssell, J. A. Montgomery, Jr., J. E. Peralta, 
 F. Ogliaro, M. J. Bearpark, J. J. Heyd, E. N. Brothers, K. N. Kudin, 
 V. N. Staroverov, T. A. Keith, R. Kobayashi, J. Normand, 
 K. Raghavachari, A. P. Rendell, J. C. Burant, S. S. Iyengar, 
 J. Tomasi, M. Cossi, J. M. Millam, M. Klene, C. Adamo, R. Cammi, 
 J. W. Ochterski, R. L. Martin, K. Morokuma, O. Farkas, 
 J. B. Foresman, and D. J. Fox, Gaussian, Inc., Wallingford CT, 2019.
 
 ******************************************
 Gaussian 16:  ES64L-G16RevC.01  3-Jul-2019
                 3-Feb-2024 
 ******************************************
 %nprocshared=16
 Will use up to   16 processors via shared memory.
 %mem=2240MB
 ----------------------------------------------------------------------
 #N opt freq B3LYP/def2SVPP symm=veryloose em=gd3bj scale=0.961 press=0
 .987
 ----------------------------------------------------------------------
 1/18=20,19=15,26=3,38=1,113=-987000,114=961000/1,3;
 2/9=110,12=2,17=2,18=2,40=1/2;
 3/5=43,7=202,11=2,25=1,30=1,71=1,74=-5,124=41/1,2,3;
 4//1;
 5/5=2,38=5/2;
 6/7=2,8=2,9=2,10=2,28=1/1;
 7//1,2,3,16;
 1/18=20,19=15,26=3/3(2);
 2/9=110/2;
 99//99;
 2/9=110/2;
 3/5=43,7=202,11=2,25=1,30=1,71=1,74=-5,124=41/1,2,3;
 4/5=5,16=3,69=1/1;
 5/5=2,38=5/2;
 7//1,2,3,16;
 1/18=20,19=15,26=3/3(-5);
 2/9=110/2;
 6/7=2,8=2,9=2,10=2,19=2,28=1/1;
 99/9=1/99;
 ---------------
 c1ccc2c(c1)C2_1
 ---------------
 Symbolic Z-matrix:
 Charge =  0 Multiplicity = 1
 C                    -0.50515  -1.0584    0.03431 
 C                    -1.47357  -0.05758   0.05221 
 C                    -1.04942   1.24743  -0.01423 
 C                     0.30984   1.37906  -0.09637 
 C                     1.41364   0.53275  -0.12676 
 C                     0.87838  -0.72501  -0.04883 
 C                     1.49102   2.06856  -0.19666 
 H                    -0.79985  -2.10447   0.08459 
 H                    -2.52819  -0.30432   0.11576 
 H                    -1.72202   2.09285  -0.00784 
 H                     1.5812   -1.56156  -0.0515 
 H                     1.82327   2.4961   -1.13643 
 H                     1.9332    2.57303   0.6558 
 

 GradGradGradGradGradGradGradGradGradGradGradGradGradGradGradGradGradGrad
 Berny optimization.
 Initialization pass.
                           ----------------------------
                           !    Initial Parameters    !
                           ! (Angstroms and Degrees)  !
 --------------------------                            --------------------------
 ! Name  Definition              Value          Derivative Info.                !
 --------------------------------------------------------------------------------
 ! R1    R(1,2)                  1.3928         estimate D2E/DX2                !
 ! R2    R(1,6)                  1.4256         estimate D2E/DX2                !
 ! R3    R(1,8)                  1.088          estimate D2E/DX2                !
 ! R4    R(2,3)                  1.3738         estimate D2E/DX2                !
 ! R5    R(2,9)                  1.085          estimate D2E/DX2                !
 ! R6    R(3,4)                  1.3681         estimate D2E/DX2                !
 ! R7    R(3,10)                 1.0804         estimate D2E/DX2                !
 ! R8    R(4,5)                  1.3912         estimate D2E/DX2                !
 ! R9    R(4,7)                  1.3714         estimate D2E/DX2                !
 ! R10   R(5,6)                  1.3691         estimate D2E/DX2                !
 ! R11   R(5,7)                  1.5393         estimate D2E/DX2                !
 ! R12   R(6,11)                 1.0926         estimate D2E/DX2                !
 ! R13   R(7,12)                 1.0846         estimate D2E/DX2                !
 ! R14   R(7,13)                 1.0848         estimate D2E/DX2                !
 ! A1    A(2,1,6)              120.4987         estimate D2E/DX2                !
 ! A2    A(2,1,8)              120.1312         estimate D2E/DX2                !
 ! A3    A(6,1,8)              119.3701         estimate D2E/DX2                !
 ! A4    A(1,2,3)              117.8592         estimate D2E/DX2                !
 ! A5    A(1,2,9)              120.8779         estimate D2E/DX2                !
 ! A6    A(3,2,9)              121.2629         estimate D2E/DX2                !
 ! A7    A(2,3,4)              113.6436         estimate D2E/DX2                !
 ! A8    A(2,3,10)             123.4252         estimate D2E/DX2                !
 ! A9    A(4,3,10)             122.9304         estimate D2E/DX2                !
 ! A10   A(3,4,5)              136.9752         estimate D2E/DX2                !
 ! A11   A(3,4,7)              155.302          estimate D2E/DX2                !
 ! A12   A(4,5,6)              104.3244         estimate D2E/DX2                !
 ! A13   A(6,5,7)              159.8474         estimate D2E/DX2                !
 ! A14   A(1,6,5)              126.6969         estimate D2E/DX2                !
 ! A15   A(1,6,11)             116.4471         estimate D2E/DX2                !
 ! A16   A(5,6,11)             116.8559         estimate D2E/DX2                !
 ! A17   A(4,7,12)             121.6959         estimate D2E/DX2                !
 ! A18   A(4,7,13)             121.8331         estimate D2E/DX2                !
 ! A19   A(5,7,12)             116.6175         estimate D2E/DX2                !
 ! A20   A(5,7,13)             116.6661         estimate D2E/DX2                !
 ! A21   A(12,7,13)            111.8838         estimate D2E/DX2                !
 ! D1    D(6,1,2,3)              0.0792         estimate D2E/DX2                !
 ! D2    D(6,1,2,9)           -179.9744         estimate D2E/DX2                !
 ! D3    D(8,1,2,3)           -179.9656         estimate D2E/DX2                !
 ! D4    D(8,1,2,9)             -0.0192         estimate D2E/DX2                !
 ! D5    D(2,1,6,5)             -0.4642         estimate D2E/DX2                !
 ! D6    D(2,1,6,11)           179.607          estimate D2E/DX2                !
 ! D7    D(8,1,6,5)            179.5802         estimate D2E/DX2                !
 ! D8    D(8,1,6,11)            -0.3486         estimate D2E/DX2                !
 ! D9    D(1,2,3,4)              0.2452         estimate D2E/DX2                !
 ! D10   D(1,2,3,10)           179.9372         estimate D2E/DX2                !
 ! D11   D(9,2,3,4)           -179.701          estimate D2E/DX2                !
 ! D12   D(9,2,3,10)            -0.0089         estimate D2E/DX2                !
 ! D13   D(2,3,4,5)             -0.3335         estimate D2E/DX2                !
 ! D14   D(2,3,4,7)            178.968          estimate D2E/DX2                !
 ! D15   D(10,3,4,5)           179.9727         estimate D2E/DX2                !
 ! D16   D(10,3,4,7)            -0.7258         estimate D2E/DX2                !
 ! D17   D(3,4,5,6)              0.0153         estimate D2E/DX2                !
 ! D18   D(3,4,7,12)           -76.4926         estimate D2E/DX2                !
 ! D19   D(3,4,7,13)            77.5327         estimate D2E/DX2                !
 ! D20   D(4,5,6,1)              0.3884         estimate D2E/DX2                !
 ! D21   D(4,5,6,11)          -179.6831         estimate D2E/DX2                !
 ! D22   D(7,5,6,1)             -0.4031         estimate D2E/DX2                !
 ! D23   D(7,5,6,11)           179.5254         estimate D2E/DX2                !
 ! D24   D(6,5,7,12)          -111.0443         estimate D2E/DX2                !
 ! D25   D(6,5,7,13)           113.0487         estimate D2E/DX2                !
 --------------------------------------------------------------------------------
 Trust Radius=3.00D-01 FncErr=1.00D-07 GrdErr=1.00D-06 EigMax=2.50D+02 EigMin=1.00D-04
 Number of steps in this run=     70 maximum allowed number of steps=    100.
 GradGradGradGradGradGradGradGradGradGradGradGradGradGradGradGradGradGrad

                          Input orientation:                          
 ---------------------------------------------------------------------
 Center     Atomic      Atomic             Coordinates (Angstroms)
 Number     Number       Type             X           Y           Z
 ---------------------------------------------------------------------
      1          6           0       -0.505150   -1.058400    0.034310
      2          6           0       -1.473570   -0.057580    0.052210
      3          6           0       -1.049420    1.247430   -0.014230
      4          6           0        0.309840    1.379060   -0.096370
      5          6           0        1.413640    0.532750   -0.126760
      6          6           0        0.878380   -0.725010   -0.048830
      7          6           0        1.491020    2.068560   -0.196660
      8          1           0       -0.799850   -2.104470    0.084590
      9          1           0       -2.528190   -0.304320    0.115760
     10          1           0       -1.722020    2.092850   -0.007840
     11          1           0        1.581200   -1.561560   -0.051500
     12          1           0        1.823270    2.496100   -1.136430
     13          1           0        1.933200    2.573030    0.655800
 ---------------------------------------------------------------------
                    Distance matrix (angstroms):
                    1          2          3          4          5
     1  C    0.000000
     2  C    1.392766   0.000000
     3  C    2.369692   1.373815   0.000000
     4  C    2.573421   2.294899   1.368087   0.000000
     5  C    2.497890   2.952372   2.567118   1.391236   0.000000
     6  C    1.425558   2.446904   2.758284   2.180048   1.369137
     7  C    3.716977   3.656665   2.676074   1.371370   1.539346
     8  H    1.087952   2.155158   3.362631   3.660484   3.449512
     9  H    2.160547   1.084962   2.147460   3.306536   4.037019
    10  H    3.378302   2.165567   1.080355   2.155409   3.504343
    11  H    2.147880   3.406513   3.848633   3.204000   2.102350
    12  H    4.407566   4.336277   3.327290   2.149412   2.245434
    13  H    4.418041   4.346322   3.331993   2.150958   2.246127
                    6          7          8          9         10
     6  C    0.000000
     7  C    2.863776   0.000000
     8  H    2.176503   4.768791   0.000000
     9  H    3.436392   4.677843   2.495731   0.000000
    10  H    3.834592   3.218675   4.298423   2.532116   0.000000
    11  H    1.092602   3.634140   2.445950   4.300664   4.926244
    12  H    3.528632   1.084596   5.434785   5.324053   3.742380
    13  H    3.533584   1.084759   5.447463   5.336177   3.745881
                   11         12         13
    11  H    0.000000
    12  H    4.207170   0.000000
    13  H    4.209396   1.797245   0.000000
 Stoichiometry    C7H6
 Framework group  C1[X(C7H6)]
 Deg. of freedom    33
 Full point group                 C1      NOp   1
 Largest Abelian subgroup         C1      NOp   1
 Largest concise Abelian subgroup C1      NOp   1
                         Standard orientation:                         
 ---------------------------------------------------------------------
 Center     Atomic      Atomic             Coordinates (Angstroms)
 Number     Number       Type             X           Y           Z
 ---------------------------------------------------------------------
      1          6           0       -1.555111    0.634020    0.003517
      2          6           0       -1.528677   -0.758495    0.001874
      3          6           0       -0.302137   -1.377305   -0.004648
      4          6           0        0.752234   -0.505546   -0.003363
      5          6           0        0.931205    0.874130   -0.002623
      6          6           0       -0.340768    1.380708   -0.003157
      7          6           0        2.077544   -0.153214    0.004923
      8          1           0       -2.506239    1.162188    0.009192
      9          1           0       -2.449109   -1.332887    0.006508
     10          1           0       -0.176957   -2.450383   -0.005426
     11          1           0       -0.438664    2.468904   -0.008108
     12          1           0        2.675875   -0.207057    0.907945
     13          1           0        2.689354   -0.206560   -0.889250
 ---------------------------------------------------------------------
 Rotational constants (GHZ):           5.8145891           3.2127418           2.0973378
 Standard basis: def2SVPP (5D, 7F)
 There are   117 symmetry adapted cartesian basis functions of A   symmetry.
 There are   110 symmetry adapted basis functions of A   symmetry.
   110 basis functions,   199 primitive gaussians,   117 cartesian basis functions
    24 alpha electrons       24 beta electrons
       nuclear repulsion energy       259.4692498610 Hartrees.
 NAtoms=   13 NActive=   13 NUniq=   13 SFac= 1.00D+00 NAtFMM=   60 NAOKFM=F Big=F
 Integral buffers will be    131072 words long.
 Raffenetti 2 integral format.
 Two-electron integral symmetry is turned on.
 Nuclear repulsion after empirical dispersion term =      259.4477953784 Hartrees.
 One-electron integrals computed using PRISM.
   1 Symmetry operations used in ECPInt.
 ECPInt:  NShTT=    1485 NPrTT=    5995 LenC2=    1483 LenP2D=    4923.
 LDataN:  DoStor=T MaxTD1= 4 Len=   56
 NBasis=   110 RedAO= T EigKep=  4.46D-04  NBF=   110
 NBsUse=   110 1.00D-06 EigRej= -1.00D+00 NBFU=   110
 ExpMin= 1.22D-01 ExpMax= 1.24D+03 ExpMxC= 1.86D+02 IAcc=3 IRadAn=         5 AccDes= 0.00D+00
 Harris functional with IExCor=  402 and IRadAn=       5 diagonalized for initial guess.
 HarFok:  IExCor=  402 AccDes= 0.00D+00 IRadAn=         5 IDoV= 1 UseB2=F ITyADJ=14
 ICtDFT=  3500011 ScaDFX=  1.000000  1.000000  1.000000  1.000000
 FoFCou: FMM=F IPFlag=           0 FMFlag=      100000 FMFlg1=           0
         NFxFlg=           0 DoJE=T BraDBF=F KetDBF=T FulRan=T
         wScrn=  0.000000 ICntrl=       500 IOpCl=  0 I1Cent=   200000004 NGrid=           0
         NMat0=    1 NMatS0=      1 NMatT0=    0 NMatD0=    1 NMtDS0=    0 NMtDT0=    0
 Petite list used in FoFCou.
 Requested convergence on RMS density matrix=1.00D-08 within 128 cycles.
 Requested convergence on MAX density matrix=1.00D-06.
 Requested convergence on             energy=1.00D-06.
 No special actions if energy rises.
 Integral accuracy reduced to 1.0D-05 until final iterations.
 Initial convergence to 1.0D-05 achieved.  Increase integral accuracy.
 SCF Done:  E(RB3LYP) =  -270.035930740     A.U. after   14 cycles
            NFock= 14  Conv=0.52D-08     -V/T= 2.0095

 **********************************************************************

            Population analysis using the SCF Density.

 **********************************************************************

 Orbital symmetries:
       Occupied  (A) (A) (A) (A) (A) (A) (A) (A) (A) (A) (A) (A)
                 (A) (A) (A) (A) (A) (A) (A) (A) (A) (A) (A) (A)
       Virtual   (A) (A) (A) (A) (A) (A) (A) (A) (A) (A) (A) (A)
                 (A) (A) (A) (A) (A) (A) (A) (A) (A) (A) (A) (A)
                 (A) (A) (A) (A) (A) (A) (A) (A) (A) (A) (A) (A)
                 (A) (A) (A) (A) (A) (A) (A) (A) (A) (A) (A) (A)
                 (A) (A) (A) (A) (A) (A) (A) (A) (A) (A) (A) (A)
                 (A) (A) (A) (A) (A) (A) (A) (A) (A) (A) (A) (A)
                 (A) (A) (A) (A) (A) (A) (A) (A) (A) (A) (A) (A)
                 (A) (A)
 The electronic state is 1-A.
 Alpha  occ. eigenvalues --  -10.22648 -10.20358 -10.19466 -10.19132 -10.18964
 Alpha  occ. eigenvalues --  -10.18943 -10.18658  -0.91236  -0.81374  -0.74136
 Alpha  occ. eigenvalues --   -0.67093  -0.59333  -0.57490  -0.51550  -0.47402
 Alpha  occ. eigenvalues --   -0.47287  -0.44518  -0.41305  -0.39352  -0.35926
 Alpha  occ. eigenvalues --   -0.34831  -0.26803  -0.26486  -0.23995
 Alpha virt. eigenvalues --   -0.01190  -0.00937   0.05055   0.07359   0.09796
 Alpha virt. eigenvalues --    0.10961   0.13424   0.13539   0.15388   0.15463
 Alpha virt. eigenvalues --    0.24981   0.25324   0.28413   0.29345   0.30493
 Alpha virt. eigenvalues --    0.33832   0.38916   0.40298   0.44198   0.45907
 Alpha virt. eigenvalues --    0.46245   0.47149   0.50667   0.52862   0.53021
 Alpha virt. eigenvalues --    0.53528   0.54963   0.59562   0.60124   0.62935
 Alpha virt. eigenvalues --    0.65873   0.65894   0.67320   0.67667   0.68453
 Alpha virt. eigenvalues --    0.69034   0.72612   0.73265   0.73650   0.74480
 Alpha virt. eigenvalues --    0.76300   0.79091   0.83331   0.84224   0.86579
 Alpha virt. eigenvalues --    0.90609   0.98734   1.10956   1.14297   1.20969
 Alpha virt. eigenvalues --    1.25852   1.35460   1.39387   1.44077   1.45885
 Alpha virt. eigenvalues --    1.50879   1.60180   1.62697   1.76070   1.79534
 Alpha virt. eigenvalues --    1.83187   1.84219   1.87854   1.93722   1.95346
 Alpha virt. eigenvalues --    1.98963   2.02496   2.09082   2.12063   2.16388
 Alpha virt. eigenvalues --    2.19227   2.28784   2.30051   2.35057   2.36756
 Alpha virt. eigenvalues --    2.39741   2.45317   2.54164   2.59437   2.62914
 Alpha virt. eigenvalues --    2.66419   2.70994   2.87118   3.04027   3.23104
 Alpha virt. eigenvalues --    3.27026
          Condensed to atoms (all electrons):
               1          2          3          4          5          6
     1  C    5.065584   0.342218   0.041733  -0.158774   0.046558   0.388887
     2  C    0.342218   5.096348   0.256587   0.102497  -0.097535   0.073995
     3  C    0.041733   0.256587   5.252109   0.373071  -0.010795  -0.096447
     4  C   -0.158774   0.102497   0.373071   5.251382   0.159511   0.012562
     5  C    0.046558  -0.097535  -0.010795   0.159511   5.282397   0.394475
     6  C    0.388887   0.073995  -0.096447   0.012562   0.394475   5.116227
     7  C    0.016174   0.019243  -0.110942   0.199462   0.366870  -0.052179
     8  H    0.423531  -0.078109   0.015669  -0.000958   0.013180  -0.065818
     9  H   -0.071797   0.430042  -0.078521   0.013052  -0.001016   0.013023
    10  H    0.013195  -0.082905   0.442834  -0.074181   0.010370  -0.001287
    11  H   -0.076774   0.009793   0.002047   0.023434  -0.076442   0.374922
    12  H   -0.000155  -0.000065  -0.001596   0.004160  -0.011535   0.001513
    13  H   -0.000186  -0.000098  -0.001403   0.004950  -0.011762   0.001576
               7          8          9         10         11         12
     1  C    0.016174   0.423531  -0.071797   0.013195  -0.076774  -0.000155
     2  C    0.019243  -0.078109   0.430042  -0.082905   0.009793  -0.000065
     3  C   -0.110942   0.015669  -0.078521   0.442834   0.002047  -0.001596
     4  C    0.199462  -0.000958   0.013052  -0.074181   0.023434   0.004160
     5  C    0.366870   0.013180  -0.001016   0.010370  -0.076442  -0.011535
     6  C   -0.052179  -0.065818   0.013023  -0.001287   0.374922   0.001513
     7  C    5.045550  -0.000379  -0.000577  -0.013487  -0.004859   0.318496
     8  H   -0.000379   0.658567  -0.011233  -0.000215  -0.009212   0.000006
     9  H   -0.000577  -0.011233   0.661951  -0.010600  -0.000226   0.000007
    10  H   -0.013487  -0.000215  -0.010600   0.666440   0.000108   0.000652
    11  H   -0.004859  -0.009212  -0.000226   0.000108   0.705881   0.000310
    12  H    0.318496   0.000006   0.000007   0.000652   0.000310   0.625485
    13  H    0.317419   0.000006   0.000007   0.000663   0.000322  -0.044051
              13
     1  C   -0.000186
     2  C   -0.000098
     3  C   -0.001403
     4  C    0.004950
     5  C   -0.011762
     6  C    0.001576
     7  C    0.317419
     8  H    0.000006
     9  H    0.000007
    10  H    0.000663
    11  H    0.000322
    12  H   -0.044051
    13  H    0.626050
 Mulliken charges:
               1
     1  C   -0.030194
     2  C   -0.072012
     3  C   -0.084346
     4  C    0.089832
     5  C   -0.064277
     6  C   -0.161448
     7  C   -0.100792
     8  H    0.054966
     9  H    0.055886
    10  H    0.048413
    11  H    0.050695
    12  H    0.106773
    13  H    0.106506
 Sum of Mulliken charges =  -0.00000
 Mulliken charges with hydrogens summed into heavy atoms:
               1
     1  C    0.024771
     2  C   -0.016126
     3  C   -0.035933
     4  C    0.089832
     5  C   -0.064277
     6  C   -0.110753
     7  C    0.112487
 Electronic spatial extent (au):  <R**2>=            599.7448
 Charge=              0.0000 electrons
 Dipole moment (field-independent basis, Debye):
    X=              0.0537    Y=             -0.9748    Z=              0.0129  Tot=              0.9763
 Quadrupole moment (field-independent basis, Debye-Ang):
   XX=            -36.7822   YY=            -39.9091   ZZ=            -42.9445
   XY=             -0.9465   XZ=             -0.0046   YZ=             -0.0030
 Traceless Quadrupole moment (field-independent basis, Debye-Ang):
   XX=              3.0964   YY=             -0.0305   ZZ=             -3.0659
   XY=             -0.9465   XZ=             -0.0046   YZ=             -0.0030
 Octapole moment (field-independent basis, Debye-Ang**2):
  XXX=             -1.4999  YYY=             -5.7019  ZZZ=              0.0505  XYY=             -4.8566
  XXY=             -3.0076  XXZ=              0.0768  XZZ=              3.7942  YZZ=             -0.6975
  YYZ=             -0.0125  XYZ=             -0.0014
 Hexadecapole moment (field-independent basis, Debye-Ang**3):
 XXXX=           -459.9937 YYYY=           -278.4419 ZZZZ=            -53.0643 XXXY=             -5.1746
 XXXZ=             -0.1638 YYYX=             -2.0783 YYYZ=             -0.0189 ZZZX=              0.0673
 ZZZY=             -0.0128 XXYY=           -130.5883 XXZZ=            -90.5675 YYZZ=            -61.9879
 XXYZ=              0.0080 YYXZ=             -0.0170 ZZXY=             -0.7613
 N-N= 2.594477953784D+02 E-N=-1.143296582295D+03  KE= 2.674837545755D+02
   1 Symmetry operations used in ECPInt.
 ECPInt:  NShTT=    1485 NPrTT=    5995 LenC2=    1483 LenP2D=    4923.
 LDataN:  DoStor=T MaxTD1= 5 Len=  102
 Calling FoFJK, ICntrl=      2127 FMM=F ISym2X=0 I1Cent= 0 IOpClX= 0 NMat=1 NMatS=1 NMatT=0.
 ***** Axes restored to original set *****
 -------------------------------------------------------------------
 Center     Atomic                   Forces (Hartrees/Bohr)
 Number     Number              X              Y              Z
 -------------------------------------------------------------------
      1        6           0.010130494    0.009670684   -0.000602706
      2        6          -0.004928901   -0.026968379    0.001198517
      3        6           0.013581025    0.016052081   -0.001621133
      4        6          -0.045896964    0.015052502    0.002350397
      5        6          -0.056402680    0.021897951    0.002385903
      6        6           0.024190408   -0.055255188    0.000459920
      7        6           0.059423575    0.015118825   -0.003807455
      8        1           0.001718560   -0.003657054    0.000173355
      9        1          -0.006259874   -0.002328582    0.000461582
     10        1          -0.005775629    0.007459549    0.000088580
     11        1          -0.000403086   -0.010586998    0.000243762
     12        1           0.004643844    0.006328720   -0.011914704
     13        1           0.005979227    0.007215889    0.010583982
 -------------------------------------------------------------------
 Cartesian Forces:  Max     0.059423575 RMS     0.019921681

 GradGradGradGradGradGradGradGradGradGradGradGradGradGradGradGradGradGrad
 Berny optimization.
 FormGI is forming the generalized inverse of G from B-inverse, IUseBI=4.
 Internal  Forces:  Max     0.053733427 RMS     0.014277252
 Search for a local minimum.
 Step number   1 out of a maximum of   70
 All quantities printed in internal units (Hartrees-Bohrs-Radians)
 Mixed Optimization -- RFO/linear search
 Second derivative matrix not updated -- first step.
 ITU=  0
     Eigenvalues ---    0.01262   0.01944   0.02075   0.02173   0.02308
     Eigenvalues ---    0.02402   0.02463   0.02476   0.05085   0.07719
     Eigenvalues ---    0.12593   0.13174   0.16000   0.16000   0.16000
     Eigenvalues ---    0.16000   0.22000   0.22635   0.24604   0.27648
     Eigenvalues ---    0.34514   0.35050   0.35401   0.35425   0.35445
     Eigenvalues ---    0.35951   0.38751   0.41090   0.45977   0.46806
     Eigenvalues ---    0.48473   0.50402   0.50872
 RFO step:  Lambda=-3.32276951D-02 EMin= 1.26248681D-02
 Linear search not attempted -- first point.
 Maximum step size (   0.300) exceeded in Quadratic search.
    -- Step size scaled by   0.952
 Iteration  1 RMS(Cart)=  0.05332853 RMS(Int)=  0.00173683
 Iteration  2 RMS(Cart)=  0.00284022 RMS(Int)=  0.00015915
 Iteration  3 RMS(Cart)=  0.00000313 RMS(Int)=  0.00015913
 Iteration  4 RMS(Cart)=  0.00000000 RMS(Int)=  0.00015913
 Variable       Old X    -DE/DX   Delta X   Delta X   Delta X     New X
                                 (Linear)    (Quad)   (Total)
    R1        2.63195   0.01089   0.00000   0.02108   0.02092   2.65287
    R2        2.69391  -0.01006   0.00000  -0.02194  -0.02183   2.67208
    R3        2.05593   0.00306   0.00000   0.00759   0.00759   2.06352
    R4        2.59613   0.03918   0.00000   0.07056   0.07028   2.66641
    R5        2.05028   0.00664   0.00000   0.01633   0.01633   2.06661
    R6        2.58531  -0.00044   0.00000  -0.00035  -0.00043   2.58487
    R7        2.04157   0.00943   0.00000   0.02287   0.02287   2.06444
    R8        2.62906   0.00517   0.00000   0.00734   0.00750   2.63655
    R9        2.59151   0.05373   0.00000   0.10026   0.10015   2.69166
   R10        2.58729   0.03398   0.00000   0.05848   0.05876   2.64605
   R11        2.90894   0.01097   0.00000   0.02736   0.02744   2.93639
   R12        2.06472   0.00785   0.00000   0.01974   0.01974   2.08446
   R13        2.04959   0.01424   0.00000   0.03497   0.03497   2.08456
   R14        2.04990   0.01411   0.00000   0.03467   0.03467   2.08457
    A1        2.10310   0.00532   0.00000   0.01961   0.01955   2.12265
    A2        2.09669   0.00006   0.00000   0.00358   0.00361   2.10029
    A3        2.08340  -0.00537   0.00000  -0.02319  -0.02316   2.06024
    A4        2.05703   0.00834   0.00000   0.03412   0.03366   2.09069
    A5        2.10972  -0.00503   0.00000  -0.02132  -0.02108   2.08863
    A6        2.11644  -0.00331   0.00000  -0.01281  -0.01257   2.10386
    A7        1.98346  -0.00357   0.00000  -0.01046  -0.01087   1.97259
    A8        2.15418   0.00191   0.00000   0.00585   0.00606   2.16023
    A9        2.14554   0.00166   0.00000   0.00462   0.00482   2.15037
   A10        2.39067  -0.01819   0.00000  -0.07048  -0.07039   2.32028
   A11        2.71053   0.02808   0.00000   0.08513   0.08514   2.79567
   A12        1.82080   0.03104   0.00000   0.11674   0.11718   1.93798
   A13        2.78986   0.04985   0.00000   0.15066   0.15095   2.94082
   A14        2.21128  -0.02294   0.00000  -0.08951  -0.08911   2.12217
   A15        2.03239   0.00412   0.00000   0.00854   0.00833   2.04072
   A16        2.03952   0.01882   0.00000   0.08098   0.08078   2.12030
   A17        2.12399   0.00141   0.00000   0.00271   0.00267   2.12666
   A18        2.12639   0.00133   0.00000   0.00277   0.00278   2.12917
   A19        2.03536   0.00228   0.00000   0.00560   0.00556   2.04091
   A20        2.03621   0.00243   0.00000   0.00595   0.00586   2.04207
   A21        1.95274  -0.00113   0.00000  -0.00276  -0.00278   1.94996
    D1        0.00138  -0.00005   0.00000  -0.00080  -0.00093   0.00046
    D2       -3.14115   0.00005   0.00000  -0.00040  -0.00055   3.14149
    D3       -3.14099  -0.00004   0.00000   0.00005  -0.00001  -3.14100
    D4       -0.00033   0.00007   0.00000   0.00044   0.00037   0.00003
    D5       -0.00810   0.00019   0.00000   0.00438   0.00433  -0.00378
    D6        3.13473   0.00013   0.00000   0.00259   0.00261   3.13734
    D7        3.13427   0.00017   0.00000   0.00353   0.00342   3.13769
    D8       -0.00608   0.00011   0.00000   0.00174   0.00171  -0.00438
    D9        0.00428  -0.00001   0.00000  -0.00214  -0.00230   0.00198
   D10        3.14050   0.00024   0.00000   0.00131   0.00122  -3.14147
   D11       -3.13637  -0.00012   0.00000  -0.00253  -0.00267  -3.13905
   D12       -0.00016   0.00014   0.00000   0.00092   0.00084   0.00069
   D13       -0.00582   0.00039   0.00000   0.00428   0.00422  -0.00160
   D14        3.12358   0.00043   0.00000   0.00377   0.00377   3.12735
   D15        3.14112   0.00014   0.00000   0.00084   0.00072  -3.14135
   D16       -0.01267   0.00018   0.00000   0.00033   0.00027  -0.01239
   D17        0.00027  -0.00037   0.00000  -0.00170  -0.00162  -0.00136
   D18       -1.33505  -0.00194   0.00000  -0.00239  -0.00234  -1.33739
   D19        1.35320   0.00209   0.00000   0.00426   0.00420   1.35740
   D20        0.00678   0.00007   0.00000  -0.00286  -0.00283   0.00395
   D21       -3.13606   0.00012   0.00000  -0.00110  -0.00109  -3.13715
   D22       -0.00703  -0.00029   0.00000  -0.00297  -0.00297  -0.01001
   D23        3.13331  -0.00025   0.00000  -0.00122  -0.00123   3.13208
   D24       -1.93809   0.00197   0.00000   0.00408   0.00404  -1.93405
   D25        1.97307  -0.00197   0.00000  -0.00563  -0.00562   1.96745
         Item               Value     Threshold  Converged?
 Maximum Force            0.053733     0.000450     NO 
 RMS     Force            0.014277     0.000300     NO 
 Maximum Displacement     0.149219     0.001800     NO 
 RMS     Displacement     0.052846     0.001200     NO 
 Predicted change in Energy=-1.807567D-02
 GradGradGradGradGradGradGradGradGradGradGradGradGradGradGradGradGradGrad

                          Input orientation:                          
 ---------------------------------------------------------------------
 Center     Atomic      Atomic             Coordinates (Angstroms)
 Number     Number       Type             X           Y           Z
 ---------------------------------------------------------------------
      1          6           0       -0.492869   -1.077305    0.035898
      2          6           0       -1.473657   -0.073061    0.053333
      3          6           0       -1.089772    1.282949   -0.015969
      4          6           0        0.265134    1.451792   -0.098141
      5          6           0        1.334677    0.556280   -0.125175
      6          6           0        0.884095   -0.767311   -0.049464
      7          6           0        1.531559    2.095859   -0.198943
      8          1           0       -0.779899   -2.129558    0.088528
      9          1           0       -2.529783   -0.348945    0.120058
     10          1           0       -1.797008    2.115535   -0.007156
     11          1           0        1.587973   -1.616580   -0.053239
     12          1           0        1.901061    2.507206   -1.153458
     13          1           0        2.010840    2.581580    0.667778
 ---------------------------------------------------------------------
                    Distance matrix (angstroms):
                    1          2          3          4          5
     1  C    0.000000
     2  C    1.403836   0.000000
     3  C    2.435114   1.411004   0.000000
     4  C    2.643647   2.317653   1.367857   0.000000
     5  C    2.456515   2.883517   2.533363   1.395204   0.000000
     6  C    1.414005   2.459988   2.846197   2.304322   1.400232
     7  C    3.771264   3.714724   2.750578   1.424365   1.553869
     8  H    1.091967   2.170650   3.428140   3.735373   3.425029
     9  H    2.164858   1.093602   2.180644   3.331940   3.976634
    10  H    3.449183   2.213180   1.092456   2.168240   3.500380
    11  H    2.151433   3.430362   3.947021   3.341680   2.188756
    12  H    4.471486   4.416201   3.426043   2.214463   2.276899
    13  H    4.478311   4.423390   3.430415   2.215974   2.277677
                    6          7          8          9         10
     6  C    0.000000
     7  C    2.939268   0.000000
     8  H    2.154909   4.824897   0.000000
     9  H    3.443592   4.751139   2.496732   0.000000
    10  H    3.937119   3.334146   4.366290   2.574258   0.000000
    11  H    1.103049   3.715725   2.426945   4.311942   5.038740
    12  H    3.602150   1.103103   5.498150   5.423266   3.891417
    13  H    3.605421   1.103105   5.506231   5.431871   3.895182
                   11         12         13
    11  H    0.000000
    12  H    4.279499   0.000000
    13  H    4.280564   1.826056   0.000000
 Stoichiometry    C7H6
 Framework group  C1[X(C7H6)]
 Deg. of freedom    33
 Full point group                 C1      NOp   1
 Largest Abelian subgroup         C1      NOp   1
 Largest concise Abelian subgroup C1      NOp   1
                         Standard orientation:                         
 ---------------------------------------------------------------------
 Center     Atomic      Atomic             Coordinates (Angstroms)
 Number     Number       Type             X           Y           Z
 ---------------------------------------------------------------------
      1          6           0       -1.578266    0.621441    0.001845
      2          6           0       -1.514735   -0.780957    0.001249
      3          6           0       -0.259702   -1.425790   -0.002407
      4          6           0        0.791427   -0.550484   -0.002549
      5          6           0        0.868271    0.842602   -0.001454
      6          6           0       -0.408953    1.416491   -0.001693
      7          6           0        2.130165   -0.064103    0.002850
      8          1           0       -2.544691    1.129775    0.005219
      9          1           0       -2.439482   -1.364740    0.004155
     10          1           0       -0.134549   -2.511053   -0.003191
     11          1           0       -0.548892    2.510622   -0.005115
     12          1           0        2.744632   -0.060934    0.918958
     13          1           0        2.753744   -0.058871   -0.907074
 ---------------------------------------------------------------------
 Rotational constants (GHZ):           5.6043597           3.1384786           2.0391236
 Standard basis: def2SVPP (5D, 7F)
 There are   117 symmetry adapted cartesian basis functions of A   symmetry.
 There are   110 symmetry adapted basis functions of A   symmetry.
   110 basis functions,   199 primitive gaussians,   117 cartesian basis functions
    24 alpha electrons       24 beta electrons
       nuclear repulsion energy       255.9538242127 Hartrees.
 NAtoms=   13 NActive=   13 NUniq=   13 SFac= 1.00D+00 NAtFMM=   60 NAOKFM=F Big=F
 Integral buffers will be    131072 words long.
 Raffenetti 2 integral format.
 Two-electron integral symmetry is turned on.
 Nuclear repulsion after empirical dispersion term =      255.9324454552 Hartrees.
 One-electron integrals computed using PRISM.
   1 Symmetry operations used in ECPInt.
 ECPInt:  NShTT=    1485 NPrTT=    5995 LenC2=    1483 LenP2D=    4906.
 LDataN:  DoStor=T MaxTD1= 4 Len=   56
 NBasis=   110 RedAO= T EigKep=  4.22D-04  NBF=   110
 NBsUse=   110 1.00D-06 EigRej= -1.00D+00 NBFU=   110
 Initial guess from the checkpoint file:  "/home/software/g16/scr/Gau-131436.chk"
 B after Tr=     0.000000    0.000000   -0.000000
         Rot=    0.999901    0.000071   -0.000069   -0.014070 Ang=   1.61 deg.
 ExpMin= 1.22D-01 ExpMax= 1.24D+03 ExpMxC= 1.86D+02 IAcc=3 IRadAn=         5 AccDes= 0.00D+00
 Harris functional with IExCor=  402 and IRadAn=       5 diagonalized for initial guess.
 HarFok:  IExCor=  402 AccDes= 0.00D+00 IRadAn=         5 IDoV= 1 UseB2=F ITyADJ=14
 ICtDFT=  3500011 ScaDFX=  1.000000  1.000000  1.000000  1.000000
 FoFCou: FMM=F IPFlag=           0 FMFlag=      100000 FMFlg1=           0
         NFxFlg=           0 DoJE=T BraDBF=F KetDBF=T FulRan=T
         wScrn=  0.000000 ICntrl=       500 IOpCl=  0 I1Cent=   200000004 NGrid=           0
         NMat0=    1 NMatS0=      1 NMatT0=    0 NMatD0=    1 NMtDS0=    0 NMtDT0=    0
 Petite list used in FoFCou.
 Requested convergence on RMS density matrix=1.00D-08 within 128 cycles.
 Requested convergence on MAX density matrix=1.00D-06.
 Requested convergence on             energy=1.00D-06.
 No special actions if energy rises.
 Integral accuracy reduced to 1.0D-05 until final iterations.
 Initial convergence to 1.0D-05 achieved.  Increase integral accuracy.
 SCF Done:  E(RB3LYP) =  -270.058005487     A.U. after   13 cycles
            NFock= 13  Conv=0.55D-08     -V/T= 2.0112
   1 Symmetry operations used in ECPInt.
 ECPInt:  NShTT=    1485 NPrTT=    5995 LenC2=    1483 LenP2D=    4906.
 LDataN:  DoStor=T MaxTD1= 5 Len=  102
 Calling FoFJK, ICntrl=      2127 FMM=F ISym2X=0 I1Cent= 0 IOpClX= 0 NMat=1 NMatS=1 NMatT=0.
 ***** Axes restored to original set *****
 -------------------------------------------------------------------
 Center     Atomic                   Forces (Hartrees/Bohr)
 Number     Number              X              Y              Z
 -------------------------------------------------------------------
      1        6           0.000494995    0.011743692   -0.000345303
      2        6           0.001212498   -0.003981205    0.000067113
      3        6           0.000128675   -0.005626919    0.000094065
      4        6          -0.001320971    0.002106768   -0.000020113
      5        6          -0.058314113    0.010356930    0.002984006
      6        6           0.029000928   -0.013830470   -0.001167900
      7        6           0.036398414   -0.003292119   -0.001918469
      8        1          -0.000919293   -0.000602105    0.000163705
      9        1          -0.000651043   -0.000001440    0.000067258
     10        1          -0.002309460   -0.000959934    0.000166949
     11        1          -0.001407454    0.001646590   -0.000154828
     12        1          -0.001174704    0.001193040   -0.000919920
     13        1          -0.001138471    0.001247172    0.000983437
 -------------------------------------------------------------------
 Cartesian Forces:  Max     0.058314113 RMS     0.012509867

 GradGradGradGradGradGradGradGradGradGradGradGradGradGradGradGradGradGrad
 Berny optimization.
 Using GEDIIS/GDIIS optimizer.
 FormGI is forming the generalized inverse of G from B-inverse, IUseBI=4.
 Internal  Forces:  Max     0.032382292 RMS     0.006944974
 Search for a local minimum.
 Step number   2 out of a maximum of   70
 All quantities printed in internal units (Hartrees-Bohrs-Radians)
 Mixed Optimization -- RFO/linear search
 Update second derivatives using D2CorX and points    1    2
 DE= -2.21D-02 DEPred=-1.81D-02 R= 1.22D+00
 TightC=F SS=  1.41D+00  RLast= 3.00D-01 DXNew= 5.0454D-01 9.0089D-01
 Trust test= 1.22D+00 RLast= 3.00D-01 DXMaxT set to 5.05D-01
 ITU=  1  0
 Use linear search instead of GDIIS.
     Eigenvalues ---    0.01182   0.01949   0.02079   0.02188   0.02309
     Eigenvalues ---    0.02403   0.02466   0.02479   0.04933   0.07672
     Eigenvalues ---    0.12994   0.13007   0.13421   0.16000   0.16000
     Eigenvalues ---    0.16117   0.16366   0.22067   0.23060   0.28034
     Eigenvalues ---    0.34616   0.35048   0.35403   0.35435   0.35733
     Eigenvalues ---    0.36073   0.39027   0.39846   0.45429   0.46828
     Eigenvalues ---    0.48342   0.50574   0.63350
 RFO step:  Lambda=-1.22470422D-02 EMin= 1.18190389D-02
 Quartic linear search produced a step of  0.80370.
 New curvilinear step failed, DQL= 6.22D+00 SP=-6.86D-02.
 ITry= 1 IFail=1 DXMaxC= 0.00D+00 DCOld= 1.00D+10 DXMaxT= 5.05D-01 DXLimC= 3.00D+00 Rises=F
 New curvilinear step failed, DQL= 6.22D+00 SP=-6.27D-02.
 ITry= 2 IFail=1 DXMaxC= 0.00D+00 DCOld= 1.00D+10 DXMaxT= 5.05D-01 DXLimC= 3.00D+00 Rises=F
 New curvilinear step failed, DQL= 6.21D+00 SP=-5.62D-02.
 ITry= 3 IFail=1 DXMaxC= 0.00D+00 DCOld= 1.00D+10 DXMaxT= 5.05D-01 DXLimC= 3.00D+00 Rises=F
 Iteration  1 RMS(Cart)=  0.00541265 RMS(Int)=  0.04187705
 Iteration  2 RMS(Cart)=  0.00013690 RMS(Int)=  0.04176063
 Iteration  3 RMS(Cart)=  0.00013573 RMS(Int)=  0.04164521
 Iteration  4 RMS(Cart)=  0.00013457 RMS(Int)=  0.04153077
 Iteration  5 RMS(Cart)=  0.00013343 RMS(Int)=  0.04141730
 Iteration  6 RMS(Cart)=  0.00013231 RMS(Int)=  0.04130479
 Iteration  7 RMS(Cart)=  0.00013121 RMS(Int)=  0.04119321
 Iteration  8 RMS(Cart)=  0.00013012 RMS(Int)=  0.04108256
 Iteration  9 RMS(Cart)=  0.00012905 RMS(Int)=  0.04097282
 Iteration 10 RMS(Cart)=  0.00012799 RMS(Int)=  0.04086399
 Iteration 11 RMS(Cart)=  0.00012695 RMS(Int)=  0.04075604
 Iteration 12 RMS(Cart)=  0.00012592 RMS(Int)=  0.04064897
 Iteration 13 RMS(Cart)=  0.00012490 RMS(Int)=  0.04054276
 Iteration 14 RMS(Cart)=  0.00012390 RMS(Int)=  0.04043740
 Iteration 15 RMS(Cart)=  0.00012291 RMS(Int)=  0.04033289
 Iteration 16 RMS(Cart)=  0.00012194 RMS(Int)=  0.04022920
 Iteration 17 RMS(Cart)=  0.00012098 RMS(Int)=  0.04012633
 Iteration 18 RMS(Cart)=  0.00012003 RMS(Int)=  0.04002427
 Iteration 19 RMS(Cart)=  0.00011910 RMS(Int)=  0.03992300
 Iteration 20 RMS(Cart)=  0.00011817 RMS(Int)=  0.03982252
 Iteration 21 RMS(Cart)=  0.00011726 RMS(Int)=  0.03972282
 Iteration 22 RMS(Cart)=  0.00011636 RMS(Int)=  0.03962387
 Iteration 23 RMS(Cart)=  0.00011548 RMS(Int)=  0.03952569
 Iteration 24 RMS(Cart)=  0.00011460 RMS(Int)=  0.03942825
 Iteration 25 RMS(Cart)=  0.00011374 RMS(Int)=  0.03933154
 Iteration 26 RMS(Cart)=  0.00011288 RMS(Int)=  0.03923557
 Iteration 27 RMS(Cart)=  0.00011204 RMS(Int)=  0.03914031
 Iteration 28 RMS(Cart)=  0.00011121 RMS(Int)=  0.03904575
 Iteration 29 RMS(Cart)=  0.00011039 RMS(Int)=  0.03895190
 Iteration 30 RMS(Cart)=  0.00010958 RMS(Int)=  0.03885874
 Iteration 31 RMS(Cart)=  0.00010878 RMS(Int)=  0.03876625
 Iteration 32 RMS(Cart)=  0.00010798 RMS(Int)=  0.03867444
 Iteration 33 RMS(Cart)=  0.00010720 RMS(Int)=  0.03858330
 Iteration 34 RMS(Cart)=  0.00010643 RMS(Int)=  0.03849281
 Iteration 35 RMS(Cart)=  0.00010567 RMS(Int)=  0.03840298
 Iteration 36 RMS(Cart)=  0.00010492 RMS(Int)=  0.03831378
 Iteration 37 RMS(Cart)=  0.00010417 RMS(Int)=  0.03822522
 Iteration 38 RMS(Cart)=  0.00010344 RMS(Int)=  0.03813728
 Iteration 39 RMS(Cart)=  0.00010271 RMS(Int)=  0.03804996
 Iteration 40 RMS(Cart)=  0.00010199 RMS(Int)=  0.03796325
 Iteration 41 RMS(Cart)=  0.00010128 RMS(Int)=  0.03787714
 Iteration 42 RMS(Cart)=  0.00010058 RMS(Int)=  0.03779163
 Iteration 43 RMS(Cart)=  0.00009989 RMS(Int)=  0.03770672
 Iteration 44 RMS(Cart)=  0.00009921 RMS(Int)=  0.03762238
 Iteration 45 RMS(Cart)=  0.00009853 RMS(Int)=  0.03753862
 Iteration 46 RMS(Cart)=  0.00009786 RMS(Int)=  0.03745543
 Iteration 47 RMS(Cart)=  0.00009720 RMS(Int)=  0.03737280
 Iteration 48 RMS(Cart)=  0.00009655 RMS(Int)=  0.03729072
 Iteration 49 RMS(Cart)=  0.00009590 RMS(Int)=  0.03720920
 Iteration 50 RMS(Cart)=  0.00009526 RMS(Int)=  0.03712822
 Iteration 51 RMS(Cart)=  0.00009463 RMS(Int)=  0.03704778
 Iteration 52 RMS(Cart)=  0.00009401 RMS(Int)=  0.03696787
 Iteration 53 RMS(Cart)=  0.00009339 RMS(Int)=  0.03688849
 Iteration 54 RMS(Cart)=  0.00009278 RMS(Int)=  0.03680962
 Iteration 55 RMS(Cart)=  0.00009217 RMS(Int)=  0.03673127
 Iteration 56 RMS(Cart)=  0.00009158 RMS(Int)=  0.03665343
 Iteration 57 RMS(Cart)=  0.00009099 RMS(Int)=  0.03657609
 Iteration 58 RMS(Cart)=  0.00009040 RMS(Int)=  0.03649925
 Iteration 59 RMS(Cart)=  0.00008982 RMS(Int)=  0.03642290
 Iteration 60 RMS(Cart)=  0.00008925 RMS(Int)=  0.03634704
 Iteration 61 RMS(Cart)=  0.00008869 RMS(Int)=  0.03627166
 Iteration 62 RMS(Cart)=  0.00008813 RMS(Int)=  0.03619675
 Iteration 63 RMS(Cart)=  0.00008757 RMS(Int)=  0.03612232
 Iteration 64 RMS(Cart)=  0.00008703 RMS(Int)=  0.03604835
 Iteration 65 RMS(Cart)=  0.00008648 RMS(Int)=  0.03597485
 Iteration 66 RMS(Cart)=  0.00008595 RMS(Int)=  0.03590180
 Iteration 67 RMS(Cart)=  0.00008542 RMS(Int)=  0.03582920
 Iteration 68 RMS(Cart)=  0.00008489 RMS(Int)=  0.03575705
 Iteration 69 RMS(Cart)=  0.00008437 RMS(Int)=  0.03568534
 Iteration 70 RMS(Cart)=  0.00008386 RMS(Int)=  0.03561407
 Iteration 71 RMS(Cart)=  0.00008335 RMS(Int)=  0.03554323
 Iteration 72 RMS(Cart)=  0.00008284 RMS(Int)=  0.03547282
 Iteration 73 RMS(Cart)=  0.00008235 RMS(Int)=  0.03540284
 Iteration 74 RMS(Cart)=  0.00008185 RMS(Int)=  0.03533327
 Iteration 75 RMS(Cart)=  0.00008136 RMS(Int)=  0.03526413
 Iteration 76 RMS(Cart)=  0.00008088 RMS(Int)=  0.03519539
 Iteration 77 RMS(Cart)=  0.00008040 RMS(Int)=  0.03512706
 Iteration 78 RMS(Cart)=  0.00007993 RMS(Int)=  0.03505914
 Iteration 79 RMS(Cart)=  0.00007946 RMS(Int)=  0.03499161
 Iteration 80 RMS(Cart)=  0.00007899 RMS(Int)=  0.03492448
 Iteration 81 RMS(Cart)=  0.00007853 RMS(Int)=  0.03485774
 Iteration 82 RMS(Cart)=  0.00007808 RMS(Int)=  0.03479139
 Iteration 83 RMS(Cart)=  0.00007763 RMS(Int)=  0.03472542
 Iteration 84 RMS(Cart)=  0.00007718 RMS(Int)=  0.03465984
 Iteration 85 RMS(Cart)=  0.00007674 RMS(Int)=  0.03459463
 Iteration 86 RMS(Cart)=  0.00007630 RMS(Int)=  0.03452979
 Iteration 87 RMS(Cart)=  0.00007586 RMS(Int)=  0.03446533
 Iteration 88 RMS(Cart)=  0.00007543 RMS(Int)=  0.03440122
 Iteration 89 RMS(Cart)=  0.00007501 RMS(Int)=  0.03433749
 Iteration 90 RMS(Cart)=  0.00007459 RMS(Int)=  0.03427411
 Iteration 91 RMS(Cart)=  0.00007417 RMS(Int)=  0.03421108
 Iteration 92 RMS(Cart)=  0.00007376 RMS(Int)=  0.03414841
 Iteration 93 RMS(Cart)=  0.00007335 RMS(Int)=  0.03408608
 Iteration 94 RMS(Cart)=  0.00007294 RMS(Int)=  0.03402411
 Iteration 95 RMS(Cart)=  0.00007254 RMS(Int)=  0.03396247
 Iteration 96 RMS(Cart)=  0.00007214 RMS(Int)=  0.03390118
 Iteration 97 RMS(Cart)=  0.00007174 RMS(Int)=  0.03384021
 Iteration 98 RMS(Cart)=  0.00007135 RMS(Int)=  0.03377959
 Iteration 99 RMS(Cart)=  0.00007096 RMS(Int)=  0.03371929
 Iteration100 RMS(Cart)=  0.00007058 RMS(Int)=  0.03365932
 New curvilinear step not converged.
 ITry= 4 IFail=1 DXMaxC= 5.88D-02 DCOld= 1.00D+10 DXMaxT= 5.05D-01 DXLimC= 3.00D+00 Rises=F
 Iteration  1 RMS(Cart)=  0.05053392 RMS(Int)=  0.00498849
 Iteration  2 RMS(Cart)=  0.00206770 RMS(Int)=  0.00234037
 Iteration  3 RMS(Cart)=  0.00169731 RMS(Int)=  0.00082118
 Iteration  4 RMS(Cart)=  0.00088854 RMS(Int)=  0.00058719
 Iteration  5 RMS(Cart)=  0.00001114 RMS(Int)=  0.00058648
 Iteration  6 RMS(Cart)=  0.00000003 RMS(Int)=  0.00058648
 ITry= 5 IFail=0 DXMaxC= 2.03D-01 DCOld= 1.00D+10 DXMaxT= 5.05D-01 DXLimC= 3.00D+00 Rises=F
 Variable       Old X    -DE/DX   Delta X   Delta X   Delta X     New X
                                 (Linear)    (Quad)   (Total)
    R1        2.65287  -0.00179   0.01681  -0.01468   0.00732   2.66018
    R2        2.67208  -0.00203  -0.01755   0.00263  -0.01572   2.65636
    R3        2.06352   0.00083   0.00610   0.00032   0.00629   2.06981
    R4        2.66641   0.00183   0.05648  -0.02650   0.03959   2.70600
    R5        2.06661   0.00063   0.01312  -0.00498   0.01014   2.07674
    R6        2.58487   0.00312  -0.00035   0.01030   0.00564   2.59051
    R7        2.06444   0.00076   0.01838  -0.00762   0.01381   2.07825
    R8        2.63655  -0.01483   0.00603  -0.06660  -0.03307   2.60349
    R9        2.69166   0.02225   0.08049   0.03343   0.09997   2.79163
   R10        2.64605  -0.00604   0.04723  -0.05134   0.01741   2.66347
   R11        2.93639  -0.00486   0.02206  -0.04404  -0.00401   2.93238
   R12        2.08446  -0.00217   0.01587  -0.02051   0.00356   2.08802
   R13        2.08456   0.00085   0.02811  -0.01314   0.02022   2.10479
   R14        2.08457   0.00083   0.02786  -0.01309   0.02001   2.10458
    A1        2.12265   0.00309   0.01571   0.01760   0.02593   2.14858
    A2        2.10029  -0.00230   0.00290  -0.02317  -0.01083   2.08946
    A3        2.06024  -0.00079  -0.01861   0.00557  -0.01510   2.04514
    A4        2.09069   0.00174   0.02705   0.00458   0.02814   2.11883
    A5        2.08863  -0.00070  -0.01695   0.00153  -0.01520   2.07343
    A6        2.10386  -0.00104  -0.01011  -0.00611  -0.01294   2.09092
    A7        1.97259  -0.00091  -0.00874   0.00082  -0.00955   1.96303
    A8        2.16023  -0.00201   0.00487  -0.02615  -0.01017   2.15006
    A9        2.15037   0.00292   0.00388   0.02533   0.01972   2.17009
   A10        2.32028  -0.01039  -0.05657  -0.04492  -0.08288   2.23740
   A11        2.79567   0.01463   0.06843   0.05710   0.10271   2.89838
   A12        1.93798   0.01967   0.09418   0.08526   0.14657   2.08456
   A13        2.94082   0.03238   0.12132   0.12010   0.19476   3.13558
   A14        2.12217  -0.01320  -0.07162  -0.06332  -0.10822   2.01395
   A15        2.04072   0.00658   0.00670   0.04917   0.03550   2.07622
   A16        2.12030   0.00662   0.06492   0.01415   0.07271   2.19301
   A17        2.12666   0.00029   0.00214  -0.01942  -0.00954   2.11712
   A18        2.12917   0.00018   0.00223  -0.02069  -0.01006   2.11911
   A19        2.04091   0.00253   0.00446   0.02459   0.01858   2.05949
   A20        2.04207   0.00259   0.00471   0.02484   0.01885   2.06092
   A21        1.94996   0.00016  -0.00224   0.01508   0.00604   1.95599
    D1        0.00046  -0.00008  -0.00074  -0.00147  -0.00187  -0.00141
    D2        3.14149  -0.00000  -0.00044  -0.00095  -0.00134   3.14015
    D3       -3.14100  -0.00006  -0.00001  -0.00039  -0.00037  -3.14137
    D4        0.00003   0.00002   0.00029   0.00014   0.00016   0.00019
    D5       -0.00378   0.00007   0.00348   0.00490   0.00630   0.00252
    D6        3.13734   0.00010   0.00210   0.00488   0.00499  -3.14085
    D7        3.13769   0.00005   0.00275   0.00384   0.00484  -3.14066
    D8       -0.00438   0.00008   0.00137   0.00382   0.00353  -0.00085
    D9        0.00198  -0.00003  -0.00185  -0.00274  -0.00385  -0.00187
   D10       -3.14147   0.00014   0.00098   0.00102   0.00123  -3.14024
   D11       -3.13905  -0.00010  -0.00215  -0.00327  -0.00438   3.13976
   D12        0.00069   0.00006   0.00068   0.00049   0.00070   0.00139
   D13       -0.00160   0.00023   0.00339   0.00485   0.00599   0.00439
   D14        3.12735   0.00028   0.00303   0.00406   0.00535   3.13271
   D15       -3.14135   0.00008   0.00058   0.00118   0.00088  -3.14047
   D16       -0.01239   0.00012   0.00022   0.00039   0.00024  -0.01215
   D17       -0.00136  -0.00029  -0.00131  -0.00201  -0.00206  -0.00342
   D18       -1.33739  -0.00086  -0.00188   0.03311   0.01802  -1.31937
   D19        1.35740   0.00091   0.00338  -0.03187  -0.01584   1.34156
   D20        0.00395   0.00011  -0.00227  -0.00313  -0.00429  -0.00034
   D21       -3.13715   0.00008  -0.00088  -0.00312  -0.00286  -3.14001
   D22       -0.01001  -0.00015  -0.00239  -0.00142  -0.00329  -0.01330
   D23        3.13208  -0.00019  -0.00099  -0.00140  -0.00187   3.13021
   D24       -1.93405   0.00336   0.00325   0.04069   0.02804  -1.90601
   D25        1.96745  -0.00344  -0.00452  -0.04788  -0.03372   1.93373
         Item               Value     Threshold  Converged?
 Maximum Force            0.032382     0.000450     NO 
 RMS     Force            0.006945     0.000300     NO 
 Maximum Displacement     0.203220     0.001800     NO 
 RMS     Displacement     0.052428     0.001200     NO 
 Predicted change in Energy=-9.179420D-03
 GradGradGradGradGradGradGradGradGradGradGradGradGradGradGradGradGradGrad

                          Input orientation:                          
 ---------------------------------------------------------------------
 Center     Atomic      Atomic             Coordinates (Angstroms)
 Number     Number       Type             X           Y           Z
 ---------------------------------------------------------------------
      1          6           0       -0.474895   -1.075023    0.037268
      2          6           0       -1.468576   -0.078047    0.054095
      3          6           0       -1.132168    1.311914   -0.018922
      4          6           0        0.220310    1.520136   -0.100449
      5          6           0        1.227137    0.579990   -0.122740
      6          6           0        0.898410   -0.788784   -0.052501
      7          6           0        1.579980    2.089128   -0.199753
      8          1           0       -0.763331   -2.130118    0.094335
      9          1           0       -2.522301   -0.381968    0.124954
     10          1           0       -1.883779    2.114666   -0.006839
     11          1           0        1.619883   -1.625614   -0.060924
     12          1           0        1.972271    2.485883   -1.163732
     13          1           0        2.079406    2.556276    0.679259
 ---------------------------------------------------------------------
                    Distance matrix (angstroms):
                    1          2          3          4          5
     1  C    0.000000
     2  C    1.407709   0.000000
     3  C    2.476415   1.431955   0.000000
     4  C    2.690190   2.330324   1.370839   0.000000
     5  C    2.379408   2.780495   2.472410   1.377705   0.000000
     6  C    1.405688   2.473688   2.921868   2.406913   1.409446
     7  C    3.780283   3.748970   2.827102   1.477266   1.551749
     8  H    1.095298   2.170250   3.463590   3.785478   3.369536
     9  H    2.163305   1.098966   2.195998   3.345254   3.878789
    10  H    3.487265   2.232510   1.099762   2.188475   3.470802
    11  H    2.168153   3.456410   4.025496   3.443270   2.241151
    12  H    4.484537   4.460523   3.510888   2.265525   2.295934
    13  H    4.485859   4.463033   3.514271   2.266665   2.296795
                    6          7          8          9         10
     6  C    0.000000
     7  C    2.961182   0.000000
     8  H    2.140589   4.835249   0.000000
     9  H    3.449385   4.800048   2.480110   0.000000
    10  H    4.021528   3.469221   4.391336   2.580361   0.000000
    11  H    1.104933   3.717549   2.440971   4.328845   5.125258
    12  H    3.620975   1.113805   5.511235   5.485113   4.042936
    13  H    3.622106   1.113695   5.512311   5.487827   4.046305
                   11         12         13
    11  H    0.000000
    12  H    4.271389   0.000000
    13  H    4.271678   1.847444   0.000000
 Stoichiometry    C7H6
 Framework group  C1[X(C7H6)]
 Deg. of freedom    33
 Full point group                 C1      NOp   1
 Largest Abelian subgroup         C1      NOp   1
 Largest concise Abelian subgroup C1      NOp   1
                         Standard orientation:                         
 ---------------------------------------------------------------------
 Center     Atomic      Atomic             Coordinates (Angstroms)
 Number     Number       Type             X           Y           Z
 ---------------------------------------------------------------------
      1          6           0       -1.568084    0.636751   -0.000801
      2          6           0       -1.508777   -0.769708    0.000023
      3          6           0       -0.256187   -1.463620    0.000970
      4          6           0        0.816032   -0.609488   -0.001405
      5          6           0        0.807690    0.768191    0.000317
      6          6           0       -0.423971    1.453427    0.000902
      7          6           0        2.159143    0.005628   -0.000217
      8          1           0       -2.541363    1.139152   -0.001305
      9          1           0       -2.448659   -1.339224   -0.000042
     10          1           0       -0.175569   -2.560423    0.000379
     11          1           0       -0.550215    2.551124    0.000830
     12          1           0        2.779172    0.039765    0.924423
     13          1           0        2.781554    0.042528   -0.923017
 ---------------------------------------------------------------------
 Rotational constants (GHZ):           5.4592478           3.1249975           2.0146295
 Standard basis: def2SVPP (5D, 7F)
 There are   117 symmetry adapted cartesian basis functions of A   symmetry.
 There are   110 symmetry adapted basis functions of A   symmetry.
   110 basis functions,   199 primitive gaussians,   117 cartesian basis functions
    24 alpha electrons       24 beta electrons
       nuclear repulsion energy       254.4543773700 Hartrees.
 NAtoms=   13 NActive=   13 NUniq=   13 SFac= 1.00D+00 NAtFMM=   60 NAOKFM=F Big=F
 Integral buffers will be    131072 words long.
 Raffenetti 2 integral format.
 Two-electron integral symmetry is turned on.
 Nuclear repulsion after empirical dispersion term =      254.4331083105 Hartrees.
 One-electron integrals computed using PRISM.
   1 Symmetry operations used in ECPInt.
 ECPInt:  NShTT=    1485 NPrTT=    5995 LenC2=    1483 LenP2D=    4892.
 LDataN:  DoStor=T MaxTD1= 4 Len=   56
 NBasis=   110 RedAO= T EigKep=  3.85D-04  NBF=   110
 NBsUse=   110 1.00D-06 EigRej= -1.00D+00 NBFU=   110
 Initial guess from the checkpoint file:  "/home/software/g16/scr/Gau-131436.chk"
 B after Tr=    -0.000000   -0.000000    0.000000
         Rot=    0.999996    0.000032   -0.000070   -0.002843 Ang=   0.33 deg.
 ExpMin= 1.22D-01 ExpMax= 1.24D+03 ExpMxC= 1.86D+02 IAcc=3 IRadAn=         5 AccDes= 0.00D+00
 Harris functional with IExCor=  402 and IRadAn=       5 diagonalized for initial guess.
 HarFok:  IExCor=  402 AccDes= 0.00D+00 IRadAn=         5 IDoV= 1 UseB2=F ITyADJ=14
 ICtDFT=  3500011 ScaDFX=  1.000000  1.000000  1.000000  1.000000
 FoFCou: FMM=F IPFlag=           0 FMFlag=      100000 FMFlg1=           0
         NFxFlg=           0 DoJE=T BraDBF=F KetDBF=T FulRan=T
         wScrn=  0.000000 ICntrl=       500 IOpCl=  0 I1Cent=   200000004 NGrid=           0
         NMat0=    1 NMatS0=      1 NMatT0=    0 NMatD0=    1 NMtDS0=    0 NMtDT0=    0
 Petite list used in FoFCou.
 Requested convergence on RMS density matrix=1.00D-08 within 128 cycles.
 Requested convergence on MAX density matrix=1.00D-06.
 Requested convergence on             energy=1.00D-06.
 No special actions if energy rises.
 Integral accuracy reduced to 1.0D-05 until final iterations.
 Initial convergence to 1.0D-05 achieved.  Increase integral accuracy.
 SCF Done:  E(RB3LYP) =  -270.068441306     A.U. after   13 cycles
            NFock= 13  Conv=0.58D-08     -V/T= 2.0120
   1 Symmetry operations used in ECPInt.
 ECPInt:  NShTT=    1485 NPrTT=    5995 LenC2=    1483 LenP2D=    4892.
 LDataN:  DoStor=T MaxTD1= 5 Len=  102
 Calling FoFJK, ICntrl=      2127 FMM=F ISym2X=0 I1Cent= 0 IOpClX= 0 NMat=1 NMatS=1 NMatT=0.
 ***** Axes restored to original set *****
 -------------------------------------------------------------------
 Center     Atomic                   Forces (Hartrees/Bohr)
 Number     Number              X              Y              Z
 -------------------------------------------------------------------
      1        6          -0.005989887    0.002083008    0.000087473
      2        6           0.000779923    0.009230302   -0.000433386
      3        6          -0.007557936   -0.014400513    0.001299663
      4        6           0.016835595   -0.003746804   -0.001018163
      5        6          -0.027492468    0.006133415    0.001483876
      6        6           0.018795383    0.012751569   -0.001387701
      7        6           0.014609370   -0.012852533   -0.000588542
      8        1          -0.002665270    0.001044675    0.000123492
      9        1           0.002711095    0.001295339   -0.000203752
     10        1           0.000934755   -0.004712915    0.000067384
     11        1          -0.001761406    0.006808386   -0.000211353
     12        1          -0.004274489   -0.001612668    0.005226253
     13        1          -0.004924664   -0.002021261   -0.004445245
 -------------------------------------------------------------------
 Cartesian Forces:  Max     0.027492468 RMS     0.008116921

 GradGradGradGradGradGradGradGradGradGradGradGradGradGradGradGradGradGrad
 Berny optimization.
 Using GEDIIS/GDIIS optimizer.
 FormGI is forming the generalized inverse of G from B-inverse, IUseBI=4.
 Internal  Forces:  Max     0.020252577 RMS     0.005327901
 Search for a local minimum.
 Step number   3 out of a maximum of   70
 All quantities printed in internal units (Hartrees-Bohrs-Radians)
 Mixed Optimization -- RFO/linear search
 Update second derivatives using D2CorX and points    2    3
 DE= -1.04D-02 DEPred=-9.18D-03 R= 1.14D+00
 TightC=F SS=  1.41D+00  RLast= 3.41D-01 DXNew= 8.4853D-01 1.0219D+00
 Trust test= 1.14D+00 RLast= 3.41D-01 DXMaxT set to 8.49D-01
 ITU=  1  1  0
 Use linear search instead of GDIIS.
     Eigenvalues ---    0.01124   0.01951   0.02084   0.02198   0.02310
     Eigenvalues ---    0.02406   0.02468   0.02485   0.04621   0.07534
     Eigenvalues ---    0.10421   0.13385   0.13415   0.16000   0.16011
     Eigenvalues ---    0.16094   0.16415   0.22075   0.23095   0.28526
     Eigenvalues ---    0.34618   0.35047   0.35404   0.35435   0.35809
     Eigenvalues ---    0.36276   0.38671   0.40375   0.45172   0.46969
     Eigenvalues ---    0.48258   0.50619   0.66338
 RFO step:  Lambda=-4.39299648D-03 EMin= 1.12442472D-02
 Quartic linear search produced a step of  0.28780.
 New curvilinear step failed, DQL= 6.24D+00 SP=-2.01D-01.
 ITry= 1 IFail=1 DXMaxC= 0.00D+00 DCOld= 1.00D+10 DXMaxT= 8.49D-01 DXLimC= 3.00D+00 Rises=F
 New curvilinear step failed, DQL= 6.25D+00 SP=-1.97D-01.
 ITry= 2 IFail=1 DXMaxC= 0.00D+00 DCOld= 1.00D+10 DXMaxT= 8.49D-01 DXLimC= 3.00D+00 Rises=F
 New curvilinear step failed, DQL= 6.25D+00 SP=-1.93D-01.
 ITry= 3 IFail=1 DXMaxC= 0.00D+00 DCOld= 1.00D+10 DXMaxT= 8.49D-01 DXLimC= 3.00D+00 Rises=F
 New curvilinear step failed, DQL= 6.25D+00 SP=-1.87D-01.
 ITry= 4 IFail=1 DXMaxC= 0.00D+00 DCOld= 1.00D+10 DXMaxT= 8.49D-01 DXLimC= 3.00D+00 Rises=F
 New curvilinear step failed, DQL= 6.26D+00 SP=-1.80D-01.
 ITry= 5 IFail=1 DXMaxC= 0.00D+00 DCOld= 1.00D+10 DXMaxT= 8.49D-01 DXLimC= 3.00D+00 Rises=F
 New curvilinear step failed, DQL= 6.26D+00 SP=-1.72D-01.
 ITry= 6 IFail=1 DXMaxC= 0.00D+00 DCOld= 1.00D+10 DXMaxT= 8.49D-01 DXLimC= 3.00D+00 Rises=F
 New curvilinear step failed, DQL= 6.26D+00 SP=-1.62D-01.
 ITry= 7 IFail=1 DXMaxC= 0.00D+00 DCOld= 1.00D+10 DXMaxT= 8.49D-01 DXLimC= 3.00D+00 Rises=F
 New curvilinear step failed, DQL= 6.26D+00 SP=-1.50D-01.
 ITry= 8 IFail=1 DXMaxC= 0.00D+00 DCOld= 1.00D+10 DXMaxT= 8.49D-01 DXLimC= 3.00D+00 Rises=F
 New curvilinear step failed, DQL= 6.27D+00 SP=-1.36D-01.
 ITry= 9 IFail=1 DXMaxC= 0.00D+00 DCOld= 1.00D+10 DXMaxT= 8.49D-01 DXLimC= 3.00D+00 Rises=F
 New curvilinear step failed, DQL= 6.27D+00 SP=-1.17D-01.
 ITry=10 IFail=1 DXMaxC= 0.00D+00 DCOld= 1.00D+10 DXMaxT= 8.49D-01 DXLimC= 3.00D+00 Rises=F
 RedQX1 iteration     1 Try  1 RMS(Cart)=  0.00603739 RMS(Int)=  0.81581073 XScale=  0.03149985
 RedQX1 iteration     2 Try  1 RMS(Cart)=  0.00120748 RMS(Int)=  0.02449632 XScale= 24.99903592
 RedQX1 iteration     2 Try  2 RMS(Cart)=  0.00120750 RMS(Int)=  0.81650234 XScale=  0.03147447
 RedQX1 iteration     3 Try  1 RMS(Cart)=  0.00115920 RMS(Int)=  0.81651160 XScale=  0.03147413
 RedQX1 iteration     4 Try  1 RMS(Cart)=  0.00023184 RMS(Int)=  0.02430035 XScale= 20.96741424
 RedQX1 iteration     4 Try  2 RMS(Cart)=  0.00023184 RMS(Int)=  0.02410455 XScale= 17.96502224
 RedQX1 iteration     4 Try  3 RMS(Cart)=  0.00023185 RMS(Int)=  0.81628835 XScale=  0.03147190
 RedQX1 iteration     5 Try  1 RMS(Cart)=  0.00022814 RMS(Int)=  0.81628801 XScale=  0.03147192
 RedQX1 iteration     6 Try  1 RMS(Cart)=  0.00004563 RMS(Int)=  0.02406749 XScale= 17.11062729
 RedQX1 iteration     6 Try  2 RMS(Cart)=  0.00004563 RMS(Int)=  0.81027266 XScale=  0.03150321
 RedQX1 iteration     7 Try  1 RMS(Cart)=  0.00004555 RMS(Int)=  0.81026397 XScale=  0.03150355
 RedQX1 iteration     8 Try  1 RMS(Cart)=  0.00000911 RMS(Int)=  0.02406141 XScale= 16.68477400
 RedQX1 iteration     8 Try  2 RMS(Cart)=  0.00000911 RMS(Int)=  0.02405868 XScale= 15.73733451
 RedQX1 iteration     8 Try  3 RMS(Cart)=  0.00000911 RMS(Int)=  0.02408116 XScale= 12.45903908
 RedQX1 iteration     8 Try  4 RMS(Cart)=  0.00000911 RMS(Int)=  0.79860665 XScale=  0.03196379
 RedQX1 iteration     9 Try  1 RMS(Cart)=  0.00000910 RMS(Int)=  0.79847396 XScale=  0.03196910
 RedQX1 iteration    10 Try  1 RMS(Cart)=  0.00000182 RMS(Int)=  0.02410415 XScale= 10.95258982
 RedQX1 iteration    10 Try  2 RMS(Cart)=  0.00000182 RMS(Int)=  0.02416051 XScale=  8.85179769
 RedQX1 iteration    10 Try  3 RMS(Cart)=  0.00000182 RMS(Int)=  0.02435831 XScale=  5.98566383
 RedQX1 iteration    10 Try  4 RMS(Cart)=  0.00000182 RMS(Int)=  0.02643077 XScale=  2.28796654
 RedQX1 iteration    10 Try  5 RMS(Cart)=  0.00000182 RMS(Int)=  0.80027057 XScale=  0.03189727
 RedQX1 iteration    11 Try  1 RMS(Cart)=  0.00000182 RMS(Int)=  0.80026408 XScale=  0.03189753
 RedQX1 iteration    12 Try  1 RMS(Cart)=  0.00000036 RMS(Int)=  0.02956290 XScale=  1.47188226
 RedQX1 iteration    12 Try  2 RMS(Cart)=  0.00000036 RMS(Int)=  0.04776764 XScale=  0.61682690
 RedQX1 iteration    13 Try  1 RMS(Cart)=  0.00000036 RMS(Int)=  0.04776698 XScale=  0.61683825
 RedQX1 iteration    14 Try  1 RMS(Cart)=  0.00000007 RMS(Int)=  0.03089885 XScale=  1.30625167
 B after Tr=    -0.000000    0.000000    0.000000
         Rot=    1.000000    0.000000    0.000000   -0.000000 Ang=   0.00 deg.
 Variable       Old X    -DE/DX   Delta X   Delta X   Delta X     New X
                                 (Linear)    (Quad)   (Total)
    R1        2.66018  -0.00498   0.00211  -0.00537  -0.00020   2.65999
    R2        2.65636   0.00629  -0.00452   0.01633   0.00069   2.65705
    R3        2.06981  -0.00030   0.00181  -0.00011   0.00010   2.06991
    R4        2.70600  -0.01487   0.01139  -0.02081  -0.00056   2.70544
    R5        2.07674  -0.00297   0.00292  -0.00720  -0.00025   2.07650
    R6        2.59051   0.00624   0.00162   0.01224   0.00080   2.59131
    R7        2.07825  -0.00408   0.00397  -0.00942  -0.00031   2.07794
    R8        2.60349  -0.01665  -0.00952  -0.03344  -0.00248   2.60101
    R9        2.79163   0.00239   0.02877   0.01366   0.00246   2.79409
   R10        2.66347  -0.02025   0.00501  -0.03167  -0.00153   2.66194
   R11        2.93238  -0.01431  -0.00115  -0.04762  -0.00281   2.92957
   R12        2.08802  -0.00630   0.00102  -0.01552  -0.00084   2.08718
   R13        2.10479  -0.00660   0.00582  -0.01566  -0.00057   2.10421
   R14        2.10458  -0.00656   0.00576  -0.01559  -0.00057   2.10401
    A1        2.14858  -0.00154   0.00746  -0.00651   0.00005   2.14863
    A2        2.08946  -0.00218  -0.00312  -0.01410  -0.00100   2.08846
    A3        2.04514   0.00372  -0.00435   0.02061   0.00095   2.04609
    A4        2.11883  -0.00174   0.00810  -0.00063   0.00041   2.11925
    A5        2.07343   0.00138  -0.00437   0.00270  -0.00009   2.07335
    A6        2.09092   0.00036  -0.00373  -0.00207  -0.00033   2.09059
    A7        1.96303   0.00153  -0.00275   0.00707   0.00023   1.96326
    A8        2.15006  -0.00341  -0.00293  -0.01768  -0.00119   2.14887
    A9        2.17009   0.00188   0.00568   0.01062   0.00095   2.17104
   A10        2.23740  -0.00263  -0.02385  -0.01613  -0.00231   2.23509
   A11        2.89838   0.00593   0.02956   0.03340   0.00365   2.90203
   A12        2.08456   0.00553   0.04218   0.02383   0.00385   2.08841
   A13        3.13558   0.01296   0.05605   0.04715   0.00601   3.14159
   A14        2.01395  -0.00115  -0.03115  -0.00763  -0.00223   2.01172
   A15        2.07622   0.00383   0.01022   0.01924   0.00170   2.07792
   A16        2.19301  -0.00269   0.02093  -0.01160   0.00053   2.19354
   A17        2.11712  -0.00056  -0.00274  -0.01617  -0.00110   2.11602
   A18        2.11911  -0.00073  -0.00289  -0.01755  -0.00119   2.11792
   A19        2.05949   0.00140   0.00535   0.01510   0.00117   2.06066
   A20        2.06092   0.00131   0.00542   0.01412   0.00112   2.06204
   A21        1.95599   0.00095   0.00174   0.01118   0.00074   1.95673
    D1       -0.00141  -0.00000  -0.00054   0.00127   0.00004  -0.00137
    D2        3.14015   0.00003  -0.00039   0.00144   0.00006   3.14021
    D3       -3.14137  -0.00005  -0.00011  -0.00077  -0.00005  -3.14142
    D4        0.00019  -0.00001   0.00005  -0.00060  -0.00003   0.00016
    D5        0.00252  -0.00011   0.00181  -0.00427  -0.00014   0.00238
    D6       -3.14085  -0.00000   0.00144  -0.00088   0.00003  -3.14082
    D7       -3.14066  -0.00007   0.00139  -0.00230  -0.00005  -3.14072
    D8       -0.00085   0.00003   0.00102   0.00108   0.00012  -0.00073
    D9       -0.00187   0.00007  -0.00111   0.00233   0.00007  -0.00180
   D10       -3.14024   0.00002   0.00035  -0.00101  -0.00004  -3.14028
   D11        3.13976   0.00004  -0.00126   0.00216   0.00005   3.13980
   D12        0.00139  -0.00001   0.00020  -0.00118  -0.00006   0.00132
   D13        0.00439  -0.00002   0.00172  -0.00311  -0.00008   0.00430
   D14        3.13271   0.00004   0.00154  -0.00174  -0.00001   3.13269
   D15       -3.14047   0.00002   0.00025   0.00021   0.00002  -3.14045
   D16       -0.01215   0.00008   0.00007   0.00159   0.00009  -0.01206
   D17       -0.00342  -0.00010  -0.00059   0.00011  -0.00002  -0.00344
   D18       -1.31937   0.00031   0.00519   0.02585   0.00180  -1.31757
   D19        1.34156  -0.00030  -0.00456  -0.02727  -0.00184   1.33972
   D20       -0.00034   0.00016  -0.00123   0.00362   0.00014  -0.00020
   D21       -3.14001   0.00005  -0.00082  -0.00006  -0.00005  -3.14007
   D22       -0.01330   0.00002  -0.00095   0.00199  -0.07537  -0.08867
   D23        3.13021  -0.00010  -0.00054  -0.00169  -0.07555   3.05465
   D24       -1.90601   0.00282   0.00807   0.03243   0.07779  -1.82822
   D25        1.93373  -0.00289  -0.00970  -0.03102   0.07305   2.00678
         Item               Value     Threshold  Converged?
 Maximum Force            0.020253     0.000450     NO 
 RMS     Force            0.005328     0.000300     NO 
 Maximum Displacement     0.005708     0.001800     NO 
 RMS     Displacement     0.001752     0.001200     NO 
 Predicted change in Energy=-1.524383D-04
 GradGradGradGradGradGradGradGradGradGradGradGradGradGradGradGradGradGrad

                          Input orientation:                          
 ---------------------------------------------------------------------
 Center     Atomic      Atomic             Coordinates (Angstroms)
 Number     Number       Type             X           Y           Z
 ---------------------------------------------------------------------
      1          6           0       -0.474626   -1.074537    0.037218
      2          6           0       -1.468522   -0.077925    0.054084
      3          6           0       -1.133159    1.311990   -0.018832
      4          6           0        0.219536    1.521544   -0.100487
      5          6           0        1.224117    0.580913   -0.122643
      6          6           0        0.898969   -0.787891   -0.052513
      7          6           0        1.581953    2.087338   -0.199824
      8          1           0       -0.763819   -2.129477    0.094340
      9          1           0       -2.522006   -0.382208    0.124941
     10          1           0       -1.886172    2.113199   -0.006637
     11          1           0        1.621769   -1.622986   -0.061126
     12          1           0        1.973622    2.484077   -1.163712
     13          1           0        2.080689    2.554403    0.679242
 ---------------------------------------------------------------------
                    Distance matrix (angstroms):
                    1          2          3          4          5
     1  C    0.000000
     2  C    1.407604   0.000000
     3  C    2.476352   1.431659   0.000000
     4  C    2.690810   2.330608   1.371264   0.000000
     5  C    2.377352   2.777698   2.470223   1.376394   0.000000
     6  C    1.406052   2.473950   2.922358   2.407783   1.408639
     7  C    3.779307   3.749431   2.829445   1.478570   1.550264
     8  H    1.095351   2.169583   3.463079   3.786145   3.368261
     9  H    2.163049   1.098835   2.195421   3.345317   3.875866
    10  H    3.486552   2.231399   1.099597   2.189263   3.469187
    11  H    2.169179   3.456933   4.025606   3.443236   2.240331
    12  H    4.483289   4.460408   3.512354   2.265775   2.295128
    13  H    4.484533   4.462832   3.515639   2.266862   2.295952
                    6          7          8          9         10
     6  C    0.000000
     7  C    2.958903   0.000000
     8  H    2.141561   4.834325   0.000000
     9  H    3.449513   4.800688   2.478933   0.000000
    10  H    4.021870   3.473598   4.389780   2.578498   0.000000
    11  H    1.104490   3.713129   2.443712   4.329552   5.125202
    12  H    3.618758   1.113502   5.510095   5.485152   4.046528
    13  H    3.619786   1.113393   5.511086   5.487781   4.049824
                   11         12         13
    11  H    0.000000
    12  H    4.267020   0.000000
    13  H    4.267239   1.847401   0.000000
 Stoichiometry    C7H6
 Framework group  C1[X(C7H6)]
 Deg. of freedom    33
 Full point group                 C1      NOp   1
 Largest Abelian subgroup         C1      NOp   1
 Largest concise Abelian subgroup C1      NOp   1
                         Standard orientation:                         
 ---------------------------------------------------------------------
 Center     Atomic      Atomic             Coordinates (Angstroms)
 Number     Number       Type             X           Y           Z
 ---------------------------------------------------------------------
      1          6           0       -1.566729    0.638980   -0.000774
      2          6           0       -1.509687   -0.767468    0.000035
      3          6           0       -0.258760   -1.463764    0.000933
      4          6           0        0.815715   -0.611788   -0.001386
      5          6           0        0.807302    0.764579    0.000346
      6          6           0       -0.421049    1.454084    0.000850
      7          6           0        2.159150    0.005748   -0.000209
      8          1           0       -2.539747    1.142000   -0.001289
      9          1           0       -2.450420   -1.335323   -0.000020
     10          1           0       -0.181673   -2.560655    0.000367
     11          1           0       -0.543666    2.551747    0.000828
     12          1           0        2.778792    0.038622    0.924372
     13          1           0        2.781070    0.041378   -0.923025
 ---------------------------------------------------------------------
 Rotational constants (GHZ):           5.4599311           3.1260557           2.0151610
 Standard basis: def2SVPP (5D, 7F)
 There are   117 symmetry adapted cartesian basis functions of A   symmetry.
 There are   110 symmetry adapted basis functions of A   symmetry.
   110 basis functions,   199 primitive gaussians,   117 cartesian basis functions
    24 alpha electrons       24 beta electrons
       nuclear repulsion energy       254.4916689450 Hartrees.
 NAtoms=   13 NActive=   13 NUniq=   13 SFac= 1.00D+00 NAtFMM=   60 NAOKFM=F Big=F
 Integral buffers will be    131072 words long.
 Raffenetti 2 integral format.
 Two-electron integral symmetry is turned on.
 Nuclear repulsion after empirical dispersion term =      254.4703983447 Hartrees.
 One-electron integrals computed using PRISM.
   1 Symmetry operations used in ECPInt.
 ECPInt:  NShTT=    1485 NPrTT=    5995 LenC2=    1483 LenP2D=    4892.
 LDataN:  DoStor=T MaxTD1= 4 Len=   56
 NBasis=   110 RedAO= T EigKep=  3.83D-04  NBF=   110
 NBsUse=   110 1.00D-06 EigRej= -1.00D+00 NBFU=   110
 Initial guess from the checkpoint file:  "/home/software/g16/scr/Gau-131436.chk"
 B after Tr=     0.000000   -0.000000   -0.000000
         Rot=    1.000000    0.000000   -0.000001    0.000633 Ang=   0.07 deg.
 Requested convergence on RMS density matrix=1.00D-08 within 128 cycles.
 Requested convergence on MAX density matrix=1.00D-06.
 Requested convergence on             energy=1.00D-06.
 No special actions if energy rises.
 SCF Done:  E(RB3LYP) =  -270.068752282     A.U. after    9 cycles
            NFock=  9  Conv=0.54D-08     -V/T= 2.0119
   1 Symmetry operations used in ECPInt.
 ECPInt:  NShTT=    1485 NPrTT=    5995 LenC2=    1483 LenP2D=    4892.
 LDataN:  DoStor=T MaxTD1= 5 Len=  102
 Calling FoFJK, ICntrl=      2127 FMM=F ISym2X=0 I1Cent= 0 IOpClX= 0 NMat=1 NMatS=1 NMatT=0.
 ***** Axes restored to original set *****
 -------------------------------------------------------------------
 Center     Atomic                   Forces (Hartrees/Bohr)
 Number     Number              X              Y              Z
 -------------------------------------------------------------------
      1        6          -0.005731246    0.001798919    0.000093900
      2        6           0.000815868    0.009209834   -0.000432398
      3        6          -0.007338810   -0.014155880    0.001268676
      4        6           0.016244029   -0.003376428   -0.001000581
      5        6          -0.026084935    0.005824357    0.001421545
      6        6           0.017914808    0.012645789   -0.001351718
      7        6           0.013778249   -0.012692372   -0.000539072
      8        1          -0.002564581    0.001038735    0.000116329
      9        1           0.002630586    0.001258670   -0.000198177
     10        1           0.000937135   -0.004557217    0.000064177
     11        1          -0.001689694    0.006570540   -0.000201655
     12        1          -0.004139318   -0.001584719    0.005098803
     13        1          -0.004772091   -0.001980230   -0.004339829
 -------------------------------------------------------------------
 Cartesian Forces:  Max     0.026084935 RMS     0.007810698

 GradGradGradGradGradGradGradGradGradGradGradGradGradGradGradGradGradGrad
 Berny optimization.
 Using GEDIIS/GDIIS optimizer.
 FormGI is forming the generalized inverse of G from B-inverse, IUseBI=4.
 Internal  Forces:  Max     0.019705736 RMS     0.005150880
 Search for a local minimum.
 Step number   4 out of a maximum of   70
 All quantities printed in internal units (Hartrees-Bohrs-Radians)
 Mixed Optimization -- RFO/linear search
 Update second derivatives using D2CorX and points    2    3    4
 DE= -3.11D-04 DEPred=-1.52D-04 R= 2.04D+00
 TightC=F SS=  1.41D+00  RLast= 1.51D-01 DXNew= 1.4270D+00 4.5394D-01
 Trust test= 2.04D+00 RLast= 1.51D-01 DXMaxT set to 8.49D-01
 ITU=  1  1  1  0
 Use linear search instead of GDIIS.
     Eigenvalues ---    0.00030   0.01846   0.01977   0.02152   0.02309
     Eigenvalues ---    0.02349   0.02466   0.02481   0.04793   0.07269
     Eigenvalues ---    0.13297   0.13396   0.14257   0.16000   0.16011
     Eigenvalues ---    0.16155   0.16543   0.22171   0.23086   0.28488
     Eigenvalues ---    0.34659   0.35053   0.35405   0.35435   0.35806
     Eigenvalues ---    0.36264   0.40178   0.40609   0.45693   0.47077
     Eigenvalues ---    0.48350   0.50714   0.72035
 RFO step:  Lambda=-2.98195402D-03 EMin= 3.01984214D-04
 Quartic linear search produced a step of  2.00000.
 New curvilinear step failed, DQL= 6.26D+00 SP=-6.27D-01.
 ITry= 1 IFail=1 DXMaxC= 0.00D+00 DCOld= 1.00D+10 DXMaxT= 8.49D-01 DXLimC= 3.00D+00 Rises=F
 Iteration  1 RMS(Cart)=  0.00031352 RMS(Int)=  0.01691783
 New curvilinear step failed, DQL= 6.26D+00 SP=-5.47D-01.
 ITry= 2 IFail=1 DXMaxC= 1.70D-03 DCOld= 1.00D+10 DXMaxT= 8.49D-01 DXLimC= 3.00D+00 Rises=F
 Iteration  1 RMS(Cart)=  0.00019771 RMS(Int)=  0.01912903
 Iteration  2 RMS(Cart)=  0.00005115 RMS(Int)=  0.01890852
 Iteration  3 RMS(Cart)=  0.00010423 RMS(Int)=  0.01867591
 Iteration  4 RMS(Cart)=  0.00010858 RMS(Int)=  0.01845293
 Iteration  5 RMS(Cart)=  0.00011232 RMS(Int)=  0.01823691
 Iteration  6 RMS(Cart)=  0.00011185 RMS(Int)=  0.01803008
 Iteration  7 RMS(Cart)=  0.00010967 RMS(Int)=  0.01783088
 Iteration  8 RMS(Cart)=  0.00010850 RMS(Int)=  0.01763959
 Iteration  9 RMS(Cart)=  0.00010502 RMS(Int)=  0.01745545
 Iteration 10 RMS(Cart)=  0.00010361 RMS(Int)=  0.01727816
 Iteration 11 RMS(Cart)=  0.00010014 RMS(Int)=  0.01710751
 Iteration 12 RMS(Cart)=  0.00009857 RMS(Int)=  0.01694286
 Iteration 13 RMS(Cart)=  0.00009528 RMS(Int)=  0.01678431
 Iteration 14 RMS(Cart)=  0.00009374 RMS(Int)=  0.01663108
 Iteration 15 RMS(Cart)=  0.00009067 RMS(Int)=  0.01648337
 Iteration 16 RMS(Cart)=  0.00008921 RMS(Int)=  0.01634048
 Iteration 17 RMS(Cart)=  0.00008633 RMS(Int)=  0.01620259
 Iteration 18 RMS(Cart)=  0.00008500 RMS(Int)=  0.01606909
 Iteration 19 RMS(Cart)=  0.00008242 RMS(Int)=  0.01594005
 Iteration 20 RMS(Cart)=  0.00008121 RMS(Int)=  0.01581497
 Iteration 21 RMS(Cart)=  0.00007880 RMS(Int)=  0.01569393
 Iteration 22 RMS(Cart)=  0.00007762 RMS(Int)=  0.01557660
 Iteration 23 RMS(Cart)=  0.00007551 RMS(Int)=  0.01546284
 Iteration 24 RMS(Cart)=  0.00007440 RMS(Int)=  0.01535250
 Iteration 25 RMS(Cart)=  0.00007249 RMS(Int)=  0.01524535
 Iteration 26 RMS(Cart)=  0.00007157 RMS(Int)=  0.01514122
 Iteration 27 RMS(Cart)=  0.00006976 RMS(Int)=  0.01503997
 Iteration 28 RMS(Cart)=  0.00006889 RMS(Int)=  0.01494152
 Iteration 29 RMS(Cart)=  0.00006727 RMS(Int)=  0.01484563
 Iteration 30 RMS(Cart)=  0.00006657 RMS(Int)=  0.01475220
 Iteration 31 RMS(Cart)=  0.00006510 RMS(Int)=  0.01466102
 Iteration 32 RMS(Cart)=  0.00006458 RMS(Int)=  0.01457196
 Iteration 33 RMS(Cart)=  0.00006338 RMS(Int)=  0.01448474
 Iteration 34 RMS(Cart)=  0.00006312 RMS(Int)=  0.01439919
 Iteration 35 RMS(Cart)=  0.00006231 RMS(Int)=  0.01431493
 Iteration 36 RMS(Cart)=  0.00006251 RMS(Int)=  0.01423157
 Iteration 37 RMS(Cart)=  0.00006254 RMS(Int)=  0.01414839
 Iteration 38 RMS(Cart)=  0.00006417 RMS(Int)=  0.01406414
 Iteration 39 RMS(Cart)=  0.00006684 RMS(Int)=  0.01397657
 Iteration 40 RMS(Cart)=  0.00007547 RMS(Int)=  0.01387873
 Iteration 41 RMS(Cart)=  0.00009376 RMS(Int)=  0.01375694
 Iteration 42 RMS(Cart)=  0.00014358 RMS(Int)=  0.01357004
 Iteration 43 RMS(Cart)=  0.00023258 RMS(Int)=  0.01325787
 Iteration 44 RMS(Cart)=  0.00038251 RMS(Int)=  0.01271497
 Iteration 45 RMS(Cart)=  0.00055825 RMS(Int)=  0.01183499
 Iteration 46 RMS(Cart)=  0.00063154 RMS(Int)=  0.01085272
 New curvilinear step failed, DQL= 6.27D+00 SP=-2.92D-01.
 ITry= 3 IFail=1 DXMaxC= 1.82D-02 DCOld= 1.00D+10 DXMaxT= 8.49D-01 DXLimC= 3.00D+00 Rises=F
 Iteration  1 RMS(Cart)=  0.00012374 RMS(Int)=  0.02157823
 Iteration  2 RMS(Cart)=  0.00008092 RMS(Int)=  0.02118002
 Iteration  3 RMS(Cart)=  0.00011474 RMS(Int)=  0.02079326
 Iteration  4 RMS(Cart)=  0.00011966 RMS(Int)=  0.02042540
 Iteration  5 RMS(Cart)=  0.00011960 RMS(Int)=  0.02007555
 Iteration  6 RMS(Cart)=  0.00011761 RMS(Int)=  0.01974307
 Iteration  7 RMS(Cart)=  0.00011333 RMS(Int)=  0.01942639
 Iteration  8 RMS(Cart)=  0.00011103 RMS(Int)=  0.01912518
 Iteration  9 RMS(Cart)=  0.00010556 RMS(Int)=  0.01883748
 Iteration 10 RMS(Cart)=  0.00010394 RMS(Int)=  0.01856333
 Iteration 11 RMS(Cart)=  0.00009891 RMS(Int)=  0.01830099
 Iteration 12 RMS(Cart)=  0.00009761 RMS(Int)=  0.01805030
 Iteration 13 RMS(Cart)=  0.00009330 RMS(Int)=  0.01781017
 Iteration 14 RMS(Cart)=  0.00009204 RMS(Int)=  0.01758015
 Iteration 15 RMS(Cart)=  0.00008824 RMS(Int)=  0.01735947
 Iteration 16 RMS(Cart)=  0.00008695 RMS(Int)=  0.01714790
 Iteration 17 RMS(Cart)=  0.00008347 RMS(Int)=  0.01694470
 Iteration 18 RMS(Cart)=  0.00008246 RMS(Int)=  0.01674951
 Iteration 19 RMS(Cart)=  0.00007917 RMS(Int)=  0.01656182
 Iteration 20 RMS(Cart)=  0.00007842 RMS(Int)=  0.01638113
 Iteration 21 RMS(Cart)=  0.00007527 RMS(Int)=  0.01620721
 Iteration 22 RMS(Cart)=  0.00007456 RMS(Int)=  0.01603965
 Iteration 23 RMS(Cart)=  0.00007173 RMS(Int)=  0.01587813
 Iteration 24 RMS(Cart)=  0.00007103 RMS(Int)=  0.01572234
 Iteration 25 RMS(Cart)=  0.00006838 RMS(Int)=  0.01557217
 Iteration 26 RMS(Cart)=  0.00006785 RMS(Int)=  0.01542691
 Iteration 27 RMS(Cart)=  0.00006540 RMS(Int)=  0.01528681
 Iteration 28 RMS(Cart)=  0.00006474 RMS(Int)=  0.01515121
 Iteration 29 RMS(Cart)=  0.00006272 RMS(Int)=  0.01502018
 Iteration 30 RMS(Cart)=  0.00006175 RMS(Int)=  0.01489347
 Iteration 31 RMS(Cart)=  0.00006016 RMS(Int)=  0.01477081
 Iteration 32 RMS(Cart)=  0.00005912 RMS(Int)=  0.01465206
 Iteration 33 RMS(Cart)=  0.00005777 RMS(Int)=  0.01453700
 Iteration 34 RMS(Cart)=  0.00005675 RMS(Int)=  0.01442538
 Iteration 35 RMS(Cart)=  0.00005538 RMS(Int)=  0.01431736
 Iteration 36 RMS(Cart)=  0.00005441 RMS(Int)=  0.01421246
 Iteration 37 RMS(Cart)=  0.00005324 RMS(Int)=  0.01411086
 Iteration 38 RMS(Cart)=  0.00005236 RMS(Int)=  0.01401199
 Iteration 39 RMS(Cart)=  0.00005128 RMS(Int)=  0.01391614
 Iteration 40 RMS(Cart)=  0.00005029 RMS(Int)=  0.01382291
 Iteration 41 RMS(Cart)=  0.00004943 RMS(Int)=  0.01373240
 Iteration 42 RMS(Cart)=  0.00004853 RMS(Int)=  0.01364419
 Iteration 43 RMS(Cart)=  0.00004772 RMS(Int)=  0.01355847
 Iteration 44 RMS(Cart)=  0.00004658 RMS(Int)=  0.01347515
 Iteration 45 RMS(Cart)=  0.00004612 RMS(Int)=  0.01339398
 Iteration 46 RMS(Cart)=  0.00004530 RMS(Int)=  0.01331468
 Iteration 47 RMS(Cart)=  0.00004464 RMS(Int)=  0.01323746
 Iteration 48 RMS(Cart)=  0.00004386 RMS(Int)=  0.01316196
 Iteration 49 RMS(Cart)=  0.00004330 RMS(Int)=  0.01308833
 Iteration 50 RMS(Cart)=  0.00004270 RMS(Int)=  0.01301615
 Iteration 51 RMS(Cart)=  0.00004224 RMS(Int)=  0.01294554
 Iteration 52 RMS(Cart)=  0.00004169 RMS(Int)=  0.01287618
 Iteration 53 RMS(Cart)=  0.00004157 RMS(Int)=  0.01280791
 Iteration 54 RMS(Cart)=  0.00004122 RMS(Int)=  0.01274043
 Iteration 55 RMS(Cart)=  0.00004150 RMS(Int)=  0.01267343
 Iteration 56 RMS(Cart)=  0.00004172 RMS(Int)=  0.01260621
 Iteration 57 RMS(Cart)=  0.00004329 RMS(Int)=  0.01253724
 Iteration 58 RMS(Cart)=  0.00004673 RMS(Int)=  0.01246291
 Iteration 59 RMS(Cart)=  0.00005456 RMS(Int)=  0.01237693
 Iteration 60 RMS(Cart)=  0.00007763 RMS(Int)=  0.01225371
 Iteration 61 RMS(Cart)=  0.00011628 RMS(Int)=  0.01206690
 Iteration 62 RMS(Cart)=  0.00019518 RMS(Int)=  0.01173783
 Iteration 63 RMS(Cart)=  0.00030845 RMS(Int)=  0.01117007
 Iteration 64 RMS(Cart)=  0.00041028 RMS(Int)=  0.01031357
 Iteration 65 RMS(Cart)=  0.00041439 RMS(Int)=  0.00956837
 New curvilinear step failed, DQL= 6.28D+00 SP=-1.82D-01.
 ITry= 4 IFail=1 DXMaxC= 1.89D-02 DCOld= 1.00D+10 DXMaxT= 8.49D-01 DXLimC= 3.00D+00 Rises=F
 Iteration  1 RMS(Cart)=  0.00013451 RMS(Int)=  0.02298279
 Iteration  2 RMS(Cart)=  0.00007745 RMS(Int)=  0.02246000
 Iteration  3 RMS(Cart)=  0.00011076 RMS(Int)=  0.02195901
 Iteration  4 RMS(Cart)=  0.00011435 RMS(Int)=  0.02148598
 Iteration  5 RMS(Cart)=  0.00011310 RMS(Int)=  0.02103851
 Iteration  6 RMS(Cart)=  0.00011079 RMS(Int)=  0.02061583
 Iteration  7 RMS(Cart)=  0.00010563 RMS(Int)=  0.02021517
 Iteration  8 RMS(Cart)=  0.00010384 RMS(Int)=  0.01983591
 Iteration  9 RMS(Cart)=  0.00009754 RMS(Int)=  0.01947549
 Iteration 10 RMS(Cart)=  0.00009662 RMS(Int)=  0.01913342
 Iteration 11 RMS(Cart)=  0.00009099 RMS(Int)=  0.01880752
 Iteration 12 RMS(Cart)=  0.00009019 RMS(Int)=  0.01849733
 Iteration 13 RMS(Cart)=  0.00008569 RMS(Int)=  0.01820142
 Iteration 14 RMS(Cart)=  0.00008489 RMS(Int)=  0.01791873
 Iteration 15 RMS(Cart)=  0.00008092 RMS(Int)=  0.01764879
 Iteration 16 RMS(Cart)=  0.00008015 RMS(Int)=  0.01739041
 Iteration 17 RMS(Cart)=  0.00007658 RMS(Int)=  0.01714320
 Iteration 18 RMS(Cart)=  0.00007582 RMS(Int)=  0.01690641
 Iteration 19 RMS(Cart)=  0.00007264 RMS(Int)=  0.01667929
 Iteration 20 RMS(Cart)=  0.00007195 RMS(Int)=  0.01646150
 Iteration 21 RMS(Cart)=  0.00006900 RMS(Int)=  0.01625220
 Iteration 22 RMS(Cart)=  0.00006840 RMS(Int)=  0.01605124
 Iteration 23 RMS(Cart)=  0.00006560 RMS(Int)=  0.01585798
 Iteration 24 RMS(Cart)=  0.00006522 RMS(Int)=  0.01567188
 Iteration 25 RMS(Cart)=  0.00006249 RMS(Int)=  0.01549285
 Iteration 26 RMS(Cart)=  0.00006217 RMS(Int)=  0.01532013
 Iteration 27 RMS(Cart)=  0.00005963 RMS(Int)=  0.01515391
 Iteration 28 RMS(Cart)=  0.00005920 RMS(Int)=  0.01499347
 Iteration 29 RMS(Cart)=  0.00005714 RMS(Int)=  0.01483865
 Iteration 30 RMS(Cart)=  0.00005662 RMS(Int)=  0.01468888
 Iteration 31 RMS(Cart)=  0.00005464 RMS(Int)=  0.01454445
 Iteration 32 RMS(Cart)=  0.00005403 RMS(Int)=  0.01440465
 Iteration 33 RMS(Cart)=  0.00005240 RMS(Int)=  0.01426959
 Iteration 34 RMS(Cart)=  0.00005161 RMS(Int)=  0.01413890
 Iteration 35 RMS(Cart)=  0.00005035 RMS(Int)=  0.01401231
 Iteration 36 RMS(Cart)=  0.00004924 RMS(Int)=  0.01389005
 Iteration 37 RMS(Cart)=  0.00004836 RMS(Int)=  0.01377138
 Iteration 38 RMS(Cart)=  0.00004735 RMS(Int)=  0.01365644
 Iteration 39 RMS(Cart)=  0.00004650 RMS(Int)=  0.01354479
 Iteration 40 RMS(Cart)=  0.00004549 RMS(Int)=  0.01343653
 Iteration 41 RMS(Cart)=  0.00004455 RMS(Int)=  0.01333154
 Iteration 42 RMS(Cart)=  0.00004368 RMS(Int)=  0.01322961
 Iteration 43 RMS(Cart)=  0.00004303 RMS(Int)=  0.01313042
 Iteration 44 RMS(Cart)=  0.00004202 RMS(Int)=  0.01303411
 Iteration 45 RMS(Cart)=  0.00004116 RMS(Int)=  0.01294076
 Iteration 46 RMS(Cart)=  0.00004041 RMS(Int)=  0.01284998
 Iteration 47 RMS(Cart)=  0.00003998 RMS(Int)=  0.01276144
 Iteration 48 RMS(Cart)=  0.00003899 RMS(Int)=  0.01267536
 Iteration 49 RMS(Cart)=  0.00003855 RMS(Int)=  0.01259145
 Iteration 50 RMS(Cart)=  0.00003772 RMS(Int)=  0.01250968
 Iteration 51 RMS(Cart)=  0.00003716 RMS(Int)=  0.01243008
 Iteration 52 RMS(Cart)=  0.00003643 RMS(Int)=  0.01235245
 Iteration 53 RMS(Cart)=  0.00003623 RMS(Int)=  0.01227649
 Iteration 54 RMS(Cart)=  0.00003523 RMS(Int)=  0.01220250
 Iteration 55 RMS(Cart)=  0.00003528 RMS(Int)=  0.01212992
 Iteration 56 RMS(Cart)=  0.00003451 RMS(Int)=  0.01205886
 Iteration 57 RMS(Cart)=  0.00003424 RMS(Int)=  0.01198914
 Iteration 58 RMS(Cart)=  0.00003395 RMS(Int)=  0.01192062
 Iteration 59 RMS(Cart)=  0.00003377 RMS(Int)=  0.01185297
 Iteration 60 RMS(Cart)=  0.00003359 RMS(Int)=  0.01178596
 Iteration 61 RMS(Cart)=  0.00003402 RMS(Int)=  0.01171894
 Iteration 62 RMS(Cart)=  0.00003426 RMS(Int)=  0.01165160
 Iteration 63 RMS(Cart)=  0.00003623 RMS(Int)=  0.01158115
 Iteration 64 RMS(Cart)=  0.00003961 RMS(Int)=  0.01150406
 Iteration 65 RMS(Cart)=  0.00005443 RMS(Int)=  0.01139870
 Iteration 66 RMS(Cart)=  0.00006474 RMS(Int)=  0.01127198
 Iteration 67 RMS(Cart)=  0.00012750 RMS(Int)=  0.01101642
 Iteration 68 RMS(Cart)=  0.00016924 RMS(Int)=  0.01065199
 Iteration 69 RMS(Cart)=  0.00027949 RMS(Int)=  0.00998867
 Iteration 70 RMS(Cart)=  0.00034729 RMS(Int)=  0.00904946
 Iteration 71 RMS(Cart)=  0.00032447 RMS(Int)=  0.00847524
 New curvilinear step failed, DQL= 6.28D+00 SP=-1.71D-01.
 ITry= 5 IFail=1 DXMaxC= 1.77D-02 DCOld= 1.00D+10 DXMaxT= 8.49D-01 DXLimC= 3.00D+00 Rises=F
 Iteration  1 RMS(Cart)=  0.00014640 RMS(Int)=  0.02457959
 Iteration  2 RMS(Cart)=  0.00007478 RMS(Int)=  0.02391121
 Iteration  3 RMS(Cart)=  0.00010527 RMS(Int)=  0.02327853
 Iteration  4 RMS(Cart)=  0.00010744 RMS(Int)=  0.02268531
 Iteration  5 RMS(Cart)=  0.00010462 RMS(Int)=  0.02212785
 Iteration  6 RMS(Cart)=  0.00010214 RMS(Int)=  0.02160422
 Iteration  7 RMS(Cart)=  0.00009614 RMS(Int)=  0.02111064
 Iteration  8 RMS(Cart)=  0.00009493 RMS(Int)=  0.02064572
 Iteration  9 RMS(Cart)=  0.00008810 RMS(Int)=  0.02020598
 Iteration 10 RMS(Cart)=  0.00008785 RMS(Int)=  0.01979065
 Iteration 11 RMS(Cart)=  0.00008167 RMS(Int)=  0.01939663
 Iteration 12 RMS(Cart)=  0.00008148 RMS(Int)=  0.01902301
 Iteration 13 RMS(Cart)=  0.00007674 RMS(Int)=  0.01866795
 Iteration 14 RMS(Cart)=  0.00007630 RMS(Int)=  0.01833031
 Iteration 15 RMS(Cart)=  0.00007256 RMS(Int)=  0.01800871
 Iteration 16 RMS(Cart)=  0.00007205 RMS(Int)=  0.01770187
 Iteration 17 RMS(Cart)=  0.00006872 RMS(Int)=  0.01740899
 Iteration 18 RMS(Cart)=  0.00006822 RMS(Int)=  0.01712904
 Iteration 19 RMS(Cart)=  0.00006514 RMS(Int)=  0.01686129
 Iteration 20 RMS(Cart)=  0.00006478 RMS(Int)=  0.01660484
 Iteration 21 RMS(Cart)=  0.00006171 RMS(Int)=  0.01635945
 Iteration 22 RMS(Cart)=  0.00006155 RMS(Int)=  0.01612408
 Iteration 23 RMS(Cart)=  0.00005882 RMS(Int)=  0.01589805
 Iteration 24 RMS(Cart)=  0.00005855 RMS(Int)=  0.01568109
 Iteration 25 RMS(Cart)=  0.00005600 RMS(Int)=  0.01547243
 Iteration 26 RMS(Cart)=  0.00005573 RMS(Int)=  0.01527192
 Iteration 27 RMS(Cart)=  0.00005326 RMS(Int)=  0.01507919
 Iteration 28 RMS(Cart)=  0.00005315 RMS(Int)=  0.01489350
 Iteration 29 RMS(Cart)=  0.00005111 RMS(Int)=  0.01471427
 Iteration 30 RMS(Cart)=  0.00005065 RMS(Int)=  0.01454156
 Iteration 31 RMS(Cart)=  0.00004878 RMS(Int)=  0.01437495
 Iteration 32 RMS(Cart)=  0.00004839 RMS(Int)=  0.01421401
 Iteration 33 RMS(Cart)=  0.00004680 RMS(Int)=  0.01405838
 Iteration 34 RMS(Cart)=  0.00004603 RMS(Int)=  0.01390838
 Iteration 35 RMS(Cart)=  0.00004464 RMS(Int)=  0.01376349
 Iteration 36 RMS(Cart)=  0.00004421 RMS(Int)=  0.01362314
 Iteration 37 RMS(Cart)=  0.00004306 RMS(Int)=  0.01348699
 Iteration 38 RMS(Cart)=  0.00004208 RMS(Int)=  0.01335567
 Iteration 39 RMS(Cart)=  0.00004089 RMS(Int)=  0.01322891
 Iteration 40 RMS(Cart)=  0.00004076 RMS(Int)=  0.01310537
 Iteration 41 RMS(Cart)=  0.00003950 RMS(Int)=  0.01298575
 Iteration 42 RMS(Cart)=  0.00003902 RMS(Int)=  0.01286943
 Iteration 43 RMS(Cart)=  0.00003788 RMS(Int)=  0.01275682
 Iteration 44 RMS(Cart)=  0.00003730 RMS(Int)=  0.01264750
 Iteration 45 RMS(Cart)=  0.00003645 RMS(Int)=  0.01254141
 Iteration 46 RMS(Cart)=  0.00003595 RMS(Int)=  0.01243817
 Iteration 47 RMS(Cart)=  0.00003489 RMS(Int)=  0.01233829
 Iteration 48 RMS(Cart)=  0.00003459 RMS(Int)=  0.01224094
 Iteration 49 RMS(Cart)=  0.00003409 RMS(Int)=  0.01214582
 Iteration 50 RMS(Cart)=  0.00003315 RMS(Int)=  0.01205357
 Iteration 51 RMS(Cart)=  0.00003262 RMS(Int)=  0.01196376
 Iteration 52 RMS(Cart)=  0.00003209 RMS(Int)=  0.01187624
 Iteration 53 RMS(Cart)=  0.00003149 RMS(Int)=  0.01179101
 Iteration 54 RMS(Cart)=  0.00003090 RMS(Int)=  0.01170804
 Iteration 55 RMS(Cart)=  0.00003056 RMS(Int)=  0.01162699
 Iteration 56 RMS(Cart)=  0.00003013 RMS(Int)=  0.01154770
 Iteration 57 RMS(Cart)=  0.00002949 RMS(Int)=  0.01147040
 Iteration 58 RMS(Cart)=  0.00002916 RMS(Int)=  0.01139475
 Iteration 59 RMS(Cart)=  0.00002885 RMS(Int)=  0.01132064
 Iteration 60 RMS(Cart)=  0.00002834 RMS(Int)=  0.01124803
 Iteration 61 RMS(Cart)=  0.00002812 RMS(Int)=  0.01117676
 Iteration 62 RMS(Cart)=  0.00002775 RMS(Int)=  0.01110645
 Iteration 63 RMS(Cart)=  0.00002781 RMS(Int)=  0.01103721
 Iteration 64 RMS(Cart)=  0.00002785 RMS(Int)=  0.01096787
 Iteration 65 RMS(Cart)=  0.00002853 RMS(Int)=  0.01089780
 Iteration 66 RMS(Cart)=  0.00002852 RMS(Int)=  0.01082834
 Iteration 67 RMS(Cart)=  0.00003083 RMS(Int)=  0.01075353
 Iteration 68 RMS(Cart)=  0.00002987 RMS(Int)=  0.01068164
 Iteration 69 RMS(Cart)=  0.00004765 RMS(Int)=  0.01056592
 Iteration 70 RMS(Cart)=  0.00005228 RMS(Int)=  0.01043777
 Iteration 71 RMS(Cart)=  0.00008333 RMS(Int)=  0.01023010
 Iteration 72 RMS(Cart)=  0.00013209 RMS(Int)=  0.00987949
 Iteration 73 RMS(Cart)=  0.00020283 RMS(Int)=  0.00928535
 Iteration 74 RMS(Cart)=  0.00027254 RMS(Int)=  0.00836257
 Iteration 75 RMS(Cart)=  0.00028880 RMS(Int)=  0.00753893
 Iteration 76 RMS(Cart)=  0.00024265 RMS(Int)=  0.00742023
 New curvilinear step failed, DQL= 6.28D+00 SP=-6.94D-02.
 ITry= 6 IFail=1 DXMaxC= 1.64D-02 DCOld= 1.00D+10 DXMaxT= 8.49D-01 DXLimC= 3.00D+00 Rises=F
 Iteration  1 RMS(Cart)=  0.00015915 RMS(Int)=  0.02633096
 Iteration  2 RMS(Cart)=  0.00007387 RMS(Int)=  0.02549655
 Iteration  3 RMS(Cart)=  0.00009962 RMS(Int)=  0.02471531
 Iteration  4 RMS(Cart)=  0.00010022 RMS(Int)=  0.02398768
 Iteration  5 RMS(Cart)=  0.00009539 RMS(Int)=  0.02330878
 Iteration  6 RMS(Cart)=  0.00009252 RMS(Int)=  0.02267498
 Iteration  7 RMS(Cart)=  0.00008564 RMS(Int)=  0.02208108
 Iteration  8 RMS(Cart)=  0.00008487 RMS(Int)=  0.02152443
 Iteration  9 RMS(Cart)=  0.00007765 RMS(Int)=  0.02100130
 Iteration 10 RMS(Cart)=  0.00007840 RMS(Int)=  0.02050846
 Iteration 11 RMS(Cart)=  0.00007148 RMS(Int)=  0.02004355
 Iteration 12 RMS(Cart)=  0.00007199 RMS(Int)=  0.01960447
 Iteration 13 RMS(Cart)=  0.00006690 RMS(Int)=  0.01918892
 Iteration 14 RMS(Cart)=  0.00006717 RMS(Int)=  0.01879432
 Iteration 15 RMS(Cart)=  0.00006325 RMS(Int)=  0.01842000
 Iteration 16 RMS(Cart)=  0.00006314 RMS(Int)=  0.01806398
 Iteration 17 RMS(Cart)=  0.00006009 RMS(Int)=  0.01772491
 Iteration 18 RMS(Cart)=  0.00005968 RMS(Int)=  0.01740212
 Iteration 19 RMS(Cart)=  0.00005706 RMS(Int)=  0.01709378
 Iteration 20 RMS(Cart)=  0.00005672 RMS(Int)=  0.01679949
 Iteration 21 RMS(Cart)=  0.00005402 RMS(Int)=  0.01651838
 Iteration 22 RMS(Cart)=  0.00005421 RMS(Int)=  0.01624864
 Iteration 23 RMS(Cart)=  0.00005153 RMS(Int)=  0.01598999
 Iteration 24 RMS(Cart)=  0.00005154 RMS(Int)=  0.01574185
 Iteration 25 RMS(Cart)=  0.00004876 RMS(Int)=  0.01550431
 Iteration 26 RMS(Cart)=  0.00004913 RMS(Int)=  0.01527576
 Iteration 27 RMS(Cart)=  0.00004647 RMS(Int)=  0.01505656
 Iteration 28 RMS(Cart)=  0.00004694 RMS(Int)=  0.01484497
 Iteration 29 RMS(Cart)=  0.00004438 RMS(Int)=  0.01464170
 Iteration 30 RMS(Cart)=  0.00004433 RMS(Int)=  0.01444635
 Iteration 31 RMS(Cart)=  0.00004258 RMS(Int)=  0.01425773
 Iteration 32 RMS(Cart)=  0.00004233 RMS(Int)=  0.01407603
 Iteration 33 RMS(Cart)=  0.00004087 RMS(Int)=  0.01390010
 Iteration 34 RMS(Cart)=  0.00004029 RMS(Int)=  0.01373072
 Iteration 35 RMS(Cart)=  0.00003912 RMS(Int)=  0.01356656
 Iteration 36 RMS(Cart)=  0.00003859 RMS(Int)=  0.01340797
 Iteration 37 RMS(Cart)=  0.00003704 RMS(Int)=  0.01325531
 Iteration 38 RMS(Cart)=  0.00003690 RMS(Int)=  0.01310737
 Iteration 39 RMS(Cart)=  0.00003546 RMS(Int)=  0.01296484
 Iteration 40 RMS(Cart)=  0.00003583 RMS(Int)=  0.01282533
 Iteration 41 RMS(Cart)=  0.00003407 RMS(Int)=  0.01269098
 Iteration 42 RMS(Cart)=  0.00003379 RMS(Int)=  0.01256073
 Iteration 43 RMS(Cart)=  0.00003303 RMS(Int)=  0.01243407
 Iteration 44 RMS(Cart)=  0.00003231 RMS(Int)=  0.01231151
 Iteration 45 RMS(Cart)=  0.00003181 RMS(Int)=  0.01219202
 Iteration 46 RMS(Cart)=  0.00003078 RMS(Int)=  0.01207687
 Iteration 47 RMS(Cart)=  0.00003032 RMS(Int)=  0.01196497
 Iteration 48 RMS(Cart)=  0.00002959 RMS(Int)=  0.01185682
 Iteration 49 RMS(Cart)=  0.00002945 RMS(Int)=  0.01175100
 Iteration 50 RMS(Cart)=  0.00002901 RMS(Int)=  0.01164764
 Iteration 51 RMS(Cart)=  0.00002820 RMS(Int)=  0.01154710
 Iteration 52 RMS(Cart)=  0.00002750 RMS(Int)=  0.01144974
 Iteration 53 RMS(Cart)=  0.00002741 RMS(Int)=  0.01135420
 Iteration 54 RMS(Cart)=  0.00002641 RMS(Int)=  0.01126189
 Iteration 55 RMS(Cart)=  0.00002618 RMS(Int)=  0.01117176
 Iteration 56 RMS(Cart)=  0.00002566 RMS(Int)=  0.01108415
 Iteration 57 RMS(Cart)=  0.00002538 RMS(Int)=  0.01099845
 Iteration 58 RMS(Cart)=  0.00002508 RMS(Int)=  0.01091467
 Iteration 59 RMS(Cart)=  0.00002454 RMS(Int)=  0.01083275
 Iteration 60 RMS(Cart)=  0.00002405 RMS(Int)=  0.01075294
 Iteration 61 RMS(Cart)=  0.00002400 RMS(Int)=  0.01067463
 Iteration 62 RMS(Cart)=  0.00002361 RMS(Int)=  0.01059791
 Iteration 63 RMS(Cart)=  0.00002325 RMS(Int)=  0.01052262
 Iteration 64 RMS(Cart)=  0.00002316 RMS(Int)=  0.01044860
 Iteration 65 RMS(Cart)=  0.00002275 RMS(Int)=  0.01037567
 Iteration 66 RMS(Cart)=  0.00002300 RMS(Int)=  0.01030277
 Iteration 67 RMS(Cart)=  0.00002274 RMS(Int)=  0.01023114
 Iteration 68 RMS(Cart)=  0.00002328 RMS(Int)=  0.01015855
 Iteration 69 RMS(Cart)=  0.00002314 RMS(Int)=  0.01008644
 Iteration 70 RMS(Cart)=  0.00002375 RMS(Int)=  0.01001339
 Iteration 71 RMS(Cart)=  0.00003030 RMS(Int)=  0.00991864
 Iteration 72 RMS(Cart)=  0.00003491 RMS(Int)=  0.00981083
 Iteration 73 RMS(Cart)=  0.00006575 RMS(Int)=  0.00960093
 Iteration 74 RMS(Cart)=  0.00006247 RMS(Int)=  0.00939686
 Iteration 75 RMS(Cart)=  0.00014856 RMS(Int)=  0.00886957
 Iteration 76 RMS(Cart)=  0.00018045 RMS(Int)=  0.00813986
 Iteration 77 RMS(Cart)=  0.00024616 RMS(Int)=  0.00704089
 Iteration 78 RMS(Cart)=  0.00025117 RMS(Int)=  0.00646348
 Iteration 79 RMS(Cart)=  0.00023649 RMS(Int)=  0.00641563
 SLEqS3 Cycle:   241 Max:0.986700E-03 RMS:0.261687E-03 Conv:0.942812E-03
 New curvilinear step failed, DQL= 6.28D+00 SP=-6.39D-02.
 ITry= 7 IFail=1 DXMaxC= 1.46D-02 DCOld= 1.00D+10 DXMaxT= 8.49D-01 DXLimC= 3.00D+00 Rises=F
 Iteration  1 RMS(Cart)=  0.00017257 RMS(Int)=  0.02820543
 Iteration  2 RMS(Cart)=  0.00007553 RMS(Int)=  0.02718425
 Iteration  3 RMS(Cart)=  0.00009526 RMS(Int)=  0.02623762
 Iteration  4 RMS(Cart)=  0.00009384 RMS(Int)=  0.02536277
 Iteration  5 RMS(Cart)=  0.00008641 RMS(Int)=  0.02455289
 Iteration  6 RMS(Cart)=  0.00008261 RMS(Int)=  0.02380152
 Iteration  7 RMS(Cart)=  0.00007459 RMS(Int)=  0.02310223
 Iteration  8 RMS(Cart)=  0.00007392 RMS(Int)=  0.02245015
 Iteration  9 RMS(Cart)=  0.00006670 RMS(Int)=  0.02184024
 Iteration 10 RMS(Cart)=  0.00006796 RMS(Int)=  0.02126883
 Iteration 11 RMS(Cart)=  0.00006122 RMS(Int)=  0.02073136
 Iteration 12 RMS(Cart)=  0.00006208 RMS(Int)=  0.02022574
 Iteration 13 RMS(Cart)=  0.00005681 RMS(Int)=  0.01974846
 Iteration 14 RMS(Cart)=  0.00005716 RMS(Int)=  0.01929785
 Iteration 15 RMS(Cart)=  0.00005364 RMS(Int)=  0.01887092
 Iteration 16 RMS(Cart)=  0.00005368 RMS(Int)=  0.01846620
 Iteration 17 RMS(Cart)=  0.00005092 RMS(Int)=  0.01808187
 Iteration 18 RMS(Cart)=  0.00005087 RMS(Int)=  0.01771632
 Iteration 19 RMS(Cart)=  0.00004852 RMS(Int)=  0.01736779
 Iteration 20 RMS(Cart)=  0.00004838 RMS(Int)=  0.01703549
 Iteration 21 RMS(Cart)=  0.00004588 RMS(Int)=  0.01671898
 Iteration 22 RMS(Cart)=  0.00004620 RMS(Int)=  0.01641588
 Iteration 23 RMS(Cart)=  0.00004376 RMS(Int)=  0.01612602
 Iteration 24 RMS(Cart)=  0.00004390 RMS(Int)=  0.01584861
 Iteration 25 RMS(Cart)=  0.00004159 RMS(Int)=  0.01558284
 Iteration 26 RMS(Cart)=  0.00004193 RMS(Int)=  0.01532776
 Iteration 27 RMS(Cart)=  0.00003946 RMS(Int)=  0.01508341
 Iteration 28 RMS(Cart)=  0.00004029 RMS(Int)=  0.01484740
 Iteration 29 RMS(Cart)=  0.00003752 RMS(Int)=  0.01462138
 Iteration 30 RMS(Cart)=  0.00003815 RMS(Int)=  0.01440358
 Iteration 31 RMS(Cart)=  0.00003598 RMS(Int)=  0.01419388
 Iteration 32 RMS(Cart)=  0.00003609 RMS(Int)=  0.01399239
 Iteration 33 RMS(Cart)=  0.00003468 RMS(Int)=  0.01379707
 Iteration 34 RMS(Cart)=  0.00003445 RMS(Int)=  0.01360899
 Iteration 35 RMS(Cart)=  0.00003287 RMS(Int)=  0.01342756
 Iteration 36 RMS(Cart)=  0.00003313 RMS(Int)=  0.01325147
 Iteration 37 RMS(Cart)=  0.00003123 RMS(Int)=  0.01308235
 Iteration 38 RMS(Cart)=  0.00003152 RMS(Int)=  0.01291812
 Iteration 39 RMS(Cart)=  0.00002964 RMS(Int)=  0.01276099
 Iteration 40 RMS(Cart)=  0.00003026 RMS(Int)=  0.01260757
 Iteration 41 RMS(Cart)=  0.00002884 RMS(Int)=  0.01245940
 Iteration 42 RMS(Cart)=  0.00002877 RMS(Int)=  0.01231539
 Iteration 43 RMS(Cart)=  0.00002779 RMS(Int)=  0.01217580
 Iteration 44 RMS(Cart)=  0.00002729 RMS(Int)=  0.01204076
 Iteration 45 RMS(Cart)=  0.00002660 RMS(Int)=  0.01190984
 Iteration 46 RMS(Cart)=  0.00002608 RMS(Int)=  0.01178315
 Iteration 47 RMS(Cart)=  0.00002575 RMS(Int)=  0.01165961
 Iteration 48 RMS(Cart)=  0.00002554 RMS(Int)=  0.01153869
 Iteration 49 RMS(Cart)=  0.00002430 RMS(Int)=  0.01142231
 Iteration 50 RMS(Cart)=  0.00002453 RMS(Int)=  0.01130809
 Iteration 51 RMS(Cart)=  0.00002382 RMS(Int)=  0.01119676
 Iteration 52 RMS(Cart)=  0.00002290 RMS(Int)=  0.01108948
 Iteration 53 RMS(Cart)=  0.00002268 RMS(Int)=  0.01098514
 Iteration 54 RMS(Cart)=  0.00002244 RMS(Int)=  0.01088322
 Iteration 55 RMS(Cart)=  0.00002164 RMS(Int)=  0.01078480
 Iteration 56 RMS(Cart)=  0.00002196 RMS(Int)=  0.01068782
 Iteration 57 RMS(Cart)=  0.00002148 RMS(Int)=  0.01059280
 Iteration 58 RMS(Cart)=  0.00002083 RMS(Int)=  0.01050016
 Iteration 59 RMS(Cart)=  0.00002045 RMS(Int)=  0.01040991
 Iteration 60 RMS(Cart)=  0.00002017 RMS(Int)=  0.01032158
 Iteration 61 RMS(Cart)=  0.00001976 RMS(Int)=  0.01023547
 Iteration 62 RMS(Cart)=  0.00001966 RMS(Int)=  0.01015095
 Iteration 63 RMS(Cart)=  0.00001910 RMS(Int)=  0.01006828
 Iteration 64 RMS(Cart)=  0.00001940 RMS(Int)=  0.00998720
 Iteration 65 RMS(Cart)=  0.00001844 RMS(Int)=  0.00990781
 Iteration 66 RMS(Cart)=  0.00001852 RMS(Int)=  0.00982868
 Iteration 67 RMS(Cart)=  0.00001860 RMS(Int)=  0.00975191
 Iteration 68 RMS(Cart)=  0.00001837 RMS(Int)=  0.00967500
 Iteration 69 RMS(Cart)=  0.00001847 RMS(Int)=  0.00959908
 Iteration 70 RMS(Cart)=  0.00001925 RMS(Int)=  0.00951931
 Iteration 71 RMS(Cart)=  0.00001818 RMS(Int)=  0.00944669
 Iteration 72 RMS(Cart)=  0.00001865 RMS(Int)=  0.00936944
 Iteration 73 RMS(Cart)=  0.00001979 RMS(Int)=  0.00928879
 Iteration 74 RMS(Cart)=  0.00004100 RMS(Int)=  0.00911632
 Iteration 75 RMS(Cart)=  0.00002295 RMS(Int)=  0.00902209
 Iteration 76 RMS(Cart)=  0.00004494 RMS(Int)=  0.00883358
 Iteration 77 RMS(Cart)=  0.00008019 RMS(Int)=  0.00847821
 Iteration 78 RMS(Cart)=  0.00012182 RMS(Int)=  0.00788393
 Iteration 79 RMS(Cart)=  0.00017708 RMS(Int)=  0.00690609
 Iteration 80 RMS(Cart)=  0.00022034 RMS(Int)=  0.00577189
 Iteration 81 RMS(Cart)=  0.00018982 RMS(Int)=  0.00544316
 New curvilinear step failed, DQL= 6.28D+00 SP=-1.24D-01.
 ITry= 8 IFail=1 DXMaxC= 1.20D-02 DCOld= 1.00D+10 DXMaxT= 8.49D-01 DXLimC= 3.00D+00 Rises=F
 Iteration  1 RMS(Cart)=  0.00018652 RMS(Int)=  0.03017742
 Iteration  2 RMS(Cart)=  0.00008004 RMS(Int)=  0.02894844
 Iteration  3 RMS(Cart)=  0.00009337 RMS(Int)=  0.02782012
 Iteration  4 RMS(Cart)=  0.00008925 RMS(Int)=  0.02678618
 Iteration  5 RMS(Cart)=  0.00007833 RMS(Int)=  0.02583686
 Iteration  6 RMS(Cart)=  0.00007278 RMS(Int)=  0.02496263
 Iteration  7 RMS(Cart)=  0.00006330 RMS(Int)=  0.02415471
 Iteration  8 RMS(Cart)=  0.00006219 RMS(Int)=  0.02340511
 Iteration  9 RMS(Cart)=  0.00005516 RMS(Int)=  0.02270729
 Iteration 10 RMS(Cart)=  0.00005674 RMS(Int)=  0.02205688
 Iteration 11 RMS(Cart)=  0.00005081 RMS(Int)=  0.02144809
 Iteration 12 RMS(Cart)=  0.00005204 RMS(Int)=  0.02087705
 Iteration 13 RMS(Cart)=  0.00004696 RMS(Int)=  0.02033922
 Iteration 14 RMS(Cart)=  0.00004736 RMS(Int)=  0.01983186
 Iteration 15 RMS(Cart)=  0.00004368 RMS(Int)=  0.01935382
 Iteration 16 RMS(Cart)=  0.00004415 RMS(Int)=  0.01890094
 Iteration 17 RMS(Cart)=  0.00004164 RMS(Int)=  0.01847177
 Iteration 18 RMS(Cart)=  0.00004174 RMS(Int)=  0.01806448
 Iteration 19 RMS(Cart)=  0.00003962 RMS(Int)=  0.01767768
 Iteration 20 RMS(Cart)=  0.00003952 RMS(Int)=  0.01731062
 Iteration 21 RMS(Cart)=  0.00003792 RMS(Int)=  0.01696002
 Iteration 22 RMS(Cart)=  0.00003799 RMS(Int)=  0.01662522
 Iteration 23 RMS(Cart)=  0.00003559 RMS(Int)=  0.01630721
 Iteration 24 RMS(Cart)=  0.00003629 RMS(Int)=  0.01600240
 Iteration 25 RMS(Cart)=  0.00003414 RMS(Int)=  0.01571088
 Iteration 26 RMS(Cart)=  0.00003495 RMS(Int)=  0.01543006
 Iteration 27 RMS(Cart)=  0.00003238 RMS(Int)=  0.01516160
 Iteration 28 RMS(Cart)=  0.00003323 RMS(Int)=  0.01490305
 Iteration 29 RMS(Cart)=  0.00003067 RMS(Int)=  0.01465578
 Iteration 30 RMS(Cart)=  0.00003199 RMS(Int)=  0.01441599
 Iteration 31 RMS(Cart)=  0.00002925 RMS(Int)=  0.01418636
 Iteration 32 RMS(Cart)=  0.00003022 RMS(Int)=  0.01396433
 Iteration 33 RMS(Cart)=  0.00002777 RMS(Int)=  0.01375163
 Iteration 34 RMS(Cart)=  0.00002901 RMS(Int)=  0.01354452
 Iteration 35 RMS(Cart)=  0.00002579 RMS(Int)=  0.01334902
 Iteration 36 RMS(Cart)=  0.00002787 RMS(Int)=  0.01315666
 Iteration 37 RMS(Cart)=  0.00002531 RMS(Int)=  0.01297249
 Iteration 38 RMS(Cart)=  0.00002555 RMS(Int)=  0.01279504
 Iteration 39 RMS(Cart)=  0.00002465 RMS(Int)=  0.01262292
 Iteration 40 RMS(Cart)=  0.00002506 RMS(Int)=  0.01245446
 Iteration 41 RMS(Cart)=  0.00002303 RMS(Int)=  0.01229378
 Iteration 42 RMS(Cart)=  0.00002377 RMS(Int)=  0.01213634
 Iteration 43 RMS(Cart)=  0.00002278 RMS(Int)=  0.01198338
 Iteration 44 RMS(Cart)=  0.00002237 RMS(Int)=  0.01183502
 Iteration 45 RMS(Cart)=  0.00002131 RMS(Int)=  0.01169247
 Iteration 46 RMS(Cart)=  0.00002185 RMS(Int)=  0.01155200
 Iteration 47 RMS(Cart)=  0.00002006 RMS(Int)=  0.01141862
 Iteration 48 RMS(Cart)=  0.00002067 RMS(Int)=  0.01128761
 Iteration 49 RMS(Cart)=  0.00001978 RMS(Int)=  0.01116103
 Iteration 50 RMS(Cart)=  0.00001981 RMS(Int)=  0.01103701
 Iteration 51 RMS(Cart)=  0.00001983 RMS(Int)=  0.01091469
 Iteration 52 RMS(Cart)=  0.00001851 RMS(Int)=  0.01079689
 Iteration 53 RMS(Cart)=  0.00001804 RMS(Int)=  0.01068367
 Iteration 54 RMS(Cart)=  0.00001791 RMS(Int)=  0.01057331
 Iteration 55 RMS(Cart)=  0.00001752 RMS(Int)=  0.01046665
 Iteration 56 RMS(Cart)=  0.00001778 RMS(Int)=  0.01036129
 Iteration 57 RMS(Cart)=  0.00001695 RMS(Int)=  0.01025948
 Iteration 58 RMS(Cart)=  0.00001713 RMS(Int)=  0.01015903
 Iteration 59 RMS(Cart)=  0.00001684 RMS(Int)=  0.01006060
 Iteration 60 RMS(Cart)=  0.00001629 RMS(Int)=  0.00996413
 Iteration 61 RMS(Cart)=  0.00001595 RMS(Int)=  0.00987024
 Iteration 62 RMS(Cart)=  0.00001562 RMS(Int)=  0.00977831
 Iteration 63 RMS(Cart)=  0.00001612 RMS(Int)=  0.00968735
 Iteration 64 RMS(Cart)=  0.00001454 RMS(Int)=  0.00959899
 Iteration 65 RMS(Cart)=  0.00001531 RMS(Int)=  0.00951245
 Iteration 66 RMS(Cart)=  0.00001455 RMS(Int)=  0.00942611
 Iteration 67 RMS(Cart)=  0.00001497 RMS(Int)=  0.00934280
 Iteration 68 RMS(Cart)=  0.00001460 RMS(Int)=  0.00926087
 Iteration 69 RMS(Cart)=  0.00001441 RMS(Int)=  0.00917733
 Iteration 70 RMS(Cart)=  0.00001527 RMS(Int)=  0.00909036
 Iteration 71 RMS(Cart)=  0.00001455 RMS(Int)=  0.00901250
 Iteration 72 RMS(Cart)=  0.00001496 RMS(Int)=  0.00892688
 Iteration 73 RMS(Cart)=  0.00001425 RMS(Int)=  0.00884920
 Iteration 74 RMS(Cart)=  0.00001976 RMS(Int)=  0.00873504
 Iteration 75 RMS(Cart)=  0.00001460 RMS(Int)=  0.00865569
 Iteration 76 RMS(Cart)=  0.00005407 RMS(Int)=  0.00832801
 Iteration 77 RMS(Cart)=  0.00004186 RMS(Int)=  0.00807957
 Iteration 78 RMS(Cart)=  0.00012309 RMS(Int)=  0.00722569
 Iteration 79 RMS(Cart)=  0.00013169 RMS(Int)=  0.00632333
 Iteration 80 RMS(Cart)=  0.00018356 RMS(Int)=  0.00506771
 Iteration 81 RMS(Cart)=  0.00016735 RMS(Int)=  0.00446575
 Iteration 82 RMS(Cart)=  0.00016701 RMS(Int)=  0.00444103
 New curvilinear step failed, DQL= 6.28D+00 SP=-5.92D-02.
 ITry= 9 IFail=1 DXMaxC= 1.03D-02 DCOld= 1.00D+10 DXMaxT= 8.49D-01 DXLimC= 3.00D+00 Rises=F
 Iteration  1 RMS(Cart)=  0.00020089 RMS(Int)=  0.03222641
 Iteration  2 RMS(Cart)=  0.00008710 RMS(Int)=  0.03076764
 Iteration  3 RMS(Cart)=  0.00009469 RMS(Int)=  0.02944255
 Iteration  4 RMS(Cart)=  0.00008684 RMS(Int)=  0.02823984
 Iteration  5 RMS(Cart)=  0.00007146 RMS(Int)=  0.02714488
 Iteration  6 RMS(Cart)=  0.00006324 RMS(Int)=  0.02614424
 Iteration  7 RMS(Cart)=  0.00005183 RMS(Int)=  0.02522514
 Iteration  8 RMS(Cart)=  0.00004977 RMS(Int)=  0.02437753
 Iteration  9 RMS(Cart)=  0.00004313 RMS(Int)=  0.02359321
 Iteration 10 RMS(Cart)=  0.00004474 RMS(Int)=  0.02286377
 Iteration 11 RMS(Cart)=  0.00004067 RMS(Int)=  0.02218342
 Iteration 12 RMS(Cart)=  0.00004186 RMS(Int)=  0.02154799
 Iteration 13 RMS(Cart)=  0.00003818 RMS(Int)=  0.02095175
 Iteration 14 RMS(Cart)=  0.00003781 RMS(Int)=  0.02039111
 Iteration 15 RMS(Cart)=  0.00003491 RMS(Int)=  0.01986334
 Iteration 16 RMS(Cart)=  0.00003473 RMS(Int)=  0.01936454
 Iteration 17 RMS(Cart)=  0.00003250 RMS(Int)=  0.01889485
 Iteration 18 RMS(Cart)=  0.00003305 RMS(Int)=  0.01844808
 Iteration 19 RMS(Cart)=  0.00003122 RMS(Int)=  0.01802465
 Iteration 20 RMS(Cart)=  0.00003115 RMS(Int)=  0.01762317
 Iteration 21 RMS(Cart)=  0.00002972 RMS(Int)=  0.01724133
 Iteration 22 RMS(Cart)=  0.00002972 RMS(Int)=  0.01687839
 Iteration 23 RMS(Cart)=  0.00002855 RMS(Int)=  0.01653109
 Iteration 24 RMS(Cart)=  0.00002893 RMS(Int)=  0.01619811
 Iteration 25 RMS(Cart)=  0.00002701 RMS(Int)=  0.01587986
 Iteration 26 RMS(Cart)=  0.00002758 RMS(Int)=  0.01557425
 Iteration 27 RMS(Cart)=  0.00002545 RMS(Int)=  0.01528209
 Iteration 28 RMS(Cart)=  0.00002555 RMS(Int)=  0.01500406
 Iteration 29 RMS(Cart)=  0.00002437 RMS(Int)=  0.01473598
 Iteration 30 RMS(Cart)=  0.00002568 RMS(Int)=  0.01447531
 Iteration 31 RMS(Cart)=  0.00002240 RMS(Int)=  0.01422798
 Iteration 32 RMS(Cart)=  0.00002352 RMS(Int)=  0.01399024
 Iteration 33 RMS(Cart)=  0.00002230 RMS(Int)=  0.01375912
 Iteration 34 RMS(Cart)=  0.00002228 RMS(Int)=  0.01353788
 Iteration 35 RMS(Cart)=  0.00002035 RMS(Int)=  0.01332602
 Iteration 36 RMS(Cart)=  0.00002122 RMS(Int)=  0.01312153
 Iteration 37 RMS(Cart)=  0.00002025 RMS(Int)=  0.01292216
 Iteration 38 RMS(Cart)=  0.00002031 RMS(Int)=  0.01272965
 Iteration 39 RMS(Cart)=  0.00001909 RMS(Int)=  0.01254303
 Iteration 40 RMS(Cart)=  0.00001956 RMS(Int)=  0.01236125
 Iteration 41 RMS(Cart)=  0.00001800 RMS(Int)=  0.01218604
 Iteration 42 RMS(Cart)=  0.00001859 RMS(Int)=  0.01201485
 Iteration 43 RMS(Cart)=  0.00001728 RMS(Int)=  0.01184936
 Iteration 44 RMS(Cart)=  0.00001709 RMS(Int)=  0.01168985
 Iteration 45 RMS(Cart)=  0.00001612 RMS(Int)=  0.01153658
 Iteration 46 RMS(Cart)=  0.00001623 RMS(Int)=  0.01138833
 Iteration 47 RMS(Cart)=  0.00001677 RMS(Int)=  0.01124084
 Iteration 48 RMS(Cart)=  0.00001572 RMS(Int)=  0.01109846
 Iteration 49 RMS(Cart)=  0.00001492 RMS(Int)=  0.01096137
 Iteration 50 RMS(Cart)=  0.00001426 RMS(Int)=  0.01083108
 Iteration 51 RMS(Cart)=  0.00001497 RMS(Int)=  0.01070229
 Iteration 52 RMS(Cart)=  0.00001467 RMS(Int)=  0.01057622
 Iteration 53 RMS(Cart)=  0.00001390 RMS(Int)=  0.01045421
 Iteration 54 RMS(Cart)=  0.00001435 RMS(Int)=  0.01033372
 Iteration 55 RMS(Cart)=  0.00001329 RMS(Int)=  0.01021729
 Iteration 56 RMS(Cart)=  0.00001301 RMS(Int)=  0.01010489
 Iteration 57 RMS(Cart)=  0.00001319 RMS(Int)=  0.00999437
 Iteration 58 RMS(Cart)=  0.00001284 RMS(Int)=  0.00988663
 Iteration 59 RMS(Cart)=  0.00001279 RMS(Int)=  0.00978067
 Iteration 60 RMS(Cart)=  0.00001273 RMS(Int)=  0.00967636
 Iteration 61 RMS(Cart)=  0.00001237 RMS(Int)=  0.00957366
 Iteration 62 RMS(Cart)=  0.00001155 RMS(Int)=  0.00947386
 Iteration 63 RMS(Cart)=  0.00001203 RMS(Int)=  0.00937666
 Iteration 64 RMS(Cart)=  0.00001143 RMS(Int)=  0.00928134
 Iteration 65 RMS(Cart)=  0.00001178 RMS(Int)=  0.00918761
 Iteration 66 RMS(Cart)=  0.00001098 RMS(Int)=  0.00909393
 Iteration 67 RMS(Cart)=  0.00001178 RMS(Int)=  0.00900364
 Iteration 68 RMS(Cart)=  0.00001091 RMS(Int)=  0.00891082
 Iteration 69 RMS(Cart)=  0.00001151 RMS(Int)=  0.00882370
 Iteration 70 RMS(Cart)=  0.00003294 RMS(Int)=  0.00852540
 Iteration 71 RMS(Cart)=  0.00001413 RMS(Int)=  0.00841143
 Iteration 72 RMS(Cart)=  0.00001922 RMS(Int)=  0.00825475
 Iteration 73 RMS(Cart)=  0.00003729 RMS(Int)=  0.00794957
 Iteration 74 RMS(Cart)=  0.00005793 RMS(Int)=  0.00742765
 Iteration 75 RMS(Cart)=  0.00007737 RMS(Int)=  0.00674202
 Iteration 76 RMS(Cart)=  0.00009957 RMS(Int)=  0.00588594
 Iteration 77 RMS(Cart)=  0.00015664 RMS(Int)=  0.00443403
 Iteration 78 RMS(Cart)=  0.00017919 RMS(Int)=  0.00355273
 Iteration 79 RMS(Cart)=  0.00009907 RMS(Int)=  0.00348000
 SLEqS3 Cycle:   391 Max:0.524953E-02 RMS:0.109627E-02 Conv:0.185973E-02
 SLEqS3 Cycle:    45 Max:0.251452E-01 RMS: 371.416     Conv:0.185973E-02
 Iteration 80 RMS(Cart)=  0.00069783 RMS(Int)=  0.00344243
 New curvilinear step failed, DQL= 6.28D+00 SP=-5.32D-02.
 ITry=10 IFail=1 DXMaxC= 9.74D-03 DCOld= 1.00D+10 DXMaxT= 8.49D-01 DXLimC= 3.00D+00 Rises=F
 RedQX1 iteration     1 Try  1 RMS(Cart)=  0.00392610 RMS(Int)=  0.82059686 XScale=  0.02445251
 RedQX1 iteration     2 Try  1 RMS(Cart)=  0.00078522 RMS(Int)=  0.82121290 XScale=  0.02443447
 RedQX1 iteration     3 Try  1 RMS(Cart)=  0.00015704 RMS(Int)=  0.82133650 XScale=  0.02443085
 RedQX1 iteration     4 Try  1 RMS(Cart)=  0.00003141 RMS(Int)=  0.82136124 XScale=  0.02443013
 RedQX1 iteration     5 Try  1 RMS(Cart)=  0.00000628 RMS(Int)=  0.81483131 XScale=  0.02442999
 RedQX1 iteration     6 Try  1 RMS(Cart)=  0.00000126 RMS(Int)=  0.79872009 XScale=  0.02442998
 Old curvilinear step not converged, using linear step:
 SCX= 1.09D+00 DXMaxT= 8.49D-01 SCLim= 4.24D-01 Fact= 3.88D-01
 B after Tr=     0.000000    0.000000   -0.000000
         Rot=    1.000000   -0.000000   -0.000000    0.000000 Ang=   0.00 deg.
 Variable       Old X    -DE/DX   Delta X   Delta X   Delta X     New X
                                 (Linear)    (Quad)   (Total)
    R1        2.65999  -0.00479  -0.00040  -0.00128  -0.00066   2.65933
    R2        2.65705   0.00602   0.00138   0.00559   0.00271   2.65976
    R3        2.06991  -0.00032   0.00020  -0.00016   0.00002   2.06994
    R4        2.70544  -0.01461  -0.00112  -0.01158  -0.00492   2.70052
    R5        2.07650  -0.00288  -0.00050  -0.00314  -0.00141   2.07509
    R6        2.59131   0.00598   0.00161   0.00650   0.00317   2.59448
    R7        2.07794  -0.00396  -0.00062  -0.00418  -0.00180   2.07614
    R8        2.60101  -0.01582  -0.00496  -0.01814  -0.00889   2.59212
    R9        2.79409   0.00199   0.00493   0.01429   0.00760   2.80170
   R10        2.66194  -0.01971  -0.00305  -0.01889  -0.00840   2.65354
   R11        2.92957  -0.01400  -0.00561  -0.03418  -0.01515   2.91442
   R12        2.08718  -0.00607  -0.00168  -0.00769  -0.00354   2.08364
   R13        2.10421  -0.00643  -0.00114  -0.00783  -0.00347   2.10074
   R14        2.10401  -0.00639  -0.00114  -0.00774  -0.00342   2.10058
    A1        2.14863  -0.00157   0.00010  -0.00425  -0.00161   2.14703
    A2        2.08846  -0.00206  -0.00199  -0.00708  -0.00352   2.08494
    A3        2.04609   0.00363   0.00189   0.01133   0.00512   2.05121
    A4        2.11925  -0.00165   0.00082   0.00432   0.00199   2.12124
    A5        2.07335   0.00132  -0.00017  -0.00078  -0.00037   2.07298
    A6        2.09059   0.00033  -0.00065  -0.00354  -0.00162   2.08897
    A7        1.96326   0.00151   0.00047   0.00339   0.00149   1.96475
    A8        2.14887  -0.00329  -0.00238  -0.01050  -0.00499   2.14388
    A9        2.17104   0.00178   0.00191   0.00710   0.00350   2.17454
   A10        2.23509  -0.00251  -0.00462  -0.01834  -0.00890   2.22619
   A11        2.90203   0.00575   0.00730   0.03321   0.01565   2.91768
   A12        2.08841   0.00514   0.00770   0.02635   0.01320   2.10161
   A13        3.14159   0.01225   0.01203   0.04419  -0.02184   3.11975
   A14        2.01172  -0.00092  -0.00447  -0.01148  -0.00619   2.00553
   A15        2.07792   0.00363   0.00340   0.01308   0.00639   2.08432
   A16        2.19354  -0.00270   0.00107  -0.00159  -0.00021   2.19333
   A17        2.11602  -0.00055  -0.00220  -0.00652  -0.00341   2.11261
   A18        2.11792  -0.00074  -0.00237  -0.01400  -0.00641   2.11151
   A19        2.06066   0.00128   0.00235   0.00772   0.00386   2.06452
   A20        2.06204   0.00123   0.00224   0.00973   0.00456   2.06660
   A21        1.95673   0.00092   0.00147   0.00653   0.00310   1.95983
    D1       -0.00137  -0.00026   0.00008  -0.00211  -0.00088  -0.00225
    D2        3.14021  -0.00001   0.00012  -0.00226  -0.00084   3.13937
    D3       -3.14142  -0.00022  -0.00010   0.00158   0.00051  -3.14092
    D4        0.00016   0.00003  -0.00007   0.00142   0.00054   0.00070
    D5        0.00238  -0.00025  -0.00029   0.00311   0.00103   0.00341
    D6       -3.14082   0.00017   0.00006   0.00824   0.00328  -3.13753
    D7       -3.14072  -0.00030  -0.00011  -0.00050  -0.00034  -3.14106
    D8       -0.00073   0.00012   0.00024   0.00463   0.00192   0.00119
    D9       -0.00180   0.00012   0.00013  -0.00190  -0.00067  -0.00247
   D10       -3.14028   0.00040  -0.00009   0.00089   0.00045  -3.13983
   D11        3.13980  -0.00013   0.00010  -0.00174  -0.00070   3.13910
   D12        0.00132   0.00015  -0.00012   0.00104   0.00041   0.00174
   D13        0.00430   0.00061  -0.00017   0.00521   0.00219   0.00649
   D14        3.13269   0.00061  -0.00003   0.00395   0.00177   3.13446
   D15       -3.14045   0.00032   0.00004   0.00234   0.00103  -3.13942
   D16       -0.01206   0.00032   0.00019   0.00108   0.00061  -0.01145
   D17       -0.00344  -0.00117  -0.00004  -0.00438  -0.00213  -0.00557
   D18       -1.31757   0.00035   0.00359   0.01413   0.00679  -1.31078
   D19        1.33972  -0.00032  -0.00369  -0.01858  -0.00855   1.33116
   D20       -0.00020   0.00090   0.00027  -0.00014   0.00036   0.00016
   D21       -3.14007   0.00045  -0.00011  -0.00567  -0.00207   3.14105
   D22       -0.08867   0.00020  -0.15073   0.09968   3.14073   3.05206
   D23        3.05465  -0.00025  -0.15111   0.09415   3.13830  -0.09023
   D24       -1.82822   0.00269   0.15557  -0.08841  -3.13433   1.32063
   D25        2.00678  -0.00274   0.14610  -0.12636   3.13031  -1.14610
         Item               Value     Threshold  Converged?
 Maximum Force            0.019706     0.000450     NO 
 RMS     Force            0.005151     0.000300     NO 
 Maximum Displacement     0.024800     0.001800     NO 
 RMS     Displacement     0.007607     0.001200     NO 
 Predicted change in Energy=-1.011562D-01
 GradGradGradGradGradGradGradGradGradGradGradGradGradGradGradGradGradGrad

                          Input orientation:                          
 ---------------------------------------------------------------------
 Center     Atomic      Atomic             Coordinates (Angstroms)
 Number     Number       Type             X           Y           Z
 ---------------------------------------------------------------------
      1          6           0       -0.473489   -1.072404    0.038364
      2          6           0       -1.467865   -0.076750    0.054501
      3          6           0       -1.136910    1.311480   -0.019573
      4          6           0        0.216561    1.526955   -0.101152
      5          6           0        1.213228    0.584788   -0.123680
      6          6           0        0.900745   -0.782378   -0.053156
      7          6           0        1.589181    2.078573   -0.199737
      8          1           0       -0.765635   -2.126500    0.096259
      9          1           0       -2.520280   -0.381916    0.125893
     10          1           0       -1.895383    2.106201   -0.007045
     11          1           0        1.629368   -1.609862   -0.064819
     12          1           0        1.979901    2.475164   -1.161948
     13          1           0        2.082928    2.545089    0.680144
 ---------------------------------------------------------------------
                    Distance matrix (angstroms):
                    1          2          3          4          5
     1  C    0.000000
     2  C    1.407256   0.000000
     3  C    2.475153   1.429056   0.000000
     4  C    2.693009   2.330963   1.372941   0.000000
     5  C    2.370139   2.767244   2.462127   1.371689   0.000000
     6  C    1.407484   2.473825   2.921884   2.409031   1.404195
     7  C    3.773587   3.749078   2.837686   1.482595   1.542245
     8  H    1.095363   2.167105   3.459909   3.788326   3.363831
     9  H    2.161894   1.098089   2.191452   3.344493   3.864697
    10  H    3.482437   2.225272   1.098644   2.191960   3.462912
    11  H    2.172906   3.457965   4.023504   3.440490   2.234531
    12  H    4.477177   4.458599   3.517626   2.265780   2.288954
    13  H    4.475869   4.457981   3.518344   2.265026   2.290260
                    6          7          8          9         10
     6  C    0.000000
     7  C    2.946264   0.000000
     8  H    2.146115   4.828604   0.000000
     9  H    3.449034   4.800803   2.474516   0.000000
    10  H    4.020490   3.489996   4.382095   2.568831   0.000000
    11  H    1.102614   3.691121   2.455382   4.331720   5.122142
    12  H    3.606325   1.111664   5.504214   5.483892   4.060512
    13  H    3.606567   1.111582   5.502633   5.483071   4.061010
                   11         12         13
    11  H    0.000000
    12  H    4.244291   0.000000
    13  H    4.245504   1.846295   0.000000
 Stoichiometry    C7H6
 Framework group  C1[X(C7H6)]
 Deg. of freedom    33
 Full point group                 C1      NOp   1
 Largest Abelian subgroup         C1      NOp   1
 Largest concise Abelian subgroup C1      NOp   1
                         Standard orientation:                         
 ---------------------------------------------------------------------
 Center     Atomic      Atomic             Coordinates (Angstroms)
 Number     Number       Type             X           Y           Z
 ---------------------------------------------------------------------
      1          6           0       -1.560582    0.649419   -0.001826
      2          6           0       -1.513453   -0.757046   -0.000195
      3          6           0       -0.271128   -1.463323    0.001863
      4          6           0        0.813576   -0.621673   -0.001112
      5          6           0        0.807420    0.750000    0.001454
      6          6           0       -0.406729    1.455412    0.001090
      7          6           0        2.157477    0.004440   -0.001088
      8          1           0       -2.531833    1.155868   -0.002739
      9          1           0       -2.457725   -1.317538   -0.000544
     10          1           0       -0.209483   -2.560237    0.001537
     11          1           0       -0.512652    2.552925    0.003489
     12          1           0        2.776693    0.032789    0.921715
     13          1           0        2.775514    0.032813   -0.924580
 ---------------------------------------------------------------------
 Rotational constants (GHZ):           5.4676841           3.1329455           2.0190489
 Standard basis: def2SVPP (5D, 7F)
 There are   117 symmetry adapted cartesian basis functions of A   symmetry.
 There are   110 symmetry adapted basis functions of A   symmetry.
   110 basis functions,   199 primitive gaussians,   117 cartesian basis functions
    24 alpha electrons       24 beta electrons
       nuclear repulsion energy       254.7445100163 Hartrees.
 NAtoms=   13 NActive=   13 NUniq=   13 SFac= 1.00D+00 NAtFMM=   60 NAOKFM=F Big=F
 Integral buffers will be    131072 words long.
 Raffenetti 2 integral format.
 Two-electron integral symmetry is turned on.
 Nuclear repulsion after empirical dispersion term =      254.7232255085 Hartrees.
 One-electron integrals computed using PRISM.
   1 Symmetry operations used in ECPInt.
 ECPInt:  NShTT=    1485 NPrTT=    5995 LenC2=    1483 LenP2D=    4897.
 LDataN:  DoStor=T MaxTD1= 4 Len=   56
 NBasis=   110 RedAO= T EigKep=  3.78D-04  NBF=   110
 NBsUse=   110 1.00D-06 EigRej= -1.00D+00 NBFU=   110
 Initial guess from the checkpoint file:  "/home/software/g16/scr/Gau-131436.chk"
 B after Tr=    -0.000000   -0.000000    0.000000
         Rot=    0.999995    0.000044   -0.000033    0.003068 Ang=   0.35 deg.
 ExpMin= 1.22D-01 ExpMax= 1.24D+03 ExpMxC= 1.86D+02 IAcc=3 IRadAn=         5 AccDes= 0.00D+00
 Harris functional with IExCor=  402 and IRadAn=       5 diagonalized for initial guess.
 HarFok:  IExCor=  402 AccDes= 0.00D+00 IRadAn=         5 IDoV= 1 UseB2=F ITyADJ=14
 ICtDFT=  3500011 ScaDFX=  1.000000  1.000000  1.000000  1.000000
 FoFCou: FMM=F IPFlag=           0 FMFlag=      100000 FMFlg1=           0
         NFxFlg=           0 DoJE=T BraDBF=F KetDBF=T FulRan=T
         wScrn=  0.000000 ICntrl=       500 IOpCl=  0 I1Cent=   200000004 NGrid=           0
         NMat0=    1 NMatS0=      1 NMatT0=    0 NMatD0=    1 NMtDS0=    0 NMtDT0=    0
 Petite list used in FoFCou.
 Requested convergence on RMS density matrix=1.00D-08 within 128 cycles.
 Requested convergence on MAX density matrix=1.00D-06.
 Requested convergence on             energy=1.00D-06.
 No special actions if energy rises.
 Integral accuracy reduced to 1.0D-05 until final iterations.
 Initial convergence to 1.0D-05 achieved.  Increase integral accuracy.
 SCF Done:  E(RB3LYP) =  -270.069975077     A.U. after   11 cycles
            NFock= 11  Conv=0.64D-08     -V/T= 2.0118
   1 Symmetry operations used in ECPInt.
 ECPInt:  NShTT=    1485 NPrTT=    5995 LenC2=    1483 LenP2D=    4897.
 LDataN:  DoStor=T MaxTD1= 5 Len=  102
 Calling FoFJK, ICntrl=      2127 FMM=F ISym2X=0 I1Cent= 0 IOpClX= 0 NMat=1 NMatS=1 NMatT=0.
 ***** Axes restored to original set *****
 -------------------------------------------------------------------
 Center     Atomic                   Forces (Hartrees/Bohr)
 Number     Number              X              Y              Z
 -------------------------------------------------------------------
      1        6          -0.004748434    0.001174883   -0.000065173
      2        6           0.000756866    0.008068717   -0.000361516
      3        6          -0.006034513   -0.012348284    0.001249946
      4        6           0.013509933   -0.002026371   -0.001150138
      5        6          -0.021258901    0.004772396    0.001457443
      6        6           0.014718212    0.010942473   -0.001246197
      7        6           0.010910045   -0.011344152   -0.000385107
      8        1          -0.002111022    0.000918567    0.000103301
      9        1           0.002154142    0.001032168   -0.000160811
     10        1           0.000817868   -0.003761115    0.000027068
     11        1          -0.001380039    0.005416225   -0.000054348
     12        1          -0.003502439   -0.001196330    0.004243568
     13        1          -0.003831718   -0.001649175   -0.003658036
 -------------------------------------------------------------------
 Cartesian Forces:  Max     0.021258901 RMS     0.006505145

 GradGradGradGradGradGradGradGradGradGradGradGradGradGradGradGradGradGrad
 Berny optimization.
 Using GEDIIS/GDIIS optimizer.
 FormGI is forming the generalized inverse of G from B-inverse, IUseBI=4.
 Internal  Forces:  Max     0.016577120 RMS     0.004316485
 Search for a local minimum.
 Step number   5 out of a maximum of   70
 All quantities printed in internal units (Hartrees-Bohrs-Radians)
 Mixed Optimization -- RFO/linear search
 Update second derivatives using D2CorX and points    4    5
 DE= -1.22D-03 DEPred=-1.01D-01 R= 1.21D-02
 Trust test= 1.21D-02 RLast= 6.27D+00 DXMaxT set to 4.24D-01
 ITU= -1  1  1  1  0
 Use linear search instead of GDIIS.
     Eigenvalues ---    0.00047   0.01824   0.01973   0.02150   0.02309
     Eigenvalues ---    0.02346   0.02468   0.02484   0.04705   0.07223
     Eigenvalues ---    0.13336   0.13409   0.15954   0.16000   0.16011
     Eigenvalues ---    0.16502   0.19786   0.22107   0.23048   0.28306
     Eigenvalues ---    0.34647   0.35050   0.35405   0.35435   0.35797
     Eigenvalues ---    0.36272   0.39957   0.40509   0.45893   0.47062
     Eigenvalues ---    0.48296   0.50682   0.69964
 RFO step:  Lambda=-2.58052915D-03 EMin= 4.70666420D-04
 Skip linear search -- no minimum in search direction.
 Iteration  1 RMS(Cart)=  0.01562276 RMS(Int)=  0.02211002
 Iteration  2 RMS(Cart)=  0.00154456 RMS(Int)=  0.00138748
 Iteration  3 RMS(Cart)=  0.00022436 RMS(Int)=  0.00137787
 Iteration  4 RMS(Cart)=  0.00000107 RMS(Int)=  0.00137787
 Iteration  5 RMS(Cart)=  0.00000002 RMS(Int)=  0.00137787
 Variable       Old X    -DE/DX   Delta X   Delta X   Delta X     New X
                                 (Linear)    (Quad)   (Total)
    R1        2.65933  -0.00391   0.00000  -0.00320  -0.00361   2.65572
    R2        2.65976   0.00494   0.00000   0.00835   0.00829   2.66805
    R3        2.06994  -0.00032   0.00000  -0.00039  -0.00039   2.06955
    R4        2.70052  -0.01241   0.00000  -0.01499  -0.01538   2.68515
    R5        2.07509  -0.00236   0.00000  -0.00421  -0.00421   2.07087
    R6        2.59448   0.00493   0.00000   0.00728   0.00735   2.60183
    R7        2.07614  -0.00329   0.00000  -0.00574  -0.00574   2.07040
    R8        2.59212  -0.01290   0.00000  -0.02233  -0.02112   2.57100
    R9        2.80170   0.00133   0.00000   0.00997   0.00876   2.81046
   R10        2.65354  -0.01658   0.00000  -0.02290  -0.02252   2.63102
   R11        2.91442  -0.01200   0.00000  -0.03482  -0.03435   2.88007
   R12        2.08364  -0.00498   0.00000  -0.00967  -0.00967   2.07397
   R13        2.10074  -0.00533   0.00000  -0.00986  -0.00986   2.09088
   R14        2.10058  -0.00529   0.00000  -0.00976  -0.00976   2.09082
    A1        2.14703  -0.00145   0.00000  -0.00410  -0.00402   2.14301
    A2        2.08494  -0.00164   0.00000  -0.00868  -0.00872   2.07622
    A3        2.05121   0.00309   0.00000   0.01278   0.01274   2.06395
    A4        2.12124  -0.00131   0.00000   0.00158   0.00132   2.12256
    A5        2.07298   0.00106   0.00000   0.00082   0.00095   2.07393
    A6        2.08897   0.00025   0.00000  -0.00241  -0.00228   2.08669
    A7        1.96475   0.00137   0.00000   0.00437   0.00454   1.96930
    A8        2.14388  -0.00277   0.00000  -0.01193  -0.01203   2.13185
    A9        2.17454   0.00140   0.00000   0.00756   0.00748   2.18202
   A10        2.22619  -0.00228   0.00000  -0.01544  -0.01488   2.21130
   A11        2.91768   0.00515   0.00000   0.02863   0.02787   2.94556
   A12        2.10161   0.00435   0.00000   0.02283   0.02133   2.12294
   A13        3.11975  -0.01025   0.00000  -0.04017  -0.03905   3.08070
   A14        2.00553  -0.00067   0.00000  -0.00925  -0.00838   1.99715
   A15        2.08432   0.00299   0.00000   0.01465   0.01420   2.09852
   A16        2.19333  -0.00232   0.00000  -0.00540  -0.00584   2.18750
   A17        2.11261  -0.00057   0.00000  -0.01123  -0.01151   2.10110
   A18        2.11151  -0.00052   0.00000  -0.01255  -0.01267   2.09884
   A19        2.06452   0.00111   0.00000   0.01162   0.01115   2.07567
   A20        2.06660   0.00092   0.00000   0.00938   0.00929   2.07589
   A21        1.95983   0.00070   0.00000   0.00665   0.00616   1.96599
    D1       -0.00225  -0.00019   0.00000  -0.00036  -0.00180  -0.00405
    D2        3.13937   0.00002   0.00000   0.00146   0.00111   3.14048
    D3       -3.14092  -0.00020   0.00000  -0.00223  -0.00306   3.13920
    D4        0.00070   0.00002   0.00000  -0.00041  -0.00015   0.00054
    D5        0.00341  -0.00026   0.00000  -0.00447  -0.00512  -0.00171
    D6       -3.13753   0.00011   0.00000  -0.00025   0.00100  -3.13654
    D7       -3.14106  -0.00026   0.00000  -0.00266  -0.00390   3.13823
    D8        0.00119   0.00011   0.00000   0.00156   0.00222   0.00341
    D9       -0.00247   0.00013   0.00000   0.00222   0.00233  -0.00014
   D10       -3.13983   0.00034   0.00000   0.00204   0.00404  -3.13580
   D11        3.13910  -0.00009   0.00000   0.00039  -0.00060   3.13850
   D12        0.00174   0.00012   0.00000   0.00021   0.00110   0.00284
   D13        0.00649   0.00046   0.00000   0.00093   0.00456   0.01105
   D14        3.13446   0.00056   0.00000   0.00507   0.00813  -3.14059
   D15       -3.13942   0.00023   0.00000   0.00106   0.00275  -3.13668
   D16       -0.01145   0.00034   0.00000   0.00520   0.00632  -0.00513
   D17       -0.00557  -0.00096   0.00000  -0.00610  -0.01232  -0.01789
   D18       -1.31078   0.00043   0.00000   0.01696   0.01716  -1.29363
   D19        1.33116  -0.00027   0.00000  -0.02159  -0.02134   1.30982
   D20        0.00016   0.00079   0.00000   0.00742   0.01168   0.01184
   D21        3.14105   0.00041   0.00000   0.00290   0.00522  -3.13692
   D22        3.05206   0.00030   0.00000  -0.12966  -0.12823   2.92383
   D23       -0.09023  -0.00009   0.00000  -0.13418  -0.13470  -0.22493
   D24        1.32063   0.00228   0.00000   0.15563   0.15556   1.47619
   D25       -1.14610  -0.00217   0.00000   0.11063   0.11037  -1.03572
         Item               Value     Threshold  Converged?
 Maximum Force            0.016577     0.000450     NO 
 RMS     Force            0.004316     0.000300     NO 
 Maximum Displacement     0.059994     0.001800     NO 
 RMS     Displacement     0.015477     0.001200     NO 
 Predicted change in Energy=-1.459693D-03
 GradGradGradGradGradGradGradGradGradGradGradGradGradGradGradGradGradGrad

                          Input orientation:                          
 ---------------------------------------------------------------------
 Center     Atomic      Atomic             Coordinates (Angstroms)
 Number     Number       Type             X           Y           Z
 ---------------------------------------------------------------------
      1          6           0       -0.472582   -1.066698    0.039096
      2          6           0       -1.466856   -0.073612    0.053147
      3          6           0       -1.141188    1.307517   -0.020550
      4          6           0        0.214507    1.533074   -0.103492
      5          6           0        1.195361    0.590640   -0.130780
      6          6           0        0.904402   -0.768666   -0.052935
      7          6           0        1.602821    2.057598   -0.200035
      8          1           0       -0.772488   -2.118209    0.100334
      9          1           0       -2.517010   -0.378299    0.125618
     10          1           0       -1.908812    2.089098   -0.004916
     11          1           0        1.645441   -1.578115   -0.065206
     12          1           0        1.982650    2.462943   -1.156932
     13          1           0        2.086103    2.521168    0.680701
 ---------------------------------------------------------------------
                    Distance matrix (angstroms):
                    1          2          3          4          5
     1  C    0.000000
     2  C    1.405346   0.000000
     3  C    2.467284   1.420918   0.000000
     4  C    2.692813   2.330871   1.376832   0.000000
     5  C    2.357470   2.749993   2.446533   1.360515   0.000000
     6  C    1.411871   2.473301   2.914794   2.403439   1.392276
     7  C    3.758418   3.745541   2.850337   1.487233   1.524069
     8  H    1.095157   2.159803   3.447630   3.787819   3.356145
     9  H    2.158949   1.095860   2.180877   3.341710   3.845293
    10  H    3.467526   2.208169   1.095609   2.197127   3.449219
    11  H    2.181387   3.458891   4.011754   3.424695   2.215936
    12  H    4.462849   4.449438   3.519196   2.258477   2.275594
    13  H    4.453236   4.444123   3.518538   2.257024   2.275711
                    6          7          8          9         10
     6  C    0.000000
     7  C    2.914995   0.000000
     8  H    2.157943   4.813490   0.000000
     9  H    3.448235   4.797150   2.463997   0.000000
    10  H    4.010398   3.517191   4.359328   2.544600   0.000000
    11  H    1.097496   3.638462   2.483040   4.336124   5.107328
    12  H    3.581163   1.106448   5.491672   5.473987   4.075583
    13  H    3.571785   1.106415   5.480163   5.468425   4.076285
                   11         12         13
    11  H    0.000000
    12  H    4.199492   0.000000
    13  H    4.189831   1.841463   0.000000
 Stoichiometry    C7H6
 Framework group  C1[X(C7H6)]
 Deg. of freedom    33
 Full point group                 C1      NOp   1
 Largest Abelian subgroup         C1      NOp   1
 Largest concise Abelian subgroup C1      NOp   1
                         Standard orientation:                         
 ---------------------------------------------------------------------
 Center     Atomic      Atomic             Coordinates (Angstroms)
 Number     Number       Type             X           Y           Z
 ---------------------------------------------------------------------
      1          6           0       -1.545949    0.671580   -0.002749
      2          6           0       -1.522548   -0.733567    0.000510
      3          6           0       -0.300256   -1.458142    0.001722
      4          6           0        0.806404   -0.639019   -0.000789
      5          6           0        0.810969    0.721460    0.007935
      6          6           0       -0.371890    1.455771   -0.000225
      7          6           0        2.151251   -0.004006   -0.003250
      8          1           0       -2.512871    1.185800   -0.005859
      9          1           0       -2.473669   -1.277880   -0.000669
     10          1           0       -0.271831   -2.553379   -0.001117
     11          1           0       -0.438968    2.551213    0.001847
     12          1           0        2.769799    0.000279    0.914142
     13          1           0        2.759656    0.009515   -0.927270
 ---------------------------------------------------------------------
 Rotational constants (GHZ):           5.5013917           3.1510227           2.0310217
 Standard basis: def2SVPP (5D, 7F)
 There are   117 symmetry adapted cartesian basis functions of A   symmetry.
 There are   110 symmetry adapted basis functions of A   symmetry.
   110 basis functions,   199 primitive gaussians,   117 cartesian basis functions
    24 alpha electrons       24 beta electrons
       nuclear repulsion energy       255.5216097642 Hartrees.
 NAtoms=   13 NActive=   13 NUniq=   13 SFac= 1.00D+00 NAtFMM=   60 NAOKFM=F Big=F
 Integral buffers will be    131072 words long.
 Raffenetti 2 integral format.
 Two-electron integral symmetry is turned on.
 Nuclear repulsion after empirical dispersion term =      255.5002792207 Hartrees.
 One-electron integrals computed using PRISM.
   1 Symmetry operations used in ECPInt.
 ECPInt:  NShTT=    1485 NPrTT=    5995 LenC2=    1484 LenP2D=    4902.
 LDataN:  DoStor=T MaxTD1= 4 Len=   56
 NBasis=   110 RedAO= T EigKep=  3.67D-04  NBF=   110
 NBsUse=   110 1.00D-06 EigRej= -1.00D+00 NBFU=   110
 Initial guess from the checkpoint file:  "/home/software/g16/scr/Gau-131436.chk"
 B after Tr=     0.000000    0.000000   -0.000000
         Rot=    0.999972   -0.000168   -0.000087    0.007437 Ang=  -0.85 deg.
 ExpMin= 1.22D-01 ExpMax= 1.24D+03 ExpMxC= 1.86D+02 IAcc=3 IRadAn=         5 AccDes= 0.00D+00
 Harris functional with IExCor=  402 and IRadAn=       5 diagonalized for initial guess.
 HarFok:  IExCor=  402 AccDes= 0.00D+00 IRadAn=         5 IDoV= 1 UseB2=F ITyADJ=14
 ICtDFT=  3500011 ScaDFX=  1.000000  1.000000  1.000000  1.000000
 FoFCou: FMM=F IPFlag=           0 FMFlag=      100000 FMFlg1=           0
         NFxFlg=           0 DoJE=T BraDBF=F KetDBF=T FulRan=T
         wScrn=  0.000000 ICntrl=       500 IOpCl=  0 I1Cent=   200000004 NGrid=           0
         NMat0=    1 NMatS0=      1 NMatT0=    0 NMatD0=    1 NMtDS0=    0 NMtDT0=    0
 Petite list used in FoFCou.
 Requested convergence on RMS density matrix=1.00D-08 within 128 cycles.
 Requested convergence on MAX density matrix=1.00D-06.
 Requested convergence on             energy=1.00D-06.
 No special actions if energy rises.
 Integral accuracy reduced to 1.0D-05 until final iterations.
 Initial convergence to 1.0D-05 achieved.  Increase integral accuracy.
 SCF Done:  E(RB3LYP) =  -270.071887527     A.U. after   12 cycles
            NFock= 12  Conv=0.53D-08     -V/T= 2.0115
   1 Symmetry operations used in ECPInt.
 ECPInt:  NShTT=    1485 NPrTT=    5995 LenC2=    1484 LenP2D=    4902.
 LDataN:  DoStor=T MaxTD1= 5 Len=  102
 Calling FoFJK, ICntrl=      2127 FMM=F ISym2X=0 I1Cent= 0 IOpClX= 0 NMat=1 NMatS=1 NMatT=0.
 ***** Axes restored to original set *****
 -------------------------------------------------------------------
 Center     Atomic                   Forces (Hartrees/Bohr)
 Number     Number              X              Y              Z
 -------------------------------------------------------------------
      1        6          -0.001376161   -0.000561962   -0.000067591
      2        6           0.000747924    0.004611529   -0.000113043
      3        6          -0.002428436   -0.006981806    0.001054211
      4        6           0.004293252    0.002464764   -0.001457593
      5        6          -0.011356442    0.002428201    0.001948567
      6        6           0.007166590    0.004458535   -0.001327958
      7        6           0.005953220   -0.006764533   -0.000255259
      8        1          -0.000865312    0.000445156    0.000042515
      9        1           0.000755908    0.000363497   -0.000114266
     10        1           0.000205155   -0.001394267   -0.000008580
     11        1          -0.000370275    0.001976223    0.000093050
     12        1          -0.001306092   -0.000497538    0.001666414
     13        1          -0.001419330   -0.000547799   -0.001460467
 -------------------------------------------------------------------
 Cartesian Forces:  Max     0.011356442 RMS     0.003266959

 GradGradGradGradGradGradGradGradGradGradGradGradGradGradGradGradGradGrad
 Berny optimization.
 Using GEDIIS/GDIIS optimizer.
 FormGI is forming the generalized inverse of G from B-inverse, IUseBI=4.
 Internal  Forces:  Max     0.006932947 RMS     0.002030852
 Search for a local minimum.
 Step number   6 out of a maximum of   70
 All quantities printed in internal units (Hartrees-Bohrs-Radians)
 Mixed Optimization -- RFO/linear search
 Update second derivatives using D2CorX and points    5    6
 DE= -1.91D-03 DEPred=-1.46D-03 R= 1.31D+00
 TightC=F SS=  1.41D+00  RLast= 2.82D-01 DXNew= 7.1352D-01 8.4577D-01
 Trust test= 1.31D+00 RLast= 2.82D-01 DXMaxT set to 7.14D-01
 ITU=  1 -1  1  1  1  0
 Use linear search instead of GDIIS.
     Eigenvalues ---    0.00116   0.01819   0.01970   0.02149   0.02309
     Eigenvalues ---    0.02344   0.02472   0.02499   0.04495   0.07196
     Eigenvalues ---    0.10895   0.13418   0.13446   0.15988   0.16000
     Eigenvalues ---    0.16017   0.16806   0.22063   0.22592   0.27361
     Eigenvalues ---    0.34660   0.35047   0.35404   0.35435   0.35755
     Eigenvalues ---    0.36188   0.39420   0.40504   0.45771   0.47074
     Eigenvalues ---    0.48190   0.50691   0.61905
 RFO step:  Lambda=-7.48830616D-04 EMin= 1.16057923D-03
 Quartic linear search produced a step of  0.84891.
 Iteration  1 RMS(Cart)=  0.02339762 RMS(Int)=  0.01625953
 Iteration  2 RMS(Cart)=  0.00240150 RMS(Int)=  0.00075845
 Iteration  3 RMS(Cart)=  0.00010486 RMS(Int)=  0.00074621
 Iteration  4 RMS(Cart)=  0.00000074 RMS(Int)=  0.00074621
 Variable       Old X    -DE/DX   Delta X   Delta X   Delta X     New X
                                 (Linear)    (Quad)   (Total)
    R1        2.65572  -0.00091  -0.00306   0.00526   0.00212   2.65784
    R2        2.66805   0.00148   0.00704  -0.00286   0.00417   2.67222
    R3        2.06955  -0.00019  -0.00033  -0.00043  -0.00076   2.06878
    R4        2.68515  -0.00543  -0.01305  -0.00043  -0.01355   2.67160
    R5        2.07087  -0.00083  -0.00358   0.00091  -0.00267   2.06821
    R6        2.60183   0.00207   0.00624  -0.00002   0.00624   2.60808
    R7        2.07040  -0.00114  -0.00487   0.00128  -0.00359   2.06681
    R8        2.57100  -0.00443  -0.01793  -0.00068  -0.01847   2.55253
    R9        2.81046   0.00138   0.00744   0.00973   0.01715   2.82762
   R10        2.63102  -0.00693  -0.01912  -0.00274  -0.02179   2.60923
   R11        2.88007  -0.00611  -0.02916  -0.01623  -0.04543   2.83464
   R12        2.07397  -0.00171  -0.00821   0.00208  -0.00613   2.06784
   R13        2.09088  -0.00207  -0.00837   0.00063  -0.00774   2.08315
   R14        2.09082  -0.00201  -0.00829   0.00090  -0.00739   2.08343
    A1        2.14301  -0.00110  -0.00341  -0.00580  -0.00934   2.13367
    A2        2.07622  -0.00044  -0.00740   0.00251  -0.00483   2.07139
    A3        2.06395   0.00154   0.01081   0.00330   0.01417   2.07812
    A4        2.12256   0.00015   0.00112   0.01030   0.01124   2.13380
    A5        2.07393   0.00007   0.00081  -0.00542  -0.00452   2.06941
    A6        2.08669  -0.00022  -0.00193  -0.00488  -0.00672   2.07997
    A7        1.96930   0.00076   0.00386   0.00048   0.00424   1.97354
    A8        2.13185  -0.00124  -0.01021  -0.00047  -0.01064   2.12121
    A9        2.18202   0.00048   0.00635   0.00001   0.00641   2.18843
   A10        2.21130  -0.00229  -0.01264  -0.01948  -0.03205   2.17926
   A11        2.94556   0.00442   0.02366   0.02906   0.05278   2.99833
   A12        2.12294   0.00306   0.01811   0.02621   0.04460   2.16754
   A13        3.08070  -0.00619  -0.03315  -0.03226  -0.06643   3.01427
   A14        1.99715  -0.00059  -0.00712  -0.01159  -0.01868   1.97847
   A15        2.09852   0.00138   0.01205   0.00575   0.01778   2.11630
   A16        2.18750  -0.00080  -0.00496   0.00588   0.00090   2.18840
   A17        2.10110  -0.00031  -0.00977   0.00152  -0.00813   2.09297
   A18        2.09884  -0.00014  -0.01076   0.00136  -0.00982   2.08902
   A19        2.07567   0.00029   0.00946  -0.00089   0.00866   2.08433
   A20        2.07589   0.00036   0.00788  -0.00080   0.00654   2.08243
   A21        1.96599   0.00021   0.00523  -0.00127   0.00324   1.96924
    D1       -0.00405  -0.00035  -0.00153   0.00296   0.00227  -0.00177
    D2        3.14048  -0.00009   0.00094  -0.00065   0.00049   3.14096
    D3        3.13920  -0.00025  -0.00260   0.00056  -0.00146   3.13774
    D4        0.00054   0.00002  -0.00013  -0.00305  -0.00325  -0.00271
    D5       -0.00171  -0.00023  -0.00435  -0.00058  -0.00449  -0.00620
    D6       -3.13654   0.00025   0.00085  -0.00651  -0.00625   3.14040
    D7        3.13823  -0.00034  -0.00331   0.00180  -0.00075   3.13748
    D8        0.00341   0.00014   0.00188  -0.00414  -0.00251   0.00089
    D9       -0.00014   0.00007   0.00198   0.00053   0.00245   0.00231
   D10       -3.13580   0.00051   0.00343  -0.00307  -0.00076  -3.13656
   D11        3.13850  -0.00020  -0.00051   0.00417   0.00425  -3.14043
   D12        0.00284   0.00024   0.00094   0.00056   0.00104   0.00388
   D13        0.01105   0.00086   0.00388  -0.00710  -0.00526   0.00580
   D14       -3.14059   0.00086   0.00691   0.00065   0.00585  -3.13474
   D15       -3.13668   0.00040   0.00233  -0.00337  -0.00196  -3.13864
   D16       -0.00513   0.00040   0.00536   0.00437   0.00914   0.00401
   D17       -0.01789  -0.00157  -0.01046   0.00975   0.00259  -0.01530
   D18       -1.29363   0.00025   0.01456  -0.00833   0.00550  -1.28813
   D19        1.30982  -0.00020  -0.01812  -0.00530  -0.02354   1.28628
   D20        0.01184   0.00115   0.00992  -0.00511   0.00260   0.01444
   D21       -3.13692   0.00065   0.00443   0.00117   0.00451  -3.13241
   D22        2.92383   0.00047  -0.10886   0.23308   0.12337   3.04720
   D23       -0.22493  -0.00003  -0.11435   0.23936   0.12529  -0.09964
   D24        1.47619   0.00073   0.13205  -0.23729  -0.10447   1.37172
   D25       -1.03572  -0.00081   0.09370  -0.23183  -0.13808  -1.17380
         Item               Value     Threshold  Converged?
 Maximum Force            0.006933     0.000450     NO 
 RMS     Force            0.002031     0.000300     NO 
 Maximum Displacement     0.075780     0.001800     NO 
 RMS     Displacement     0.024093     0.001200     NO 
 Predicted change in Energy=-8.047387D-04
 GradGradGradGradGradGradGradGradGradGradGradGradGradGradGradGradGradGrad

                          Input orientation:                          
 ---------------------------------------------------------------------
 Center     Atomic      Atomic             Coordinates (Angstroms)
 Number     Number       Type             X           Y           Z
 ---------------------------------------------------------------------
      1          6           0       -0.467631   -1.062857    0.036521
      2          6           0       -1.462541   -0.068855    0.052645
      3          6           0       -1.153786    1.308987   -0.017416
      4          6           0        0.201305    1.555952   -0.104079
      5          6           0        1.159520    0.604266   -0.128918
      6          6           0        0.908812   -0.751401   -0.052983
      7          6           0        1.616850    2.031036   -0.201407
      8          1           0       -0.772571   -2.112517    0.097420
      9          1           0       -2.510077   -0.377936    0.123026
     10          1           0       -1.936833    2.072342    0.000707
     11          1           0        1.669420   -1.538014   -0.063127
     12          1           0        1.998692    2.429501   -1.155664
     13          1           0        2.101189    2.487935    0.677324
 ---------------------------------------------------------------------
                    Distance matrix (angstroms):
                    1          2          3          4          5
     1  C    0.000000
     2  C    1.406466   0.000000
     3  C    2.469689   1.413749   0.000000
     4  C    2.706548   2.330867   1.380135   0.000000
     5  C    2.335441   2.713164   2.420836   1.350740   0.000000
     6  C    1.414076   2.469887   2.915609   2.413929   1.380743
     7  C    3.738160   3.735870   2.869081   1.496310   1.500026
     8  H    1.094753   2.157457   3.444590   3.800881   3.341423
     9  H    2.155965   1.094448   2.169092   3.338127   3.807116
    10  H    3.462558   2.193712   1.093710   2.202107   3.429206
    11  H    2.191504   3.461360   4.009738   3.424860   2.203109
    12  H    4.438538   4.436432   3.534017   2.258212   2.256081
    13  H    4.429175   4.430301   3.530927   2.255824   2.254990
                    6          7          8          9         10
     6  C    0.000000
     7  C    2.874944   0.000000
     8  H    2.168480   4.792458   0.000000
     9  H    3.443727   4.789564   2.455270   0.000000
    10  H    4.009252   3.559665   4.344871   2.519411   0.000000
    11  H    1.094252   3.572115   2.513792   4.341501   5.103314
    12  H    3.538627   1.102354   5.466265   5.463126   4.117416
    13  H    3.528231   1.102502   5.455176   5.457494   4.115356
                   11         12         13
    11  H    0.000000
    12  H    4.128345   0.000000
    13  H    4.116183   1.836781   0.000000
 Stoichiometry    C7H6
 Framework group  C1[X(C7H6)]
 Deg. of freedom    33
 Full point group                 C1      NOp   1
 Largest Abelian subgroup         C1      NOp   1
 Largest concise Abelian subgroup C1      NOp   1
                         Standard orientation:                         
 ---------------------------------------------------------------------
 Center     Atomic      Atomic             Coordinates (Angstroms)
 Number     Number       Type             X           Y           Z
 ---------------------------------------------------------------------
      1          6           0       -1.529406    0.701166   -0.000756
      2          6           0       -1.527390   -0.705297    0.000818
      3          6           0       -0.330769   -1.458146   -0.000389
      4          6           0        0.803232   -0.671497   -0.000280
      5          6           0        0.805919    0.679219    0.007271
      6          6           0       -0.334571    1.457460   -0.001531
      7          6           0        2.141853   -0.002891   -0.001832
      8          1           0       -2.490577    1.225213   -0.003396
      9          1           0       -2.487833   -1.230050    0.001953
     10          1           0       -0.342974   -2.551783   -0.003831
     11          1           0       -0.355145    2.551516   -0.003874
     12          1           0        2.756827   -0.001547    0.913039
     13          1           0        2.746494    0.006575   -0.923695
 ---------------------------------------------------------------------
 Rotational constants (GHZ):           5.5122486           3.1784033           2.0437079
 Standard basis: def2SVPP (5D, 7F)
 There are   117 symmetry adapted cartesian basis functions of A   symmetry.
 There are   110 symmetry adapted basis functions of A   symmetry.
   110 basis functions,   199 primitive gaussians,   117 cartesian basis functions
    24 alpha electrons       24 beta electrons
       nuclear repulsion energy       256.2718888063 Hartrees.
 NAtoms=   13 NActive=   13 NUniq=   13 SFac= 1.00D+00 NAtFMM=   60 NAOKFM=F Big=F
 Integral buffers will be    131072 words long.
 Raffenetti 2 integral format.
 Two-electron integral symmetry is turned on.
 Nuclear repulsion after empirical dispersion term =      256.2505159928 Hartrees.
 One-electron integrals computed using PRISM.
   1 Symmetry operations used in ECPInt.
 ECPInt:  NShTT=    1485 NPrTT=    5995 LenC2=    1484 LenP2D=    4910.
 LDataN:  DoStor=T MaxTD1= 4 Len=   56
 NBasis=   110 RedAO= T EigKep=  3.57D-04  NBF=   110
 NBsUse=   110 1.00D-06 EigRej= -1.00D+00 NBFU=   110
 Initial guess from the checkpoint file:  "/home/software/g16/scr/Gau-131436.chk"
 B after Tr=    -0.000000   -0.000000   -0.000000
         Rot=    0.999971   -0.000021    0.000003    0.007637 Ang=  -0.88 deg.
 ExpMin= 1.22D-01 ExpMax= 1.24D+03 ExpMxC= 1.86D+02 IAcc=3 IRadAn=         5 AccDes= 0.00D+00
 Harris functional with IExCor=  402 and IRadAn=       5 diagonalized for initial guess.
 HarFok:  IExCor=  402 AccDes= 0.00D+00 IRadAn=         5 IDoV= 1 UseB2=F ITyADJ=14
 ICtDFT=  3500011 ScaDFX=  1.000000  1.000000  1.000000  1.000000
 FoFCou: FMM=F IPFlag=           0 FMFlag=      100000 FMFlg1=           0
         NFxFlg=           0 DoJE=T BraDBF=F KetDBF=T FulRan=T
         wScrn=  0.000000 ICntrl=       500 IOpCl=  0 I1Cent=   200000004 NGrid=           0
         NMat0=    1 NMatS0=      1 NMatT0=    0 NMatD0=    1 NMtDS0=    0 NMtDT0=    0
 Petite list used in FoFCou.
 Requested convergence on RMS density matrix=1.00D-08 within 128 cycles.
 Requested convergence on MAX density matrix=1.00D-06.
 Requested convergence on             energy=1.00D-06.
 No special actions if energy rises.
 Integral accuracy reduced to 1.0D-05 until final iterations.
 Initial convergence to 1.0D-05 achieved.  Increase integral accuracy.
 SCF Done:  E(RB3LYP) =  -270.072792887     A.U. after   12 cycles
            NFock= 12  Conv=0.52D-08     -V/T= 2.0112
   1 Symmetry operations used in ECPInt.
 ECPInt:  NShTT=    1485 NPrTT=    5995 LenC2=    1484 LenP2D=    4910.
 LDataN:  DoStor=T MaxTD1= 5 Len=  102
 Calling FoFJK, ICntrl=      2127 FMM=F ISym2X=0 I1Cent= 0 IOpClX= 0 NMat=1 NMatS=1 NMatT=0.
 ***** Axes restored to original set *****
 -------------------------------------------------------------------
 Center     Atomic                   Forces (Hartrees/Bohr)
 Number     Number              X              Y              Z
 -------------------------------------------------------------------
      1        6          -0.000312323   -0.000071176    0.000232368
      2        6          -0.000553698   -0.000864979    0.000008826
      3        6          -0.000021941   -0.001423671    0.000373733
      4        6          -0.001883588    0.003526044   -0.001009022
      5        6           0.001366388   -0.001535645    0.001089901
      6        6          -0.000534095   -0.001021945   -0.000650405
      7        6           0.002408832   -0.000034520    0.000135696
      8        1          -0.000213661    0.000029212   -0.000016762
      9        1          -0.000266674   -0.000129683    0.000055866
     10        1          -0.000299093    0.000196053    0.000002953
     11        1           0.000170452   -0.000013864   -0.000018524
     12        1          -0.000023720    0.000600919   -0.000523729
     13        1           0.000163121    0.000743253    0.000319099
 -------------------------------------------------------------------
 Cartesian Forces:  Max     0.003526044 RMS     0.000947026

 GradGradGradGradGradGradGradGradGradGradGradGradGradGradGradGradGradGrad
 Berny optimization.
 Using GEDIIS/GDIIS optimizer.
 FormGI is forming the generalized inverse of G from B-inverse, IUseBI=4.
 Internal  Forces:  Max     0.001882143 RMS     0.000621524
 Search for a local minimum.
 Step number   7 out of a maximum of   70
 All quantities printed in internal units (Hartrees-Bohrs-Radians)
 Mixed Optimization -- En-DIIS/RFO-DIIS
 Update second derivatives using D2CorX and points    5    6    7
 DE= -9.05D-04 DEPred=-8.05D-04 R= 1.13D+00
 TightC=F SS=  1.41D+00  RLast= 2.78D-01 DXNew= 1.2000D+00 8.3363D-01
 Trust test= 1.13D+00 RLast= 2.78D-01 DXMaxT set to 8.34D-01
 ITU=  1  1 -1  1  1  1  0
 Use linear search instead of GDIIS.
     Eigenvalues ---    0.00273   0.01825   0.01967   0.02149   0.02309
     Eigenvalues ---    0.02344   0.02474   0.02602   0.04229   0.07171
     Eigenvalues ---    0.10766   0.13470   0.13555   0.15984   0.16001
     Eigenvalues ---    0.16023   0.16839   0.22122   0.22553   0.27850
     Eigenvalues ---    0.34659   0.35048   0.35404   0.35435   0.35771
     Eigenvalues ---    0.36209   0.40176   0.40504   0.45760   0.47066
     Eigenvalues ---    0.48170   0.50758   0.66103
 RFO step:  Lambda=-7.90653709D-05 EMin= 2.73223758D-03
 Quartic linear search produced a step of  0.00560.
 Iteration  1 RMS(Cart)=  0.00322874 RMS(Int)=  0.00009355
 Iteration  2 RMS(Cart)=  0.00002015 RMS(Int)=  0.00002587
 Iteration  3 RMS(Cart)=  0.00000001 RMS(Int)=  0.00002587
 Variable       Old X    -DE/DX   Delta X   Delta X   Delta X     New X
                                 (Linear)    (Quad)   (Total)
    R1        2.65784  -0.00030   0.00001  -0.00102  -0.00101   2.65682
    R2        2.67222   0.00055   0.00002   0.00142   0.00144   2.67366
    R3        2.06878   0.00003  -0.00000   0.00005   0.00005   2.06883
    R4        2.67160   0.00081  -0.00008   0.00057   0.00050   2.67210
    R5        2.06821   0.00030  -0.00001   0.00062   0.00061   2.06881
    R6        2.60808   0.00154   0.00003   0.00354   0.00358   2.61165
    R7        2.06681   0.00035  -0.00002   0.00068   0.00066   2.06747
    R8        2.55253   0.00188  -0.00010   0.00296   0.00286   2.55539
    R9        2.82762   0.00185   0.00010   0.00462   0.00472   2.83233
   R10        2.60923   0.00154  -0.00012   0.00161   0.00149   2.61071
   R11        2.83464   0.00150  -0.00025   0.00242   0.00216   2.83680
   R12        2.06784   0.00013  -0.00003  -0.00017  -0.00020   2.06764
   R13        2.08315   0.00066  -0.00004   0.00131   0.00127   2.08442
   R14        2.08343   0.00063  -0.00004   0.00125   0.00120   2.08463
    A1        2.13367   0.00010  -0.00005  -0.00068  -0.00074   2.13293
    A2        2.07139  -0.00027  -0.00003  -0.00164  -0.00167   2.06973
    A3        2.07812   0.00017   0.00008   0.00233   0.00241   2.08052
    A4        2.13380  -0.00016   0.00006  -0.00113  -0.00107   2.13273
    A5        2.06941   0.00003  -0.00003   0.00035   0.00033   2.06974
    A6        2.07997   0.00013  -0.00004   0.00078   0.00074   2.08071
    A7        1.97354   0.00105   0.00002   0.00510   0.00512   1.97866
    A8        2.12121  -0.00060  -0.00006  -0.00363  -0.00369   2.11752
    A9        2.18843  -0.00045   0.00004  -0.00148  -0.00144   2.18699
   A10        2.17926  -0.00126  -0.00018  -0.00647  -0.00664   2.17261
   A11        2.99833   0.00146   0.00030   0.00720   0.00750   3.00583
   A12        2.16754  -0.00029   0.00025   0.00184   0.00210   2.16963
   A13        3.01427   0.00024  -0.00037  -0.00246  -0.00285   3.01142
   A14        1.97847   0.00056  -0.00010   0.00138   0.00127   1.97974
   A15        2.11630  -0.00016   0.00010   0.00068   0.00078   2.11708
   A16        2.18840  -0.00040   0.00001  -0.00205  -0.00204   2.18635
   A17        2.09297  -0.00029  -0.00005  -0.00542  -0.00549   2.08748
   A18        2.08902   0.00005  -0.00006  -0.00324  -0.00334   2.08568
   A19        2.08433   0.00017   0.00005   0.00489   0.00491   2.08924
   A20        2.08243   0.00034   0.00004   0.00554   0.00554   2.08797
   A21        1.96924  -0.00020   0.00002  -0.00074  -0.00082   1.96842
    D1       -0.00177  -0.00003   0.00001  -0.00146  -0.00142  -0.00320
    D2        3.14096  -0.00003   0.00000  -0.00096  -0.00095   3.14001
    D3        3.13774   0.00004  -0.00001   0.00121   0.00121   3.13895
    D4       -0.00271   0.00004  -0.00002   0.00170   0.00168  -0.00103
    D5       -0.00620   0.00011  -0.00003   0.00424   0.00422  -0.00199
    D6        3.14040   0.00007  -0.00003   0.00190   0.00185  -3.14094
    D7        3.13748   0.00004  -0.00000   0.00157   0.00158   3.13905
    D8        0.00089  -0.00001  -0.00001  -0.00077  -0.00080   0.00010
    D9        0.00231  -0.00005   0.00001  -0.00119  -0.00117   0.00114
   D10       -3.13656  -0.00000  -0.00000   0.00033   0.00030  -3.13626
   D11       -3.14043  -0.00005   0.00002  -0.00168  -0.00165   3.14111
   D12        0.00388  -0.00000   0.00001  -0.00017  -0.00017   0.00371
   D13        0.00580   0.00004  -0.00003   0.00078   0.00070   0.00650
   D14       -3.13474   0.00007   0.00003   0.00352   0.00351  -3.13123
   D15       -3.13864  -0.00001  -0.00001  -0.00081  -0.00084  -3.13948
   D16        0.00401   0.00002   0.00005   0.00193   0.00197   0.00597
   D17       -0.01530   0.00006   0.00001   0.00242   0.00251  -0.01279
   D18       -1.28813   0.00042   0.00003   0.00706   0.00704  -1.28109
   D19        1.28628  -0.00049  -0.00013  -0.01165  -0.01176   1.27452
   D20        0.01444  -0.00012   0.00001  -0.00471  -0.00476   0.00968
   D21       -3.13241  -0.00007   0.00003  -0.00225  -0.00227  -3.13467
   D22        3.04720   0.00007   0.00069   0.01138   0.01205   3.05925
   D23       -0.09964   0.00011   0.00070   0.01384   0.01454  -0.08510
   D24        1.37172   0.00026  -0.00059  -0.00512  -0.00566   1.36606
   D25       -1.17380  -0.00024  -0.00077  -0.02263  -0.02343  -1.19723
         Item               Value     Threshold  Converged?
 Maximum Force            0.001882     0.000450     NO 
 RMS     Force            0.000622     0.000300     NO 
 Maximum Displacement     0.011603     0.001800     NO 
 RMS     Displacement     0.003222     0.001200     NO 
 Predicted change in Energy=-3.968923D-05
 GradGradGradGradGradGradGradGradGradGradGradGradGradGradGradGradGradGrad

                          Input orientation:                          
 ---------------------------------------------------------------------
 Center     Atomic      Atomic             Coordinates (Angstroms)
 Number     Number       Type             X           Y           Z
 ---------------------------------------------------------------------
      1          6           0       -0.469426   -1.064475    0.037773
      2          6           0       -1.463621   -0.070500    0.053013
      3          6           0       -1.152886    1.307083   -0.018713
      4          6           0        0.203188    1.559401   -0.104731
      5          6           0        1.159726    0.603843   -0.127991
      6          6           0        0.907516   -0.752463   -0.054149
      7          6           0        1.622990    2.029882   -0.200816
      8          1           0       -0.776527   -2.113522    0.098817
      9          1           0       -2.511629   -0.378881    0.124424
     10          1           0       -1.937896    2.068926   -0.000774
     11          1           0        1.668882   -1.538180   -0.065402
     12          1           0        1.999638    2.434148   -1.155473
     13          1           0        2.102393    2.493178    0.678073
 ---------------------------------------------------------------------
                    Distance matrix (angstroms):
                    1          2          3          4          5
     1  C    0.000000
     2  C    1.405931   0.000000
     3  C    2.468723   1.414014   0.000000
     4  C    2.712460   2.336602   1.382028   0.000000
     5  C    2.337712   2.714673   2.419642   1.352256   0.000000
     6  C    1.414840   2.469584   2.913459   2.417302   1.381531
     7  C    3.743016   3.742084   2.874211   1.498807   1.501167
     8  H    1.094777   2.155954   3.443254   3.806788   3.344337
     9  H    2.155955   1.094769   2.170056   3.343603   3.808977
    10  H    3.460648   2.192024   1.094059   2.203330   3.428981
    11  H    2.192579   3.461312   4.007503   3.427070   2.202594
    12  H    4.445276   4.441606   3.535663   2.257537   2.260794
    13  H    4.436342   4.436169   3.534003   2.256480   2.260077
                    6          7          8          9         10
     6  C    0.000000
     7  C    2.876604   0.000000
     8  H    2.170687   4.797422   0.000000
     9  H    3.444126   4.796143   2.453613   0.000000
    10  H    4.007424   3.566714   4.341839   2.517261   0.000000
    11  H    1.094146   3.570925   2.517541   4.342428   5.101395
    12  H    3.544028   1.103026   5.473723   5.468345   4.119574
    13  H    3.535260   1.103139   5.463095   5.463007   4.118829
                   11         12         13
    11  H    0.000000
    12  H    4.132438   0.000000
    13  H    4.122200   1.837371   0.000000
 Stoichiometry    C7H6
 Framework group  C1[X(C7H6)]
 Deg. of freedom    33
 Full point group                 C1      NOp   1
 Largest Abelian subgroup         C1      NOp   1
 Largest concise Abelian subgroup C1      NOp   1
                         Standard orientation:                         
 ---------------------------------------------------------------------
 Center     Atomic      Atomic             Coordinates (Angstroms)
 Number     Number       Type             X           Y           Z
 ---------------------------------------------------------------------
      1          6           0       -1.531482    0.701336   -0.001844
      2          6           0       -1.529842   -0.704592    0.000374
      3          6           0       -0.332390   -1.456618    0.000710
      4          6           0        0.806558   -0.673803    0.000109
      5          6           0        0.806103    0.678438    0.006523
      6          6           0       -0.335245    1.456839   -0.000059
      7          6           0        2.145276    0.000177   -0.002547
      8          1           0       -2.493409    1.224048   -0.004528
      9          1           0       -2.490534   -1.229559    0.000334
     10          1           0       -0.347747   -2.550565   -0.002534
     11          1           0       -0.353862    2.550827   -0.001219
     12          1           0        2.760651   -0.006780    0.912838
     13          1           0        2.751028    0.001364   -0.924490
 ---------------------------------------------------------------------
 Rotational constants (GHZ):           5.5166249           3.1683209           2.0401501
 Standard basis: def2SVPP (5D, 7F)
 There are   117 symmetry adapted cartesian basis functions of A   symmetry.
 There are   110 symmetry adapted basis functions of A   symmetry.
   110 basis functions,   199 primitive gaussians,   117 cartesian basis functions
    24 alpha electrons       24 beta electrons
       nuclear repulsion energy       256.0898144640 Hartrees.
 NAtoms=   13 NActive=   13 NUniq=   13 SFac= 1.00D+00 NAtFMM=   60 NAOKFM=F Big=F
 Integral buffers will be    131072 words long.
 Raffenetti 2 integral format.
 Two-electron integral symmetry is turned on.
 Nuclear repulsion after empirical dispersion term =      256.0684516759 Hartrees.
 One-electron integrals computed using PRISM.
   1 Symmetry operations used in ECPInt.
 ECPInt:  NShTT=    1485 NPrTT=    5995 LenC2=    1484 LenP2D=    4910.
 LDataN:  DoStor=T MaxTD1= 4 Len=   56
 NBasis=   110 RedAO= T EigKep=  3.59D-04  NBF=   110
 NBsUse=   110 1.00D-06 EigRej= -1.00D+00 NBFU=   110
 Initial guess from the checkpoint file:  "/home/software/g16/scr/Gau-131436.chk"
 B after Tr=    -0.000000    0.000000    0.000000
         Rot=    1.000000   -0.000000    0.000008    0.000086 Ang=  -0.01 deg.
 Requested convergence on RMS density matrix=1.00D-08 within 128 cycles.
 Requested convergence on MAX density matrix=1.00D-06.
 Requested convergence on             energy=1.00D-06.
 No special actions if energy rises.
 SCF Done:  E(RB3LYP) =  -270.072837297     A.U. after    9 cycles
            NFock=  9  Conv=0.98D-08     -V/T= 2.0112
   1 Symmetry operations used in ECPInt.
 ECPInt:  NShTT=    1485 NPrTT=    5995 LenC2=    1484 LenP2D=    4910.
 LDataN:  DoStor=T MaxTD1= 5 Len=  102
 Calling FoFJK, ICntrl=      2127 FMM=F ISym2X=0 I1Cent= 0 IOpClX= 0 NMat=1 NMatS=1 NMatT=0.
 ***** Axes restored to original set *****
 -------------------------------------------------------------------
 Center     Atomic                   Forces (Hartrees/Bohr)
 Number     Number              X              Y              Z
 -------------------------------------------------------------------
      1        6           0.000359265    0.000046683   -0.000131894
      2        6          -0.000037688   -0.000220145    0.000026703
      3        6           0.000400927   -0.000409838    0.000426184
      4        6          -0.001939494    0.001077706   -0.000678608
      5        6           0.000963522   -0.000421908    0.000829899
      6        6          -0.000773010   -0.000472844   -0.000327856
      7        6           0.000422406    0.000376375    0.000003629
      8        1           0.000108225   -0.000032263   -0.000004434
      9        1          -0.000042292    0.000070528    0.000013828
     10        1          -0.000102157    0.000194000   -0.000054418
     11        1           0.000127117   -0.000136292    0.000007025
     12        1           0.000245173   -0.000084570   -0.000169681
     13        1           0.000268007    0.000012567    0.000059623
 -------------------------------------------------------------------
 Cartesian Forces:  Max     0.001939494 RMS     0.000491313

 GradGradGradGradGradGradGradGradGradGradGradGradGradGradGradGradGradGrad
 Berny optimization.
 Using GEDIIS/GDIIS optimizer.
 FormGI is forming the generalized inverse of G from B-inverse, IUseBI=4.
 Internal  Forces:  Max     0.001042196 RMS     0.000245700
 Search for a local minimum.
 Step number   8 out of a maximum of   70
 All quantities printed in internal units (Hartrees-Bohrs-Radians)
 Mixed Optimization -- En-DIIS/RFO-DIIS
 Swapping is turned off.
 Update second derivatives using D2CorX and points    5    6    7    8
 DE= -4.44D-05 DEPred=-3.97D-05 R= 1.12D+00
 TightC=F SS=  1.41D+00  RLast= 3.92D-02 DXNew= 1.4020D+00 1.1769D-01
 Trust test= 1.12D+00 RLast= 3.92D-02 DXMaxT set to 8.34D-01
 ITU=  1  1  1 -1  1  1  1  0
     Eigenvalues ---    0.00248   0.01834   0.01971   0.02157   0.02308
     Eigenvalues ---    0.02351   0.02473   0.02611   0.05331   0.07138
     Eigenvalues ---    0.10042   0.13417   0.13531   0.15968   0.16005
     Eigenvalues ---    0.16063   0.16987   0.20480   0.22145   0.28191
     Eigenvalues ---    0.34603   0.35048   0.35407   0.35434   0.35833
     Eigenvalues ---    0.36235   0.38499   0.40759   0.43333   0.46888
     Eigenvalues ---    0.48353   0.52618   0.62001
 En-DIIS/RFO-DIIS/Sim-DIIS IScMMF=       -3 using points:     8    7
 RFO step:  Lambda=-1.84668268D-05.
 DidBck=F Rises=F RFO-DIIS coefs:    1.95101   -0.95101
 Iteration  1 RMS(Cart)=  0.00257899 RMS(Int)=  0.00012898
 Iteration  2 RMS(Cart)=  0.00002004 RMS(Int)=  0.00002820
 Iteration  3 RMS(Cart)=  0.00000002 RMS(Int)=  0.00002820
 Variable       Old X    -DE/DX   Delta X   Delta X   Delta X     New X
                                 (Linear)    (Quad)   (Total)
    R1        2.65682   0.00008  -0.00096   0.00089  -0.00007   2.65675
    R2        2.67366  -0.00045   0.00137  -0.00221  -0.00084   2.67282
    R3        2.06883   0.00000   0.00004  -0.00008  -0.00004   2.06879
    R4        2.67210   0.00023   0.00048  -0.00037   0.00010   2.67220
    R5        2.06881   0.00002   0.00058  -0.00051   0.00007   2.06888
    R6        2.61165  -0.00015   0.00340  -0.00283   0.00057   2.61222
    R7        2.06747   0.00021   0.00063  -0.00002   0.00060   2.06808
    R8        2.55539   0.00104   0.00272  -0.00030   0.00244   2.55783
    R9        2.83233   0.00095   0.00449  -0.00097   0.00351   2.83584
   R10        2.61071   0.00052   0.00141  -0.00083   0.00058   2.61130
   R11        2.83680   0.00016   0.00205  -0.00273  -0.00068   2.83611
   R12        2.06764   0.00019  -0.00019   0.00050   0.00031   2.06795
   R13        2.08442   0.00020   0.00121  -0.00063   0.00057   2.08499
   R14        2.08463   0.00017   0.00114  -0.00067   0.00047   2.08510
    A1        2.13293   0.00006  -0.00070   0.00029  -0.00042   2.13251
    A2        2.06973   0.00009  -0.00158   0.00194   0.00036   2.07009
    A3        2.08052  -0.00015   0.00229  -0.00223   0.00007   2.08059
    A4        2.13273   0.00008  -0.00102   0.00120   0.00018   2.13291
    A5        2.06974   0.00004   0.00031   0.00019   0.00051   2.07024
    A6        2.08071  -0.00012   0.00071  -0.00139  -0.00068   2.08003
    A7        1.97866   0.00017   0.00487  -0.00288   0.00199   1.98065
    A8        2.11752  -0.00001  -0.00351   0.00258  -0.00093   2.11659
    A9        2.18699  -0.00016  -0.00137   0.00032  -0.00105   2.18594
   A10        2.17261  -0.00029  -0.00632   0.00280  -0.00352   2.16909
   A11        3.00583   0.00067   0.00713  -0.00191   0.00521   3.01104
   A12        2.16963  -0.00016   0.00199  -0.00036   0.00163   2.17126
   A13        3.01142  -0.00001  -0.00271   0.00014  -0.00261   3.00881
   A14        1.97974   0.00013   0.00121  -0.00103   0.00018   1.97992
   A15        2.11708  -0.00007   0.00074  -0.00021   0.00053   2.11762
   A16        2.18635  -0.00006  -0.00194   0.00124  -0.00071   2.18565
   A17        2.08748   0.00003  -0.00522   0.00609   0.00085   2.08833
   A18        2.08568   0.00014  -0.00317   0.00504   0.00182   2.08750
   A19        2.08924  -0.00015   0.00467  -0.00562  -0.00097   2.08827
   A20        2.08797  -0.00005   0.00527  -0.00567  -0.00045   2.08752
   A21        1.96842  -0.00006  -0.00078  -0.00001  -0.00088   1.96754
    D1       -0.00320   0.00002  -0.00135   0.00321   0.00188  -0.00132
    D2        3.14001   0.00001  -0.00091   0.00232   0.00142   3.14143
    D3        3.13895   0.00000   0.00115  -0.00067   0.00049   3.13944
    D4       -0.00103  -0.00000   0.00160  -0.00156   0.00003  -0.00100
    D5       -0.00199  -0.00003   0.00401  -0.00534  -0.00132  -0.00330
    D6       -3.14094   0.00000   0.00176  -0.00316  -0.00143   3.14081
    D7        3.13905  -0.00001   0.00150  -0.00144   0.00008   3.13913
    D8        0.00010   0.00002  -0.00076   0.00074  -0.00003   0.00006
    D9        0.00114   0.00000  -0.00112   0.00160   0.00048   0.00162
   D10       -3.13626  -0.00003   0.00029  -0.00207  -0.00181  -3.13807
   D11        3.14111   0.00001  -0.00157   0.00250   0.00095  -3.14113
   D12        0.00371  -0.00002  -0.00016  -0.00117  -0.00135   0.00236
   D13        0.00650  -0.00002   0.00067  -0.00412  -0.00350   0.00300
   D14       -3.13123  -0.00000   0.00334  -0.00299   0.00030  -3.13093
   D15       -3.13948   0.00001  -0.00080  -0.00027  -0.00110  -3.14058
   D16        0.00597   0.00003   0.00187   0.00086   0.00271   0.00868
   D17       -0.01279   0.00001   0.00239   0.00185   0.00434  -0.00845
   D18       -1.28109  -0.00014   0.00670  -0.01177  -0.00512  -1.28621
   D19        1.27452   0.00005  -0.01118   0.00914  -0.00203   1.27249
   D20        0.00968   0.00002  -0.00452   0.00297  -0.00163   0.00806
   D21       -3.13467  -0.00002  -0.00215   0.00070  -0.00151  -3.13618
   D22        3.05925   0.00008   0.01146   0.01441   0.02585   3.08510
   D23       -0.08510   0.00005   0.01383   0.01213   0.02597  -0.05913
   D24        1.36606  -0.00027  -0.00538  -0.02206  -0.02739   1.33867
   D25       -1.19723   0.00023  -0.02228  -0.00043  -0.02273  -1.21996
         Item               Value     Threshold  Converged?
 Maximum Force            0.001042     0.000450     NO 
 RMS     Force            0.000246     0.000300     YES
 Maximum Displacement     0.007771     0.001800     NO 
 RMS     Displacement     0.002585     0.001200     NO 
 Predicted change in Energy=-9.222821D-06
 GradGradGradGradGradGradGradGradGradGradGradGradGradGradGradGradGradGrad

                          Input orientation:                          
 ---------------------------------------------------------------------
 Center     Atomic      Atomic             Coordinates (Angstroms)
 Number     Number       Type             X           Y           Z
 ---------------------------------------------------------------------
      1          6           0       -0.469535   -1.064741    0.036529
      2          6           0       -1.464171   -0.071284    0.053147
      3          6           0       -1.154352    1.306627   -0.017287
      4          6           0        0.201273    1.562655   -0.104267
      5          6           0        1.158072    0.605483   -0.125417
      6          6           0        0.906784   -0.751403   -0.053330
      7          6           0        1.623975    2.030135   -0.201080
      8          1           0       -0.775758   -2.114107    0.096134
      9          1           0       -2.512222   -0.379735    0.124184
     10          1           0       -1.940889    2.067364    0.000114
     11          1           0        1.669459   -1.536084   -0.064435
     12          1           0        2.003210    2.430338   -1.156776
     13          1           0        2.106505    2.493192    0.676535
 ---------------------------------------------------------------------
                    Distance matrix (angstroms):
                    1          2          3          4          5
     1  C    0.000000
     2  C    1.405893   0.000000
     3  C    2.468858   1.414067   0.000000
     4  C    2.715330   2.338427   1.382329   0.000000
     5  C    2.337730   2.714048   2.418801   1.353547   0.000000
     6  C    1.414393   2.468872   2.912914   2.419753   1.381840
     7  C    3.743995   3.743960   2.876864   1.500664   1.500807
     8  H    1.094757   2.156128   3.443489   3.809636   3.344392
     9  H    2.156268   1.094806   2.169710   3.344865   3.808414
    10  H    3.460678   2.191777   1.094378   2.203289   3.428762
    11  H    2.192635   3.461084   4.007135   3.429189   2.202622
    12  H    4.444550   4.443508   3.539966   2.260006   2.260101
    13  H    4.438973   4.440144   3.538716   2.259527   2.259667
                    6          7          8          9         10
     6  C    0.000000
     7  C    2.876307   0.000000
     8  H    2.170311   4.798103   0.000000
     9  H    3.443726   4.798062   2.454413   0.000000
    10  H    4.007186   3.570731   4.341826   2.515971   0.000000
    11  H    1.094313   3.569125   2.517733   4.342715   5.101334
    12  H    3.541641   1.103330   5.472151   5.470512   4.126264
    13  H    3.535453   1.103388   5.465484   5.467307   4.125563
                   11         12         13
    11  H    0.000000
    12  H    4.127602   0.000000
    13  H    4.120086   1.837293   0.000000
 Stoichiometry    C7H6
 Framework group  C1[X(C7H6)]
 Deg. of freedom    33
 Full point group                 C1      NOp   1
 Largest Abelian subgroup         C1      NOp   1
 Largest concise Abelian subgroup C1      NOp   1
                         Standard orientation:                         
 ---------------------------------------------------------------------
 Center     Atomic      Atomic             Coordinates (Angstroms)
 Number     Number       Type             X           Y           Z
 ---------------------------------------------------------------------
      1          6           0       -1.531109    0.703248   -0.000626
      2          6           0       -1.531187   -0.702645    0.000412
      3          6           0       -0.334742   -1.456374   -0.000142
      4          6           0        0.807102   -0.677255    0.000282
      5          6           0        0.806460    0.676285    0.004494
      6          6           0       -0.334004    1.456540   -0.000715
      7          6           0        2.146247    0.000003   -0.001454
      8          1           0       -2.492192    1.227472   -0.002192
      9          1           0       -2.492287   -1.226940    0.000581
     10          1           0       -0.352657   -2.550603   -0.002608
     11          1           0       -0.350238    2.550731   -0.002259
     12          1           0        2.760426   -0.002557    0.915123
     13          1           0        2.754336    0.003081   -0.922152
 ---------------------------------------------------------------------
 Rotational constants (GHZ):           5.5164778           3.1656967           2.0390333
 Standard basis: def2SVPP (5D, 7F)
 There are   117 symmetry adapted cartesian basis functions of A   symmetry.
 There are   110 symmetry adapted basis functions of A   symmetry.
   110 basis functions,   199 primitive gaussians,   117 cartesian basis functions
    24 alpha electrons       24 beta electrons
       nuclear repulsion energy       256.0273379633 Hartrees.
 NAtoms=   13 NActive=   13 NUniq=   13 SFac= 1.00D+00 NAtFMM=   60 NAOKFM=F Big=F
 Integral buffers will be    131072 words long.
 Raffenetti 2 integral format.
 Two-electron integral symmetry is turned on.
 Nuclear repulsion after empirical dispersion term =      256.0059787465 Hartrees.
 One-electron integrals computed using PRISM.
   1 Symmetry operations used in ECPInt.
 ECPInt:  NShTT=    1485 NPrTT=    5995 LenC2=    1484 LenP2D=    4910.
 LDataN:  DoStor=T MaxTD1= 4 Len=   56
 NBasis=   110 RedAO= T EigKep=  3.59D-04  NBF=   110
 NBsUse=   110 1.00D-06 EigRej= -1.00D+00 NBFU=   110
 Initial guess from the checkpoint file:  "/home/software/g16/scr/Gau-131436.chk"
 B after Tr=     0.000000   -0.000000   -0.000000
         Rot=    1.000000    0.000040    0.000035    0.000435 Ang=   0.05 deg.
 Requested convergence on RMS density matrix=1.00D-08 within 128 cycles.
 Requested convergence on MAX density matrix=1.00D-06.
 Requested convergence on             energy=1.00D-06.
 No special actions if energy rises.
 SCF Done:  E(RB3LYP) =  -270.072847718     A.U. after    9 cycles
            NFock=  9  Conv=0.60D-08     -V/T= 2.0113
   1 Symmetry operations used in ECPInt.
 ECPInt:  NShTT=    1485 NPrTT=    5995 LenC2=    1484 LenP2D=    4910.
 LDataN:  DoStor=T MaxTD1= 5 Len=  102
 Calling FoFJK, ICntrl=      2127 FMM=F ISym2X=0 I1Cent= 0 IOpClX= 0 NMat=1 NMatS=1 NMatT=0.
 ***** Axes restored to original set *****
 -------------------------------------------------------------------
 Center     Atomic                   Forces (Hartrees/Bohr)
 Number     Number              X              Y              Z
 -------------------------------------------------------------------
      1        6           0.000100300    0.000068596    0.000055228
      2        6           0.000030660   -0.000115122   -0.000000287
      3        6           0.000235452    0.000124839    0.000184787
      4        6          -0.000578569   -0.000184312   -0.000429836
      5        6           0.000353165    0.000070419    0.000589650
      6        6          -0.000358108   -0.000030320   -0.000360798
      7        6           0.000150221    0.000072904    0.000028261
      8        1           0.000076941   -0.000039032   -0.000007727
      9        1           0.000002543    0.000052165    0.000004260
     10        1           0.000000467    0.000057244   -0.000019204
     11        1           0.000025087   -0.000067896   -0.000003781
     12        1          -0.000018665   -0.000047134   -0.000032882
     13        1          -0.000019495    0.000037649   -0.000007671
 -------------------------------------------------------------------
 Cartesian Forces:  Max     0.000589650 RMS     0.000194850

 GradGradGradGradGradGradGradGradGradGradGradGradGradGradGradGradGradGrad
 Berny optimization.
 Using GEDIIS/GDIIS optimizer.
 FormGI is forming the generalized inverse of G from B-inverse, IUseBI=4.
 Internal  Forces:  Max     0.000270710 RMS     0.000067354
 Search for a local minimum.
 Step number   9 out of a maximum of   70
 All quantities printed in internal units (Hartrees-Bohrs-Radians)
 Mixed Optimization -- En-DIIS/RFO-DIIS
 Swapping is turned off.
 Update second derivatives using D2CorX and points    5    6    7    8    9
 DE= -1.04D-05 DEPred=-9.22D-06 R= 1.13D+00
 TightC=F SS=  1.41D+00  RLast= 5.28D-02 DXNew= 1.4020D+00 1.5830D-01
 Trust test= 1.13D+00 RLast= 5.28D-02 DXMaxT set to 8.34D-01
 ITU=  1  1  1  1 -1  1  1  1  0
     Eigenvalues ---    0.00200   0.01841   0.01974   0.02169   0.02308
     Eigenvalues ---    0.02353   0.02471   0.02609   0.05167   0.07168
     Eigenvalues ---    0.11581   0.13214   0.13560   0.15842   0.15997
     Eigenvalues ---    0.16013   0.16964   0.20339   0.22164   0.28558
     Eigenvalues ---    0.34665   0.35045   0.35394   0.35433   0.35797
     Eigenvalues ---    0.36232   0.38643   0.40711   0.43040   0.47133
     Eigenvalues ---    0.48335   0.53293   0.60628
 En-DIIS/RFO-DIIS/Sim-DIIS IScMMF=       -3 using points:     9    8    7
 RFO step:  Lambda=-2.67692278D-06.
 DidBck=F Rises=F RFO-DIIS coefs:    1.35844   -0.23548   -0.12295
 Iteration  1 RMS(Cart)=  0.00063972 RMS(Int)=  0.00000858
 Iteration  2 RMS(Cart)=  0.00000184 RMS(Int)=  0.00000840
 Iteration  3 RMS(Cart)=  0.00000000 RMS(Int)=  0.00000840
 Variable       Old X    -DE/DX   Delta X   Delta X   Delta X     New X
                                 (Linear)    (Quad)   (Total)
    R1        2.65675  -0.00000  -0.00015   0.00018   0.00003   2.65678
    R2        2.67282  -0.00018  -0.00012  -0.00043  -0.00055   2.67226
    R3        2.06879   0.00002  -0.00001   0.00004   0.00003   2.06882
    R4        2.67220   0.00006   0.00010   0.00014   0.00024   2.67244
    R5        2.06888  -0.00002   0.00010  -0.00009   0.00001   2.06889
    R6        2.61222  -0.00027   0.00064  -0.00109  -0.00045   2.61178
    R7        2.06808   0.00004   0.00030  -0.00007   0.00022   2.06830
    R8        2.55783   0.00012   0.00123  -0.00054   0.00070   2.55853
    R9        2.83584   0.00015   0.00184  -0.00113   0.00070   2.83655
   R10        2.61130   0.00008   0.00039  -0.00002   0.00037   2.61167
   R11        2.83611  -0.00000   0.00002   0.00011   0.00013   2.83625
   R12        2.06795   0.00007   0.00009   0.00022   0.00031   2.06826
   R13        2.08499   0.00000   0.00036  -0.00019   0.00018   2.08517
   R14        2.08510   0.00000   0.00032  -0.00016   0.00015   2.08525
    A1        2.13251   0.00001  -0.00024   0.00019  -0.00005   2.13246
    A2        2.07009   0.00008  -0.00008   0.00070   0.00062   2.07071
    A3        2.08059  -0.00009   0.00032  -0.00089  -0.00057   2.08002
    A4        2.13291  -0.00001  -0.00007   0.00004  -0.00003   2.13287
    A5        2.07024   0.00006   0.00022   0.00015   0.00037   2.07061
    A6        2.08003  -0.00004  -0.00015  -0.00018  -0.00033   2.07970
    A7        1.98065  -0.00002   0.00134  -0.00116   0.00019   1.98084
    A8        2.11659   0.00006  -0.00079   0.00105   0.00026   2.11685
    A9        2.18594  -0.00003  -0.00056   0.00011  -0.00045   2.18549
   A10        2.16909   0.00012  -0.00208   0.00203  -0.00005   2.16904
   A11        3.01104  -0.00006   0.00279  -0.00248   0.00031   3.01135
   A12        2.17126  -0.00016   0.00084  -0.00124  -0.00041   2.17085
   A13        3.00881   0.00012  -0.00128   0.00167   0.00036   3.00917
   A14        1.97992   0.00007   0.00022   0.00015   0.00037   1.98029
   A15        2.11762  -0.00006   0.00029  -0.00061  -0.00032   2.11729
   A16        2.18565  -0.00000  -0.00051   0.00046  -0.00004   2.18560
   A17        2.08833  -0.00005  -0.00037   0.00020  -0.00017   2.08815
   A18        2.08750   0.00002   0.00024  -0.00022   0.00002   2.08752
   A19        2.08827  -0.00006   0.00026  -0.00062  -0.00036   2.08791
   A20        2.08752   0.00004   0.00052  -0.00009   0.00042   2.08794
   A21        1.96754   0.00002  -0.00042   0.00044   0.00001   1.96755
    D1       -0.00132  -0.00001   0.00050  -0.00067  -0.00016  -0.00148
    D2        3.14143  -0.00002   0.00039  -0.00077  -0.00038   3.14105
    D3        3.13944   0.00001   0.00032   0.00031   0.00064   3.14008
    D4       -0.00100   0.00001   0.00022   0.00020   0.00042  -0.00058
    D5       -0.00330   0.00004   0.00005   0.00162   0.00167  -0.00163
    D6        3.14081   0.00002  -0.00029   0.00082   0.00053   3.14134
    D7        3.13913   0.00002   0.00022   0.00064   0.00087   3.14000
    D8        0.00006  -0.00000  -0.00011  -0.00016  -0.00027  -0.00021
    D9        0.00162  -0.00002   0.00003  -0.00060  -0.00057   0.00106
   D10       -3.13807  -0.00001  -0.00061   0.00005  -0.00057  -3.13864
   D11       -3.14113  -0.00001   0.00014  -0.00049  -0.00035  -3.14148
   D12        0.00236  -0.00001  -0.00050   0.00016  -0.00035   0.00201
   D13        0.00300   0.00002  -0.00117   0.00085  -0.00034   0.00266
   D14       -3.13093   0.00001   0.00054   0.00063   0.00115  -3.12978
   D15       -3.14058   0.00001  -0.00050   0.00016  -0.00034  -3.14092
   D16        0.00868   0.00000   0.00121  -0.00006   0.00115   0.00983
   D17       -0.00845   0.00002   0.00186   0.00022   0.00211  -0.00634
   D18       -1.28621  -0.00002  -0.00097  -0.00072  -0.00170  -1.28791
   D19        1.27249  -0.00004  -0.00217   0.00021  -0.00196   1.27053
   D20        0.00806  -0.00005  -0.00117  -0.00144  -0.00264   0.00542
   D21       -3.13618  -0.00002  -0.00082  -0.00061  -0.00145  -3.13762
   D22        3.08510   0.00001   0.01075  -0.00071   0.01003   3.09514
   D23       -0.05913   0.00003   0.01110   0.00013   0.01123  -0.04790
   D24        1.33867  -0.00002  -0.01051  -0.00124  -0.01174   1.32693
   D25       -1.21996  -0.00004  -0.01103  -0.00086  -0.01188  -1.23185
         Item               Value     Threshold  Converged?
 Maximum Force            0.000271     0.000450     YES
 RMS     Force            0.000067     0.000300     YES
 Maximum Displacement     0.002142     0.001800     NO 
 RMS     Displacement     0.000641     0.001200     YES
 Predicted change in Energy=-1.327584D-06
 GradGradGradGradGradGradGradGradGradGradGradGradGradGradGradGradGradGrad

                          Input orientation:                          
 ---------------------------------------------------------------------
 Center     Atomic      Atomic             Coordinates (Angstroms)
 Number     Number       Type             X           Y           Z
 ---------------------------------------------------------------------
      1          6           0       -0.469524   -1.064870    0.036747
      2          6           0       -1.464198   -0.071431    0.053450
      3          6           0       -1.154373    1.306582   -0.017466
      4          6           0        0.200982    1.562824   -0.104261
      5          6           0        1.158229    0.605559   -0.124480
      6          6           0        0.906439   -0.751510   -0.053850
      7          6           0        1.624114    2.030257   -0.200767
      8          1           0       -0.775076   -2.114462    0.096097
      9          1           0       -2.512345   -0.379519    0.124719
     10          1           0       -1.940822    2.067592   -0.000542
     11          1           0        1.669009   -1.536511   -0.065487
     12          1           0        2.003730    2.429603   -1.156777
     13          1           0        2.106185    2.494325    0.676667
 ---------------------------------------------------------------------
                    Distance matrix (angstroms):
                    1          2          3          4          5
     1  C    0.000000
     2  C    1.405908   0.000000
     3  C    2.468956   1.414192   0.000000
     4  C    2.715556   2.338480   1.382093   0.000000
     5  C    2.337928   2.714240   2.418887   1.353916   0.000000
     6  C    1.414100   2.468591   2.912733   2.419991   1.382035
     7  C    3.744269   3.744247   2.877029   1.501037   1.500878
     8  H    1.094772   2.156544   3.443879   3.809891   3.344373
     9  H    2.156516   1.094811   2.169618   3.344738   3.808621
    10  H    3.460986   2.192146   1.094497   2.202923   3.428851
    11  H    2.192309   3.460865   4.007115   3.429648   2.202916
    12  H    4.444415   4.443685   3.540172   2.260308   2.260010
    13  H    4.439781   4.440624   3.538898   2.259943   2.260066
                    6          7          8          9         10
     6  C    0.000000
     7  C    2.876607   0.000000
     8  H    2.169704   4.798222   0.000000
     9  H    3.443596   4.798255   2.455392   0.000000
    10  H    4.007128   3.570749   4.342566   2.516085   0.000000
    11  H    1.094474   3.569615   2.516681   4.342640   5.101436
    12  H    3.541182   1.103423   5.471743   5.470679   4.126429
    13  H    3.536735   1.103468   5.466228   5.467582   4.125406
                   11         12         13
    11  H    0.000000
    12  H    4.127107   0.000000
    13  H    4.121839   1.837445   0.000000
 Stoichiometry    C7H6
 Framework group  C1[X(C7H6)]
 Deg. of freedom    33
 Full point group                 C1      NOp   1
 Largest Abelian subgroup         C1      NOp   1
 Largest concise Abelian subgroup C1      NOp   1
                         Standard orientation:                         
 ---------------------------------------------------------------------
 Center     Atomic      Atomic             Coordinates (Angstroms)
 Number     Number       Type             X           Y           Z
 ---------------------------------------------------------------------
      1          6           0       -1.531294    0.703093   -0.000873
      2          6           0       -1.531164   -0.702814    0.000171
      3          6           0       -0.334475   -1.456390    0.000219
      4          6           0        0.807178   -0.677411    0.000491
      5          6           0        0.806479    0.676501    0.003667
      6          6           0       -0.334509    1.456343   -0.000177
      7          6           0        2.146450    0.000422   -0.001530
      8          1           0       -2.492140    1.227782   -0.002310
      9          1           0       -2.491997   -1.227609    0.000071
     10          1           0       -0.351907   -2.550747   -0.001719
     11          1           0       -0.351206    2.550689   -0.001241
     12          1           0        2.760253   -0.001091    0.915413
     13          1           0        2.755002    0.002514   -0.922021
 ---------------------------------------------------------------------
 Rotational constants (GHZ):           5.5162895           3.1652699           2.0388339
 Standard basis: def2SVPP (5D, 7F)
 There are   117 symmetry adapted cartesian basis functions of A   symmetry.
 There are   110 symmetry adapted basis functions of A   symmetry.
   110 basis functions,   199 primitive gaussians,   117 cartesian basis functions
    24 alpha electrons       24 beta electrons
       nuclear repulsion energy       256.0148325941 Hartrees.
 NAtoms=   13 NActive=   13 NUniq=   13 SFac= 1.00D+00 NAtFMM=   60 NAOKFM=F Big=F
 Integral buffers will be    131072 words long.
 Raffenetti 2 integral format.
 Two-electron integral symmetry is turned on.
 Nuclear repulsion after empirical dispersion term =      255.9934740975 Hartrees.
 One-electron integrals computed using PRISM.
   1 Symmetry operations used in ECPInt.
 ECPInt:  NShTT=    1485 NPrTT=    5995 LenC2=    1484 LenP2D=    4910.
 LDataN:  DoStor=T MaxTD1= 4 Len=   56
 NBasis=   110 RedAO= T EigKep=  3.59D-04  NBF=   110
 NBsUse=   110 1.00D-06 EigRej= -1.00D+00 NBFU=   110
 Initial guess from the checkpoint file:  "/home/software/g16/scr/Gau-131436.chk"
 B after Tr=    -0.000000    0.000000    0.000000
         Rot=    1.000000    0.000034    0.000008   -0.000086 Ang=   0.01 deg.
 Requested convergence on RMS density matrix=1.00D-08 within 128 cycles.
 Requested convergence on MAX density matrix=1.00D-06.
 Requested convergence on             energy=1.00D-06.
 No special actions if energy rises.
 SCF Done:  E(RB3LYP) =  -270.072849338     A.U. after    9 cycles
            NFock=  9  Conv=0.20D-08     -V/T= 2.0113
   1 Symmetry operations used in ECPInt.
 ECPInt:  NShTT=    1485 NPrTT=    5995 LenC2=    1484 LenP2D=    4910.
 LDataN:  DoStor=T MaxTD1= 5 Len=  102
 Calling FoFJK, ICntrl=      2127 FMM=F ISym2X=0 I1Cent= 0 IOpClX= 0 NMat=1 NMatS=1 NMatT=0.
 ***** Axes restored to original set *****
 -------------------------------------------------------------------
 Center     Atomic                   Forces (Hartrees/Bohr)
 Number     Number              X              Y              Z
 -------------------------------------------------------------------
      1        6          -0.000085616    0.000061451   -0.000032634
      2        6           0.000003666   -0.000037454    0.000007988
      3        6           0.000023641    0.000108705    0.000183466
      4        6           0.000045374   -0.000356565   -0.000346974
      5        6           0.000058367    0.000150879    0.000474886
      6        6           0.000019602    0.000109320   -0.000220283
      7        6           0.000001878    0.000025281   -0.000036401
      8        1           0.000009800   -0.000007457   -0.000001396
      9        1           0.000016396    0.000019094    0.000006226
     10        1           0.000018300   -0.000030561   -0.000022947
     11        1          -0.000027701    0.000023073    0.000000423
     12        1          -0.000045733   -0.000037934    0.000028657
     13        1          -0.000037975   -0.000027830   -0.000041011
 -------------------------------------------------------------------
 Cartesian Forces:  Max     0.000474886 RMS     0.000127698

 GradGradGradGradGradGradGradGradGradGradGradGradGradGradGradGradGradGrad
 Berny optimization.
 Using GEDIIS/GDIIS optimizer.
 FormGI is forming the generalized inverse of G from B-inverse, IUseBI=4.
 Internal  Forces:  Max     0.000156446 RMS     0.000047713
 Search for a local minimum.
 Step number  10 out of a maximum of   70
 All quantities printed in internal units (Hartrees-Bohrs-Radians)
 Mixed Optimization -- En-DIIS/RFO-DIIS
 Swapping is turned off.
 Update second derivatives using D2CorX and points    5    6    7    8    9
                                                     10
 DE= -1.62D-06 DEPred=-1.33D-06 R= 1.22D+00
 TightC=F SS=  1.41D+00  RLast= 2.32D-02 DXNew= 1.4020D+00 6.9631D-02
 Trust test= 1.22D+00 RLast= 2.32D-02 DXMaxT set to 8.34D-01
 ITU=  1  1  1  1  1 -1  1  1  1  0
     Eigenvalues ---    0.00119   0.01875   0.01995   0.02220   0.02307
     Eigenvalues ---    0.02410   0.02504   0.02583   0.05378   0.07195
     Eigenvalues ---    0.10199   0.13333   0.13475   0.15920   0.16005
     Eigenvalues ---    0.16040   0.17037   0.20526   0.22219   0.28231
     Eigenvalues ---    0.34642   0.35048   0.35421   0.35432   0.35789
     Eigenvalues ---    0.36214   0.40412   0.41226   0.42670   0.47042
     Eigenvalues ---    0.48565   0.52842   0.76201
 En-DIIS/RFO-DIIS/Sim-DIIS IScMMF=       -3 using points:    10    9    8    7
 RFO step:  Lambda=-1.52029811D-06.
 DidBck=F Rises=F RFO-DIIS coefs:    1.62894   -0.43288   -0.20775    0.01169
 Iteration  1 RMS(Cart)=  0.00053071 RMS(Int)=  0.00000386
 Iteration  2 RMS(Cart)=  0.00000146 RMS(Int)=  0.00000327
 Iteration  3 RMS(Cart)=  0.00000000 RMS(Int)=  0.00000327
 Variable       Old X    -DE/DX   Delta X   Delta X   Delta X     New X
                                 (Linear)    (Quad)   (Total)
    R1        2.65678  -0.00007   0.00001  -0.00003  -0.00002   2.65676
    R2        2.67226   0.00006  -0.00053   0.00032  -0.00021   2.67205
    R3        2.06882   0.00000   0.00001   0.00000   0.00001   2.06883
    R4        2.67244  -0.00006   0.00016   0.00002   0.00018   2.67261
    R5        2.06889  -0.00002   0.00001  -0.00000   0.00001   2.06890
    R6        2.61178  -0.00005  -0.00021  -0.00013  -0.00034   2.61144
    R7        2.06830  -0.00003   0.00025  -0.00016   0.00009   2.06839
    R8        2.55853  -0.00016   0.00088  -0.00065   0.00024   2.55877
    R9        2.83655  -0.00004   0.00108  -0.00067   0.00039   2.83694
   R10        2.61167  -0.00011   0.00033  -0.00016   0.00017   2.61183
   R11        2.83625  -0.00008  -0.00008   0.00002  -0.00005   2.83620
   R12        2.06826  -0.00004   0.00026  -0.00009   0.00017   2.06842
   R13        2.08517  -0.00005   0.00021  -0.00015   0.00006   2.08523
   R14        2.08525  -0.00006   0.00017  -0.00015   0.00003   2.08528
    A1        2.13246   0.00001  -0.00011   0.00013   0.00002   2.13247
    A2        2.07071   0.00001   0.00048  -0.00005   0.00043   2.07114
    A3        2.08002  -0.00002  -0.00037  -0.00007  -0.00045   2.07957
    A4        2.13287  -0.00006   0.00003  -0.00015  -0.00012   2.13275
    A5        2.07061   0.00004   0.00033  -0.00004   0.00029   2.07091
    A6        2.07970   0.00001  -0.00035   0.00018  -0.00017   2.07953
    A7        1.98084  -0.00003   0.00045  -0.00043   0.00002   1.98087
    A8        2.11685   0.00000   0.00002   0.00019   0.00021   2.11706
    A9        2.18549   0.00002  -0.00047   0.00024  -0.00023   2.18526
   A10        2.16904   0.00014  -0.00064   0.00093   0.00029   2.16933
   A11        3.01135  -0.00014   0.00113  -0.00124  -0.00012   3.01123
   A12        2.17085  -0.00010   0.00004  -0.00050  -0.00047   2.17038
   A13        3.00917   0.00006  -0.00025   0.00068   0.00041   3.00958
   A14        1.98029   0.00003   0.00025   0.00002   0.00028   1.98057
   A15        2.11729  -0.00002  -0.00011  -0.00020  -0.00031   2.11699
   A16        2.18560  -0.00001  -0.00014   0.00017   0.00003   2.18563
   A17        2.08815  -0.00003   0.00012  -0.00039  -0.00026   2.08789
   A18        2.08752   0.00002   0.00041  -0.00019   0.00022   2.08774
   A19        2.08791  -0.00000  -0.00047   0.00032  -0.00015   2.08776
   A20        2.08794   0.00000   0.00011  -0.00013  -0.00002   2.08793
   A21        1.96755   0.00002  -0.00016   0.00027   0.00011   1.96766
    D1       -0.00148   0.00001   0.00029   0.00036   0.00065  -0.00082
    D2        3.14105   0.00001   0.00005   0.00034   0.00040   3.14145
    D3        3.14008   0.00001   0.00048  -0.00000   0.00048   3.14056
    D4       -0.00058   0.00000   0.00025  -0.00002   0.00023  -0.00035
    D5       -0.00163  -0.00001   0.00074  -0.00059   0.00016  -0.00147
    D6        3.14134   0.00000   0.00003  -0.00017  -0.00014   3.14120
    D7        3.14000  -0.00000   0.00055  -0.00022   0.00033   3.14033
    D8       -0.00021   0.00001  -0.00017   0.00020   0.00003  -0.00018
    D9        0.00106  -0.00000  -0.00025   0.00014  -0.00011   0.00095
   D10       -3.13864  -0.00001  -0.00072  -0.00014  -0.00086  -3.13950
   D11       -3.14148   0.00000  -0.00001   0.00016   0.00015  -3.14133
   D12        0.00201  -0.00001  -0.00048  -0.00012  -0.00060   0.00140
   D13        0.00266  -0.00001  -0.00091  -0.00040  -0.00131   0.00135
   D14       -3.12978   0.00001   0.00074   0.00021   0.00095  -3.12883
   D15       -3.14092  -0.00000  -0.00042  -0.00010  -0.00052  -3.14144
   D16        0.00983   0.00002   0.00123   0.00051   0.00174   0.01157
   D17       -0.00634   0.00002   0.00215   0.00016   0.00231  -0.00402
   D18       -1.28791  -0.00002  -0.00215   0.00004  -0.00212  -1.29002
   D19        1.27053   0.00000  -0.00149  -0.00046  -0.00196   1.26858
   D20        0.00542  -0.00001  -0.00192   0.00034  -0.00159   0.00383
   D21       -3.13762  -0.00002  -0.00118  -0.00010  -0.00128  -3.13890
   D22        3.09514   0.00004   0.01124   0.00048   0.01171   3.10685
   D23       -0.04790   0.00003   0.01199   0.00004   0.01202  -0.03588
   D24        1.32693   0.00002  -0.01269   0.00064  -0.01205   1.31488
   D25       -1.23185  -0.00003  -0.01166  -0.00033  -0.01198  -1.24383
         Item               Value     Threshold  Converged?
 Maximum Force            0.000156     0.000450     YES
 RMS     Force            0.000048     0.000300     YES
 Maximum Displacement     0.002261     0.001800     NO 
 RMS     Displacement     0.000531     0.001200     YES
 Predicted change in Energy=-7.297304D-07
 GradGradGradGradGradGradGradGradGradGradGradGradGradGradGradGradGradGrad

                          Input orientation:                          
 ---------------------------------------------------------------------
 Center     Atomic      Atomic             Coordinates (Angstroms)
 Number     Number       Type             X           Y           Z
 ---------------------------------------------------------------------
      1          6           0       -0.469557   -1.064904    0.036447
      2          6           0       -1.464268   -0.071522    0.053623
      3          6           0       -1.154344    1.306571   -0.017163
      4          6           0        0.200830    1.562732   -0.104176
      5          6           0        1.158478    0.605663   -0.123284
      6          6           0        0.906304   -0.751480   -0.053727
      7          6           0        1.624118    2.030350   -0.200725
      8          1           0       -0.774617   -2.114679    0.095228
      9          1           0       -2.512487   -0.379377    0.124907
     10          1           0       -1.940656    2.067803   -0.000694
     11          1           0        1.668722   -1.536748   -0.065588
     12          1           0        2.003695    2.428835   -1.157148
     13          1           0        2.106130    2.495197    0.676348
 ---------------------------------------------------------------------
                    Distance matrix (angstroms):
                    1          2          3          4          5
     1  C    0.000000
     2  C    1.405899   0.000000
     3  C    2.468947   1.414286   0.000000
     4  C    2.715449   2.338426   1.381914   0.000000
     5  C    2.338120   2.714529   2.419024   1.354044   0.000000
     6  C    1.413988   2.468497   2.912590   2.419879   1.382123
     7  C    3.744372   3.744420   2.877047   1.501245   1.500850
     8  H    1.094780   2.156812   3.444092   3.809804   3.344377
     9  H    2.156696   1.094815   2.169598   3.344601   3.808922
    10  H    3.461122   2.192397   1.094546   2.202673   3.428923
    11  H    2.192096   3.460740   4.007057   3.429719   2.203089
    12  H    4.443857   4.443480   3.540092   2.260356   2.259917
    13  H    4.440491   4.441123   3.538994   2.260283   2.260043
                    6          7          8          9         10
     6  C    0.000000
     7  C    2.876706   0.000000
     8  H    2.169331   4.798206   0.000000
     9  H    3.443618   4.798367   2.456084   0.000000
    10  H    4.007037   3.570578   4.343040   2.516238   0.000000
    11  H    1.094563   3.569935   2.515903   4.342615   5.101431
    12  H    3.540650   1.103456   5.470921   5.470432   4.126213
    13  H    3.537443   1.103483   5.466933   5.467987   4.125230
                   11         12         13
    11  H    0.000000
    12  H    4.126689   0.000000
    13  H    4.122909   1.837554   0.000000
 Stoichiometry    C7H6
 Framework group  C1[X(C7H6)]
 Deg. of freedom    33
 Full point group                 C1      NOp   1
 Largest Abelian subgroup         C1      NOp   1
 Largest concise Abelian subgroup C1      NOp   1
                         Standard orientation:                         
 ---------------------------------------------------------------------
 Center     Atomic      Atomic             Coordinates (Angstroms)
 Number     Number       Type             X           Y           Z
 ---------------------------------------------------------------------
      1          6           0       -1.531332    0.703039   -0.000557
      2          6           0       -1.531238   -0.702860    0.000056
      3          6           0       -0.334399   -1.456370    0.000091
      4          6           0        0.807049   -0.677408    0.000675
      5          6           0        0.806637    0.676635    0.002678
      6          6           0       -0.334637    1.456220   -0.000192
      7          6           0        2.146535    0.000464   -0.001217
      8          1           0       -2.491947    1.228170   -0.001546
      9          1           0       -2.491935   -1.227913   -0.000136
     10          1           0       -0.351498   -2.550782   -0.001383
     11          1           0       -0.351662    2.550649   -0.001044
     12          1           0        2.759649   -0.000412    0.916228
     13          1           0        2.755701    0.001971   -0.921320
 ---------------------------------------------------------------------
 Rotational constants (GHZ):           5.5163636           3.1650935           2.0387726
 Standard basis: def2SVPP (5D, 7F)
 There are   117 symmetry adapted cartesian basis functions of A   symmetry.
 There are   110 symmetry adapted basis functions of A   symmetry.
   110 basis functions,   199 primitive gaussians,   117 cartesian basis functions
    24 alpha electrons       24 beta electrons
       nuclear repulsion energy       256.0110928481 Hartrees.
 NAtoms=   13 NActive=   13 NUniq=   13 SFac= 1.00D+00 NAtFMM=   60 NAOKFM=F Big=F
 Integral buffers will be    131072 words long.
 Raffenetti 2 integral format.
 Two-electron integral symmetry is turned on.
 Nuclear repulsion after empirical dispersion term =      255.9897345403 Hartrees.
 One-electron integrals computed using PRISM.
   1 Symmetry operations used in ECPInt.
 ECPInt:  NShTT=    1485 NPrTT=    5995 LenC2=    1484 LenP2D=    4910.
 LDataN:  DoStor=T MaxTD1= 4 Len=   56
 NBasis=   110 RedAO= T EigKep=  3.59D-04  NBF=   110
 NBsUse=   110 1.00D-06 EigRej= -1.00D+00 NBFU=   110
 Initial guess from the checkpoint file:  "/home/software/g16/scr/Gau-131436.chk"
 B after Tr=     0.000000   -0.000000   -0.000000
         Rot=    1.000000    0.000021    0.000013   -0.000017 Ang=   0.00 deg.
 Requested convergence on RMS density matrix=1.00D-08 within 128 cycles.
 Requested convergence on MAX density matrix=1.00D-06.
 Requested convergence on             energy=1.00D-06.
 No special actions if energy rises.
 SCF Done:  E(RB3LYP) =  -270.072850223     A.U. after    8 cycles
            NFock=  8  Conv=0.58D-08     -V/T= 2.0113
   1 Symmetry operations used in ECPInt.
 ECPInt:  NShTT=    1485 NPrTT=    5995 LenC2=    1484 LenP2D=    4910.
 LDataN:  DoStor=T MaxTD1= 5 Len=  102
 Calling FoFJK, ICntrl=      2127 FMM=F ISym2X=0 I1Cent= 0 IOpClX= 0 NMat=1 NMatS=1 NMatT=0.
 ***** Axes restored to original set *****
 -------------------------------------------------------------------
 Center     Atomic                   Forces (Hartrees/Bohr)
 Number     Number              X              Y              Z
 -------------------------------------------------------------------
      1        6          -0.000144768    0.000053342   -0.000003597
      2        6          -0.000005829    0.000026594    0.000000135
      3        6          -0.000113686    0.000056100    0.000115015
      4        6           0.000393332   -0.000325096   -0.000212533
      5        6          -0.000120394    0.000101048    0.000329598
      6        6           0.000204313    0.000141931   -0.000180245
      7        6          -0.000076469    0.000002699   -0.000049231
      8        1          -0.000036213    0.000012124    0.000001466
      9        1           0.000027025   -0.000003891    0.000002191
     10        1           0.000021910   -0.000073628   -0.000011780
     11        1          -0.000051454    0.000074787    0.000004126
     12        1          -0.000043906   -0.000035050    0.000056277
     13        1          -0.000053859   -0.000030958   -0.000051422
 -------------------------------------------------------------------
 Cartesian Forces:  Max     0.000393332 RMS     0.000126568

 GradGradGradGradGradGradGradGradGradGradGradGradGradGradGradGradGradGrad
 Berny optimization.
 Using GEDIIS/GDIIS optimizer.
 FormGI is forming the generalized inverse of G from B-inverse, IUseBI=4.
 Internal  Forces:  Max     0.000246516 RMS     0.000064645
 Search for a local minimum.
 Step number  11 out of a maximum of   70
 All quantities printed in internal units (Hartrees-Bohrs-Radians)
 Mixed Optimization -- En-DIIS/RFO-DIIS
 Swapping is turned off.
 Update second derivatives using D2CorX and points    5    6    7    8    9
                                                     10   11
 DE= -8.85D-07 DEPred=-7.30D-07 R= 1.21D+00
 Trust test= 1.21D+00 RLast= 2.45D-02 DXMaxT set to 8.34D-01
 ITU=  0  1  1  1  1  1 -1  1  1  1  0
     Eigenvalues ---    0.00080   0.01868   0.01991   0.02238   0.02306
     Eigenvalues ---    0.02374   0.02528   0.02577   0.05375   0.07336
     Eigenvalues ---    0.09588   0.13312   0.13414   0.15942   0.16007
     Eigenvalues ---    0.16104   0.17328   0.20613   0.22290   0.27466
     Eigenvalues ---    0.34623   0.35051   0.35423   0.35434   0.35763
     Eigenvalues ---    0.36208   0.39169   0.41408   0.43052   0.46780
     Eigenvalues ---    0.48549   0.53276   0.83807
 En-DIIS/RFO-DIIS/Sim-DIIS IScMMF=       -3 using points:    11   10    9    8    7
 RFO step:  Lambda=-1.07952386D-06.
 DidBck=F Rises=F RFO-DIIS coefs:    1.89423   -0.67721   -0.22735   -0.00367    0.01400
 Iteration  1 RMS(Cart)=  0.00051036 RMS(Int)=  0.00000500
 Iteration  2 RMS(Cart)=  0.00000141 RMS(Int)=  0.00000432
 Iteration  3 RMS(Cart)=  0.00000000 RMS(Int)=  0.00000432
 Variable       Old X    -DE/DX   Delta X   Delta X   Delta X     New X
                                 (Linear)    (Quad)   (Total)
    R1        2.65676  -0.00009   0.00001  -0.00007  -0.00006   2.65670
    R2        2.67205   0.00015  -0.00032   0.00038   0.00005   2.67210
    R3        2.06883  -0.00000   0.00002  -0.00002   0.00000   2.06884
    R4        2.67261  -0.00012   0.00020  -0.00017   0.00003   2.67264
    R5        2.06890  -0.00002   0.00000  -0.00003  -0.00003   2.06887
    R6        2.61144   0.00009  -0.00046   0.00024  -0.00021   2.61122
    R7        2.06839  -0.00007   0.00012  -0.00017  -0.00005   2.06834
    R8        2.55877  -0.00025   0.00030  -0.00049  -0.00018   2.55859
    R9        2.83694  -0.00015   0.00040  -0.00034   0.00005   2.83700
   R10        2.61183  -0.00019   0.00020  -0.00031  -0.00011   2.61173
   R11        2.83620  -0.00007  -0.00004  -0.00017  -0.00021   2.83598
   R12        2.06842  -0.00009   0.00022  -0.00022  -0.00001   2.06842
   R13        2.08523  -0.00008   0.00007  -0.00016  -0.00009   2.08514
   R14        2.08528  -0.00008   0.00004  -0.00015  -0.00011   2.08517
    A1        2.13247   0.00001   0.00002   0.00005   0.00007   2.13254
    A2        2.07114  -0.00005   0.00054  -0.00036   0.00018   2.07132
    A3        2.07957   0.00003  -0.00056   0.00031  -0.00025   2.07933
    A4        2.13275  -0.00006  -0.00010  -0.00001  -0.00011   2.13264
    A5        2.07091   0.00002   0.00033  -0.00017   0.00016   2.07107
    A6        2.07953   0.00004  -0.00023   0.00018  -0.00005   2.07948
    A7        1.98087  -0.00002  -0.00003  -0.00014  -0.00017   1.98070
    A8        2.11706  -0.00003   0.00030  -0.00018   0.00013   2.11719
    A9        2.18526   0.00005  -0.00027   0.00031   0.00004   2.18530
   A10        2.16933   0.00009   0.00038   0.00011   0.00049   2.16982
   A11        3.01123  -0.00015  -0.00020  -0.00022  -0.00042   3.01081
   A12        2.17038  -0.00003  -0.00056   0.00020  -0.00037   2.17001
   A13        3.00958   0.00003   0.00051  -0.00019   0.00031   3.00989
   A14        1.98057  -0.00000   0.00031  -0.00021   0.00010   1.98067
   A15        2.11699   0.00002  -0.00036   0.00017  -0.00019   2.11680
   A16        2.18563  -0.00002   0.00005   0.00004   0.00009   2.18572
   A17        2.08789  -0.00001  -0.00021   0.00007  -0.00014   2.08775
   A18        2.08774   0.00001   0.00023  -0.00014   0.00008   2.08782
   A19        2.08776   0.00001  -0.00027   0.00005  -0.00022   2.08754
   A20        2.08793   0.00001   0.00001  -0.00005  -0.00004   2.08789
   A21        1.96766   0.00002   0.00012   0.00008   0.00020   1.96787
    D1       -0.00082   0.00000   0.00055  -0.00007   0.00047  -0.00035
    D2        3.14145   0.00000   0.00027  -0.00004   0.00023  -3.14151
    D3        3.14056   0.00000   0.00055  -0.00008   0.00047   3.14103
    D4       -0.00035   0.00000   0.00027  -0.00005   0.00022  -0.00013
    D5       -0.00147   0.00000   0.00046   0.00005   0.00050  -0.00097
    D6        3.14120   0.00000  -0.00002  -0.00008  -0.00010   3.14110
    D7        3.14033   0.00000   0.00046   0.00005   0.00051   3.14084
    D8       -0.00018   0.00000  -0.00002  -0.00008  -0.00010  -0.00027
    D9        0.00095  -0.00000  -0.00021   0.00006  -0.00015   0.00080
   D10       -3.13950  -0.00001  -0.00088   0.00002  -0.00086  -3.14036
   D11       -3.14133   0.00000   0.00007   0.00003   0.00010  -3.14123
   D12        0.00140  -0.00000  -0.00060  -0.00001  -0.00061   0.00080
   D13        0.00135  -0.00000  -0.00122  -0.00003  -0.00124   0.00010
   D14       -3.12883   0.00001   0.00105   0.00014   0.00120  -3.12763
   D15       -3.14144   0.00000  -0.00052   0.00001  -0.00050   3.14124
   D16        0.01157   0.00001   0.00175   0.00019   0.00194   0.01351
   D17       -0.00402   0.00001   0.00245   0.00001   0.00244  -0.00158
   D18       -1.29002  -0.00002  -0.00231  -0.00017  -0.00248  -1.29250
   D19        1.26858   0.00001  -0.00199  -0.00015  -0.00214   1.26644
   D20        0.00383  -0.00001  -0.00191  -0.00001  -0.00191   0.00192
   D21       -3.13890  -0.00001  -0.00141   0.00012  -0.00128  -3.14018
   D22        3.10685   0.00002   0.01222  -0.00009   0.01213   3.11898
   D23       -0.03588   0.00002   0.01272   0.00004   0.01276  -0.02312
   D24        1.31488   0.00002  -0.01296   0.00005  -0.01291   1.30197
   D25       -1.24383  -0.00004  -0.01273  -0.00013  -0.01286  -1.25669
         Item               Value     Threshold  Converged?
 Maximum Force            0.000247     0.000450     YES
 RMS     Force            0.000065     0.000300     YES
 Maximum Displacement     0.002214     0.001800     NO 
 RMS     Displacement     0.000511     0.001200     YES
 Predicted change in Energy=-5.372301D-07
 GradGradGradGradGradGradGradGradGradGradGradGradGradGradGradGradGradGrad

                          Input orientation:                          
 ---------------------------------------------------------------------
 Center     Atomic      Atomic             Coordinates (Angstroms)
 Number     Number       Type             X           Y           Z
 ---------------------------------------------------------------------
      1          6           0       -0.469562   -1.064812    0.036221
      2          6           0       -1.464292   -0.071503    0.053827
      3          6           0       -1.154299    1.306591   -0.016911
      4          6           0        0.200806    1.562431   -0.104126
      5          6           0        1.158710    0.605734   -0.122112
      6          6           0        0.906337   -0.751377   -0.053793
      7          6           0        1.624028    2.030348   -0.200654
      8          1           0       -0.774392   -2.114681    0.094524
      9          1           0       -2.512521   -0.379254    0.125171
     10          1           0       -1.940488    2.067924   -0.000920
     11          1           0        1.668588   -1.536797   -0.065882
     12          1           0        2.003695    2.427861   -1.157392
     13          1           0        2.105739    2.495973    0.676097
 ---------------------------------------------------------------------
                    Distance matrix (angstroms):
                    1          2          3          4          5
     1  C    0.000000
     2  C    1.405867   0.000000
     3  C    2.468854   1.414299   0.000000
     4  C    2.715050   2.338214   1.381800   0.000000
     5  C    2.338176   2.714728   2.419149   1.353947   0.000000
     6  C    1.414016   2.468541   2.912527   2.419507   1.382067
     7  C    3.744228   3.744364   2.876923   1.501274   1.500738
     8  H    1.094781   2.156895   3.444104   3.809413   3.344320
     9  H    2.156753   1.094799   2.169569   3.344378   3.809106
    10  H    3.461075   2.192466   1.094521   2.202570   3.428952
    11  H    2.192004   3.460687   4.006987   3.429441   2.203084
    12  H    4.443025   4.443063   3.539897   2.260253   2.259634
    13  H    4.440812   4.441202   3.538748   2.260314   2.259868
                    6          7          8          9         10
     6  C    0.000000
     7  C    2.876568   0.000000
     8  H    2.169204   4.798001   0.000000
     9  H    3.443703   4.798269   2.456366   0.000000
    10  H    4.006952   3.570305   4.343164   2.516307   0.000000
    11  H    1.094559   3.569969   2.515518   4.342589   5.101339
    12  H    3.539728   1.103409   5.469894   5.470016   4.125962
    13  H    3.537879   1.103424   5.467313   5.467978   4.124746
                   11         12         13
    11  H    0.000000
    12  H    4.125797   0.000000
    13  H    4.123696   1.837589   0.000000
 Stoichiometry    C7H6
 Framework group  C1[X(C7H6)]
 Deg. of freedom    33
 Full point group                 C1      NOp   1
 Largest Abelian subgroup         C1      NOp   1
 Largest concise Abelian subgroup C1      NOp   1
                         Standard orientation:                         
 ---------------------------------------------------------------------
 Center     Atomic      Atomic             Coordinates (Angstroms)
 Number     Number       Type             X           Y           Z
 ---------------------------------------------------------------------
      1          6           0       -1.531206    0.703078   -0.000341
      2          6           0       -1.531310   -0.702789   -0.000079
      3          6           0       -0.334480   -1.456342    0.000039
      4          6           0        0.806764   -0.677283    0.000890
      5          6           0        0.806820    0.676664    0.001674
      6          6           0       -0.334430    1.456185   -0.000083
      7          6           0        2.146464    0.000230   -0.000960
      8          1           0       -2.491653    1.228515   -0.000965
      9          1           0       -2.491984   -1.227852   -0.000384
     10          1           0       -0.351471   -2.550730   -0.000912
     11          1           0       -0.351584    2.550609   -0.000750
     12          1           0        2.758902    0.000112    0.916880
     13          1           0        2.756062    0.000887   -0.920707
 ---------------------------------------------------------------------
 Rotational constants (GHZ):           5.5166087           3.1653337           2.0389059
 Standard basis: def2SVPP (5D, 7F)
 There are   117 symmetry adapted cartesian basis functions of A   symmetry.
 There are   110 symmetry adapted basis functions of A   symmetry.
   110 basis functions,   199 primitive gaussians,   117 cartesian basis functions
    24 alpha electrons       24 beta electrons
       nuclear repulsion energy       256.0190084103 Hartrees.
 NAtoms=   13 NActive=   13 NUniq=   13 SFac= 1.00D+00 NAtFMM=   60 NAOKFM=F Big=F
 Integral buffers will be    131072 words long.
 Raffenetti 2 integral format.
 Two-electron integral symmetry is turned on.
 Nuclear repulsion after empirical dispersion term =      255.9976496086 Hartrees.
 One-electron integrals computed using PRISM.
   1 Symmetry operations used in ECPInt.
 ECPInt:  NShTT=    1485 NPrTT=    5995 LenC2=    1484 LenP2D=    4910.
 LDataN:  DoStor=T MaxTD1= 4 Len=   56
 NBasis=   110 RedAO= T EigKep=  3.59D-04  NBF=   110
 NBsUse=   110 1.00D-06 EigRej= -1.00D+00 NBFU=   110
 Initial guess from the checkpoint file:  "/home/software/g16/scr/Gau-131436.chk"
 B after Tr=     0.000000    0.000000   -0.000000
         Rot=    1.000000    0.000027    0.000011    0.000040 Ang=   0.01 deg.
 Requested convergence on RMS density matrix=1.00D-08 within 128 cycles.
 Requested convergence on MAX density matrix=1.00D-06.
 Requested convergence on             energy=1.00D-06.
 No special actions if energy rises.
 SCF Done:  E(RB3LYP) =  -270.072850914     A.U. after    8 cycles
            NFock=  8  Conv=0.56D-08     -V/T= 2.0113
   1 Symmetry operations used in ECPInt.
 ECPInt:  NShTT=    1485 NPrTT=    5995 LenC2=    1484 LenP2D=    4910.
 LDataN:  DoStor=T MaxTD1= 5 Len=  102
 Calling FoFJK, ICntrl=      2127 FMM=F ISym2X=0 I1Cent= 0 IOpClX= 0 NMat=1 NMatS=1 NMatT=0.
 ***** Axes restored to original set *****
 -------------------------------------------------------------------
 Center     Atomic                   Forces (Hartrees/Bohr)
 Number     Number              X              Y              Z
 -------------------------------------------------------------------
      1        6          -0.000113245    0.000025235   -0.000004026
      2        6          -0.000014567    0.000046863   -0.000000140
      3        6          -0.000156251   -0.000004232    0.000041316
      4        6           0.000456873   -0.000128899   -0.000075412
      5        6          -0.000149622   -0.000011983    0.000172294
      6        6           0.000205931    0.000073768   -0.000089493
      7        6          -0.000099324    0.000007535   -0.000060896
      8        1          -0.000056516    0.000018402    0.000002145
      9        1           0.000019986   -0.000020985    0.000001440
     10        1           0.000010133   -0.000066689   -0.000003073
     11        1          -0.000041163    0.000075516    0.000004106
     12        1          -0.000028309    0.000000006    0.000041941
     13        1          -0.000033928   -0.000014537   -0.000030203
 -------------------------------------------------------------------
 Cartesian Forces:  Max     0.000456873 RMS     0.000103274

 GradGradGradGradGradGradGradGradGradGradGradGradGradGradGradGradGradGrad
 Berny optimization.
 Using GEDIIS/GDIIS optimizer.
 FormGI is forming the generalized inverse of G from B-inverse, IUseBI=4.
 Internal  Forces:  Max     0.000171431 RMS     0.000054321
 Search for a local minimum.
 Step number  12 out of a maximum of   70
 All quantities printed in internal units (Hartrees-Bohrs-Radians)
 Mixed Optimization -- En-DIIS/RFO-DIIS
 Swapping is turned off.
 Update second derivatives using D2CorX and points    5    6    7    8    9
                                                     10   11   12
 DE= -6.92D-07 DEPred=-5.37D-07 R= 1.29D+00
 Trust test= 1.29D+00 RLast= 2.60D-02 DXMaxT set to 8.34D-01
 ITU=  0  0  1  1  1  1  1 -1  1  1  1  0
     Eigenvalues ---    0.00067   0.01876   0.01995   0.02236   0.02305
     Eigenvalues ---    0.02372   0.02536   0.02565   0.05383   0.07306
     Eigenvalues ---    0.09321   0.13321   0.13440   0.15948   0.15999
     Eigenvalues ---    0.16057   0.17661   0.19776   0.22283   0.28583
     Eigenvalues ---    0.34711   0.35054   0.35413   0.35434   0.35680
     Eigenvalues ---    0.36111   0.37689   0.41546   0.43434   0.46673
     Eigenvalues ---    0.48506   0.53471   0.71957
 En-DIIS/RFO-DIIS/Sim-DIIS IScMMF=       -3 using points:    12   11   10    9    8    7
 RFO step:  Lambda=-5.36103453D-07.
 DIIS inversion failure, remove point   6.
 DIIS inversion failure, remove point   5.
 DIIS inversion failure, remove point   4.
 DIIS inversion failure, remove point   3.
 RFO-DIIS uses    2 points instead of    6
 DidBck=F Rises=F RFO-DIIS coefs:    1.64521   -0.64521    0.00000    0.00000    0.00000
                  RFO-DIIS coefs:    0.00000
 Iteration  1 RMS(Cart)=  0.00033514 RMS(Int)=  0.00000203
 Iteration  2 RMS(Cart)=  0.00000069 RMS(Int)=  0.00000145
 Variable       Old X    -DE/DX   Delta X   Delta X   Delta X     New X
                                 (Linear)    (Quad)   (Total)
    R1        2.65670  -0.00007  -0.00004  -0.00004  -0.00008   2.65663
    R2        2.67210   0.00015   0.00003   0.00017   0.00021   2.67231
    R3        2.06884  -0.00000   0.00000  -0.00000  -0.00000   2.06883
    R4        2.67264  -0.00009   0.00002  -0.00011  -0.00009   2.67255
    R5        2.06887  -0.00001  -0.00002  -0.00002  -0.00004   2.06883
    R6        2.61122   0.00016  -0.00014   0.00018   0.00004   2.61127
    R7        2.06834  -0.00005  -0.00003  -0.00008  -0.00012   2.06823
    R8        2.55859  -0.00017  -0.00012  -0.00020  -0.00032   2.55827
    R9        2.83700  -0.00017   0.00004  -0.00032  -0.00029   2.83671
   R10        2.61173  -0.00012  -0.00007  -0.00012  -0.00019   2.61154
   R11        2.83598   0.00002  -0.00014   0.00015   0.00001   2.83600
   R12        2.06842  -0.00008  -0.00000  -0.00013  -0.00013   2.06828
   R13        2.08514  -0.00005  -0.00006  -0.00007  -0.00012   2.08502
   R14        2.08517  -0.00004  -0.00007  -0.00006  -0.00013   2.08504
    A1        2.13254   0.00001   0.00004   0.00002   0.00007   2.13261
    A2        2.07132  -0.00007   0.00011  -0.00028  -0.00017   2.07115
    A3        2.07933   0.00006  -0.00016   0.00026   0.00010   2.07942
    A4        2.13264  -0.00003  -0.00007   0.00004  -0.00004   2.13260
    A5        2.07107  -0.00001   0.00010  -0.00016  -0.00006   2.07100
    A6        2.07948   0.00004  -0.00003   0.00013   0.00010   2.07958
    A7        1.98070  -0.00000  -0.00011  -0.00007  -0.00018   1.98052
    A8        2.11719  -0.00004   0.00008  -0.00012  -0.00004   2.11715
    A9        2.18530   0.00004   0.00003   0.00019   0.00022   2.18552
   A10        2.16982   0.00001   0.00031  -0.00000   0.00031   2.17013
   A11        3.01081  -0.00010  -0.00027  -0.00019  -0.00046   3.01035
   A12        2.17001   0.00002  -0.00024   0.00014  -0.00010   2.16990
   A13        3.00989   0.00002   0.00020  -0.00000   0.00019   3.01008
   A14        1.98067  -0.00002   0.00007  -0.00013  -0.00006   1.98061
   A15        2.11680   0.00003  -0.00012   0.00014   0.00002   2.11681
   A16        2.18572  -0.00002   0.00006  -0.00002   0.00004   2.18576
   A17        2.08775  -0.00000  -0.00009  -0.00004  -0.00014   2.08761
   A18        2.08782  -0.00000   0.00005  -0.00009  -0.00003   2.08779
   A19        2.08754   0.00002  -0.00014   0.00018   0.00004   2.08758
   A20        2.08789   0.00000  -0.00003  -0.00003  -0.00005   2.08784
   A21        1.96787   0.00000   0.00013   0.00000   0.00013   1.96800
    D1       -0.00035   0.00000   0.00031   0.00004   0.00035  -0.00001
    D2       -3.14151   0.00000   0.00015   0.00004   0.00019  -3.14132
    D3        3.14103   0.00000   0.00030  -0.00001   0.00029   3.14132
    D4       -0.00013   0.00000   0.00014  -0.00001   0.00014   0.00001
    D5       -0.00097  -0.00000   0.00032  -0.00007   0.00025  -0.00072
    D6        3.14110  -0.00000  -0.00006  -0.00009  -0.00015   3.14095
    D7        3.14084  -0.00000   0.00033  -0.00002   0.00030   3.14114
    D8       -0.00027   0.00000  -0.00006  -0.00004  -0.00010  -0.00037
    D9        0.00080   0.00000  -0.00009   0.00003  -0.00007   0.00073
   D10       -3.14036  -0.00000  -0.00055   0.00001  -0.00054  -3.14090
   D11       -3.14123   0.00000   0.00006   0.00003   0.00009  -3.14114
   D12        0.00080  -0.00000  -0.00039   0.00001  -0.00038   0.00041
   D13        0.00010  -0.00001  -0.00080  -0.00006  -0.00086  -0.00075
   D14       -3.12763   0.00001   0.00077   0.00008   0.00086  -3.12677
   D15        3.14124  -0.00000  -0.00032  -0.00004  -0.00036   3.14088
   D16        0.01351   0.00001   0.00125   0.00010   0.00135   0.01486
   D17       -0.00158   0.00001   0.00157   0.00002   0.00159   0.00001
   D18       -1.29250   0.00001  -0.00160   0.00012  -0.00148  -1.29398
   D19        1.26644   0.00000  -0.00138  -0.00013  -0.00151   1.26493
   D20        0.00192  -0.00000  -0.00123   0.00005  -0.00118   0.00074
   D21       -3.14018  -0.00000  -0.00083   0.00006  -0.00076  -3.14094
   D22        3.11898   0.00001   0.00783   0.00004   0.00786   3.12684
   D23       -0.02312   0.00001   0.00823   0.00005   0.00828  -0.01483
   D24        1.30197   0.00002  -0.00833   0.00019  -0.00814   1.29383
   D25       -1.25669  -0.00003  -0.00830  -0.00011  -0.00841  -1.26510
         Item               Value     Threshold  Converged?
 Maximum Force            0.000171     0.000450     YES
 RMS     Force            0.000054     0.000300     YES
 Maximum Displacement     0.001409     0.001800     YES
 RMS     Displacement     0.000335     0.001200     YES
 Predicted change in Energy=-2.684803D-07
 Optimization completed.
    -- Stationary point found.
                           ----------------------------
                           !   Optimized Parameters   !
                           ! (Angstroms and Degrees)  !
 --------------------------                            --------------------------
 ! Name  Definition              Value          Derivative Info.                !
 --------------------------------------------------------------------------------
 ! R1    R(1,2)                  1.4059         -DE/DX =   -0.0001              !
 ! R2    R(1,6)                  1.414          -DE/DX =    0.0001              !
 ! R3    R(1,8)                  1.0948         -DE/DX =    0.0                 !
 ! R4    R(2,3)                  1.4143         -DE/DX =   -0.0001              !
 ! R5    R(2,9)                  1.0948         -DE/DX =    0.0                 !
 ! R6    R(3,4)                  1.3818         -DE/DX =    0.0002              !
 ! R7    R(3,10)                 1.0945         -DE/DX =   -0.0001              !
 ! R8    R(4,5)                  1.3539         -DE/DX =   -0.0002              !
 ! R9    R(4,7)                  1.5013         -DE/DX =   -0.0002              !
 ! R10   R(5,6)                  1.3821         -DE/DX =   -0.0001              !
 ! R11   R(5,7)                  1.5007         -DE/DX =    0.0                 !
 ! R12   R(6,11)                 1.0946         -DE/DX =   -0.0001              !
 ! R13   R(7,12)                 1.1034         -DE/DX =    0.0                 !
 ! R14   R(7,13)                 1.1034         -DE/DX =    0.0                 !
 ! A1    A(2,1,6)              122.1857         -DE/DX =    0.0                 !
 ! A2    A(2,1,8)              118.6777         -DE/DX =   -0.0001              !
 ! A3    A(6,1,8)              119.1366         -DE/DX =    0.0001              !
 ! A4    A(1,2,3)              122.1912         -DE/DX =    0.0                 !
 ! A5    A(1,2,9)              118.6634         -DE/DX =    0.0                 !
 ! A6    A(3,2,9)              119.1454         -DE/DX =    0.0                 !
 ! A7    A(2,3,4)              113.4855         -DE/DX =    0.0                 !
 ! A8    A(2,3,10)             121.306          -DE/DX =    0.0                 !
 ! A9    A(4,3,10)             125.2085         -DE/DX =    0.0                 !
 ! A10   A(3,4,5)              124.3214         -DE/DX =    0.0                 !
 ! A11   A(3,4,7)              172.5069         -DE/DX =   -0.0001              !
 ! A12   A(4,5,6)              124.3322         -DE/DX =    0.0                 !
 ! A13   A(6,5,7)              172.4541         -DE/DX =    0.0                 !
 ! A14   A(1,6,5)              113.4839         -DE/DX =    0.0                 !
 ! A15   A(1,6,11)             121.2834         -DE/DX =    0.0                 !
 ! A16   A(5,6,11)             125.2327         -DE/DX =    0.0                 !
 ! A17   A(4,7,12)             119.6191         -DE/DX =    0.0                 !
 ! A18   A(4,7,13)             119.6235         -DE/DX =    0.0                 !
 ! A19   A(5,7,12)             119.6071         -DE/DX =    0.0                 !
 ! A20   A(5,7,13)             119.6271         -DE/DX =    0.0                 !
 ! A21   A(12,7,13)            112.7504         -DE/DX =    0.0                 !
 ! D1    D(6,1,2,3)             -0.0201         -DE/DX =    0.0                 !
 ! D2    D(6,1,2,9)           -179.9951         -DE/DX =    0.0                 !
 ! D3    D(8,1,2,3)            179.9675         -DE/DX =    0.0                 !
 ! D4    D(8,1,2,9)             -0.0074         -DE/DX =    0.0                 !
 ! D5    D(2,1,6,5)             -0.0557         -DE/DX =    0.0                 !
 ! D6    D(2,1,6,11)           179.972          -DE/DX =    0.0                 !
 ! D7    D(8,1,6,5)            179.9567         -DE/DX =    0.0                 !
 ! D8    D(8,1,6,11)            -0.0156         -DE/DX =    0.0                 !
 ! D9    D(1,2,3,4)              0.046          -DE/DX =    0.0                 !
 ! D10   D(1,2,3,10)          -179.9292         -DE/DX =    0.0                 !
 ! D11   D(9,2,3,4)           -179.9791         -DE/DX =    0.0                 !
 ! D12   D(9,2,3,10)             0.0456         -DE/DX =    0.0                 !
 ! D13   D(2,3,4,5)              0.0059         -DE/DX =    0.0                 !
 ! D14   D(2,3,4,7)           -179.2            -DE/DX =    0.0                 !
 ! D15   D(10,3,4,5)           179.98           -DE/DX =    0.0                 !
 ! D16   D(10,3,4,7)             0.7742         -DE/DX =    0.0                 !
 ! D17   D(3,4,5,6)             -0.0907         -DE/DX =    0.0                 !
 ! D18   D(3,4,7,12)           -74.0548         -DE/DX =    0.0                 !
 ! D19   D(3,4,7,13)            72.5616         -DE/DX =    0.0                 !
 ! D20   D(4,5,6,1)              0.1102         -DE/DX =    0.0                 !
 ! D21   D(4,5,6,11)          -179.9188         -DE/DX =    0.0                 !
 ! D22   D(7,5,6,1)            178.7045         -DE/DX =    0.0                 !
 ! D23   D(7,5,6,11)            -1.3245         -DE/DX =    0.0                 !
 ! D24   D(6,5,7,12)            74.5974         -DE/DX =    0.0                 !
 ! D25   D(6,5,7,13)           -72.0031         -DE/DX =    0.0                 !
 --------------------------------------------------------------------------------
 GradGradGradGradGradGradGradGradGradGradGradGradGradGradGradGradGradGrad

                          Input orientation:                          
 ---------------------------------------------------------------------
 Center     Atomic      Atomic             Coordinates (Angstroms)
 Number     Number       Type             X           Y           Z
 ---------------------------------------------------------------------
      1          6           0       -0.469562   -1.064812    0.036221
      2          6           0       -1.464292   -0.071503    0.053827
      3          6           0       -1.154299    1.306591   -0.016911
      4          6           0        0.200806    1.562431   -0.104126
      5          6           0        1.158710    0.605734   -0.122112
      6          6           0        0.906337   -0.751377   -0.053793
      7          6           0        1.624028    2.030348   -0.200654
      8          1           0       -0.774392   -2.114681    0.094524
      9          1           0       -2.512521   -0.379254    0.125171
     10          1           0       -1.940488    2.067924   -0.000920
     11          1           0        1.668588   -1.536797   -0.065882
     12          1           0        2.003695    2.427861   -1.157392
     13          1           0        2.105739    2.495973    0.676097
 ---------------------------------------------------------------------
                    Distance matrix (angstroms):
                    1          2          3          4          5
     1  C    0.000000
     2  C    1.405867   0.000000
     3  C    2.468854   1.414299   0.000000
     4  C    2.715050   2.338214   1.381800   0.000000
     5  C    2.338176   2.714728   2.419149   1.353947   0.000000
     6  C    1.414016   2.468541   2.912527   2.419507   1.382067
     7  C    3.744228   3.744364   2.876923   1.501274   1.500738
     8  H    1.094781   2.156895   3.444104   3.809413   3.344320
     9  H    2.156753   1.094799   2.169569   3.344378   3.809106
    10  H    3.461075   2.192466   1.094521   2.202570   3.428952
    11  H    2.192004   3.460687   4.006987   3.429441   2.203084
    12  H    4.443025   4.443063   3.539897   2.260253   2.259634
    13  H    4.440812   4.441202   3.538748   2.260314   2.259868
                    6          7          8          9         10
     6  C    0.000000
     7  C    2.876568   0.000000
     8  H    2.169204   4.798001   0.000000
     9  H    3.443703   4.798269   2.456366   0.000000
    10  H    4.006952   3.570305   4.343164   2.516307   0.000000
    11  H    1.094559   3.569969   2.515518   4.342589   5.101339
    12  H    3.539728   1.103409   5.469894   5.470016   4.125962
    13  H    3.537879   1.103424   5.467313   5.467978   4.124746
                   11         12         13
    11  H    0.000000
    12  H    4.125797   0.000000
    13  H    4.123696   1.837589   0.000000
 Stoichiometry    C7H6
 Framework group  C1[X(C7H6)]
 Deg. of freedom    33
 Full point group                 C1      NOp   1
 Largest Abelian subgroup         C1      NOp   1
 Largest concise Abelian subgroup C1      NOp   1
                         Standard orientation:                         
 ---------------------------------------------------------------------
 Center     Atomic      Atomic             Coordinates (Angstroms)
 Number     Number       Type             X           Y           Z
 ---------------------------------------------------------------------
      1          6           0       -1.531206    0.703078   -0.000341
      2          6           0       -1.531310   -0.702789   -0.000079
      3          6           0       -0.334480   -1.456342    0.000039
      4          6           0        0.806764   -0.677283    0.000890
      5          6           0        0.806820    0.676664    0.001674
      6          6           0       -0.334430    1.456185   -0.000083
      7          6           0        2.146464    0.000230   -0.000960
      8          1           0       -2.491653    1.228515   -0.000965
      9          1           0       -2.491984   -1.227852   -0.000384
     10          1           0       -0.351471   -2.550730   -0.000912
     11          1           0       -0.351584    2.550609   -0.000750
     12          1           0        2.758902    0.000112    0.916880
     13          1           0        2.756062    0.000887   -0.920707
 ---------------------------------------------------------------------
 Rotational constants (GHZ):           5.5166087           3.1653337           2.0389059

 **********************************************************************

            Population analysis using the SCF Density.

 **********************************************************************

 Orbital symmetries:
       Occupied  (A) (A) (A) (A) (A) (A) (A) (A) (A) (A) (A) (A)
                 (A) (A) (A) (A) (A) (A) (A) (A) (A) (A) (A) (A)
       Virtual   (A) (A) (A) (A) (A) (A) (A) (A) (A) (A) (A) (A)
                 (A) (A) (A) (A) (A) (A) (A) (A) (A) (A) (A) (A)
                 (A) (A) (A) (A) (A) (A) (A) (A) (A) (A) (A) (A)
                 (A) (A) (A) (A) (A) (A) (A) (A) (A) (A) (A) (A)
                 (A) (A) (A) (A) (A) (A) (A) (A) (A) (A) (A) (A)
                 (A) (A) (A) (A) (A) (A) (A) (A) (A) (A) (A) (A)
                 (A) (A) (A) (A) (A) (A) (A) (A) (A) (A) (A) (A)
                 (A) (A)
 The electronic state is 1-A.
 Alpha  occ. eigenvalues --  -10.22428 -10.20203 -10.20201 -10.19273 -10.19240
 Alpha  occ. eigenvalues --  -10.19165 -10.19097  -0.89238  -0.80138  -0.74092
 Alpha  occ. eigenvalues --   -0.66393  -0.57962  -0.57677  -0.51008  -0.46282
 Alpha  occ. eigenvalues --   -0.45730  -0.45321  -0.40787  -0.39401  -0.35580
 Alpha  occ. eigenvalues --   -0.32886  -0.29045  -0.26189  -0.24326
 Alpha virt. eigenvalues --   -0.01832  -0.00411   0.07116   0.08048   0.09108
 Alpha virt. eigenvalues --    0.11671   0.12386   0.14048   0.14881   0.14945
 Alpha virt. eigenvalues --    0.19710   0.27210   0.27318   0.29898   0.29925
 Alpha virt. eigenvalues --    0.34308   0.39271   0.40082   0.43047   0.45900
 Alpha virt. eigenvalues --    0.47093   0.47880   0.47896   0.50394   0.52653
 Alpha virt. eigenvalues --    0.53472   0.53726   0.59088   0.60121   0.62947
 Alpha virt. eigenvalues --    0.66785   0.67101   0.67206   0.67717   0.69664
 Alpha virt. eigenvalues --    0.70934   0.72619   0.72637   0.73512   0.74655
 Alpha virt. eigenvalues --    0.75232   0.76454   0.76688   0.82573   0.87453
 Alpha virt. eigenvalues --    0.89246   0.99583   1.10138   1.11544   1.18731
 Alpha virt. eigenvalues --    1.26390   1.39969   1.40838   1.44590   1.46525
 Alpha virt. eigenvalues --    1.48545   1.59230   1.63837   1.75305   1.79004
 Alpha virt. eigenvalues --    1.82138   1.82205   1.84034   1.92274   1.93740
 Alpha virt. eigenvalues --    1.96327   2.03415   2.03550   2.12995   2.13219
 Alpha virt. eigenvalues --    2.19923   2.21132   2.24264   2.29167   2.38009
 Alpha virt. eigenvalues --    2.39219   2.48117   2.53284   2.53622   2.67673
 Alpha virt. eigenvalues --    2.68689   2.68721   2.79503   2.92646   3.21551
 Alpha virt. eigenvalues --    3.28513
          Condensed to atoms (all electrons):
               1          2          3          4          5          6
     1  C    5.122512   0.316732   0.074553  -0.139628   0.101481   0.288897
     2  C    0.316732   5.122778   0.288823   0.101445  -0.139744   0.074533
     3  C    0.074553   0.288823   5.218279   0.337237   0.007961  -0.087046
     4  C   -0.139628   0.101445   0.337237   5.194860   0.222600   0.008020
     5  C    0.101481  -0.139744   0.007961   0.222600   5.195154   0.336930
     6  C    0.288897   0.074533  -0.087046   0.008020   0.336930   5.218310
     7  C    0.013975   0.013967  -0.043313   0.268574   0.268548  -0.043428
     8  H    0.421855  -0.068654   0.014044  -0.001480   0.014099  -0.075466
     9  H   -0.068636   0.421822  -0.075467   0.014093  -0.001476   0.014052
    10  H    0.012070  -0.075403   0.430080  -0.084767   0.015495  -0.001387
    11  H   -0.075388   0.012089  -0.001387   0.015467  -0.084792   0.430132
    12  H   -0.000134  -0.000130  -0.000357  -0.009231  -0.009263  -0.000332
    13  H   -0.000125  -0.000128  -0.000386  -0.009392  -0.009392  -0.000420
               7          8          9         10         11         12
     1  C    0.013975   0.421855  -0.068636   0.012070  -0.075388  -0.000134
     2  C    0.013967  -0.068654   0.421822  -0.075403   0.012089  -0.000130
     3  C   -0.043313   0.014044  -0.075467   0.430080  -0.001387  -0.000357
     4  C    0.268574  -0.001480   0.014093  -0.084767   0.015467  -0.009231
     5  C    0.268548   0.014099  -0.001476   0.015495  -0.084792  -0.009263
     6  C   -0.043428  -0.075466   0.014052  -0.001387   0.430132  -0.000332
     7  C    5.038921  -0.000433  -0.000433  -0.006456  -0.006459   0.334307
     8  H   -0.000433   0.657053  -0.012381  -0.000135  -0.009613   0.000008
     9  H   -0.000433  -0.012381   0.657030  -0.009592  -0.000135   0.000008
    10  H   -0.006456  -0.000135  -0.009592   0.659130   0.000058   0.000350
    11  H   -0.006459  -0.009613  -0.000135   0.000058   0.659149   0.000351
    12  H    0.334307   0.000008   0.000008   0.000350   0.000351   0.612241
    13  H    0.334794   0.000008   0.000008   0.000349   0.000350  -0.041510
              13
     1  C   -0.000125
     2  C   -0.000128
     3  C   -0.000386
     4  C   -0.009392
     5  C   -0.009392
     6  C   -0.000420
     7  C    0.334794
     8  H    0.000008
     9  H    0.000008
    10  H    0.000349
    11  H    0.000350
    12  H   -0.041510
    13  H    0.612050
 Mulliken charges:
               1
     1  C   -0.068164
     2  C   -0.068132
     3  C   -0.163020
     4  C    0.082203
     5  C    0.082399
     6  C   -0.162796
     7  C   -0.172564
     8  H    0.061095
     9  H    0.061106
    10  H    0.060206
    11  H    0.060178
    12  H    0.113694
    13  H    0.113794
 Sum of Mulliken charges =  -0.00000
 Mulliken charges with hydrogens summed into heavy atoms:
               1
     1  C   -0.007068
     2  C   -0.007025
     3  C   -0.102814
     4  C    0.082203
     5  C    0.082399
     6  C   -0.102618
     7  C    0.054925
 Electronic spatial extent (au):  <R**2>=            615.0592
 Charge=              0.0000 electrons
 Dipole moment (field-independent basis, Debye):
    X=             -0.1404    Y=              0.0015    Z=             -0.0036  Tot=              0.1405
 Quadrupole moment (field-independent basis, Debye-Ang):
   XX=            -37.4077   YY=            -38.6594   ZZ=            -43.2092
   XY=              0.0010   XZ=             -0.0009   YZ=             -0.0007
 Traceless Quadrupole moment (field-independent basis, Debye-Ang):
   XX=              2.3511   YY=              1.0993   ZZ=             -3.4504
   XY=              0.0010   XZ=             -0.0009   YZ=             -0.0007
 Octapole moment (field-independent basis, Debye-Ang**2):
  XXX=             -2.2200  YYY=              0.0043  ZZZ=             -0.0108  XYY=             -5.3592
  XXY=              0.0099  XXZ=             -0.0070  XZZ=              3.7970  YZZ=              0.0013
  YYZ=             -0.0115  XYZ=             -0.0000
 Hexadecapole moment (field-independent basis, Debye-Ang**3):
 XXXX=           -473.6872 YYYY=           -279.2790 ZZZZ=            -53.9990 XXXY=              0.0136
 XXXZ=              0.0166 YYYX=             -0.0072 YYYZ=             -0.0001 ZZZX=             -0.0145
 ZZZY=             -0.0014 XXYY=           -134.9005 XXZZ=            -92.4114 YYZZ=            -64.5263
 XXYZ=             -0.0058 YYXZ=              0.0039 ZZXY=              0.0017
 N-N= 2.559976496086D+02 E-N=-1.136232430393D+03  KE= 2.670636542105D+02
 Unable to Open any file for archive entry.
 1\1\GINC-NODE04\FOpt\RB3LYP\def2SVPP\C7H6\XUHJ\03-Feb-2024\0\\#N opt f
 req B3LYP/def2SVPP symm=veryloose em=gd3bj scale=0.961 press=0.987\\c1
 ccc2c(c1)C2_1\\0,1\C,-0.4695618859,-1.0648120632,0.0362211194\C,-1.464
 292182,-0.0715027427,0.05382734\C,-1.1542991029,1.3065913718,-0.016910
 5559\C,0.2008061495,1.5624313707,-0.1041264356\C,1.1587103675,0.605734
 4392,-0.1221124489\C,0.906336952,-0.7513765112,-0.0537933091\C,1.62402
 78709,2.0303484439,-0.2006536196\H,-0.7743918967,-2.1146807198,0.09452
 37612\H,-2.5125209094,-0.3792543745,0.125171297\H,-1.9404877347,2.0679
 239174,-0.0009203277\H,1.6685880496,-1.5367972169,-0.0658823057\H,2.00
 36951298,2.4278608356,-1.1573915534\H,2.1057391923,2.4959732497,0.6760
 970383\\Version=ES64L-G16RevC.01\State=1-A\HF=-270.0728509\RMSD=5.649e
 -09\RMSF=1.033e-04\Dipole=-0.0384214,-0.0393979,0.0050932\Quadrupole=1
 .2692755,1.2762178,-2.5454932,0.4559542,-0.2332029,-0.1737203\PG=C01 [
 X(C7H6)]\\@
 The archive entry for this job was punched.


 Change starts when someone sees the next step.
                            -- William Drayton
 Job cpu time:       0 days  0 hours 42 minutes 26.4 seconds.
 Elapsed time:       0 days  0 hours  3 minutes 45.4 seconds.
 File lengths (MBytes):  RWF=     22 Int=      0 D2E=      0 Chk=      3 Scr=      2
 Normal termination of Gaussian 16 at Sat Feb  3 18:18:47 2024.
 Link1:  Proceeding to internal job step number  2.
 --------------------------------------------------------------------
 #N Geom=AllCheck Guess=TCheck SCRF=Check GenChk RB3LYP/def2SVPP Freq
 --------------------------------------------------------------------
 1/10=4,29=7,30=1,38=1,40=1,113=-987000,114=961000/1,3;
 2/12=2,17=2,18=2,40=1/2;
 3/5=43,7=202,11=2,14=-4,25=1,30=1,70=2,71=2,74=-5,116=1,124=41,140=1/1,2,3;
 4/5=101/1;
 5/5=2,38=6,98=1/2;
 8/6=4,10=90,11=11/1;
 11/6=1,8=1,9=11,15=111,16=1/1,2,10;
 10/6=1/2;
 6/7=2,8=2,9=2,10=2,28=1/1;
 7/8=1,10=1,25=1/1,2,3,16;
 1/10=4,30=1/3;
 99//99;
 Structure from the checkpoint file:  "/home/software/g16/scr/Gau-131436.chk"
 ---------------
 c1ccc2c(c1)C2_1
 ---------------
 Charge =  0 Multiplicity = 1
 Redundant internal coordinates found in file.  (old form).
 C,0,-0.4695618859,-1.0648120632,0.0362211194
 C,0,-1.464292182,-0.0715027427,0.05382734
 C,0,-1.1542991029,1.3065913718,-0.0169105559
 C,0,0.2008061495,1.5624313707,-0.1041264356
 C,0,1.1587103675,0.6057344392,-0.1221124489
 C,0,0.906336952,-0.7513765112,-0.0537933091
 C,0,1.6240278709,2.0303484439,-0.2006536196
 H,0,-0.7743918967,-2.1146807198,0.0945237612
 H,0,-2.5125209094,-0.3792543745,0.125171297
 H,0,-1.9404877347,2.0679239174,-0.0009203277
 H,0,1.6685880496,-1.5367972169,-0.0658823057
 H,0,2.0036951298,2.4278608356,-1.1573915534
 H,0,2.1057391923,2.4959732497,0.6760970383
 Recover connectivity data from disk.

 GradGradGradGradGradGradGradGradGradGradGradGradGradGradGradGradGradGrad
 Berny optimization.
 Initialization pass.
                           ----------------------------
                           !    Initial Parameters    !
                           ! (Angstroms and Degrees)  !
 --------------------------                            --------------------------
 ! Name  Definition              Value          Derivative Info.                !
 --------------------------------------------------------------------------------
 ! R1    R(1,2)                  1.4059         calculate D2E/DX2 analytically  !
 ! R2    R(1,6)                  1.414          calculate D2E/DX2 analytically  !
 ! R3    R(1,8)                  1.0948         calculate D2E/DX2 analytically  !
 ! R4    R(2,3)                  1.4143         calculate D2E/DX2 analytically  !
 ! R5    R(2,9)                  1.0948         calculate D2E/DX2 analytically  !
 ! R6    R(3,4)                  1.3818         calculate D2E/DX2 analytically  !
 ! R7    R(3,10)                 1.0945         calculate D2E/DX2 analytically  !
 ! R8    R(4,5)                  1.3539         calculate D2E/DX2 analytically  !
 ! R9    R(4,7)                  1.5013         calculate D2E/DX2 analytically  !
 ! R10   R(5,6)                  1.3821         calculate D2E/DX2 analytically  !
 ! R11   R(5,7)                  1.5007         calculate D2E/DX2 analytically  !
 ! R12   R(6,11)                 1.0946         calculate D2E/DX2 analytically  !
 ! R13   R(7,12)                 1.1034         calculate D2E/DX2 analytically  !
 ! R14   R(7,13)                 1.1034         calculate D2E/DX2 analytically  !
 ! A1    A(2,1,6)              122.1857         calculate D2E/DX2 analytically  !
 ! A2    A(2,1,8)              118.6777         calculate D2E/DX2 analytically  !
 ! A3    A(6,1,8)              119.1366         calculate D2E/DX2 analytically  !
 ! A4    A(1,2,3)              122.1912         calculate D2E/DX2 analytically  !
 ! A5    A(1,2,9)              118.6634         calculate D2E/DX2 analytically  !
 ! A6    A(3,2,9)              119.1454         calculate D2E/DX2 analytically  !
 ! A7    A(2,3,4)              113.4855         calculate D2E/DX2 analytically  !
 ! A8    A(2,3,10)             121.306          calculate D2E/DX2 analytically  !
 ! A9    A(4,3,10)             125.2085         calculate D2E/DX2 analytically  !
 ! A10   A(3,4,5)              124.3214         calculate D2E/DX2 analytically  !
 ! A11   A(3,4,7)              172.5069         calculate D2E/DX2 analytically  !
 ! A12   A(4,5,6)              124.3322         calculate D2E/DX2 analytically  !
 ! A13   A(6,5,7)              172.4541         calculate D2E/DX2 analytically  !
 ! A14   A(1,6,5)              113.4839         calculate D2E/DX2 analytically  !
 ! A15   A(1,6,11)             121.2834         calculate D2E/DX2 analytically  !
 ! A16   A(5,6,11)             125.2327         calculate D2E/DX2 analytically  !
 ! A17   A(4,7,12)             119.6191         calculate D2E/DX2 analytically  !
 ! A18   A(4,7,13)             119.6235         calculate D2E/DX2 analytically  !
 ! A19   A(5,7,12)             119.6071         calculate D2E/DX2 analytically  !
 ! A20   A(5,7,13)             119.6271         calculate D2E/DX2 analytically  !
 ! A21   A(12,7,13)            112.7504         calculate D2E/DX2 analytically  !
 ! D1    D(6,1,2,3)             -0.0201         calculate D2E/DX2 analytically  !
 ! D2    D(6,1,2,9)           -179.9951         calculate D2E/DX2 analytically  !
 ! D3    D(8,1,2,3)            179.9675         calculate D2E/DX2 analytically  !
 ! D4    D(8,1,2,9)             -0.0074         calculate D2E/DX2 analytically  !
 ! D5    D(2,1,6,5)             -0.0557         calculate D2E/DX2 analytically  !
 ! D6    D(2,1,6,11)           179.972          calculate D2E/DX2 analytically  !
 ! D7    D(8,1,6,5)            179.9567         calculate D2E/DX2 analytically  !
 ! D8    D(8,1,6,11)            -0.0156         calculate D2E/DX2 analytically  !
 ! D9    D(1,2,3,4)              0.046          calculate D2E/DX2 analytically  !
 ! D10   D(1,2,3,10)          -179.9292         calculate D2E/DX2 analytically  !
 ! D11   D(9,2,3,4)           -179.9791         calculate D2E/DX2 analytically  !
 ! D12   D(9,2,3,10)             0.0456         calculate D2E/DX2 analytically  !
 ! D13   D(2,3,4,5)              0.0059         calculate D2E/DX2 analytically  !
 ! D14   D(2,3,4,7)           -179.2            calculate D2E/DX2 analytically  !
 ! D15   D(10,3,4,5)           179.98           calculate D2E/DX2 analytically  !
 ! D16   D(10,3,4,7)             0.7742         calculate D2E/DX2 analytically  !
 ! D17   D(3,4,5,6)             -0.0907         calculate D2E/DX2 analytically  !
 ! D18   D(3,4,7,12)           -74.0548         calculate D2E/DX2 analytically  !
 ! D19   D(3,4,7,13)            72.5616         calculate D2E/DX2 analytically  !
 ! D20   D(4,5,6,1)              0.1102         calculate D2E/DX2 analytically  !
 ! D21   D(4,5,6,11)          -179.9188         calculate D2E/DX2 analytically  !
 ! D22   D(7,5,6,1)            178.7045         calculate D2E/DX2 analytically  !
 ! D23   D(7,5,6,11)            -1.3245         calculate D2E/DX2 analytically  !
 ! D24   D(6,5,7,12)            74.5974         calculate D2E/DX2 analytically  !
 ! D25   D(6,5,7,13)           -72.0031         calculate D2E/DX2 analytically  !
 --------------------------------------------------------------------------------
 Trust Radius=3.00D-01 FncErr=1.00D-07 GrdErr=1.00D-07 EigMax=2.50D+02 EigMin=1.00D-04
 Number of steps in this run=      2 maximum allowed number of steps=      2.
 GradGradGradGradGradGradGradGradGradGradGradGradGradGradGradGradGradGrad

                          Input orientation:                          
 ---------------------------------------------------------------------
 Center     Atomic      Atomic             Coordinates (Angstroms)
 Number     Number       Type             X           Y           Z
 ---------------------------------------------------------------------
      1          6           0       -0.469562   -1.064812    0.036221
      2          6           0       -1.464292   -0.071503    0.053827
      3          6           0       -1.154299    1.306591   -0.016911
      4          6           0        0.200806    1.562431   -0.104126
      5          6           0        1.158710    0.605734   -0.122112
      6          6           0        0.906337   -0.751377   -0.053793
      7          6           0        1.624028    2.030348   -0.200654
      8          1           0       -0.774392   -2.114681    0.094524
      9          1           0       -2.512521   -0.379254    0.125171
     10          1           0       -1.940488    2.067924   -0.000920
     11          1           0        1.668588   -1.536797   -0.065882
     12          1           0        2.003695    2.427861   -1.157392
     13          1           0        2.105739    2.495973    0.676097
 ---------------------------------------------------------------------
                    Distance matrix (angstroms):
                    1          2          3          4          5
     1  C    0.000000
     2  C    1.405867   0.000000
     3  C    2.468854   1.414299   0.000000
     4  C    2.715050   2.338214   1.381800   0.000000
     5  C    2.338176   2.714728   2.419149   1.353947   0.000000
     6  C    1.414016   2.468541   2.912527   2.419507   1.382067
     7  C    3.744228   3.744364   2.876923   1.501274   1.500738
     8  H    1.094781   2.156895   3.444104   3.809413   3.344320
     9  H    2.156753   1.094799   2.169569   3.344378   3.809106
    10  H    3.461075   2.192466   1.094521   2.202570   3.428952
    11  H    2.192004   3.460687   4.006987   3.429441   2.203084
    12  H    4.443025   4.443063   3.539897   2.260253   2.259634
    13  H    4.440812   4.441202   3.538748   2.260314   2.259868
                    6          7          8          9         10
     6  C    0.000000
     7  C    2.876568   0.000000
     8  H    2.169204   4.798001   0.000000
     9  H    3.443703   4.798269   2.456366   0.000000
    10  H    4.006952   3.570305   4.343164   2.516307   0.000000
    11  H    1.094559   3.569969   2.515518   4.342589   5.101339
    12  H    3.539728   1.103409   5.469894   5.470016   4.125962
    13  H    3.537879   1.103424   5.467313   5.467978   4.124746
                   11         12         13
    11  H    0.000000
    12  H    4.125797   0.000000
    13  H    4.123696   1.837589   0.000000
 Stoichiometry    C7H6
 Framework group  C2V[C2(C),SGV(C6H4),SGV'(H2)]
 Deg. of freedom    12
 Full point group                 C2V     NOp   4
 Largest Abelian subgroup         C2V     NOp   4
 Largest concise Abelian subgroup C2V     NOp   4
                         Standard orientation:                         
 ---------------------------------------------------------------------
 Center     Atomic      Atomic             Coordinates (Angstroms)
 Number     Number       Type             X           Y           Z
 ---------------------------------------------------------------------
      1          6           0        0.000000    0.703078    1.531206
      2          6           0        0.000000   -0.703078    1.531206
      3          6           0        0.000000   -1.456341    0.334480
      4          6           0       -0.000000   -0.677283   -0.806764
      5          6           0       -0.000000    0.677283   -0.806764
      6          6           0       -0.000000    1.456341    0.334480
      7          6           0       -0.000000    0.000000   -2.146464
      8          1           0        0.000000    1.228515    2.491653
      9          1           0        0.000000   -1.228515    2.491653
     10          1           0        0.000000   -2.550730    0.351471
     11          1           0       -0.000000    2.550730    0.351471
     12          1           0        0.916880    0.000000   -2.758902
     13          1           0       -0.916880   -0.000000   -2.758902
 ---------------------------------------------------------------------
 Rotational constants (GHZ):           5.5156752           3.1652872           2.0386415
 Standard basis: def2SVPP (5D, 7F)
 There are    47 symmetry adapted cartesian basis functions of A1  symmetry.
 There are    13 symmetry adapted cartesian basis functions of A2  symmetry.
 There are    17 symmetry adapted cartesian basis functions of B1  symmetry.
 There are    40 symmetry adapted cartesian basis functions of B2  symmetry.
 There are    43 symmetry adapted basis functions of A1  symmetry.
 There are    13 symmetry adapted basis functions of A2  symmetry.
 There are    17 symmetry adapted basis functions of B1  symmetry.
 There are    37 symmetry adapted basis functions of B2  symmetry.
   110 basis functions,   199 primitive gaussians,   117 cartesian basis functions
    24 alpha electrons       24 beta electrons
       nuclear repulsion energy       256.0094006140 Hartrees.
 NAtoms=   13 NActive=   13 NUniq=    7 SFac= 3.45D+00 NAtFMM=   60 NAOKFM=F Big=F
 Integral buffers will be    131072 words long.
 Raffenetti 2 integral format.
 Two-electron integral symmetry is turned on.
 Nuclear repulsion after empirical dispersion term =      255.9880429746 Hartrees.
 One-electron integrals computed using PRISM.
   4 Symmetry operations used in ECPInt.
 ECPInt:  NShTT=    1485 NPrTT=    5995 LenC2=    1484 LenP2D=    4910.
 LDataN:  DoStor=T MaxTD1= 4 Len=   56
 NBasis=   110 RedAO= T EigKep=  3.59D-04  NBF=    43    13    17    37
 NBsUse=   110 1.00D-06 EigRej= -1.00D+00 NBFU=    43    13    17    37
 Initial guess from the checkpoint file:  "/home/software/g16/scr/Gau-131436.chk"
 B after Tr=    -0.000000   -0.000000   -0.000129
         Rot=    0.707126    0.000003   -0.707087   -0.000015 Ang=  90.00 deg.
 Initial guess orbital symmetries:
       Occupied  (A1) (?A) (?A) (?A) (?A) (A1) (B2) (A1) (A1) (B2)
                 (A1) (A1) (B2) (A1) (A1) (B1) (B2) (B2) (A1) (B1)
                 (B2) (A1) (A2) (B1)
       Virtual   (B1) (A2) (A1) (A1) (B2) (B2) (A1) (B1) (B2) (B2)
                 (A1) (?A) (?A) (?A) (?A) (A1) (B2) (A1) (B2) (?B)
                 (?B) (?B) (?B) (A1) (?C) (?C) (?C) (B1) (A2) (A1)
                 (?D) (?D) (?D) (A1) (B2) (?B) (?B) (?B) (?B) (B2)
                 (A1) (?A) (?A) (B2) (B2) (A1) (B2) (B2) (A1) (A1)
                 (B1) (?E) (?E) (B1) (B1) (A2) (A1) (B1) (A1) (?E)
                 (A1) (?E) (A1) (?F) (?F) (?F) (?F) (?F) (?G) (?G)
                 (B1) (B2) (A1) (A2) (?E) (?E) (B2) (?B) (?B) (?H)
                 (?H) (?H) (B2) (A1) (B2) (B2)
 Keep R1 ints in memory in symmetry-blocked form, NReq=33749098.
 Requested convergence on RMS density matrix=1.00D-08 within 128 cycles.
 Requested convergence on MAX density matrix=1.00D-06.
 Requested convergence on             energy=1.00D-06.
 No special actions if energy rises.
 An orbital has undefined symmetry, so N**3 symmetry is turned off.
 Density matrix breaks symmetry, PCut= 1.00D-04
 Density matrix has no symmetry -- integrals replicated.
 SCF Done:  E(RB3LYP) =  -270.072848219     A.U. after    8 cycles
            NFock=  8  Conv=0.37D-08     -V/T= 2.0113
 DoSCS=F DFT=T ScalE2(SS,OS)=  1.000000  1.000000
 Range of M.O.s used for correlation:     1   110
 NBasis=   110 NAE=    24 NBE=    24 NFC=     0 NFV=     0
 NROrb=    110 NOA=    24 NOB=    24 NVA=    86 NVB=    86

 **** Warning!!: The largest alpha MO coefficient is  0.13838808D+02

   4 Symmetry operations used in ECPInt.
 ECPInt:  NShTT=    1485 NPrTT=    5995 LenC2=    1484 LenP2D=    4910.
 LDataN:  DoStor=T MaxTD1= 5 Len=  102
 Symmetrizing basis deriv contribution to polar:
 IMax=3 JMax=2 DiffMx= 0.00D+00
 G2DrvN: will do    14 centers at a time, making    1 passes.
 Calling FoFCou, ICntrl=  3107 FMM=F I1Cent=   0 AccDes= 0.00D+00.
 End of G2Drv F.D. properties file   721 does not exist.
 End of G2Drv F.D. properties file   722 does not exist.
 End of G2Drv F.D. properties file   788 does not exist.
          IDoAtm=1111111111111
          Differentiating once with respect to electric field.
                with respect to dipole field.
          Differentiating once with respect to nuclear coordinates.
 Keep R1 ints in memory in symmetry-blocked form, NReq=33706125.
          There are    24 degrees of freedom in the 1st order CPHF.  IDoFFX=4 NUNeed=    24.
     24 vectors produced by pass  0 Test12= 8.60D-15 4.17D-09 XBig12= 1.13D+02 7.18D+00.
 AX will form    24 AO Fock derivatives at one time.
     24 vectors produced by pass  1 Test12= 8.60D-15 4.17D-09 XBig12= 3.30D+01 1.84D+00.
     24 vectors produced by pass  2 Test12= 8.60D-15 4.17D-09 XBig12= 6.01D-01 1.19D-01.
     24 vectors produced by pass  3 Test12= 8.60D-15 4.17D-09 XBig12= 6.61D-03 1.49D-02.
     24 vectors produced by pass  4 Test12= 8.60D-15 4.17D-09 XBig12= 1.73D-05 6.62D-04.
     23 vectors produced by pass  5 Test12= 8.60D-15 4.17D-09 XBig12= 2.37D-08 2.36D-05.
      9 vectors produced by pass  6 Test12= 8.60D-15 4.17D-09 XBig12= 2.81D-11 7.29D-07.
      3 vectors produced by pass  7 Test12= 8.60D-15 4.17D-09 XBig12= 3.05D-14 2.25D-08.
 InvSVY:  IOpt=1 It=  1 EMax= 7.11D-15
 Solved reduced A of dimension   155 with    24 vectors.
 Isotropic polarizability for W=    0.000000       68.10 Bohr**3.
 End of Minotr F.D. properties file   721 does not exist.
 End of Minotr F.D. properties file   722 does not exist.
 End of Minotr F.D. properties file   788 does not exist.

 **********************************************************************

            Population analysis using the SCF Density.

 **********************************************************************

 Orbital symmetries:
       Occupied  (A1) (B2) (A1) (A1) (B2) (A1) (B2) (A1) (A1) (B2)
                 (A1) (A1) (B2) (A1) (A1) (B1) (B2) (B2) (A1) (B1)
                 (B2) (A1) (A2) (B1)
       Virtual   (B1) (A2) (A1) (A1) (B2) (B2) (A1) (B1) (A2) (B2)
                 (A1) (B2) (A1) (B2) (A1) (A1) (B2) (A1) (B2) (A1)
                 (B1) (B2) (A1) (A1) (B1) (A2) (B2) (B1) (A2) (A1)
                 (B1) (A2) (B2) (A1) (B2) (A1) (B2) (B1) (A1) (B2)
                 (A1) (A1) (B2) (B2) (B2) (A1) (B2) (B2) (A1) (A1)
                 (B1) (B2) (A2) (B1) (B1) (A2) (A1) (B1) (A1) (A2)
                 (A1) (B2) (A1) (B2) (A1) (B1) (B2) (A1) (A2) (A1)
                 (B1) (B2) (A1) (A2) (A2) (B2) (B2) (A1) (B1) (A2)
                 (B2) (A1) (B2) (A1) (B2) (B2)
 The electronic state is 1-A1.
 Alpha  occ. eigenvalues --  -10.22418 -10.20203 -10.20200 -10.19276 -10.19243
 Alpha  occ. eigenvalues --  -10.19172 -10.19104  -0.89226  -0.80133  -0.74099
 Alpha  occ. eigenvalues --   -0.66394  -0.57982  -0.57684  -0.51022  -0.46284
 Alpha  occ. eigenvalues --   -0.45711  -0.45323  -0.40791  -0.39401  -0.35577
 Alpha  occ. eigenvalues --   -0.32892  -0.29043  -0.26195  -0.24321
 Alpha virt. eigenvalues --   -0.01828  -0.00420   0.07118   0.08058   0.09101
 Alpha virt. eigenvalues --    0.11665   0.12390   0.14067   0.14876   0.14941
 Alpha virt. eigenvalues --    0.19716   0.27202   0.27318   0.29882   0.29931
 Alpha virt. eigenvalues --    0.34314   0.39272   0.40082   0.43041   0.45920
 Alpha virt. eigenvalues --    0.47089   0.47879   0.47916   0.50410   0.52620
 Alpha virt. eigenvalues --    0.53470   0.53723   0.59070   0.60118   0.62971
 Alpha virt. eigenvalues --    0.66796   0.67101   0.67198   0.67761   0.69656
 Alpha virt. eigenvalues --    0.70946   0.72605   0.72612   0.73518   0.74644
 Alpha virt. eigenvalues --    0.75245   0.76458   0.76681   0.82563   0.87437
 Alpha virt. eigenvalues --    0.89221   0.99572   1.10133   1.11544   1.18732
 Alpha virt. eigenvalues --    1.26382   1.39970   1.40828   1.44588   1.46518
 Alpha virt. eigenvalues --    1.48540   1.59216   1.63791   1.75297   1.79000
 Alpha virt. eigenvalues --    1.82135   1.82194   1.84022   1.92257   1.93727
 Alpha virt. eigenvalues --    1.96384   2.03411   2.03543   2.12972   2.13202
 Alpha virt. eigenvalues --    2.19940   2.21123   2.24254   2.29132   2.37994
 Alpha virt. eigenvalues --    2.39191   2.48096   2.53288   2.53719   2.67652
 Alpha virt. eigenvalues --    2.68648   2.68718   2.79492   2.92645   3.21535
 Alpha virt. eigenvalues --    3.28485
          Condensed to atoms (all electrons):
               1          2          3          4          5          6
     1  C    5.122658   0.316629   0.074536  -0.139617   0.101374   0.288964
     2  C    0.316629   5.122658   0.288964   0.101374  -0.139617   0.074536
     3  C    0.074536   0.288964   5.218128   0.337180   0.007922  -0.086994
     4  C   -0.139617   0.101374   0.337180   5.194053   0.223289   0.007922
     5  C    0.101374  -0.139617   0.007922   0.223289   5.194053   0.337180
     6  C    0.288964   0.074536  -0.086994   0.007922   0.337180   5.218128
     7  C    0.013962   0.013962  -0.043393   0.268471   0.268471  -0.043393
     8  H    0.421843  -0.068647   0.014036  -0.001474   0.014097  -0.075449
     9  H   -0.068647   0.421843  -0.075449   0.014097  -0.001474   0.014036
    10  H    0.012076  -0.075385   0.430086  -0.084766   0.015470  -0.001388
    11  H   -0.075385   0.012076  -0.001388   0.015470  -0.084766   0.430086
    12  H   -0.000129  -0.000129  -0.000369  -0.009264  -0.009264  -0.000369
    13  H   -0.000129  -0.000129  -0.000369  -0.009264  -0.009264  -0.000369
               7          8          9         10         11         12
     1  C    0.013962   0.421843  -0.068647   0.012076  -0.075385  -0.000129
     2  C    0.013962  -0.068647   0.421843  -0.075385   0.012076  -0.000129
     3  C   -0.043393   0.014036  -0.075449   0.430086  -0.001388  -0.000369
     4  C    0.268471  -0.001474   0.014097  -0.084766   0.015470  -0.009264
     5  C    0.268471   0.014097  -0.001474   0.015470  -0.084766  -0.009264
     6  C   -0.043393  -0.075449   0.014036  -0.001388   0.430086  -0.000369
     7  C    5.039102  -0.000433  -0.000433  -0.006453  -0.006453   0.334695
     8  H   -0.000433   0.656990  -0.012358  -0.000135  -0.009609   0.000008
     9  H   -0.000433  -0.012358   0.656990  -0.009609  -0.000135   0.000008
    10  H   -0.006453  -0.000135  -0.009609   0.659138   0.000058   0.000349
    11  H   -0.006453  -0.009609  -0.000135   0.000058   0.659138   0.000349
    12  H    0.334695   0.000008   0.000008   0.000349   0.000349   0.612320
    13  H    0.334695   0.000008   0.000008   0.000349   0.000349  -0.041766
              13
     1  C   -0.000129
     2  C   -0.000129
     3  C   -0.000369
     4  C   -0.009264
     5  C   -0.009264
     6  C   -0.000369
     7  C    0.334695
     8  H    0.000008
     9  H    0.000008
    10  H    0.000349
    11  H    0.000349
    12  H   -0.041766
    13  H    0.612320
 Mulliken charges:
               1
     1  C   -0.068136
     2  C   -0.068136
     3  C   -0.162888
     4  C    0.082529
     5  C    0.082529
     6  C   -0.162888
     7  C   -0.172803
     8  H    0.061124
     9  H    0.061124
    10  H    0.060209
    11  H    0.060209
    12  H    0.113563
    13  H    0.113563
 Sum of Mulliken charges =  -0.00000
 Mulliken charges with hydrogens summed into heavy atoms:
               1
     1  C   -0.007012
     2  C   -0.007012
     3  C   -0.102679
     4  C    0.082529
     5  C    0.082529
     6  C   -0.102679
     7  C    0.054323
 APT charges:
               1
     1  C   -0.062498
     2  C   -0.062498
     3  C    0.110934
     4  C   -0.170891
     5  C   -0.170891
     6  C    0.110934
     7  C    0.233060
     8  H    0.023587
     9  H    0.023587
    10  H    0.019604
    11  H    0.019604
    12  H   -0.037266
    13  H   -0.037266
 Sum of APT charges =   0.00000
 APT charges with hydrogens summed into heavy atoms:
               1
     1  C   -0.038911
     2  C   -0.038911
     3  C    0.130538
     4  C   -0.170891
     5  C   -0.170891
     6  C    0.130538
     7  C    0.158529
 Electronic spatial extent (au):  <R**2>=            615.1138
 Charge=             -0.0000 electrons
 Dipole moment (field-independent basis, Debye):
    X=             -0.0000    Y=             -0.0000    Z=              0.1392  Tot=              0.1392
 Quadrupole moment (field-independent basis, Debye-Ang):
   XX=            -43.2169   YY=            -38.6560   ZZ=            -37.3950
   XY=              0.0000   XZ=             -0.0000   YZ=              0.0000
 Traceless Quadrupole moment (field-independent basis, Debye-Ang):
   XX=             -3.4609   YY=              1.0999   ZZ=              2.3609
   XY=              0.0000   XZ=             -0.0000   YZ=              0.0000
 Octapole moment (field-independent basis, Debye-Ang**2):
  XXX=              0.0000  YYY=              0.0000  ZZZ=              2.1545  XYY=              0.0000
  XXY=             -0.0000  XXZ=             -3.7778  XZZ=             -0.0000  YZZ=             -0.0000
  YYZ=              5.3609  XYZ=             -0.0000
 Hexadecapole moment (field-independent basis, Debye-Ang**3):
 XXXX=            -53.9844 YYYY=           -279.3282 ZZZZ=           -473.4426 XXXY=              0.0000
 XXXZ=             -0.0000 YYYX=              0.0000 YYYZ=              0.0000 ZZZX=              0.0000
 ZZZY=              0.0000 XXYY=            -64.5303 XXZZ=            -92.4513 YYZZ=           -134.8982
 XXYZ=              0.0000 YYXZ=             -0.0000 ZZXY=              0.0000
 N-N= 2.559880429746D+02 E-N=-1.136212820932D+03  KE= 2.670640377364D+02
 Symmetry A1   KE= 1.493949563582D+02
 Symmetry A2   KE= 2.243682598938D+00
 Symmetry B1   KE= 6.220056089075D+00
 Symmetry B2   KE= 1.092053426902D+02
  Exact polarizability:      35.658      -0.000      75.769       0.000      -0.000      92.880
 Approx polarizability:      53.401      -0.000     134.760      -0.000      -0.000     147.255
   4 Symmetry operations used in ECPInt.
 ECPInt:  NShTT=    1485 NPrTT=    5995 LenC2=    1484 LenP2D=    4910.
 LDataN:  DoStor=T MaxTD1= 6 Len=  172
 Calling FoFJK, ICntrl=    100127 FMM=F ISym2X=1 I1Cent= 0 IOpClX= 0 NMat=1 NMatS=1 NMatT=0.
 Full mass-weighted force constant matrix:
 Low frequencies ---  -10.3512   -0.0003   -0.0003    0.0007    7.7064    9.3011
 Low frequencies ---  185.3543  353.1714  443.3177
 Diagonal vibrational polarizability:
        8.8459143       2.9434983       1.0749104
 Harmonic frequencies (cm**-1), IR intensities (KM/Mole), Raman scattering
 activities (A**4/AMU), depolarization ratios for plane and unpolarized
 incident light, reduced masses (AMU), force constants (mDyne/A),
 and normal coordinates:
                      1                      2                      3
                     B1                     B1                     B2
 Frequencies --    185.3539               353.1714               443.3174
 Red. masses --      3.1015                 2.7498                 3.8697
 Frc consts  --      0.0628                 0.2021                 0.4481
 IR Inten    --      8.0931                 1.5543                17.1724
  Atom  AN      X      Y      Z        X      Y      Z        X      Y      Z
     1   6    -0.08   0.00  -0.00    -0.13  -0.00   0.00     0.00   0.08  -0.02
     2   6    -0.08   0.00   0.00    -0.13  -0.00  -0.00     0.00   0.08   0.02
     3   6     0.01  -0.00   0.00     0.23   0.00   0.00    -0.00  -0.06   0.08
     4   6     0.25  -0.00  -0.00    -0.09  -0.00  -0.00    -0.00  -0.23  -0.09
     5   6     0.25  -0.00   0.00    -0.09  -0.00   0.00    -0.00  -0.23   0.09
     6   6     0.01  -0.00  -0.00     0.23   0.00  -0.00    -0.00  -0.06  -0.08
     7   6    -0.22   0.00  -0.00    -0.06   0.00   0.00     0.00   0.32   0.00
     8   1    -0.22   0.00  -0.00    -0.26   0.00  -0.00     0.00   0.14  -0.05
     9   1    -0.22   0.00   0.00    -0.26   0.00   0.00     0.00   0.14   0.05
    10   1    -0.13  -0.00   0.00     0.58   0.00   0.00    -0.00  -0.06   0.30
    11   1    -0.13  -0.00  -0.00     0.58   0.00  -0.00    -0.00  -0.06  -0.30
    12   1    -0.46   0.00  -0.35    -0.08   0.00  -0.05     0.00   0.50   0.00
    13   1    -0.46   0.00   0.35    -0.08   0.00   0.05     0.00   0.50  -0.00
                      4                      5                      6
                     A2                     A1                     B2
 Frequencies --    453.5013               583.0201               685.2683
 Red. masses --      3.3333                 6.4037                 6.5142
 Frc consts  --      0.4039                 1.2825                 1.8023
 IR Inten    --      0.0000                 0.2456                 0.4290
  Atom  AN      X      Y      Z        X      Y      Z        X      Y      Z
     1   6     0.22   0.00  -0.00     0.00  -0.03   0.26    -0.00   0.20   0.29
     2   6    -0.22   0.00  -0.00    -0.00   0.03   0.26    -0.00   0.20  -0.29
     3   6     0.01  -0.00  -0.00    -0.00   0.30   0.08    -0.00   0.04  -0.21
     4   6     0.24  -0.00   0.00     0.00   0.01  -0.19     0.00  -0.13  -0.21
     5   6    -0.24  -0.00   0.00    -0.00  -0.01  -0.19     0.00  -0.13   0.21
     6   6    -0.01   0.00  -0.00     0.00  -0.30   0.08    -0.00   0.04   0.21
     7   6    -0.00   0.00   0.00     0.00   0.00  -0.30     0.00  -0.19   0.00
     8   1     0.48  -0.00   0.00     0.00   0.21   0.13     0.00  -0.04   0.43
     9   1    -0.48   0.00   0.00    -0.00  -0.21   0.13     0.00  -0.04  -0.43
    10   1    -0.01  -0.00  -0.00    -0.00   0.30   0.14     0.00   0.05   0.07
    11   1     0.01   0.00  -0.00     0.00  -0.30   0.14     0.00   0.05  -0.07
    12   1     0.00   0.40   0.00     0.00   0.00  -0.29    -0.00  -0.24  -0.00
    13   1    -0.00  -0.40   0.00    -0.00   0.00  -0.29    -0.00  -0.24   0.00
                      7                      8                      9
                     A2                     B1                     A1
 Frequencies --    711.5079               753.9120               892.0243
 Red. masses --      3.6031                 1.1743                 4.7241
 Frc consts  --      1.0747                 0.3932                 2.2147
 IR Inten    --      0.0000                44.7082                 3.3076
  Atom  AN      X      Y      Z        X      Y      Z        X      Y      Z
     1   6    -0.20   0.00  -0.00    -0.06  -0.00  -0.00    -0.00  -0.07  -0.04
     2   6     0.20  -0.00  -0.00    -0.06  -0.00   0.00     0.00   0.07  -0.04
     3   6    -0.19  -0.00   0.00    -0.05  -0.00   0.00     0.00   0.26  -0.14
     4   6     0.20   0.00   0.00     0.03   0.00   0.00     0.00   0.00  -0.01
     5   6    -0.20  -0.00   0.00     0.03   0.00  -0.00    -0.00  -0.00  -0.01
     6   6     0.19   0.00   0.00    -0.05   0.00  -0.00    -0.00  -0.26  -0.14
     7   6    -0.00  -0.00  -0.00     0.01   0.00  -0.00     0.00  -0.00   0.38
     8   1    -0.39  -0.00   0.00     0.57  -0.00  -0.00     0.00   0.14  -0.17
     9   1     0.39   0.00   0.00     0.57   0.00   0.00    -0.00  -0.14  -0.17
    10   1    -0.34  -0.00   0.00     0.40  -0.00   0.00    -0.00   0.27  -0.23
    11   1     0.34   0.00   0.00     0.40   0.00  -0.00     0.00  -0.27  -0.23
    12   1     0.00   0.34  -0.00    -0.04  -0.00  -0.08     0.00  -0.00   0.39
    13   1    -0.00  -0.34  -0.00    -0.04  -0.00   0.08    -0.00   0.00   0.39
                     10                     11                     12
                     A2                     B1                     A2
 Frequencies --    903.3001               938.7666              1005.1805
 Red. masses --      1.2614                 1.3994                 1.2980
 Frc consts  --      0.6064                 0.7266                 0.7727
 IR Inten    --      0.0000                 0.0160                 0.0000
  Atom  AN      X      Y      Z        X      Y      Z        X      Y      Z
     1   6     0.06  -0.00   0.00     0.08  -0.00  -0.00    -0.09  -0.00  -0.00
     2   6    -0.06   0.00   0.00     0.08  -0.00   0.00     0.09   0.00  -0.00
     3   6    -0.09   0.00  -0.00    -0.10   0.00   0.00    -0.05   0.00  -0.00
     4   6     0.01  -0.00  -0.00    -0.00  -0.00  -0.00    -0.04  -0.00  -0.00
     5   6    -0.01   0.00  -0.00    -0.00  -0.00   0.00     0.04   0.00  -0.00
     6   6     0.09  -0.00  -0.00    -0.10   0.00  -0.00     0.05  -0.00  -0.00
     7   6    -0.00  -0.00   0.00     0.06   0.00  -0.00    -0.00  -0.00   0.00
     8   1    -0.34   0.00  -0.00    -0.40  -0.00   0.00     0.54  -0.00   0.00
     9   1     0.34  -0.00  -0.00    -0.40  -0.00  -0.00    -0.54   0.00   0.00
    10   1     0.61   0.00  -0.00     0.48   0.00   0.00     0.33   0.00   0.00
    11   1    -0.61  -0.00  -0.00     0.48   0.00  -0.00    -0.33  -0.00   0.00
    12   1    -0.00  -0.01   0.00    -0.12  -0.00  -0.27    -0.00   0.28   0.00
    13   1     0.00   0.01   0.00    -0.12  -0.00   0.27     0.00  -0.28   0.00
                     13                     14                     15
                     B2                     A1                     A2
 Frequencies --   1013.8818              1015.4089              1016.7332
 Red. masses --      6.0228                 2.1360                 1.2113
 Frc consts  --      3.6478                 1.2976                 0.7378
 IR Inten    --      2.2808                 5.7481                 0.0000
  Atom  AN      X      Y      Z        X      Y      Z        X      Y      Z
     1   6    -0.00  -0.15  -0.19    -0.00  -0.10  -0.15     0.04  -0.00  -0.00
     2   6    -0.00  -0.15   0.19     0.00   0.10  -0.15    -0.04   0.00  -0.00
     3   6     0.00   0.31  -0.01    -0.00   0.07   0.11     0.02   0.00   0.00
     4   6    -0.00  -0.13  -0.23     0.00  -0.01   0.01    -0.08  -0.00   0.00
     5   6    -0.00  -0.13   0.23    -0.00   0.01   0.01     0.08   0.00   0.00
     6   6     0.00   0.31   0.01     0.00  -0.07   0.11    -0.02  -0.00   0.00
     7   6     0.00  -0.03   0.00     0.00  -0.00  -0.02    -0.00   0.00  -0.00
     8   1     0.00  -0.29  -0.11     0.00  -0.27  -0.08    -0.24  -0.00  -0.00
     9   1     0.00  -0.29   0.11    -0.00   0.27  -0.08     0.24   0.00  -0.00
    10   1    -0.00   0.32  -0.02     0.00   0.09   0.60    -0.12   0.00   0.00
    11   1    -0.00   0.32   0.02    -0.00  -0.09   0.60     0.12  -0.00   0.00
    12   1    -0.00  -0.28  -0.00    -0.00  -0.00  -0.03     0.00   0.65   0.00
    13   1    -0.00  -0.28   0.00     0.00   0.00  -0.03     0.00  -0.65  -0.00
                     16                     17                     18
                     B1                     B2                     B2
 Frequencies --   1018.2852              1093.9813              1122.9629
 Red. masses --      1.3197                 1.3095                 1.3804
 Frc consts  --      0.8062                 0.9234                 1.0256
 IR Inten    --      0.2390                 8.5471                 1.5278
  Atom  AN      X      Y      Z        X      Y      Z        X      Y      Z
     1   6     0.02  -0.00  -0.00     0.00  -0.01  -0.00    -0.00  -0.04   0.07
     2   6     0.02  -0.00   0.00     0.00  -0.01   0.00    -0.00  -0.04  -0.07
     3   6    -0.04   0.00   0.00    -0.00   0.03   0.00     0.00   0.04   0.07
     4   6     0.05  -0.00  -0.00     0.00   0.00   0.00     0.00   0.01   0.05
     5   6     0.05  -0.00   0.00     0.00   0.00  -0.00     0.00   0.01  -0.05
     6   6    -0.04   0.00   0.00    -0.00   0.03  -0.00     0.00   0.04  -0.07
     7   6    -0.14  -0.00  -0.00     0.00  -0.16  -0.00    -0.00   0.03  -0.00
     8   1    -0.13  -0.00  -0.00    -0.00  -0.07   0.03     0.00  -0.41   0.28
     9   1    -0.13  -0.00   0.00    -0.00  -0.07  -0.03     0.00  -0.41  -0.28
    10   1     0.26   0.00   0.00     0.00   0.03   0.00    -0.00   0.06   0.48
    11   1     0.26   0.00   0.00     0.00   0.03  -0.00    -0.00   0.06  -0.48
    12   1     0.24  -0.00   0.58    -0.00   0.69  -0.00     0.00  -0.04   0.00
    13   1     0.24   0.00  -0.58    -0.00   0.69   0.00     0.00  -0.04  -0.00
                     19                     20                     21
                     A1                     A1                     B2
 Frequencies --   1142.9417              1170.5657              1297.8105
 Red. masses --      3.8379                 1.1506                 1.4010
 Frc consts  --      2.9539                 0.9289                 1.3903
 IR Inten    --      0.8316                 2.0328                 0.0023
  Atom  AN      X      Y      Z        X      Y      Z        X      Y      Z
     1   6    -0.00   0.02  -0.09     0.00   0.07  -0.03    -0.00  -0.04  -0.02
     2   6     0.00  -0.02  -0.09    -0.00  -0.07  -0.03    -0.00  -0.04   0.02
     3   6    -0.00   0.11   0.04    -0.00  -0.00   0.02     0.00  -0.04  -0.05
     4   6    -0.00   0.21   0.21    -0.00   0.02   0.01    -0.00   0.07  -0.07
     5   6     0.00  -0.21   0.21     0.00  -0.02   0.01     0.00   0.07   0.07
     6   6     0.00  -0.11   0.04     0.00   0.00   0.02     0.00  -0.04   0.05
     7   6    -0.00   0.00  -0.18    -0.00   0.00   0.00    -0.00  -0.03   0.00
     8   1     0.00  -0.02  -0.08    -0.00   0.58  -0.31     0.00   0.28  -0.20
     9   1    -0.00   0.02  -0.08     0.00  -0.58  -0.31     0.00   0.28   0.20
    10   1     0.00   0.12  -0.58     0.00   0.00   0.25    -0.00  -0.03   0.60
    11   1    -0.00  -0.12  -0.58    -0.00  -0.00   0.25    -0.00  -0.03  -0.60
    12   1     0.05   0.00  -0.10     0.00   0.00   0.00    -0.00   0.01   0.00
    13   1    -0.05  -0.00  -0.10    -0.00  -0.00   0.00    -0.00   0.01  -0.00
                     22                     23                     24
                     A1                     A1                     B2
 Frequencies --   1406.9497              1465.5604              1491.4653
 Red. masses --      3.8921                 1.4716                 2.4388
 Frc consts  --      4.5393                 1.8623                 3.1964
 IR Inten    --      1.5085                 1.3140                11.0267
  Atom  AN      X      Y      Z        X      Y      Z        X      Y      Z
     1   6    -0.00   0.16  -0.10     0.00   0.12  -0.01     0.00  -0.12   0.16
     2   6     0.00  -0.16  -0.10    -0.00  -0.12  -0.01     0.00  -0.12  -0.16
     3   6    -0.00   0.03   0.24     0.00   0.01  -0.01     0.00   0.11   0.02
     4   6     0.00  -0.05  -0.15    -0.00   0.06  -0.04    -0.00  -0.07   0.09
     5   6    -0.00   0.05  -0.15     0.00  -0.06  -0.04    -0.00  -0.07  -0.09
     6   6     0.00  -0.03   0.24    -0.00  -0.01  -0.01     0.00   0.11  -0.02
     7   6     0.00   0.00   0.14     0.00   0.00  -0.03     0.00   0.02  -0.00
     8   1    -0.00  -0.09   0.03     0.00  -0.18   0.17    -0.00   0.61  -0.22
     9   1     0.00   0.09   0.03    -0.00   0.18   0.17    -0.00   0.61   0.22
    10   1    -0.00   0.02  -0.55     0.00   0.02   0.19    -0.00   0.13  -0.03
    11   1     0.00  -0.02  -0.55    -0.00  -0.02   0.19    -0.00   0.13   0.03
    12   1    -0.18   0.00  -0.17     0.34   0.00   0.52     0.00   0.02   0.00
    13   1     0.18  -0.00  -0.17    -0.34  -0.00   0.52    -0.00   0.02   0.00
                     25                     26                     27
                     A1                     B2                     A1
 Frequencies --   1496.2175              1637.0488              1762.3321
 Red. masses --      1.6476                 7.6754                 9.6988
 Frc consts  --      2.1732                12.1193                17.7478
 IR Inten    --     24.2704                 3.8563                19.1306
  Atom  AN      X      Y      Z        X      Y      Z        X      Y      Z
     1   6     0.00  -0.12  -0.01    -0.00  -0.06   0.15    -0.00  -0.23   0.07
     2   6     0.00   0.12  -0.01    -0.00  -0.06  -0.15     0.00   0.23   0.07
     3   6    -0.00  -0.03   0.07     0.00  -0.07   0.38     0.00  -0.17   0.09
     4   6    -0.00  -0.08  -0.02    -0.00   0.16  -0.32     0.00   0.47  -0.25
     5   6     0.00   0.08  -0.02    -0.00   0.16   0.32    -0.00  -0.47  -0.25
     6   6     0.00   0.03   0.07     0.00  -0.07  -0.38    -0.00   0.17   0.09
     7   6     0.00  -0.00  -0.09     0.00  -0.07  -0.00    -0.00   0.00   0.20
     8   1     0.00   0.20  -0.19     0.00   0.16   0.05    -0.00   0.17  -0.15
     9   1    -0.00  -0.20  -0.19     0.00   0.16  -0.05     0.00  -0.17  -0.15
    10   1     0.00  -0.04  -0.31    -0.00  -0.10  -0.40    -0.00  -0.19  -0.01
    11   1    -0.00   0.04  -0.31    -0.00  -0.10   0.40     0.00   0.19  -0.01
    12   1     0.33   0.00   0.44    -0.00  -0.02  -0.00    -0.12  -0.00   0.04
    13   1    -0.33  -0.00   0.44    -0.00  -0.02   0.00     0.12   0.00   0.04
                     28                     29                     30
                     A1                     B1                     B2
 Frequencies --   3044.5548              3110.6655              3162.4081
 Red. masses --      1.0513                 1.1175                 1.0859
 Frc consts  --      5.7413                 6.3707                 6.3985
 IR Inten    --     64.7520                17.1531                 1.1620
  Atom  AN      X      Y      Z        X      Y      Z        X      Y      Z
     1   6     0.00  -0.00   0.00    -0.00   0.00   0.00    -0.00  -0.02  -0.04
     2   6    -0.00   0.00   0.00    -0.00   0.00  -0.00    -0.00  -0.02   0.04
     3   6     0.00  -0.00  -0.00    -0.00   0.00  -0.00     0.00   0.03  -0.00
     4   6    -0.00   0.00  -0.00     0.00  -0.00  -0.00    -0.00  -0.00   0.00
     5   6     0.00  -0.00  -0.00     0.00  -0.00   0.00    -0.00  -0.00  -0.00
     6   6    -0.00   0.00  -0.00    -0.00   0.00   0.00     0.00   0.03   0.00
     7   6     0.00  -0.00   0.06    -0.10   0.00   0.00    -0.00   0.00  -0.00
     8   1    -0.00  -0.00  -0.00     0.00  -0.00  -0.00     0.00   0.29   0.53
     9   1     0.00   0.00  -0.00     0.00  -0.00   0.00     0.00   0.29  -0.53
    10   1     0.00   0.01   0.00     0.00   0.00   0.00    -0.00  -0.37   0.01
    11   1    -0.00  -0.01   0.00     0.00   0.00  -0.00    -0.00  -0.37  -0.01
    12   1     0.60  -0.00  -0.37     0.59  -0.00  -0.39     0.00  -0.00  -0.00
    13   1    -0.60   0.00  -0.37     0.59  -0.00   0.39     0.00  -0.00   0.00
                     31                     32                     33
                     A1                     B2                     A1
 Frequencies --   3171.5440              3179.9853              3189.0006
 Red. masses --      1.0894                 1.0947                 1.0977
 Frc consts  --      6.4560                 6.5220                 6.5773
 IR Inten    --      1.6108                40.4599                18.7905
  Atom  AN      X      Y      Z        X      Y      Z        X      Y      Z
     1   6     0.00  -0.02  -0.03     0.00  -0.01  -0.03     0.00  -0.03  -0.05
     2   6    -0.00   0.02  -0.03     0.00  -0.01   0.03    -0.00   0.03  -0.05
     3   6     0.00  -0.05   0.00     0.00  -0.05   0.00     0.00   0.04   0.00
     4   6    -0.00  -0.00  -0.00     0.00   0.00  -0.00    -0.00  -0.00   0.00
     5   6     0.00   0.00  -0.00     0.00   0.00   0.00     0.00   0.00   0.00
     6   6    -0.00   0.05   0.00     0.00  -0.05  -0.00    -0.00  -0.04   0.00
     7   6    -0.00  -0.00   0.00    -0.00   0.00  -0.00    -0.00  -0.00   0.00
     8   1    -0.00   0.19   0.34    -0.00   0.17   0.32    -0.00   0.28   0.52
     9   1     0.00  -0.19   0.34    -0.00   0.17  -0.32     0.00  -0.28   0.52
    10   1     0.00   0.59  -0.01    -0.00   0.60  -0.01     0.00  -0.38   0.00
    11   1    -0.00  -0.59  -0.01    -0.00   0.60   0.01    -0.00   0.38   0.00
    12   1    -0.00  -0.00   0.00     0.00  -0.00  -0.00     0.00   0.00  -0.00
    13   1     0.00   0.00   0.00     0.00  -0.00   0.00    -0.00  -0.00  -0.00

 -------------------
 - Thermochemistry -
 -------------------
 Temperature   298.150 Kelvin.  Pressure   0.98700 Atm.
 Thermochemistry will use frequencies scaled by 0.9610.
 Atom     1 has atomic number  6 and mass  12.00000
 Atom     2 has atomic number  6 and mass  12.00000
 Atom     3 has atomic number  6 and mass  12.00000
 Atom     4 has atomic number  6 and mass  12.00000
 Atom     5 has atomic number  6 and mass  12.00000
 Atom     6 has atomic number  6 and mass  12.00000
 Atom     7 has atomic number  6 and mass  12.00000
 Atom     8 has atomic number  1 and mass   1.00783
 Atom     9 has atomic number  1 and mass   1.00783
 Atom    10 has atomic number  1 and mass   1.00783
 Atom    11 has atomic number  1 and mass   1.00783
 Atom    12 has atomic number  1 and mass   1.00783
 Atom    13 has atomic number  1 and mass   1.00783
 Molecular mass:    90.04695 amu.
 Principal axes and moments of inertia in atomic units:
                           1         2         3
     Eigenvalues --   327.20223 570.16666 885.26659
           X            0.00000  -0.00000   1.00000
           Y           -0.00000   1.00000   0.00000
           Z            1.00000   0.00000  -0.00000
 This molecule is an asymmetric top.
 Rotational symmetry number  2.
 Rotational temperatures (Kelvin)      0.26471     0.15191     0.09784
 Rotational constants (GHZ):           5.51568     3.16529     2.03864
 Zero-point vibrational energy     263942.9 (Joules/Mol)
                                   63.08386 (Kcal/Mol)
 Warning -- explicit consideration of   5 degrees of freedom as
           vibrations may cause significant error
 Vibrational temperatures:    256.28   488.32   612.96   627.04   806.12
          (Kelvin)            947.50   983.78  1042.41  1233.37  1248.96
                             1298.00  1389.83  1401.86  1403.97  1405.80
                             1407.95  1512.61  1552.68  1580.31  1618.50
                             1794.44  1945.34  2026.38  2062.20  2068.77
                             2263.49  2436.71  4209.60  4301.01  4372.55
                             4385.18  4396.85  4409.32
 
 Zero-point correction=                           0.100531 (Hartree/Particle)
 Thermal correction to Energy=                    0.105964
 Thermal correction to Enthalpy=                  0.106908
 Thermal correction to Gibbs Free Energy=         0.072327
 Sum of electronic and zero-point Energies=           -269.972318
 Sum of electronic and thermal Energies=              -269.966884
 Sum of electronic and thermal Enthalpies=            -269.965940
 Sum of electronic and thermal Free Energies=         -270.000521
 
                     E (Thermal)             CV                S
                      KCal/Mol        Cal/Mol-Kelvin    Cal/Mol-Kelvin
 Total                   66.494             21.390             72.782
 Electronic               0.000              0.000              0.000
 Translational            0.889              2.981             39.432
 Rotational               0.889              2.981             25.227
 Vibrational             64.716             15.428              8.123
 Vibration     1          0.629              1.869              2.348
 Vibration     2          0.719              1.597              1.215
 Vibration     3          0.788              1.414              0.872
 Vibration     4          0.796              1.392              0.840
 Vibration     5          0.916              1.117              0.523
                       Q            Log10(Q)             Ln(Q)
 Total Bot       0.539135D-33        -33.268302        -76.603097
 Total V=0       0.938619D+13         12.972489         29.870260
 Vib (Bot)       0.217819D-45        -45.661904       -105.140420
 Vib (Bot)    1  0.112831D+01          0.052427          0.120719
 Vib (Bot)    2  0.547309D+00         -0.261767         -0.602742
 Vib (Bot)    3  0.410248D+00         -0.386954         -0.890994
 Vib (Bot)    4  0.397979D+00         -0.400139         -0.921355
 Vib (Bot)    5  0.277323D+00         -0.557013         -1.282571
 Vib (V=0)       0.379217D+01          0.578887          1.332937
 Vib (V=0)    1  0.173413D+01          0.239082          0.550506
 Vib (V=0)    2  0.124131D+01          0.093882          0.216171
 Vib (V=0)    3  0.114676D+01          0.059474          0.136944
 Vib (V=0)    4  0.113905D+01          0.056544          0.130196
 Vib (V=0)    5  0.107176D+01          0.030097          0.069301
 Electronic      0.100000D+01          0.000000          0.000000
 Translational   0.340283D+08          7.531840         17.342703
 Rotational      0.727381D+05          4.861762         11.194620
 ***** Axes restored to original set *****
 -------------------------------------------------------------------
 Center     Atomic                   Forces (Hartrees/Bohr)
 Number     Number              X              Y              Z
 -------------------------------------------------------------------
      1        6          -0.000277013    0.000147024    0.000009883
      2        6           0.000147491   -0.000276931    0.000002436
      3        6          -0.000071884    0.000170821   -0.000002577
      4        6           0.000863820   -0.000448677   -0.000031198
      5        6          -0.000450141    0.000863584   -0.000008149
      6        6           0.000170832   -0.000071580   -0.000006834
      7        6          -0.000296189   -0.000297068    0.000028172
      8        1          -0.000071590    0.000024607    0.000003073
      9        1           0.000024739   -0.000071597    0.000001383
     10        1           0.000018256   -0.000052292    0.000001000
     11        1          -0.000052287    0.000018159    0.000002237
     12        1          -0.000038419   -0.000027418   -0.000629147
     13        1           0.000032386    0.000021367    0.000629721
 -------------------------------------------------------------------
 Cartesian Forces:  Max     0.000863820 RMS     0.000284337
 FormGI is forming the generalized inverse of G from B-inverse, IUseBI=4.

 GradGradGradGradGradGradGradGradGradGradGradGradGradGradGradGradGradGrad
 Berny optimization.
 Internal  Forces:  Max     0.000631595 RMS     0.000163693
 Search for a local minimum.
 Step number   1 out of a maximum of    2
 All quantities printed in internal units (Hartrees-Bohrs-Radians)
 Second derivative matrix not updated -- analytic derivatives used.
 ITU=  0
     Eigenvalues ---    0.00013   0.00090   0.01574   0.01891   0.02287
     Eigenvalues ---    0.02518   0.03050   0.03332   0.05636   0.07371
     Eigenvalues ---    0.07517   0.09705   0.10714   0.10753   0.11457
     Eigenvalues ---    0.11969   0.12458   0.16862   0.19719   0.24011
     Eigenvalues ---    0.25989   0.28367   0.33070   0.34281   0.35193
     Eigenvalues ---    0.35338   0.35609   0.35753   0.37984   0.40838
     Eigenvalues ---    0.48935   0.49632   0.52154
 Angle between quadratic step and forces=  40.56 degrees.
 Linear search not attempted -- first point.
 Iteration  1 RMS(Cart)=  0.00086049 RMS(Int)=  0.00000108
 Iteration  2 RMS(Cart)=  0.00000089 RMS(Int)=  0.00000043
 ClnCor:  largest displacement from symmetrization is 7.83D-09 for atom     1.
 Variable       Old X    -DE/DX   Delta X   Delta X   Delta X     New X
                                 (Linear)    (Quad)   (Total)
    R1        2.65725  -0.00036   0.00000  -0.00061  -0.00061   2.65663
    R2        2.67218   0.00011   0.00000   0.00025   0.00025   2.67243
    R3        2.06884  -0.00000   0.00000  -0.00000  -0.00000   2.06883
    R4        2.67218   0.00011   0.00000   0.00025   0.00025   2.67243
    R5        2.06884  -0.00000   0.00000  -0.00000  -0.00000   2.06883
    R6        2.61122   0.00013   0.00000   0.00030   0.00030   2.61153
    R7        2.06834  -0.00005   0.00000  -0.00017  -0.00017   2.06818
    R8        2.55976  -0.00063   0.00000  -0.00162  -0.00162   2.55814
    R9        2.83680  -0.00027   0.00000  -0.00054  -0.00054   2.83626
   R10        2.61122   0.00013   0.00000   0.00030   0.00030   2.61153
   R11        2.83680  -0.00027   0.00000  -0.00054  -0.00054   2.83626
   R12        2.06834  -0.00005   0.00000  -0.00017  -0.00017   2.06818
   R13        2.08363   0.00052   0.00000   0.00139   0.00139   2.08502
   R14        2.08363   0.00052   0.00000   0.00139   0.00139   2.08502
    A1        2.13258  -0.00003   0.00000   0.00005   0.00005   2.13263
    A2        2.07139  -0.00006   0.00000  -0.00059  -0.00059   2.07081
    A3        2.07921   0.00009   0.00000   0.00053   0.00053   2.07975
    A4        2.13258  -0.00003   0.00000   0.00005   0.00005   2.13263
    A5        2.07139  -0.00006   0.00000  -0.00059  -0.00059   2.07081
    A6        2.07921   0.00009   0.00000   0.00053   0.00053   2.07975
    A7        1.98083   0.00001   0.00000  -0.00032  -0.00032   1.98051
    A8        2.11706  -0.00003   0.00000  -0.00004  -0.00004   2.11701
    A9        2.18530   0.00002   0.00000   0.00036   0.00036   2.18566
   A10        2.16978   0.00002   0.00000   0.00027   0.00027   2.17004
   A11        3.01069  -0.00010   0.00000  -0.00049  -0.00049   3.01020
   A12        2.16978   0.00002   0.00000   0.00027   0.00027   2.17004
   A13        3.01069  -0.00010   0.00000  -0.00049  -0.00049   3.01020
   A14        1.98083   0.00001   0.00000  -0.00032  -0.00032   1.98051
   A15        2.11706  -0.00003   0.00000  -0.00004  -0.00004   2.11701
   A16        2.18530   0.00002   0.00000   0.00036   0.00036   2.18566
   A17        2.08944  -0.00013   0.00000  -0.00168  -0.00168   2.08776
   A18        2.08944  -0.00013   0.00000  -0.00168  -0.00168   2.08776
   A19        2.08944  -0.00013   0.00000  -0.00168  -0.00168   2.08776
   A20        2.08944  -0.00013   0.00000  -0.00168  -0.00168   2.08776
   A21        1.96380   0.00035   0.00000   0.00407   0.00408   1.96787
    D1        0.00000   0.00000   0.00000   0.00000   0.00000   0.00000
    D2        3.14159   0.00000   0.00000  -0.00000   0.00000  -3.14159
    D3        3.14159  -0.00000   0.00000   0.00000   0.00000   3.14159
    D4        0.00000   0.00000   0.00000   0.00000  -0.00000   0.00000
    D5       -0.00000  -0.00000   0.00000   0.00000   0.00000   0.00000
    D6        3.14159   0.00000   0.00000   0.00000   0.00000   3.14159
    D7        3.14159  -0.00000   0.00000   0.00000  -0.00000   3.14159
    D8        0.00000   0.00000   0.00000   0.00000   0.00000   0.00000
    D9        0.00000   0.00000   0.00000  -0.00000   0.00000   0.00000
   D10        3.14159   0.00000   0.00000  -0.00000   0.00000   3.14159
   D11        3.14159   0.00000   0.00000  -0.00000   0.00000   3.14159
   D12       -0.00000  -0.00000   0.00000  -0.00000   0.00000   0.00000
   D13       -0.00000  -0.00000   0.00000   0.00000   0.00000   0.00000
   D14        3.14159  -0.00000   0.00000  -0.00000  -0.00000   3.14159
   D15        3.14159  -0.00000   0.00000   0.00000   0.00000   3.14159
   D16       -0.00000   0.00000   0.00000  -0.00000  -0.00000  -0.00000
   D17       -0.00000  -0.00000   0.00000   0.00000   0.00000  -0.00000
   D18       -1.27809  -0.00015   0.00000  -0.00134  -0.00134  -1.27943
   D19        1.27809   0.00015   0.00000   0.00134   0.00134   1.27943
   D20        0.00000   0.00000   0.00000  -0.00000  -0.00000   0.00000
   D21       -3.14159  -0.00000   0.00000  -0.00000   0.00000  -3.14159
   D22        3.14159   0.00000   0.00000   0.00000  -0.00000   3.14159
   D23       -0.00000  -0.00000   0.00000   0.00000   0.00000  -0.00000
   D24        1.27809   0.00015   0.00000   0.00134   0.00134   1.27943
   D25       -1.27809  -0.00015   0.00000  -0.00134  -0.00134  -1.27943
         Item               Value     Threshold  Converged?
 Maximum Force            0.000632     0.000450     NO 
 RMS     Force            0.000164     0.000300     YES
 Maximum Displacement     0.003668     0.001800     NO 
 RMS     Displacement     0.000861     0.001200     YES
 Predicted change in Energy=-3.238499D-06
                           ----------------------------
                           ! Non-Optimized Parameters !
                           ! (Angstroms and Degrees)  !
 --------------------------                            --------------------------
 ! Name  Definition              Value          Derivative Info.                !
 --------------------------------------------------------------------------------
 ! R1    R(1,2)                  1.4058         -DE/DX =   -0.0004              !
 ! R2    R(1,6)                  1.4142         -DE/DX =    0.0001              !
 ! R3    R(1,8)                  1.0948         -DE/DX =    0.0                 !
 ! R4    R(2,3)                  1.4142         -DE/DX =    0.0001              !
 ! R5    R(2,9)                  1.0948         -DE/DX =    0.0                 !
 ! R6    R(3,4)                  1.382          -DE/DX =    0.0001              !
 ! R7    R(3,10)                 1.0944         -DE/DX =    0.0                 !
 ! R8    R(4,5)                  1.3537         -DE/DX =   -0.0006              !
 ! R9    R(4,7)                  1.5009         -DE/DX =   -0.0003              !
 ! R10   R(5,6)                  1.382          -DE/DX =    0.0001              !
 ! R11   R(5,7)                  1.5009         -DE/DX =   -0.0003              !
 ! R12   R(6,11)                 1.0944         -DE/DX =    0.0                 !
 ! R13   R(7,12)                 1.1033         -DE/DX =    0.0005              !
 ! R14   R(7,13)                 1.1033         -DE/DX =    0.0005              !
 ! A1    A(2,1,6)              122.1908         -DE/DX =    0.0                 !
 ! A2    A(2,1,8)              118.6484         -DE/DX =   -0.0001              !
 ! A3    A(6,1,8)              119.1608         -DE/DX =    0.0001              !
 ! A4    A(1,2,3)              122.1908         -DE/DX =    0.0                 !
 ! A5    A(1,2,9)              118.6484         -DE/DX =   -0.0001              !
 ! A6    A(3,2,9)              119.1608         -DE/DX =    0.0001              !
 ! A7    A(2,3,4)              113.4749         -DE/DX =    0.0                 !
 ! A8    A(2,3,10)             121.2958         -DE/DX =    0.0                 !
 ! A9    A(4,3,10)             125.2293         -DE/DX =    0.0                 !
 ! A10   A(3,4,5)              124.3344         -DE/DX =    0.0                 !
 ! A11   A(3,4,7)              172.4717         -DE/DX =   -0.0001              !
 ! A12   A(4,5,6)              124.3344         -DE/DX =    0.0                 !
 ! A13   A(6,5,7)              172.4717         -DE/DX =   -0.0001              !
 ! A14   A(1,6,5)              113.4749         -DE/DX =    0.0                 !
 ! A15   A(1,6,11)             121.2958         -DE/DX =    0.0                 !
 ! A16   A(5,6,11)             125.2293         -DE/DX =    0.0                 !
 ! A17   A(4,7,12)             119.6198         -DE/DX =   -0.0001              !
 ! A18   A(4,7,13)             119.6198         -DE/DX =   -0.0001              !
 ! A19   A(5,7,12)             119.6198         -DE/DX =   -0.0001              !
 ! A20   A(5,7,13)             119.6198         -DE/DX =   -0.0001              !
 ! A21   A(12,7,13)            112.7509         -DE/DX =    0.0003              !
 ! D1    D(6,1,2,3)              0.0            -DE/DX =    0.0                 !
 ! D2    D(6,1,2,9)           -180.0            -DE/DX =    0.0                 !
 ! D3    D(8,1,2,3)            180.0            -DE/DX =    0.0                 !
 ! D4    D(8,1,2,9)              0.0            -DE/DX =    0.0                 !
 ! D5    D(2,1,6,5)              0.0            -DE/DX =    0.0                 !
 ! D6    D(2,1,6,11)           180.0            -DE/DX =    0.0                 !
 ! D7    D(8,1,6,5)            180.0            -DE/DX =    0.0                 !
 ! D8    D(8,1,6,11)             0.0            -DE/DX =    0.0                 !
 ! D9    D(1,2,3,4)              0.0            -DE/DX =    0.0                 !
 ! D10   D(1,2,3,10)           180.0            -DE/DX =    0.0                 !
 ! D11   D(9,2,3,4)            180.0            -DE/DX =    0.0                 !
 ! D12   D(9,2,3,10)             0.0            -DE/DX =    0.0                 !
 ! D13   D(2,3,4,5)              0.0            -DE/DX =    0.0                 !
 ! D14   D(2,3,4,7)            180.0            -DE/DX =    0.0                 !
 ! D15   D(10,3,4,5)           180.0            -DE/DX =    0.0                 !
 ! D16   D(10,3,4,7)             0.0            -DE/DX =    0.0                 !
 ! D17   D(3,4,5,6)              0.0            -DE/DX =    0.0                 !
 ! D18   D(3,4,7,12)           -73.3058         -DE/DX =   -0.0001              !
 ! D19   D(3,4,7,13)            73.3058         -DE/DX =    0.0001              !
 ! D20   D(4,5,6,1)              0.0            -DE/DX =    0.0                 !
 ! D21   D(4,5,6,11)          -180.0            -DE/DX =    0.0                 !
 ! D22   D(7,5,6,1)            180.0            -DE/DX =    0.0                 !
 ! D23   D(7,5,6,11)             0.0            -DE/DX =    0.0                 !
 ! D24   D(6,5,7,12)            73.3058         -DE/DX =    0.0001              !
 ! D25   D(6,5,7,13)           -73.3058         -DE/DX =   -0.0001              !
 --------------------------------------------------------------------------------
 GradGradGradGradGradGradGradGradGradGradGradGradGradGradGradGradGradGrad


 ----------------------------------------------------------------------

 Electric dipole moment (input orientation):
 (Debye = 10**-18 statcoulomb cm , SI units = C m)
                  (au)            (Debye)         (10**-30 SI)
   Tot        0.547843D-01      0.139248D+00      0.464481D+00
   x         -0.385940D-01     -0.980961D-01     -0.327213D+00
   y         -0.387085D-01     -0.983872D-01     -0.328184D+00
   z          0.367081D-02      0.933027D-02      0.311224D-01

 Dipole polarizability, Alpha (input orientation).
 (esu units = cm**3 , SI units = C**2 m**2 J**-1)
 Alpha(0;0):
               (au)            (10**-24 esu)      (10**-40 SI)
   iso        0.681025D+02      0.100917D+02      0.112286D+02
   aniso      0.508723D+02      0.753850D+01      0.838771D+01
   xx         0.841347D+02      0.124675D+02      0.138719D+02
   yx         0.842970D+01      0.124915D+01      0.138987D+01
   yy         0.842515D+02      0.124848D+02      0.138912D+02
   zx        -0.305324D+01     -0.452443D+00     -0.503411D+00
   zy        -0.235729D+01     -0.349315D+00     -0.388665D+00
   zz         0.359213D+02      0.532299D+01      0.592263D+01

 ----------------------------------------------------------------------

 Dipole orientation:
     6          0.51209619         -0.60860743          2.05144086
     6         -1.34616047          1.29082714          2.05144086
     6         -2.34161058          2.30833584         -0.21004200
     6         -1.31207306          1.25598437         -2.36668109
     6          0.47800878         -0.57376466         -2.36668109
     6          1.50754629         -1.62611613         -0.21004200
     6         -0.41703214          0.34110985         -4.89834695
     1          1.20646992         -1.31836808          3.86642435
     1         -2.04053420          2.00058779          3.86642435
     1         -3.78786180          3.78663516         -0.17793426
     1          2.95379752         -3.10441545         -0.17793426
     1         -1.65555342         -0.87056148         -6.05568720
     1          0.82148914          1.55278119         -6.05568720

 Electric dipole moment (dipole orientation):
 (Debye = 10**-18 statcoulomb cm , SI units = C m)
                  (au)            (Debye)         (10**-30 SI)
   Tot        0.547843D-01      0.139248D+00      0.464481D+00
   x          0.000000D+00      0.000000D+00      0.000000D+00
   y          0.000000D+00      0.000000D+00      0.000000D+00
   z          0.547843D-01      0.139248D+00      0.464481D+00

 Dipole polarizability, Alpha (dipole orientation).
 (esu units = cm**3 , SI units = C**2 m**2 J**-1)
 Alpha(0;0):
               (au)            (10**-24 esu)      (10**-40 SI)
   iso        0.681025D+02      0.100917D+02      0.112286D+02
   aniso      0.508723D+02      0.753850D+01      0.838771D+01
   xx         0.552744D+02      0.819081D+01      0.911351D+01
   yx        -0.200508D+02     -0.297122D+01     -0.330593D+01
   yy         0.561533D+02      0.832107D+01      0.925844D+01
   zx         0.000000D+00      0.000000D+00      0.000000D+00
   zy         0.000000D+00      0.000000D+00      0.000000D+00
   zz         0.928798D+02      0.137634D+02      0.153138D+02

 ----------------------------------------------------------------------
 Unable to Open any file for archive entry.
 1\1\GINC-NODE04\Freq\RB3LYP\def2SVPP\C7H6\XUHJ\03-Feb-2024\0\\#N Geom=
 AllCheck Guess=TCheck SCRF=Check GenChk RB3LYP/def2SVPP Freq\\c1ccc2c(
 c1)C2_1\\0,1\C,-0.4695694151,-1.0648172509,0.0360872553\C,-1.464438504
 ,-0.0712359578,0.0535386822\C,-1.1543209581,1.3065763132,-0.0172991279
 \C,0.200844944,1.5624581008,-0.1034366931\C,1.1592147561,0.6053288383,
 -0.1202478705\C,0.906431607,-0.7515087367,-0.0534476756\C,1.6238107828
 ,2.0304743224,-0.201608647\H,-0.7744258079,-2.1147040852,0.0939208408\
 H,-2.5127992498,-0.378580859,0.1244143975\H,-1.9405809988,2.0678596569
 ,-0.0025785058\H,1.6687527312,-1.5368020165,-0.0658913822\H,2.00380624
 39,2.4277498653,-1.1573935025\H,2.1067061763,2.4986495771,0.6721035866
 \\Version=ES64L-G16RevC.01\State=1-A1\HF=-270.0728482\RMSD=3.727e-09\R
 MSF=2.843e-04\ZeroPoint=0.1005305\Thermal=0.1059642\ETot=-269.966884\H
 Tot=-269.9659398\GTot=-270.0005207\Dipole=-0.038594,-0.0387085,0.00367
 08\DipoleDeriv=-0.1289762,-0.0709754,0.0029351,0.0868799,0.0668617,-0.
 0123488,-0.0031823,-0.0034702,-0.1253808,0.0665062,0.0872964,-0.014193
 4,-0.0705589,-0.1289469,0.0040946,-0.0080759,-0.0047839,-0.1250547,0.2
 722306,-0.0380388,-0.0177744,-0.1205227,0.1295314,-0.0009536,-0.014577
 8,-0.0055929,-0.0689591,-0.4339457,-0.0900817,0.0221528,0.2980686,0.02
 38307,-0.0216471,0.0071105,0.0001844,-0.1025579,0.0231764,0.2990425,-0
 .018638,-0.0891077,-0.4340541,0.0178743,-0.0035958,-0.0039572,-0.10179
 53,0.1295369,-0.1208267,-0.0065402,-0.0383428,0.2724631,-0.011115,-0.0
 097368,-0.0064756,-0.0691972,0.2154245,0.0820976,-0.0002269,0.0820976,
 0.2156867,-0.0025919,-0.0002269,-0.0025919,0.2680702,0.0479817,-0.0580
 071,0.0062233,-0.0430595,-0.0951154,0.0107065,0.005644,0.0115472,0.117
 8953,-0.0945438,-0.0433632,0.0136721,-0.0583108,0.0476478,0.0060317,0.
 0142514,0.0051909,0.1176575,-0.0405595,0.0893765,0.0045904,0.0992669,-
 0.0030659,-0.0014869,0.0042071,-0.0009306,0.1024364,-0.0032913,0.09934
 63,0.0021079,0.0894559,-0.0403963,0.0005116,0.0024912,-0.0000447,0.102
 4986,-0.0199273,-0.1118101,0.0443185,-0.1124787,-0.0224926,0.0471921,0
 .0823808,0.0853038,-0.0693779,-0.0336127,-0.1240564,-0.0386273,-0.1233
 879,-0.0319501,-0.0362676,-0.0766896,-0.0743792,-0.0462351\Polar=84.13
 46957,8.4297038,84.2514953,-3.0532369,-2.3572949,35.9213183\Quadrupole
 =1.2723791,1.2807522,-2.5531313,0.4593003,-0.2340875,-0.1751837\PG=C02
 V [C2(C1),SGV(C6H4),SGV'(H2)]\NImag=0\\0.64623956,0.01741818,0.7221410
 3,-0.02917301,-0.02355672,0.14211659,-0.22451569,0.13253671,0.00366952
 ,0.72109622,0.06372599,-0.22435875,0.00247699,0.01757766,0.64715947,0.
 00633619,-0.00139326,-0.06825635,-0.03338950,-0.02065988,0.14224149,0.
 05547681,0.00073799,-0.00275831,-0.12745074,-0.00046744,0.00363475,0.7
 2630451,0.05336890,-0.04858321,-0.00084984,-0.06772317,-0.30678632,0.0
 1325091,-0.07488581,0.64270198,-0.00479795,0.00211038,0.00713233,0.006
 24115,0.00946812,-0.06386721,-0.03068433,-0.01568974,0.13149251,-0.066
 54171,0.01971740,0.00244979,-0.01174883,-0.09419342,0.00489623,-0.3657
 9655,-0.02560369,0.01881397,0.88675959,0.02588231,-0.00875572,-0.00148
 073,-0.03823038,0.01130588,0.00211525,-0.07164330,-0.10514247,0.006207
 73,-0.03364193,0.43169242,0.00221088,-0.00113398,-0.00948071,0.0027274
 6,0.00526289,0.01004502,0.02059817,0.00361824,-0.05023595,-0.04209424,
 -0.01037421,0.11793984,0.01158594,-0.03818066,0.00141307,-0.00885405,0
 .02600522,-0.00103852,-0.06307016,0.00948061,0.00398647,-0.23822262,0.
 16962519,0.00275840,0.43131038,-0.09414370,-0.01206782,0.00616591,0.01
 984031,-0.06653963,0.00109844,0.05754577,0.04858363,-0.00456376,0.1733
 4726,-0.23776871,-0.00333759,-0.03461230,0.88790151,0.00358184,0.00301
 827,0.01008395,-0.00079961,0.00075170,-0.00938446,0.00212377,-0.001860
 34,0.01429170,0.00261416,-0.00312825,-0.07233119,-0.01643993,-0.027999
 40,0.11717996,-0.30623465,-0.06810408,0.01631160,-0.04860533,0.0531471
 4,0.00106474,-0.03053311,-0.03560123,0.00268752,0.04838352,0.00971807,
 -0.00229144,-0.10484318,-0.02504771,0.00411512,0.64216555,-0.00084836,
 -0.12770412,0.00254945,0.00051623,0.05567259,-0.00191744,-0.03555752,-
 0.03072351,0.00290843,0.05778323,-0.06305600,-0.00025067,-0.07108732,-
 0.36653121,0.01630623,-0.07506507,0.72698133,0.01370520,0.00633225,-0.
 06416550,0.00310438,-0.00487766,0.00695868,0.00268583,0.00291089,-0.00
 754431,-0.00415414,0.00245275,0.01447765,0.00589932,0.01371674,-0.0498
 0057,-0.02594499,-0.01894579,0.13135213,-0.00235839,-0.00206798,0.0005
 8736,-0.00245659,-0.00088079,0.00054688,0.00378790,-0.00058091,-0.0003
 5944,-0.21320728,-0.05705543,0.01206797,-0.02022886,-0.07846673,0.0020
 4368,-0.00590315,0.01022509,-0.00023314,0.39716552,-0.00088058,-0.0024
 7808,0.00040365,-0.00206819,-0.00237972,0.00046664,0.01024574,-0.00588
 744,-0.00046448,-0.07887788,-0.02048802,0.00375944,-0.05664427,-0.2137
 8841,0.01000001,-0.00060156,0.00381978,-0.00023057,0.20482723,0.397752
 22,0.00054135,0.00047044,0.00661100,0.00059289,0.00039985,0.00661084,-
 0.00077901,0.00014446,-0.00296468,0.01291367,0.00253204,-0.03878274,0.
 00119798,0.01122742,-0.03846077,0.00018644,-0.00083951,-0.00298085,0.0
 0170719,-0.00489767,0.56874130,-0.07994786,-0.07445023,0.00533877,0.00
 907475,0.02275888,-0.00121915,-0.00287756,0.00280586,0.00045350,-0.000
 65583,0.00082840,-0.00007184,-0.00543675,-0.00371348,0.00073806,-0.002
 88149,-0.02872892,0.00147863,-0.00064711,0.00002689,0.00009461,0.08072
 404,-0.07404680,-0.31281442,0.01487972,-0.00867251,-0.01666328,0.00125
 292,0.00337532,-0.00092754,0.00012197,0.00077204,0.00089975,-0.0001310
 9,-0.00176475,0.00015276,0.00029202,0.00139288,-0.00308776,0.00018133,
 -0.00015781,0.00059566,0.00002662,0.07967256,0.33120278,0.00532313,0.0
 1490241,-0.03720219,-0.00000107,-0.00051494,0.00310020,0.00043143,0.00
 015400,0.00708837,-0.00006966,-0.00013426,-0.00135323,0.00066254,0.000
 40163,0.00507403,0.00031130,0.00187553,0.00352271,0.00010177,0.0000162
 3,0.00104724,-0.00618789,-0.01632429,0.02658357,-0.01666024,-0.0087273
 4,0.00144852,-0.31203698,-0.07454128,0.01839613,-0.00301846,0.00139259
 ,0.00031901,0.00017267,-0.00175280,0.00034657,0.00089257,0.00077534,-0
 .00015687,-0.00092729,0.00337948,0.00032157,0.00059670,-0.00015516,0.0
 0003171,0.00097613,0.00018127,-0.00030859,0.33035369,0.02270405,0.0091
 1465,-0.00151085,-0.07494471,-0.08033807,0.00592092,-0.02872921,-0.002
 95057,0.00187023,-0.00370153,-0.00546602,0.00061871,0.00083169,-0.0006
 5123,-0.00007434,0.00281002,-0.00288106,0.00022947,0.00002954,-0.00065
 023,0.00006437,-0.00034113,0.00098474,-0.00018893,0.08020441,0.0811566
 3,0.00023043,0.00025701,0.00305726,0.01841177,0.00589823,-0.03758942,0
 .00148634,0.00017603,0.00352249,0.00042210,0.00050910,0.00508339,-0.00
 015906,-0.00007117,-0.00135064,0.00034364,0.00019745,0.00709162,0.0000
 2455,0.00007476,0.00104932,-0.00028835,-0.00021832,-0.00436092,-0.0202
 4890,-0.00666400,0.02700006,0.00069140,-0.00190562,0.00047121,0.008834
 26,-0.00668207,-0.00006128,-0.19838349,0.13937678,0.00360032,-0.017137
 49,0.02224322,0.00022394,-0.00392380,-0.00176182,0.00089267,-0.0001858
 3,-0.00119771,0.00003875,-0.00019483,0.00031464,-0.00027707,0.00032420
 ,-0.00038682,0.00000718,0.00058693,0.00058242,-0.00025967,0.20970186,-
 0.00311513,-0.00335674,0.00060588,0.02270978,-0.01426894,-0.00060262,0
 .13715963,-0.19388241,-0.00168666,-0.00434344,0.00938727,-0.00003540,-
 0.00278518,0.00141720,0.00051769,-0.00040017,-0.00032943,0.00002279,0.
 00021514,0.00069568,-0.00022911,0.00102407,-0.00073976,-0.00002175,-0.
 00038046,0.00119316,-0.00016546,-0.15040984,0.19981406,0.00051808,0.00
 053785,0.00770623,-0.00120032,0.00105052,0.00316752,0.00368624,-0.0018
 1137,-0.03847630,0.00125427,-0.00153077,0.00215871,0.00093233,0.000460
 13,0.01066313,0.00000784,0.00006764,-0.00032527,-0.00027321,-0.0002347
 1,-0.00487966,-0.00004750,0.00005761,0.00018580,-0.00022236,-0.0002196
 2,-0.00360755,-0.00456142,0.00168386,0.02515918,-0.01427393,0.02266055
 ,0.00010131,-0.00332754,-0.00312370,0.00074446,-0.00032602,-0.00040047
 ,0.00001573,0.00144237,-0.00277375,0.00063007,0.00933706,-0.00428704,-
 0.00023698,-0.19421155,0.13716852,0.00345125,0.00068522,0.00021701,-0.
 00032278,0.00118470,-0.00037919,-0.00025603,-0.00073957,0.00102181,0.0
 0001242,0.00001085,0.00008129,-0.00013910,0.20016272,-0.00673130,0.008
 87781,0.00015627,-0.00191418,0.00066889,0.00038232,-0.00119801,-0.0001
 8900,0.00006222,-0.00175039,-0.00395792,0.00066779,0.02229963,-0.01713
 145,-0.00050624,0.13938567,-0.19806131,-0.00164992,0.00031651,-0.00018
 584,-0.00020065,0.00058369,0.00059439,-0.00019648,-0.00038909,0.000325
 79,0.00001644,0.00026365,0.00001562,-0.00010869,-0.15043017,0.20936911
 ,0.00124035,-0.00149687,0.00312897,0.00069759,0.00045035,0.00769953,0.
 00004664,0.00001736,-0.00032550,0.00059041,0.00072535,0.01067208,-0.00
 126731,0.00098912,0.00220288,0.00336533,-0.00152522,-0.03846934,-0.000
 32664,-0.00019506,-0.00487819,-0.00029334,-0.00014233,-0.00360655,0.00
 006710,-0.00006291,0.00018402,-0.00014617,-0.00009843,-0.00239426,-0.0
 0402410,0.00131471,0.02514326,-0.00165919,0.00019822,0.00079263,-0.000
 11065,-0.00169678,-0.00161774,0.00308318,-0.00069773,0.00292456,-0.010
 56688,-0.01089747,0.02135310,-0.00471090,-0.00495454,-0.00578802,0.001
 82591,0.00163185,-0.00125611,-0.06928004,-0.03031962,0.07571146,0.0000
 9392,0.00001564,0.00022935,-0.00014296,-0.00026508,-0.00077819,-0.0001
 2042,0.00015551,0.00084986,0.00004518,-0.00021188,0.00031010,0.0755020
 9,-0.00173907,-0.00008024,-0.00158237,0.00021820,-0.00168696,0.0007634
 2,0.00162561,0.00185064,-0.00124644,-0.00509448,-0.00462532,-0.0058472
 4,-0.01051181,-0.01099107,0.02125118,-0.00064588,0.00304664,0.00299070
 ,-0.03028191,-0.07204862,0.07969167,-0.00027830,-0.00012959,-0.0007753
 0,0.00001944,0.00008968,0.00022987,-0.00020566,0.00003917,0.00031083,0
 .00017005,-0.00013432,0.00084040,0.04178178,0.07856753,0.00068928,-0.0
 0024308,-0.00036430,-0.00024454,0.00069563,-0.00030612,-0.00081902,-0.
 00006403,-0.00015368,0.00179888,-0.00020869,0.00504662,-0.00022378,0.0
 0160452,0.00555640,-0.00010921,-0.00079176,-0.00009241,0.07356432,0.07
 754174,-0.26135011,-0.00001028,-0.00000497,-0.00002111,-0.00000248,-0.
 00000369,-0.00000350,-0.00005478,0.00002548,0.00026761,0.00003243,-0.0
 0005808,0.00027550,-0.08213018,-0.08634177,0.26893773,-0.00180205,0.00
 016688,-0.00065246,0.00010115,-0.00162942,0.00170682,0.00280367,-0.000
 93173,-0.00320053,-0.01288096,-0.01230215,-0.01845905,-0.00383562,-0.0
 0452135,0.00731210,0.00195061,0.00178049,0.00090346,-0.08795910,-0.046
 08424,-0.09159845,0.00006885,-0.00000183,-0.00024347,-0.00005318,-0.00
 020228,0.00080291,-0.00020363,0.00008881,-0.00080472,0.00001052,-0.000
 22414,-0.00025996,0.00604075,0.00494202,0.00750936,0.09575898,-0.00159
 448,0.00006561,0.00174262,0.00015425,-0.00178516,-0.00067762,0.0017912
 3,0.00193622,0.00090199,-0.00441316,-0.00402513,0.00718311,-0.01265606
 ,-0.01258556,-0.01856855,-0.00098808,0.00285408,-0.00313299,-0.0461219
 5,-0.08495698,-0.08838991,-0.00018830,-0.00006772,0.00080614,-0.000006
 40,0.00007253,-0.00023993,-0.00023116,0.00001514,-0.00026330,0.0000750
 7,-0.00019176,-0.00081648,0.00526011,0.00610247,0.00784870,0.05891894,
 0.09256626,-0.00040577,0.00019531,-0.00036729,0.00019028,-0.00040180,-
 0.00041971,0.00034749,0.00000341,0.00004024,0.00056456,0.00231467,0.00
 676051,0.00227848,0.00030802,0.00627560,-0.00004788,0.00036564,-0.0000
 2455,-0.08945131,-0.08623998,-0.22976269,0.00001479,0.00000879,-0.0000
 5792,0.00000858,0.00002064,-0.00007613,0.00012632,-0.00001625,0.000374
 85,-0.00000868,0.00012031,0.00036760,-0.01060083,-0.01028496,-0.017792
 62,0.09698398,0.09360621,0.23468211\\0.00027701,-0.00014702,-0.0000098
 8,-0.00014749,0.00027693,-0.00000244,0.00007188,-0.00017082,0.00000258
 ,-0.00086382,0.00044868,0.00003120,0.00045014,-0.00086358,0.00000815,-
 0.00017083,0.00007158,0.00000683,0.00029619,0.00029707,-0.00002817,0.0
 0007159,-0.00002461,-0.00000307,-0.00002474,0.00007160,-0.00000138,-0.
 00001826,0.00005229,-0.00000100,0.00005229,-0.00001816,-0.00000224,0.0
 0003842,0.00002742,0.00062915,-0.00003239,-0.00002137,-0.00062972\\\@
 The archive entry for this job was punched.


 Where a calculator on the ENIAC is equipped with 18,000
 vacuum tubes and weighs 30 tons, computers inthe future
 may  have only 1,000 vacuum tubes and weigh only 1 1/2 tons.
              ---Popular Mechanics, March 1949
 Job cpu time:       0 days  0 hours  6 minutes 56.6 seconds.
 Elapsed time:       0 days  0 hours  0 minutes 38.2 seconds.
 File lengths (MBytes):  RWF=     89 Int=      0 D2E=      0 Chk=      3 Scr=      2
 Normal termination of Gaussian 16 at Sat Feb  3 18:19:25 2024.
