%nprocshared=16
%mem=5120MB
#N opt freq B3LYP/def2SVPP symm=veryloose em=gd3bj scale=0.961 press=0.987

c1cc2ccc3cccc4ccc(c1)c2c34_1

0 1
C         -3.51097       -0.03940        0.00639
C         -2.82770        1.17650        0.00779
C         -1.42522        1.20827        0.00116
C         -0.72073        2.42002       -0.00322
C          0.67666        2.43437       -0.00570
C          1.40594        1.23733       -0.00300
C          2.80874        1.23439       -0.00078
C          3.51689        0.03302        0.00056
C          2.83270       -1.18204       -0.00136
C          1.43066       -1.21225       -0.00303
C          0.72661       -2.42378       -0.00501
C         -0.67064       -2.43811       -0.00553
C         -1.39946       -1.24134       -0.00271
C         -2.80188       -1.23986       -0.00077
C         -0.70551       -0.00905       -0.00166
C          0.71159        0.00562       -0.00272
H         -4.59776       -0.05130        0.01096
H         -3.39970        2.10151        0.01474
H         -1.25521        3.36730       -0.00557
H          1.19159        3.39248       -0.00964
H          3.36159        2.17109        0.00071
H          4.60376        0.04338        0.00287
H          3.40346       -2.10788       -0.00109
H          1.26095       -3.37106       -0.00585
H         -1.18548       -3.39619       -0.00713
H         -3.35349       -2.17747       -0.00390

