%nprocshared=16
%mem=1280MB
#N opt freq B3LYP/def2SVPP symm=veryloose em=gd3bj scale=0.961 press=0.987

CCCO_1

0 1
C                  1.05858866    0.09509938   -1.56008043
C                  2.57599713    0.06785463   -1.52914869
C                  3.10176000   -1.18558000   -0.84440000
O                  2.62605628   -1.24103714    0.49324074
H                  0.70411591    1.00393482   -2.05594089
H                  0.64560203    0.07772917   -0.54636681
H                  0.66291051   -0.76673792   -2.10685911
H                  2.95528876    0.95664921   -1.01086860
H                  2.96951706    0.12406289   -2.55123548
H                  4.19622459   -1.19986870   -0.82499517
H                  2.75663588   -2.08576771   -1.36270584
H                  2.98122080   -2.05184126    0.89670555

