 Entering Gaussian System, Link 0=g16
 Initial command:
 /home/software/g16/l1.exe "/home/software/g16tmp/Gau-60531.inp" -scrdir="/home/software/g16tmp/"
 Default is to use a total of   8 processors:
                                8 via shared-memory
                                1 via Linda
 Entering Link 1 = /home/software/g16/l1.exe PID=     60532.
  
 Copyright (c) 1988-2019, Gaussian, Inc.  All Rights Reserved.
  
 This is part of the Gaussian(R) 16 program.  It is based on
 the Gaussian(R) 09 system (copyright 2009, Gaussian, Inc.),
 the Gaussian(R) 03 system (copyright 2003, Gaussian, Inc.),
 the Gaussian(R) 98 system (copyright 1998, Gaussian, Inc.),
 the Gaussian(R) 94 system (copyright 1995, Gaussian, Inc.),
 the Gaussian 92(TM) system (copyright 1992, Gaussian, Inc.),
 the Gaussian 90(TM) system (copyright 1990, Gaussian, Inc.),
 the Gaussian 88(TM) system (copyright 1988, Gaussian, Inc.),
 the Gaussian 86(TM) system (copyright 1986, Carnegie Mellon
 University), and the Gaussian 82(TM) system (copyright 1983,
 Carnegie Mellon University). Gaussian is a federally registered
 trademark of Gaussian, Inc.
  
 This software contains proprietary and confidential information,
 including trade secrets, belonging to Gaussian, Inc.
  
 This software is provided under written license and may be
 used, copied, transmitted, or stored only in accord with that
 written license.
  
 The following legend is applicable only to US Government
 contracts under FAR:
  
                    RESTRICTED RIGHTS LEGEND
  
 Use, reproduction and disclosure by the US Government is
 subject to restrictions as set forth in subparagraphs (a)
 and (c) of the Commercial Computer Software - Restricted
 Rights clause in FAR 52.227-19.
  
 Gaussian, Inc.
 340 Quinnipiac St., Bldg. 40, Wallingford CT 06492
  
  
 ---------------------------------------------------------------
 Warning -- This program may not be used in any manner that
 competes with the business of Gaussian, Inc. or will provide
 assistance to any competitor of Gaussian, Inc.  The licensee
 of this program is prohibited from giving any competitor of
 Gaussian, Inc. access to this program.  By using this program,
 the user acknowledges that Gaussian, Inc. is engaged in the
 business of creating and licensing software in the field of
 computational chemistry and represents and warrants to the
 licensee that it is not a competitor of Gaussian, Inc. and that
 it will not use this program in any manner prohibited above.
 ---------------------------------------------------------------
  

 Cite this work as:
 Gaussian 16, Revision C.01,
 M. J. Frisch, G. W. Trucks, H. B. Schlegel, G. E. Scuseria, 
 M. A. Robb, J. R. Cheeseman, G. Scalmani, V. Barone, 
 G. A. Petersson, H. Nakatsuji, X. Li, M. Caricato, A. V. Marenich, 
 J. Bloino, B. G. Janesko, R. Gomperts, B. Mennucci, H. P. Hratchian, 
 J. V. Ortiz, A. F. Izmaylov, J. L. Sonnenberg, D. Williams-Young, 
 F. Ding, F. Lipparini, F. Egidi, J. Goings, B. Peng, A. Petrone, 
 T. Henderson, D. Ranasinghe, V. G. Zakrzewski, J. Gao, N. Rega, 
 G. Zheng, W. Liang, M. Hada, M. Ehara, K. Toyota, R. Fukuda, 
 J. Hasegawa, M. Ishida, T. Nakajima, Y. Honda, O. Kitao, H. Nakai, 
 T. Vreven, K. Throssell, J. A. Montgomery, Jr., J. E. Peralta, 
 F. Ogliaro, M. J. Bearpark, J. J. Heyd, E. N. Brothers, K. N. Kudin, 
 V. N. Staroverov, T. A. Keith, R. Kobayashi, J. Normand, 
 K. Raghavachari, A. P. Rendell, J. C. Burant, S. S. Iyengar, 
 J. Tomasi, M. Cossi, J. M. Millam, M. Klene, C. Adamo, R. Cammi, 
 J. W. Ochterski, R. L. Martin, K. Morokuma, O. Farkas, 
 J. B. Foresman, and D. J. Fox, Gaussian, Inc., Wallingford CT, 2019.
 
 ******************************************
 Gaussian 16:  ES64L-G16RevC.01  3-Jul-2019
                19-Dec-2023 
 ******************************************
 %nprocshared=16
 Will use up to   16 processors via shared memory.
 %mem=960MB
 ----------------------------------------------------------------------
 #N opt freq B3LYP/def2SVPP symm=veryloose em=gd3bj scale=0.961 press=0
 .987
 ----------------------------------------------------------------------
 1/18=20,19=15,26=3,38=1,113=-987000,114=961000/1,3;
 2/9=110,12=2,17=2,18=2,40=1/2;
 3/5=43,7=202,11=2,25=1,30=1,71=1,74=-5,124=41/1,2,3;
 4//1;
 5/5=2,38=5/2;
 6/7=2,8=2,9=2,10=2,28=1/1;
 7//1,2,3,16;
 1/18=20,19=15,26=3/3(2);
 2/9=110/2;
 99//99;
 2/9=110/2;
 3/5=43,7=202,11=2,25=1,30=1,71=1,74=-5,124=41/1,2,3;
 4/5=5,16=3,69=1/1;
 5/5=2,38=5/2;
 7//1,2,3,16;
 1/18=20,19=15,26=3/3(-5);
 2/9=110/2;
 6/7=2,8=2,9=2,10=2,19=2,28=1/1;
 99/9=1/99;
 -------
 C=C=O_1
 -------
 Symbolic Z-matrix:
 Charge =  0 Multiplicity = 1
 C                     1.05488   0.01284  -0.09782 
 C                     2.36009   0.01284  -0.09782 
 O                     3.55638   0.01284  -0.09782 
 H                     0.51272  -0.80048  -0.56744 
 H                     0.51272   0.82615   0.37181 
 

 GradGradGradGradGradGradGradGradGradGradGradGradGradGradGradGradGradGrad
 Berny optimization.
 Initialization pass.
                           ----------------------------
                           !    Initial Parameters    !
                           ! (Angstroms and Degrees)  !
 --------------------------                            --------------------------
 ! Name  Definition              Value          Derivative Info.                !
 --------------------------------------------------------------------------------
 ! R1    R(1,2)                  1.3052         estimate D2E/DX2                !
 ! R2    R(1,4)                  1.0844         estimate D2E/DX2                !
 ! R3    R(1,5)                  1.0844         estimate D2E/DX2                !
 ! R4    R(2,3)                  1.1963         estimate D2E/DX2                !
 ! A1    A(2,1,4)              119.9969         estimate D2E/DX2                !
 ! A2    A(2,1,5)              119.997          estimate D2E/DX2                !
 ! A3    A(4,1,5)              120.0061         estimate D2E/DX2                !
 ! A4    L(1,2,3,4,-1)         180.0            estimate D2E/DX2                !
 ! A5    L(1,2,3,4,-2)         180.0            estimate D2E/DX2                !
 ! D1    D(2,1,5,4)           -179.9992         estimate D2E/DX2                !
 --------------------------------------------------------------------------------
 Trust Radius=3.00D-01 FncErr=1.00D-07 GrdErr=1.00D-06 EigMax=2.50D+02 EigMin=1.00D-04
 Number of steps in this run=     20 maximum allowed number of steps=    100.
 GradGradGradGradGradGradGradGradGradGradGradGradGradGradGradGradGradGrad

                          Input orientation:                          
 ---------------------------------------------------------------------
 Center     Atomic      Atomic             Coordinates (Angstroms)
 Number     Number       Type             X           Y           Z
 ---------------------------------------------------------------------
      1          6           0        1.054880    0.012840   -0.097820
      2          6           0        2.360090    0.012840   -0.097820
      3          8           0        3.556380    0.012840   -0.097820
      4          1           0        0.512720   -0.800480   -0.567440
      5          1           0        0.512720    0.826150    0.371810
 ---------------------------------------------------------------------
                    Distance matrix (angstroms):
                    1          2          3          4          5
     1  C    0.000000
     2  C    1.305210   0.000000
     3  O    2.501500   1.196290   0.000000
     4  H    1.084421   2.072392   3.185263   0.000000
     5  H    1.084418   2.072390   3.185262   1.878328   0.000000
 Stoichiometry    C2H2O
 Framework group  C2V[C2(CCO),SGV(H2)]
 Deg. of freedom     4
 Full point group                 C2V     NOp   4
 Largest Abelian subgroup         C2V     NOp   4
 Largest concise Abelian subgroup C2      NOp   2
                         Standard orientation:                         
 ---------------------------------------------------------------------
 Center     Atomic      Atomic             Coordinates (Angstroms)
 Number     Number       Type             X           Y           Z
 ---------------------------------------------------------------------
      1          6           0       -0.000000    0.000000   -1.216315
      2          6           0       -0.000000   -0.000000    0.088895
      3          8           0        0.000000   -0.000000    1.285185
      4          1           0        0.000000   -0.939165   -1.758476
      5          1           0        0.000000    0.939165   -1.758476
 ---------------------------------------------------------------------
 Rotational constants (GHZ):         284.2615283          10.0651429           9.7209434
 Standard basis: def2SVPP (5D, 7F)
 There are    26 symmetry adapted cartesian basis functions of A1  symmetry.
 There are     3 symmetry adapted cartesian basis functions of A2  symmetry.
 There are     9 symmetry adapted cartesian basis functions of B1  symmetry.
 There are    11 symmetry adapted cartesian basis functions of B2  symmetry.
 There are    23 symmetry adapted basis functions of A1  symmetry.
 There are     3 symmetry adapted basis functions of A2  symmetry.
 There are     9 symmetry adapted basis functions of B1  symmetry.
 There are    11 symmetry adapted basis functions of B2  symmetry.
    46 basis functions,    83 primitive gaussians,    49 cartesian basis functions
    11 alpha electrons       11 beta electrons
       nuclear repulsion energy        57.8422707562 Hartrees.
 NAtoms=    5 NActive=    5 NUniq=    4 SFac= 1.56D+00 NAtFMM=   60 NAOKFM=F Big=F
 Integral buffers will be    131072 words long.
 Raffenetti 2 integral format.
 Two-electron integral symmetry is turned on.
 Nuclear repulsion after empirical dispersion term =       57.8386382126 Hartrees.
 One-electron integrals computed using PRISM.
   4 Symmetry operations used in ECPInt.
 ECPInt:  NShTT=     253 NPrTT=    1035 LenC2=     254 LenP2D=     924.
 LDataN:  DoStor=T MaxTD1= 4 Len=   56
 NBasis=    46 RedAO= T EigKep=  1.70D-03  NBF=    23     3     9    11
 NBsUse=    46 1.00D-06 EigRej= -1.00D+00 NBFU=    23     3     9    11
 ExpMin= 1.22D-01 ExpMax= 2.27D+03 ExpMxC= 3.41D+02 IAcc=3 IRadAn=         5 AccDes= 0.00D+00
 Harris functional with IExCor=  402 and IRadAn=       5 diagonalized for initial guess.
 HarFok:  IExCor=  402 AccDes= 0.00D+00 IRadAn=         5 IDoV= 1 UseB2=F ITyADJ=14
 ICtDFT=  3500011 ScaDFX=  1.000000  1.000000  1.000000  1.000000
 FoFCou: FMM=F IPFlag=           0 FMFlag=      100000 FMFlg1=           0
         NFxFlg=           0 DoJE=T BraDBF=F KetDBF=T FulRan=T
         wScrn=  0.000000 ICntrl=       500 IOpCl=  0 I1Cent=   200000004 NGrid=           0
         NMat0=    1 NMatS0=      1 NMatT0=    0 NMatD0=    1 NMtDS0=    0 NMtDT0=    0
 Petite list used in FoFCou.
 Initial guess orbital symmetries:
       Occupied  (A1) (A1) (A1) (A1) (A1) (A1) (A1) (B2) (B1) (B2)
                 (B1)
       Virtual   (B2) (B1) (A1) (B2) (A1) (A1) (A1) (B1) (B2) (A1)
                 (B1) (B2) (A1) (A1) (B2) (A1) (A1) (B1) (B2) (B1)
                 (A2) (A1) (A1) (B2) (A2) (A1) (A1) (B1) (B2) (A2)
                 (A1) (A1) (B1) (B2) (A1)
 The electronic state of the initial guess is 1-A1.
 Keep R1 ints in memory in symmetry-blocked form, NReq=14552204.
 Requested convergence on RMS density matrix=1.00D-08 within 128 cycles.
 Requested convergence on MAX density matrix=1.00D-06.
 Requested convergence on             energy=1.00D-06.
 No special actions if energy rises.
 Integral accuracy reduced to 1.0D-05 until final iterations.
 Initial convergence to 1.0D-05 achieved.  Increase integral accuracy.
 SCF Done:  E(RB3LYP) =  -152.484581315     A.U. after   12 cycles
            NFock= 12  Conv=0.99D-08     -V/T= 2.0097

 **********************************************************************

            Population analysis using the SCF Density.

 **********************************************************************

 Orbital symmetries:
       Occupied  (A1) (A1) (A1) (A1) (A1) (A1) (A1) (B2) (B1) (B2)
                 (B1)
       Virtual   (B2) (B1) (A1) (B2) (A1) (A1) (A1) (B1) (B2) (A1)
                 (B1) (A1) (B2) (A1) (B2) (A1) (A1) (B1) (B2) (B1)
                 (A2) (A1) (A1) (B2) (A2) (A1) (A1) (B1) (B2) (A2)
                 (A1) (A1) (B1) (B2) (A1)
 The electronic state is 1-A1.
 Alpha  occ. eigenvalues --  -19.20130 -10.31700 -10.19695  -1.08772  -0.77751
 Alpha  occ. eigenvalues --   -0.53759  -0.48868  -0.48757  -0.44376  -0.40337
 Alpha  occ. eigenvalues --   -0.25236
 Alpha virt. eigenvalues --   -0.04942   0.05223   0.07058   0.13947   0.16095
 Alpha virt. eigenvalues --    0.28954   0.45170   0.45419   0.47647   0.50270
 Alpha virt. eigenvalues --    0.55439   0.63440   0.66121   0.67356   0.71954
 Alpha virt. eigenvalues --    0.84719   1.01680   1.01836   1.08197   1.43661
 Alpha virt. eigenvalues --    1.48147   1.48222   1.56746   1.65025   1.78591
 Alpha virt. eigenvalues --    2.05882   2.19602   2.20084   2.30379   2.62281
 Alpha virt. eigenvalues --    2.62477   2.99899   3.25099   3.27218   3.69256
          Condensed to atoms (all electrons):
               1          2          3          4          5
     1  C    5.177928   0.613884  -0.051347   0.352877   0.352877
     2  C    0.613884   4.440894   0.709665   0.007459   0.007459
     3  O   -0.051347   0.709665   7.438946   0.000139   0.000139
     4  H    0.352877   0.007459   0.000139   0.496332  -0.018369
     5  H    0.352877   0.007459   0.000139  -0.018369   0.496332
 Mulliken charges:
               1
     1  C   -0.446219
     2  C    0.220639
     3  O   -0.097543
     4  H    0.161561
     5  H    0.161561
 Sum of Mulliken charges =   0.00000
 Mulliken charges with hydrogens summed into heavy atoms:
               1
     1  C   -0.123097
     2  C    0.220639
     3  O   -0.097543
 Electronic spatial extent (au):  <R**2>=            145.9605
 Charge=              0.0000 electrons
 Dipole moment (field-independent basis, Debye):
    X=              0.0000    Y=             -0.0000    Z=             -1.6041  Tot=              1.6041
 Quadrupole moment (field-independent basis, Debye-Ang):
   XX=            -18.5939   YY=            -15.1937   ZZ=            -18.0246
   XY=              0.0000   XZ=             -0.0000   YZ=              0.0000
 Traceless Quadrupole moment (field-independent basis, Debye-Ang):
   XX=             -1.3232   YY=              2.0770   ZZ=             -0.7538
   XY=              0.0000   XZ=             -0.0000   YZ=              0.0000
 Octapole moment (field-independent basis, Debye-Ang**2):
  XXX=             -0.0000  YYY=             -0.0000  ZZZ=             -0.4077  XYY=              0.0000
  XXY=              0.0000  XXZ=              3.7916  XZZ=              0.0000  YZZ=             -0.0000
  YYZ=             -0.1194  XYZ=             -0.0000
 Hexadecapole moment (field-independent basis, Debye-Ang**3):
 XXXX=            -18.3870 YYYY=            -19.6866 ZZZZ=           -138.1729 XXXY=              0.0000
 XXXZ=              0.0000 YYYX=              0.0000 YYYZ=              0.0000 ZZZX=             -0.0000
 ZZZY=              0.0000 XXYY=             -6.7055 XXZZ=            -29.0801 YYZZ=            -22.5747
 XXYZ=             -0.0000 YYXZ=             -0.0000 ZZXY=              0.0000
 N-N= 5.783863821259D+01 E-N=-4.716156540646D+02  KE= 1.510266390911D+02
 Symmetry A1   KE= 1.383784527605D+02
 Symmetry A2   KE= 4.552823074657D-32
 Symmetry B1   KE= 6.728501777704D+00
 Symmetry B2   KE= 5.919684552894D+00
   4 Symmetry operations used in ECPInt.
 ECPInt:  NShTT=     253 NPrTT=    1035 LenC2=     254 LenP2D=     924.
 LDataN:  DoStor=T MaxTD1= 5 Len=  102
 Calling FoFJK, ICntrl=      2127 FMM=F ISym2X=1 I1Cent= 0 IOpClX= 0 NMat=1 NMatS=1 NMatT=0.
 ***** Axes restored to original set *****
 -------------------------------------------------------------------
 Center     Atomic                   Forces (Hartrees/Bohr)
 Number     Number              X              Y              Z
 -------------------------------------------------------------------
      1        6          -0.007365179   -0.000000005    0.000000005
      2        6           0.071206794    0.000000045   -0.000000044
      3        8          -0.056982818   -0.000000036    0.000000035
      4        1          -0.003429397   -0.005407337   -0.003122342
      5        1          -0.003429400    0.005407333    0.003122346
 -------------------------------------------------------------------
 Cartesian Forces:  Max     0.071206794 RMS     0.023767195

 GradGradGradGradGradGradGradGradGradGradGradGradGradGradGradGradGradGrad
 Berny optimization.
 FormGI is forming the generalized inverse of G from B-inverse, IUseBI=4.
 Internal  Forces:  Max     0.056982818 RMS     0.018843778
 Search for a local minimum.
 Step number   1 out of a maximum of   20
 All quantities printed in internal units (Hartrees-Bohrs-Radians)
 Mixed Optimization -- RFO/linear search
 Second derivative matrix not updated -- first step.
 The second derivative matrix:
                          R1        R2        R3        R4        A1
           R1           0.65767
           R2           0.00000   0.35465
           R3           0.00000   0.00000   0.35465
           R4           0.00000   0.00000   0.00000   1.06710
           A1           0.00000   0.00000   0.00000   0.00000   0.16000
           A2           0.00000   0.00000   0.00000   0.00000   0.00000
           A3           0.00000   0.00000   0.00000   0.00000   0.00000
           A4           0.00000   0.00000   0.00000   0.00000   0.00000
           A5           0.00000   0.00000   0.00000   0.00000   0.00000
           D1           0.00000   0.00000   0.00000   0.00000   0.00000
                          A2        A3        A4        A5        D1
           A2           0.16000
           A3           0.00000   0.16000
           A4           0.00000   0.00000   0.04386
           A5           0.00000   0.00000   0.00000   0.04386
           D1           0.00000   0.00000   0.00000   0.00000   0.00309
 ITU=  0
     Eigenvalues ---    0.00309   0.04386   0.04386   0.16000   0.16000
     Eigenvalues ---    0.35465   0.35465   0.65767   1.06710
 RFO step:  Lambda=-3.62209542D-03 EMin= 3.08629225D-03
 Linear search not attempted -- first point.
 Iteration  1 RMS(Cart)=  0.01451551 RMS(Int)=  0.00000472
 Iteration  2 RMS(Cart)=  0.00000468 RMS(Int)=  0.00000000
 Iteration  3 RMS(Cart)=  0.00000000 RMS(Int)=  0.00000000
 ClnCor:  largest displacement from symmetrization is 1.92D-09 for atom     1.
 Variable       Old X    -DE/DX   Delta X   Delta X   Delta X     New X
                                 (Linear)    (Quad)   (Total)
    R1        2.46649   0.01422   0.00000   0.02151   0.02151   2.48800
    R2        2.04926   0.00712   0.00000   0.01988   0.01988   2.06914
    R3        2.04926   0.00712   0.00000   0.01988   0.01988   2.06914
    R4        2.26066  -0.05698   0.00000  -0.05322  -0.05322   2.20744
    A1        2.09434  -0.00010   0.00000  -0.00063  -0.00063   2.09371
    A2        2.09434  -0.00010   0.00000  -0.00063  -0.00063   2.09371
    A3        2.09450   0.00021   0.00000   0.00127   0.00127   2.09577
    A4        3.14159  -0.00000   0.00000  -0.00000   0.00000   3.14159
    A5        3.14159   0.00000   0.00000   0.00000  -0.00000   3.14159
    D1        3.14159   0.00000   0.00000   0.00000  -0.00000   3.14159
         Item               Value     Threshold  Converged?
 Maximum Force            0.056983     0.000450     NO 
 RMS     Force            0.018844     0.000300     NO 
 Maximum Displacement     0.027071     0.001800     NO 
 RMS     Displacement     0.014516     0.001200     NO 
 Predicted change in Energy=-1.818451D-03
 GradGradGradGradGradGradGradGradGradGradGradGradGradGradGradGradGradGrad

                          Input orientation:                          
 ---------------------------------------------------------------------
 Center     Atomic      Atomic             Coordinates (Angstroms)
 Number     Number       Type             X           Y           Z
 ---------------------------------------------------------------------
      1          6           0        1.057823    0.012839   -0.097819
      2          6           0        2.374415    0.012840   -0.097820
      3          8           0        3.542543    0.012840   -0.097820
      4          1           0        0.511004   -0.808665   -0.572177
      5          1           0        0.511004    0.834342    0.376540
 ---------------------------------------------------------------------
                    Distance matrix (angstroms):
                    1          2          3          4          5
     1  C    0.000000
     2  C    1.316592   0.000000
     3  O    2.484720   1.168128   0.000000
     4  H    1.094941   2.090977   3.176494   0.000000
     5  H    1.094941   2.090977   3.176494   1.897244   0.000000
 Stoichiometry    C2H2O
 Framework group  C2V[C2(CCO),SGV(H2)]
 Deg. of freedom     4
 Full point group                 C2V     NOp   4
 Largest Abelian subgroup         C2V     NOp   4
 Largest concise Abelian subgroup C2      NOp   2
                         Standard orientation:                         
 ---------------------------------------------------------------------
 Center     Atomic      Atomic             Coordinates (Angstroms)
 Number     Number       Type             X           Y           Z
 ---------------------------------------------------------------------
      1          6           0        0.000000    0.000000   -1.212894
      2          6           0       -0.000000   -0.000000    0.103698
      3          8           0       -0.000000   -0.000000    1.271826
      4          1           0       -0.000000   -0.948622   -1.759713
      5          1           0        0.000000    0.948622   -1.759713
 ---------------------------------------------------------------------
 Rotational constants (GHZ):         278.6220504          10.1875970           9.8282353
 Standard basis: def2SVPP (5D, 7F)
 There are    26 symmetry adapted cartesian basis functions of A1  symmetry.
 There are     3 symmetry adapted cartesian basis functions of A2  symmetry.
 There are     9 symmetry adapted cartesian basis functions of B1  symmetry.
 There are    11 symmetry adapted cartesian basis functions of B2  symmetry.
 There are    23 symmetry adapted basis functions of A1  symmetry.
 There are     3 symmetry adapted basis functions of A2  symmetry.
 There are     9 symmetry adapted basis functions of B1  symmetry.
 There are    11 symmetry adapted basis functions of B2  symmetry.
    46 basis functions,    83 primitive gaussians,    49 cartesian basis functions
    11 alpha electrons       11 beta electrons
       nuclear repulsion energy        58.2175972873 Hartrees.
 NAtoms=    5 NActive=    5 NUniq=    4 SFac= 1.56D+00 NAtFMM=   60 NAOKFM=F Big=F
 Integral buffers will be    131072 words long.
 Raffenetti 2 integral format.
 Two-electron integral symmetry is turned on.
 Nuclear repulsion after empirical dispersion term =       58.2139615918 Hartrees.
 One-electron integrals computed using PRISM.
   4 Symmetry operations used in ECPInt.
 ECPInt:  NShTT=     253 NPrTT=    1035 LenC2=     254 LenP2D=     920.
 LDataN:  DoStor=T MaxTD1= 4 Len=   56
 NBasis=    46 RedAO= T EigKep=  1.81D-03  NBF=    23     3     9    11
 NBsUse=    46 1.00D-06 EigRej= -1.00D+00 NBFU=    23     3     9    11
 Initial guess from the checkpoint file:  "/home/software/g16tmp/Gau-60532.chk"
 B after Tr=     0.000000    0.000000    0.000000
         Rot=    1.000000   -0.000000   -0.000000    0.000000 Ang=   0.00 deg.
 Initial guess orbital symmetries:
       Occupied  (A1) (A1) (A1) (A1) (A1) (A1) (A1) (B2) (B1) (B2)
                 (B1)
       Virtual   (B2) (B1) (A1) (B2) (A1) (A1) (A1) (B1) (B2) (A1)
                 (B1) (A1) (B2) (A1) (B2) (A1) (A1) (B1) (B2) (B1)
                 (A2) (A1) (A1) (B2) (A2) (A1) (A1) (B1) (B2) (A2)
                 (A1) (A1) (B1) (B2) (A1)
 ExpMin= 1.22D-01 ExpMax= 2.27D+03 ExpMxC= 3.41D+02 IAcc=3 IRadAn=         5 AccDes= 0.00D+00
 Harris functional with IExCor=  402 and IRadAn=       5 diagonalized for initial guess.
 HarFok:  IExCor=  402 AccDes= 0.00D+00 IRadAn=         5 IDoV= 1 UseB2=F ITyADJ=14
 ICtDFT=  3500011 ScaDFX=  1.000000  1.000000  1.000000  1.000000
 FoFCou: FMM=F IPFlag=           0 FMFlag=      100000 FMFlg1=           0
         NFxFlg=           0 DoJE=T BraDBF=F KetDBF=T FulRan=T
         wScrn=  0.000000 ICntrl=       500 IOpCl=  0 I1Cent=   200000004 NGrid=           0
         NMat0=    1 NMatS0=      1 NMatT0=    0 NMatD0=    1 NMtDS0=    0 NMtDT0=    0
 Petite list used in FoFCou.
 Keep R1 ints in memory in symmetry-blocked form, NReq=14552204.
 Requested convergence on RMS density matrix=1.00D-08 within 128 cycles.
 Requested convergence on MAX density matrix=1.00D-06.
 Requested convergence on             energy=1.00D-06.
 No special actions if energy rises.
 Integral accuracy reduced to 1.0D-05 until final iterations.
 Initial convergence to 1.0D-05 achieved.  Increase integral accuracy.
 SCF Done:  E(RB3LYP) =  -152.486627868     A.U. after   12 cycles
            NFock= 12  Conv=0.37D-08     -V/T= 2.0094
   4 Symmetry operations used in ECPInt.
 ECPInt:  NShTT=     253 NPrTT=    1035 LenC2=     254 LenP2D=     920.
 LDataN:  DoStor=T MaxTD1= 5 Len=  102
 Calling FoFJK, ICntrl=      2127 FMM=F ISym2X=1 I1Cent= 0 IOpClX= 0 NMat=1 NMatS=1 NMatT=0.
 ***** Axes restored to original set *****
 -------------------------------------------------------------------
 Center     Atomic                   Forces (Hartrees/Bohr)
 Number     Number              X              Y              Z
 -------------------------------------------------------------------
      1        6          -0.003554111   -0.000000002    0.000000002
      2        6           0.009090466    0.000000006   -0.000000006
      3        8          -0.007022988   -0.000000004    0.000000004
      4        1           0.000743316    0.000372917    0.000215332
      5        1           0.000743317   -0.000372917   -0.000215333
 -------------------------------------------------------------------
 Cartesian Forces:  Max     0.009090466 RMS     0.003120540

 GradGradGradGradGradGradGradGradGradGradGradGradGradGradGradGradGradGrad
 Berny optimization.
 Using GEDIIS/GDIIS optimizer.
 FormGI is forming the generalized inverse of G from B-inverse, IUseBI=4.
 Internal  Forces:  Max     0.007022988 RMS     0.002350104
 Search for a local minimum.
 Step number   2 out of a maximum of   20
 All quantities printed in internal units (Hartrees-Bohrs-Radians)
 Mixed Optimization -- RFO/linear search
 Update second derivatives using D2CorX and points    1    2
 DE= -2.05D-03 DEPred=-1.82D-03 R= 1.13D+00
 TightC=F SS=  1.41D+00  RLast= 6.39D-02 DXNew= 5.0454D-01 1.9181D-01
 Trust test= 1.13D+00 RLast= 6.39D-02 DXMaxT set to 3.00D-01
 The second derivative matrix:
                          R1        R2        R3        R4        A1
           R1           0.64791
           R2           0.00194   0.36002
           R3           0.00194   0.00537   0.36002
           R4           0.03481  -0.01059  -0.01059   0.94523
           A1           0.00112   0.00067   0.00067  -0.00457   0.16001
           A2           0.00112   0.00067   0.00067  -0.00457   0.00001
           A3          -0.00224  -0.00133  -0.00133   0.00913  -0.00002
           A4          -0.00000  -0.00000  -0.00000   0.00000  -0.00000
           A5          -0.00000  -0.00000  -0.00000   0.00000   0.00000
           D1          -0.00000  -0.00000  -0.00000   0.00000  -0.00000
                          A2        A3        A4        A5        D1
           A2           0.16001
           A3          -0.00002   0.16003
           A4          -0.00000   0.00000   0.04386
           A5           0.00000  -0.00000   0.00000   0.04386
           D1          -0.00000   0.00000   0.00000   0.00000   0.00309
 ITU=  1  0
 Use linear search instead of GDIIS.
     Eigenvalues ---    0.00309   0.04386   0.04386   0.15985   0.16000
     Eigenvalues ---    0.35465   0.36497   0.64400   0.94977
 RFO step:  Lambda=-2.28197204D-05 EMin= 3.08629225D-03
 Quartic linear search produced a step of  0.11113.
 Iteration  1 RMS(Cart)=  0.00240738 RMS(Int)=  0.00000275
 Iteration  2 RMS(Cart)=  0.00000295 RMS(Int)=  0.00000000
 Iteration  3 RMS(Cart)=  0.00000000 RMS(Int)=  0.00000000
 ClnCor:  largest displacement from symmetrization is 3.43D-09 for atom     2.
 Variable       Old X    -DE/DX   Delta X   Delta X   Delta X     New X
                                 (Linear)    (Quad)   (Total)
    R1        2.48800   0.00207   0.00239   0.00098   0.00337   2.49137
    R2        2.06914  -0.00074   0.00221  -0.00486  -0.00265   2.06649
    R3        2.06914  -0.00074   0.00221  -0.00486  -0.00265   2.06649
    R4        2.20744  -0.00702  -0.00591  -0.00134  -0.00725   2.20019
    A1        2.09371  -0.00030  -0.00007  -0.00196  -0.00203   2.09168
    A2        2.09371  -0.00030  -0.00007  -0.00196  -0.00203   2.09168
    A3        2.09577   0.00059   0.00014   0.00391   0.00405   2.09982
    A4        3.14159   0.00000   0.00000   0.00000   0.00000   3.14159
    A5        3.14159   0.00000   0.00000  -0.00000  -0.00000   3.14159
    D1        3.14159   0.00000   0.00000   0.00000   0.00000   3.14159
         Item               Value     Threshold  Converged?
 Maximum Force            0.007023     0.000450     NO 
 RMS     Force            0.002350     0.000300     NO 
 Maximum Displacement     0.005761     0.001800     NO 
 RMS     Displacement     0.002407     0.001200     NO 
 Predicted change in Energy=-3.406529D-05
 GradGradGradGradGradGradGradGradGradGradGradGradGradGradGradGradGradGrad

                          Input orientation:                          
 ---------------------------------------------------------------------
 Center     Atomic      Atomic             Coordinates (Angstroms)
 Number     Number       Type             X           Y           Z
 ---------------------------------------------------------------------
      1          6           0        1.056829    0.012839   -0.097819
      2          6           0        2.375204    0.012840   -0.097820
      3          8           0        3.539494    0.012840   -0.097820
      4          1           0        0.512632   -0.808570   -0.572122
      5          1           0        0.512631    0.834247    0.376485
 ---------------------------------------------------------------------
                    Distance matrix (angstroms):
                    1          2          3          4          5
     1  C    0.000000
     2  C    1.318375   0.000000
     3  O    2.482666   1.164290   0.000000
     4  H    1.093539   2.090180   3.171999   0.000000
     5  H    1.093539   2.090180   3.171999   1.897025   0.000000
 Stoichiometry    C2H2O
 Framework group  C2V[C2(CCO),SGV(H2)]
 Deg. of freedom     4
 Full point group                 C2V     NOp   4
 Largest Abelian subgroup         C2V     NOp   4
 Largest concise Abelian subgroup C2      NOp   2
                         Standard orientation:                         
 ---------------------------------------------------------------------
 Center     Atomic      Atomic             Coordinates (Angstroms)
 Number     Number       Type             X           Y           Z
 ---------------------------------------------------------------------
      1          6           0        0.000000    0.000000   -1.212872
      2          6           0       -0.000000   -0.000000    0.105503
      3          8           0       -0.000000   -0.000000    1.269794
      4          1           0       -0.000000   -0.948513   -1.757069
      5          1           0        0.000000    0.948513   -1.757069
 ---------------------------------------------------------------------
 Rotational constants (GHZ):         278.6864693          10.2074728           9.8468127
 Standard basis: def2SVPP (5D, 7F)
 There are    26 symmetry adapted cartesian basis functions of A1  symmetry.
 There are     3 symmetry adapted cartesian basis functions of A2  symmetry.
 There are     9 symmetry adapted cartesian basis functions of B1  symmetry.
 There are    11 symmetry adapted cartesian basis functions of B2  symmetry.
 There are    23 symmetry adapted basis functions of A1  symmetry.
 There are     3 symmetry adapted basis functions of A2  symmetry.
 There are     9 symmetry adapted basis functions of B1  symmetry.
 There are    11 symmetry adapted basis functions of B2  symmetry.
    46 basis functions,    83 primitive gaussians,    49 cartesian basis functions
    11 alpha electrons       11 beta electrons
       nuclear repulsion energy        58.2905548240 Hartrees.
 NAtoms=    5 NActive=    5 NUniq=    4 SFac= 1.56D+00 NAtFMM=   60 NAOKFM=F Big=F
 Integral buffers will be    131072 words long.
 Raffenetti 2 integral format.
 Two-electron integral symmetry is turned on.
 Nuclear repulsion after empirical dispersion term =       58.2869176103 Hartrees.
 One-electron integrals computed using PRISM.
   4 Symmetry operations used in ECPInt.
 ECPInt:  NShTT=     253 NPrTT=    1035 LenC2=     254 LenP2D=     920.
 LDataN:  DoStor=T MaxTD1= 4 Len=   56
 NBasis=    46 RedAO= T EigKep=  1.82D-03  NBF=    23     3     9    11
 NBsUse=    46 1.00D-06 EigRej= -1.00D+00 NBFU=    23     3     9    11
 Initial guess from the checkpoint file:  "/home/software/g16tmp/Gau-60532.chk"
 B after Tr=    -0.000000    0.000000    0.000000
         Rot=    1.000000    0.000000    0.000000   -0.000000 Ang=   0.00 deg.
 Initial guess orbital symmetries:
       Occupied  (A1) (A1) (A1) (A1) (A1) (A1) (A1) (B2) (B1) (B2)
                 (B1)
       Virtual   (B2) (B1) (A1) (B2) (A1) (A1) (B1) (A1) (B2) (A1)
                 (B1) (A1) (B2) (A1) (B2) (A1) (B1) (A1) (B2) (B1)
                 (A1) (A2) (A1) (B2) (A2) (A1) (B1) (A1) (B2) (A2)
                 (A1) (A1) (B1) (B2) (A1)
 Keep R1 ints in memory in symmetry-blocked form, NReq=14552204.
 Requested convergence on RMS density matrix=1.00D-08 within 128 cycles.
 Requested convergence on MAX density matrix=1.00D-06.
 Requested convergence on             energy=1.00D-06.
 No special actions if energy rises.
 SCF Done:  E(RB3LYP) =  -152.486660226     A.U. after    9 cycles
            NFock=  9  Conv=0.22D-08     -V/T= 2.0093
   4 Symmetry operations used in ECPInt.
 ECPInt:  NShTT=     253 NPrTT=    1035 LenC2=     254 LenP2D=     920.
 LDataN:  DoStor=T MaxTD1= 5 Len=  102
 Calling FoFJK, ICntrl=      2127 FMM=F ISym2X=1 I1Cent= 0 IOpClX= 0 NMat=1 NMatS=1 NMatT=0.
 ***** Axes restored to original set *****
 -------------------------------------------------------------------
 Center     Atomic                   Forces (Hartrees/Bohr)
 Number     Number              X              Y              Z
 -------------------------------------------------------------------
      1        6          -0.000692262   -0.000000000    0.000000000
      2        6          -0.000076025   -0.000000000    0.000000000
      3        8           0.000497384    0.000000000   -0.000000000
      4        1           0.000135452   -0.000218553   -0.000126198
      5        1           0.000135452    0.000218553    0.000126198
 -------------------------------------------------------------------
 Cartesian Forces:  Max     0.000692262 RMS     0.000244469

 GradGradGradGradGradGradGradGradGradGradGradGradGradGradGradGradGradGrad
 Berny optimization.
 Using GEDIIS/GDIIS optimizer.
 FormGI is forming the generalized inverse of G from B-inverse, IUseBI=4.
 Internal  Forces:  Max     0.000497384 RMS     0.000252795
 Search for a local minimum.
 Step number   3 out of a maximum of   20
 All quantities printed in internal units (Hartrees-Bohrs-Radians)
 Mixed Optimization -- En-DIIS/RFO-DIIS
 Update second derivatives using D2CorX and points    1    2    3
 DE= -3.24D-05 DEPred=-3.41D-05 R= 9.50D-01
 TightC=F SS=  1.41D+00  RLast= 1.01D-02 DXNew= 5.0454D-01 3.0391D-02
 Trust test= 9.50D-01 RLast= 1.01D-02 DXMaxT set to 3.00D-01
 The second derivative matrix:
                          R1        R2        R3        R4        A1
           R1           0.63056
           R2           0.00564   0.35925
           R3           0.00564   0.00460   0.35925
           R4           0.05069  -0.00475  -0.00475   1.10016
           A1           0.00666  -0.00121  -0.00121  -0.02147   0.15906
           A2           0.00666  -0.00121  -0.00121  -0.02147  -0.00094
           A3          -0.01331   0.00242   0.00242   0.04294   0.00187
           A4          -0.00000  -0.00000  -0.00000   0.00000  -0.00000
           A5           0.00000  -0.00000  -0.00000  -0.00000  -0.00000
           D1           0.00000  -0.00000  -0.00000  -0.00000  -0.00000
                          A2        A3        A4        A5        D1
           A2           0.15906
           A3           0.00187   0.15626
           A4          -0.00000   0.00000   0.04386
           A5          -0.00000   0.00000  -0.00000   0.04386
           D1          -0.00000   0.00000  -0.00000  -0.00000   0.00309
 ITU=  1  1  0
 Use linear search instead of GDIIS.
     Eigenvalues ---    0.00309   0.04386   0.04386   0.15059   0.16000
     Eigenvalues ---    0.35465   0.36365   0.62642   1.10830
 RFO step:  Lambda=-1.62396041D-06 EMin= 3.08629225D-03
 Quartic linear search produced a step of -0.01421.
 Iteration  1 RMS(Cart)=  0.00079036 RMS(Int)=  0.00000055
 Iteration  2 RMS(Cart)=  0.00000049 RMS(Int)=  0.00000001
 ClnCor:  largest displacement from symmetrization is 7.52D-09 for atom     1.
 Variable       Old X    -DE/DX   Delta X   Delta X   Delta X     New X
                                 (Linear)    (Quad)   (Total)
    R1        2.49137   0.00042  -0.00005   0.00075   0.00071   2.49207
    R2        2.06649   0.00015   0.00004   0.00035   0.00039   2.06688
    R3        2.06649   0.00015   0.00004   0.00035   0.00039   2.06688
    R4        2.20019   0.00050   0.00010   0.00019   0.00030   2.20049
    A1        2.09168  -0.00017   0.00003  -0.00110  -0.00107   2.09061
    A2        2.09168  -0.00017   0.00003  -0.00110  -0.00107   2.09061
    A3        2.09982   0.00033  -0.00006   0.00220   0.00214   2.10196
    A4        3.14159   0.00000  -0.00000   0.00000  -0.00000   3.14159
    A5        3.14159   0.00000   0.00000  -0.00000  -0.00000   3.14159
    D1        3.14159   0.00000   0.00000  -0.00000   0.00000   3.14159
         Item               Value     Threshold  Converged?
 Maximum Force            0.000497     0.000450     NO 
 RMS     Force            0.000253     0.000300     YES
 Maximum Displacement     0.001242     0.001800     YES
 RMS     Displacement     0.000790     0.001200     YES
 Predicted change in Energy=-8.175931D-07
 GradGradGradGradGradGradGradGradGradGradGradGradGradGradGradGradGradGrad

                          Input orientation:                          
 ---------------------------------------------------------------------
 Center     Atomic      Atomic             Coordinates (Angstroms)
 Number     Number       Type             X           Y           Z
 ---------------------------------------------------------------------
      1          6           0        1.056283    0.012839   -0.097819
      2          6           0        2.375031    0.012840   -0.097820
      3          8           0        3.539479    0.012840   -0.097820
      4          1           0        0.512998   -0.809227   -0.572502
      5          1           0        0.512998    0.834904    0.376865
 ---------------------------------------------------------------------
                    Distance matrix (angstroms):
                    1          2          3          4          5
     1  C    0.000000
     2  C    1.318749   0.000000
     3  O    2.483196   1.164448   0.000000
     4  H    1.093744   2.090044   3.171861   0.000000
     5  H    1.093744   2.090044   3.171861   1.898543   0.000000
 Stoichiometry    C2H2O
 Framework group  C2V[C2(CCO),SGV(H2)]
 Deg. of freedom     4
 Full point group                 C2V     NOp   4
 Largest Abelian subgroup         C2V     NOp   4
 Largest concise Abelian subgroup C2      NOp   2
                         Standard orientation:                         
 ---------------------------------------------------------------------
 Center     Atomic      Atomic             Coordinates (Angstroms)
 Number     Number       Type             X           Y           Z
 ---------------------------------------------------------------------
      1          6           0        0.000000   -0.000000   -1.213250
      2          6           0       -0.000000    0.000000    0.105499
      3          8           0       -0.000000    0.000000    1.269947
      4          1           0       -0.000000   -0.949272   -1.756535
      5          1           0        0.000000    0.949272   -1.756535
 ---------------------------------------------------------------------
 Rotational constants (GHZ):         278.2410074          10.2046723           9.8436500
 Standard basis: def2SVPP (5D, 7F)
 There are    26 symmetry adapted cartesian basis functions of A1  symmetry.
 There are     3 symmetry adapted cartesian basis functions of A2  symmetry.
 There are     9 symmetry adapted cartesian basis functions of B1  symmetry.
 There are    11 symmetry adapted cartesian basis functions of B2  symmetry.
 There are    23 symmetry adapted basis functions of A1  symmetry.
 There are     3 symmetry adapted basis functions of A2  symmetry.
 There are     9 symmetry adapted basis functions of B1  symmetry.
 There are    11 symmetry adapted basis functions of B2  symmetry.
    46 basis functions,    83 primitive gaussians,    49 cartesian basis functions
    11 alpha electrons       11 beta electrons
       nuclear repulsion energy        58.2803327319 Hartrees.
 NAtoms=    5 NActive=    5 NUniq=    4 SFac= 1.56D+00 NAtFMM=   60 NAOKFM=F Big=F
 Integral buffers will be    131072 words long.
 Raffenetti 2 integral format.
 Two-electron integral symmetry is turned on.
 Nuclear repulsion after empirical dispersion term =       58.2766955649 Hartrees.
 One-electron integrals computed using PRISM.
   4 Symmetry operations used in ECPInt.
 ECPInt:  NShTT=     253 NPrTT=    1035 LenC2=     254 LenP2D=     920.
 LDataN:  DoStor=T MaxTD1= 4 Len=   56
 NBasis=    46 RedAO= T EigKep=  1.82D-03  NBF=    23     3     9    11
 NBsUse=    46 1.00D-06 EigRej= -1.00D+00 NBFU=    23     3     9    11
 Initial guess from the checkpoint file:  "/home/software/g16tmp/Gau-60532.chk"
 B after Tr=    -0.000000   -0.000000   -0.000000
         Rot=    1.000000    0.000000    0.000000   -0.000000 Ang=   0.00 deg.
 Initial guess orbital symmetries:
       Occupied  (A1) (A1) (A1) (A1) (A1) (A1) (A1) (B2) (B1) (B2)
                 (B1)
       Virtual   (B2) (B1) (A1) (B2) (A1) (A1) (B1) (A1) (B2) (A1)
                 (B1) (A1) (B2) (A1) (B2) (A1) (B1) (A1) (B2) (B1)
                 (A1) (A2) (A1) (B2) (A2) (A1) (B1) (A1) (B2) (A2)
                 (A1) (A1) (B1) (B2) (A1)
 Keep R1 ints in memory in symmetry-blocked form, NReq=14552204.
 Requested convergence on RMS density matrix=1.00D-08 within 128 cycles.
 Requested convergence on MAX density matrix=1.00D-06.
 Requested convergence on             energy=1.00D-06.
 No special actions if energy rises.
 SCF Done:  E(RB3LYP) =  -152.486661326     A.U. after    8 cycles
            NFock=  8  Conv=0.11D-08     -V/T= 2.0093
   4 Symmetry operations used in ECPInt.
 ECPInt:  NShTT=     253 NPrTT=    1035 LenC2=     254 LenP2D=     920.
 LDataN:  DoStor=T MaxTD1= 5 Len=  102
 Calling FoFJK, ICntrl=      2127 FMM=F ISym2X=1 I1Cent= 0 IOpClX= 0 NMat=1 NMatS=1 NMatT=0.
 ***** Axes restored to original set *****
 -------------------------------------------------------------------
 Center     Atomic                   Forces (Hartrees/Bohr)
 Number     Number              X              Y              Z
 -------------------------------------------------------------------
      1        6          -0.000229297   -0.000000000    0.000000000
      2        6          -0.000113337   -0.000000000    0.000000000
      3        8           0.000142598    0.000000000   -0.000000000
      4        1           0.000100018   -0.000046971   -0.000027123
      5        1           0.000100018    0.000046971    0.000027122
 -------------------------------------------------------------------
 Cartesian Forces:  Max     0.000229297 RMS     0.000086274

 GradGradGradGradGradGradGradGradGradGradGradGradGradGradGradGradGradGrad
 Berny optimization.
 Using GEDIIS/GDIIS optimizer.
 FormGI is forming the generalized inverse of G from B-inverse, IUseBI=4.
 Internal  Forces:  Max     0.000156736 RMS     0.000076193
 Search for a local minimum.
 Step number   4 out of a maximum of   20
 All quantities printed in internal units (Hartrees-Bohrs-Radians)
 Mixed Optimization -- En-DIIS/RFO-DIIS
 Swapping is turned off.
 Update second derivatives using D2CorX and points    1    2    3    4
 DE= -1.10D-06 DEPred=-8.18D-07 R= 1.35D+00
 TightC=F SS=  1.41D+00  RLast= 2.78D-03 DXNew= 5.0454D-01 8.3467D-03
 Trust test= 1.35D+00 RLast= 2.78D-03 DXMaxT set to 3.00D-01
 The second derivative matrix:
                          R1        R2        R3        R4        A1
           R1           0.67243
           R2           0.02262   0.36320
           R3           0.02262   0.00855   0.36320
           R4           0.03973  -0.00278  -0.00278   1.06286
           A1           0.01742   0.00078   0.00078  -0.00204   0.14914
           A2           0.01742   0.00078   0.00078  -0.00204  -0.01086
           A3          -0.03484  -0.00156  -0.00156   0.00408   0.02172
           A4          -0.00000  -0.00000  -0.00000  -0.00000   0.00000
           A5           0.00000   0.00000   0.00000   0.00000  -0.00000
           D1          -0.00000  -0.00000  -0.00000  -0.00000   0.00000
                          A2        A3        A4        A5        D1
           A2           0.14914
           A3           0.02172   0.11655
           A4           0.00000  -0.00000   0.04386
           A5          -0.00000   0.00000  -0.00000   0.04386
           D1           0.00000  -0.00000  -0.00000   0.00000   0.00309
 ITU=  1  1  1  0
     Eigenvalues ---    0.00309   0.04386   0.04386   0.09163   0.16000
     Eigenvalues ---    0.35465   0.36830   0.67507   1.06686
 En-DIIS/RFO-DIIS/Sim-DIIS IScMMF=       -3 using points:     4    3
 RFO step:  Lambda=-4.23820529D-07.
 DidBck=F Rises=F RFO-DIIS coefs:    1.72775   -0.72775
 Iteration  1 RMS(Cart)=  0.00062160 RMS(Int)=  0.00000034
 Iteration  2 RMS(Cart)=  0.00000032 RMS(Int)=  0.00000000
 ClnCor:  largest displacement from symmetrization is 5.10D-09 for atom     2.
 Variable       Old X    -DE/DX   Delta X   Delta X   Delta X     New X
                                 (Linear)    (Quad)   (Total)
    R1        2.49207   0.00003   0.00051  -0.00034   0.00017   2.49224
    R2        2.06688  -0.00000   0.00028  -0.00029  -0.00001   2.06687
    R3        2.06688  -0.00000   0.00028  -0.00029  -0.00001   2.06687
    R4        2.20049   0.00014   0.00022  -0.00010   0.00012   2.20061
    A1        2.09061  -0.00008  -0.00078  -0.00008  -0.00085   2.08976
    A2        2.09061  -0.00008  -0.00078  -0.00008  -0.00085   2.08976
    A3        2.10196   0.00016   0.00156   0.00015   0.00171   2.10367
    A4        3.14159   0.00000   0.00000   0.00000  -0.00000   3.14159
    A5        3.14159   0.00000  -0.00000   0.00000   0.00000   3.14159
    D1        3.14159   0.00000   0.00000  -0.00000   0.00000   3.14159
         Item               Value     Threshold  Converged?
 Maximum Force            0.000157     0.000450     YES
 RMS     Force            0.000076     0.000300     YES
 Maximum Displacement     0.000831     0.001800     YES
 RMS     Displacement     0.000622     0.001200     YES
 Predicted change in Energy=-2.119109D-07
 Optimization completed.
    -- Stationary point found.
                           ----------------------------
                           !   Optimized Parameters   !
                           ! (Angstroms and Degrees)  !
 --------------------------                            --------------------------
 ! Name  Definition              Value          Derivative Info.                !
 --------------------------------------------------------------------------------
 ! R1    R(1,2)                  1.3187         -DE/DX =    0.0                 !
 ! R2    R(1,4)                  1.0937         -DE/DX =    0.0                 !
 ! R3    R(1,5)                  1.0937         -DE/DX =    0.0                 !
 ! R4    R(2,3)                  1.1644         -DE/DX =    0.0001              !
 ! A1    A(2,1,4)              119.7833         -DE/DX =   -0.0001              !
 ! A2    A(2,1,5)              119.7833         -DE/DX =   -0.0001              !
 ! A3    A(4,1,5)              120.4335         -DE/DX =    0.0002              !
 ! A4    L(1,2,3,4,-1)         180.0            -DE/DX =    0.0                 !
 ! A5    L(1,2,3,4,-2)         180.0            -DE/DX =    0.0                 !
 ! D1    D(2,1,5,4)            180.0            -DE/DX =    0.0                 !
 --------------------------------------------------------------------------------
 GradGradGradGradGradGradGradGradGradGradGradGradGradGradGradGradGradGrad

                          Input orientation:                          
 ---------------------------------------------------------------------
 Center     Atomic      Atomic             Coordinates (Angstroms)
 Number     Number       Type             X           Y           Z
 ---------------------------------------------------------------------
      1          6           0        1.056283    0.012839   -0.097819
      2          6           0        2.375031    0.012840   -0.097820
      3          8           0        3.539479    0.012840   -0.097820
      4          1           0        0.512998   -0.809227   -0.572502
      5          1           0        0.512998    0.834904    0.376865
 ---------------------------------------------------------------------
                    Distance matrix (angstroms):
                    1          2          3          4          5
     1  C    0.000000
     2  C    1.318749   0.000000
     3  O    2.483196   1.164448   0.000000
     4  H    1.093744   2.090044   3.171861   0.000000
     5  H    1.093744   2.090044   3.171861   1.898543   0.000000
 Stoichiometry    C2H2O
 Framework group  C2V[C2(CCO),SGV(H2)]
 Deg. of freedom     4
 Full point group                 C2V     NOp   4
 Largest Abelian subgroup         C2V     NOp   4
 Largest concise Abelian subgroup C2      NOp   2
                         Standard orientation:                         
 ---------------------------------------------------------------------
 Center     Atomic      Atomic             Coordinates (Angstroms)
 Number     Number       Type             X           Y           Z
 ---------------------------------------------------------------------
      1          6           0        0.000000    0.000000   -1.213250
      2          6           0       -0.000000   -0.000000    0.105499
      3          8           0       -0.000000   -0.000000    1.269947
      4          1           0       -0.000000   -0.949272   -1.756535
      5          1           0        0.000000    0.949272   -1.756535
 ---------------------------------------------------------------------
 Rotational constants (GHZ):         278.2410074          10.2046723           9.8436500

 **********************************************************************

            Population analysis using the SCF Density.

 **********************************************************************

 Orbital symmetries:
       Occupied  (A1) (A1) (A1) (A1) (A1) (A1) (A1) (B2) (B1) (B2)
                 (B1)
       Virtual   (B2) (B1) (A1) (B2) (A1) (A1) (B1) (A1) (B2) (A1)
                 (B1) (A1) (B2) (A1) (B2) (A1) (B1) (A1) (B2) (B1)
                 (A1) (A2) (A1) (B2) (A2) (A1) (B1) (A1) (B2) (A2)
                 (A1) (A1) (B1) (B2) (A1)
 The electronic state is 1-A1.
 Alpha  occ. eigenvalues --  -19.20433 -10.31558 -10.19504  -1.10908  -0.76977
 Alpha  occ. eigenvalues --   -0.53598  -0.49027  -0.48849  -0.45556  -0.40978
 Alpha  occ. eigenvalues --   -0.24691
 Alpha virt. eigenvalues --   -0.04218   0.05737   0.07119   0.14109   0.16323
 Alpha virt. eigenvalues --    0.28953   0.45499   0.45595   0.47200   0.50735
 Alpha virt. eigenvalues --    0.55283   0.63966   0.66062   0.67622   0.72281
 Alpha virt. eigenvalues --    0.84419   1.01758   1.03096   1.08093   1.44054
 Alpha virt. eigenvalues --    1.46984   1.48548   1.56436   1.65030   1.78049
 Alpha virt. eigenvalues --    2.05346   2.20135   2.20326   2.29915   2.62345
 Alpha virt. eigenvalues --    2.62555   3.04561   3.28709   3.30641   3.71705
          Condensed to atoms (all electrons):
               1          2          3          4          5
     1  C    5.167236   0.626515  -0.047880   0.355162   0.355162
     2  C    0.626515   4.435303   0.729372   0.004889   0.004889
     3  O   -0.047880   0.729372   7.380290   0.000063   0.000063
     4  H    0.355162   0.004889   0.000063   0.498930  -0.018577
     5  H    0.355162   0.004889   0.000063  -0.018577   0.498930
 Mulliken charges:
               1
     1  C   -0.456194
     2  C    0.199034
     3  O   -0.061907
     4  H    0.159534
     5  H    0.159534
 Sum of Mulliken charges =   0.00000
 Mulliken charges with hydrogens summed into heavy atoms:
               1
     1  C   -0.137126
     2  C    0.199034
     3  O   -0.061907
 Electronic spatial extent (au):  <R**2>=            144.8695
 Charge=              0.0000 electrons
 Dipole moment (field-independent basis, Debye):
    X=              0.0000    Y=              0.0000    Z=             -1.3331  Tot=              1.3331
 Quadrupole moment (field-independent basis, Debye-Ang):
   XX=            -18.6309   YY=            -15.1580   ZZ=            -18.0558
   XY=              0.0000   XZ=             -0.0000   YZ=             -0.0000
 Traceless Quadrupole moment (field-independent basis, Debye-Ang):
   XX=             -1.3493   YY=              2.1235   ZZ=             -0.7742
   XY=              0.0000   XZ=             -0.0000   YZ=             -0.0000
 Octapole moment (field-independent basis, Debye-Ang**2):
  XXX=             -0.0000  YYY=              0.0000  ZZZ=              0.3638  XYY=              0.0000
  XXY=              0.0000  XXZ=              4.0531  XZZ=              0.0000  YZZ=              0.0000
  YYZ=              0.0281  XYZ=             -0.0000
 Hexadecapole moment (field-independent basis, Debye-Ang**3):
 XXXX=            -18.5370 YYYY=            -19.8463 ZZZZ=           -137.3661 XXXY=             -0.0000
 XXXZ=              0.0000 YYYX=              0.0000 YYYZ=             -0.0000 ZZZX=             -0.0000
 ZZZY=             -0.0000 XXYY=             -6.7706 XXZZ=            -28.9823 YYZZ=            -22.3842
 XXYZ=              0.0000 YYXZ=             -0.0000 ZZXY=              0.0000
 N-N= 5.827669556490D+01 E-N=-4.724919414966D+02  KE= 1.510830889581D+02
 Symmetry A1   KE= 1.384456747836D+02
 Symmetry A2   KE= 2.432521797465D-30
 Symmetry B1   KE= 6.715699165223D+00
 Symmetry B2   KE= 5.921715009259D+00
 Unable to Open any file for archive entry.
 1\1\GINC-NODE01\FOpt\RB3LYP\def2SVPP\C2H2O1\XUHJ\19-Dec-2023\0\\#N opt
  freq B3LYP/def2SVPP symm=veryloose em=gd3bj scale=0.961 press=0.987\\
 C=C=O_1\\0,1\C,1.0562828769,0.0128387753,-0.0978188003\C,2.3750314961,
 0.0128396113,-0.0978196091\O,3.5394791649,0.0128403495,-0.0978203233\H
 ,0.5129982335,-0.8092273473,-0.5725018549\H,0.5129977734,0.834904209,0
 .3768649208\\Version=ES64L-G16RevC.01\State=1-A1\HF=-152.4866613\RMSD=
 1.148e-09\RMSF=8.627e-05\Dipole=-0.5244828,-0.0000003,0.0000003\Quadru
 pole=-0.5756221,0.9331784,-0.3575563,-0.0000003,-0.0000006,1.1181081\P
 G=C02V [C2(C1C1O1),SGV(H2)]\\@
 The archive entry for this job was punched.


     SCHOPENHAUER'S LAW OF ENTROPY
 IF YOU PUT A SPOONFUL OF WINE IN A BARREL FULL
 OF SEWAGE, YOU GET SEWAGE.
 IF YOU PUT A SPOONFUL OF SEWAGE IN A BARREL FULL
 OF WINE, YOU GET SEWAGE.
 Job cpu time:       0 days  0 hours  1 minutes 18.2 seconds.
 Elapsed time:       0 days  0 hours  0 minutes  6.3 seconds.
 File lengths (MBytes):  RWF=      6 Int=      0 D2E=      0 Chk=      1 Scr=      1
 Normal termination of Gaussian 16 at Tue Dec 19 12:53:30 2023.
 Link1:  Proceeding to internal job step number  2.
 --------------------------------------------------------------------
 #N Geom=AllCheck Guess=TCheck SCRF=Check GenChk RB3LYP/def2SVPP Freq
 --------------------------------------------------------------------
 1/10=4,29=7,30=1,38=1,40=1,113=-987000,114=961000/1,3;
 2/12=2,17=2,18=2,40=1/2;
 3/5=43,7=202,11=2,14=-4,25=1,30=1,70=2,71=2,74=-5,116=1,124=41,140=1/1,2,3;
 4/5=101/1;
 5/5=2,38=6,98=1/2;
 8/6=4,10=90,11=11/1;
 11/6=1,8=1,9=11,15=111,16=1/1,2,10;
 10/6=1/2;
 6/7=2,8=2,9=2,10=2,28=1/1;
 7/8=1,10=1,25=1/1,2,3,16;
 1/10=4,30=1/3;
 99//99;
 Structure from the checkpoint file:  "/home/software/g16tmp/Gau-60532.chk"
 -------
 C=C=O_1
 -------
 Charge =  0 Multiplicity = 1
 Redundant internal coordinates found in file.  (old form).
 C,0,1.0562828769,0.0128387753,-0.0978188003
 C,0,2.3750314961,0.0128396113,-0.0978196091
 O,0,3.5394791649,0.0128403495,-0.0978203233
 H,0,0.5129982335,-0.8092273473,-0.5725018549
 H,0,0.5129977734,0.834904209,0.3768649208
 Recover connectivity data from disk.

 GradGradGradGradGradGradGradGradGradGradGradGradGradGradGradGradGradGrad
 Berny optimization.
 Initialization pass.
                           ----------------------------
                           !    Initial Parameters    !
                           ! (Angstroms and Degrees)  !
 --------------------------                            --------------------------
 ! Name  Definition              Value          Derivative Info.                !
 --------------------------------------------------------------------------------
 ! R1    R(1,2)                  1.3187         calculate D2E/DX2 analytically  !
 ! R2    R(1,4)                  1.0937         calculate D2E/DX2 analytically  !
 ! R3    R(1,5)                  1.0937         calculate D2E/DX2 analytically  !
 ! R4    R(2,3)                  1.1644         calculate D2E/DX2 analytically  !
 ! A1    A(2,1,4)              119.7833         calculate D2E/DX2 analytically  !
 ! A2    A(2,1,5)              119.7833         calculate D2E/DX2 analytically  !
 ! A3    A(4,1,5)              120.4335         calculate D2E/DX2 analytically  !
 ! A4    L(1,2,3,4,-1)         180.0            calculate D2E/DX2 analytically  !
 ! A5    L(1,2,3,4,-2)         180.0            calculate D2E/DX2 analytically  !
 ! D1    D(2,1,5,4)            180.0            calculate D2E/DX2 analytically  !
 --------------------------------------------------------------------------------
 Trust Radius=3.00D-01 FncErr=1.00D-07 GrdErr=1.00D-07 EigMax=2.50D+02 EigMin=1.00D-04
 Number of steps in this run=      2 maximum allowed number of steps=      2.
 GradGradGradGradGradGradGradGradGradGradGradGradGradGradGradGradGradGrad

                          Input orientation:                          
 ---------------------------------------------------------------------
 Center     Atomic      Atomic             Coordinates (Angstroms)
 Number     Number       Type             X           Y           Z
 ---------------------------------------------------------------------
      1          6           0        1.056283    0.012839   -0.097819
      2          6           0        2.375031    0.012840   -0.097820
      3          8           0        3.539479    0.012840   -0.097820
      4          1           0        0.512998   -0.809227   -0.572502
      5          1           0        0.512998    0.834904    0.376865
 ---------------------------------------------------------------------
                    Distance matrix (angstroms):
                    1          2          3          4          5
     1  C    0.000000
     2  C    1.318749   0.000000
     3  O    2.483196   1.164448   0.000000
     4  H    1.093744   2.090044   3.171861   0.000000
     5  H    1.093744   2.090044   3.171861   1.898543   0.000000
 Stoichiometry    C2H2O
 Framework group  C2V[C2(CCO),SGV(H2)]
 Deg. of freedom     4
 Full point group                 C2V     NOp   4
 Largest Abelian subgroup         C2V     NOp   4
 Largest concise Abelian subgroup C2      NOp   2
                         Standard orientation:                         
 ---------------------------------------------------------------------
 Center     Atomic      Atomic             Coordinates (Angstroms)
 Number     Number       Type             X           Y           Z
 ---------------------------------------------------------------------
      1          6           0        0.000000    0.000000   -1.213250
      2          6           0       -0.000000   -0.000000    0.105499
      3          8           0       -0.000000   -0.000000    1.269947
      4          1           0       -0.000000   -0.949272   -1.756535
      5          1           0        0.000000    0.949272   -1.756535
 ---------------------------------------------------------------------
 Rotational constants (GHZ):         278.2410074          10.2046723           9.8436500
 Standard basis: def2SVPP (5D, 7F)
 There are    26 symmetry adapted cartesian basis functions of A1  symmetry.
 There are     3 symmetry adapted cartesian basis functions of A2  symmetry.
 There are     9 symmetry adapted cartesian basis functions of B1  symmetry.
 There are    11 symmetry adapted cartesian basis functions of B2  symmetry.
 There are    23 symmetry adapted basis functions of A1  symmetry.
 There are     3 symmetry adapted basis functions of A2  symmetry.
 There are     9 symmetry adapted basis functions of B1  symmetry.
 There are    11 symmetry adapted basis functions of B2  symmetry.
    46 basis functions,    83 primitive gaussians,    49 cartesian basis functions
    11 alpha electrons       11 beta electrons
       nuclear repulsion energy        58.2803327319 Hartrees.
 NAtoms=    5 NActive=    5 NUniq=    4 SFac= 1.56D+00 NAtFMM=   60 NAOKFM=F Big=F
 Integral buffers will be    131072 words long.
 Raffenetti 2 integral format.
 Two-electron integral symmetry is turned on.
 Nuclear repulsion after empirical dispersion term =       58.2766955649 Hartrees.
 One-electron integrals computed using PRISM.
   4 Symmetry operations used in ECPInt.
 ECPInt:  NShTT=     253 NPrTT=    1035 LenC2=     254 LenP2D=     920.
 LDataN:  DoStor=T MaxTD1= 4 Len=   56
 NBasis=    46 RedAO= T EigKep=  1.82D-03  NBF=    23     3     9    11
 NBsUse=    46 1.00D-06 EigRej= -1.00D+00 NBFU=    23     3     9    11
 Initial guess from the checkpoint file:  "/home/software/g16tmp/Gau-60532.chk"
 B after Tr=     0.000000    0.000000   -0.000000
         Rot=    1.000000    0.000000    0.000000    0.000000 Ang=   0.00 deg.
 Initial guess orbital symmetries:
       Occupied  (A1) (A1) (A1) (A1) (A1) (A1) (A1) (B2) (B1) (B2)
                 (B1)
       Virtual   (B2) (B1) (A1) (B2) (A1) (A1) (B1) (A1) (B2) (A1)
                 (B1) (A1) (B2) (A1) (B2) (A1) (B1) (A1) (B2) (B1)
                 (A1) (A2) (A1) (B2) (A2) (A1) (B1) (A1) (B2) (A2)
                 (A1) (A1) (B1) (B2) (A1)
 Keep R1 ints in memory in symmetry-blocked form, NReq=14552204.
 Requested convergence on RMS density matrix=1.00D-08 within 128 cycles.
 Requested convergence on MAX density matrix=1.00D-06.
 Requested convergence on             energy=1.00D-06.
 No special actions if energy rises.
 SCF Done:  E(RB3LYP) =  -152.486661326     A.U. after    1 cycles
            NFock=  1  Conv=0.30D-09     -V/T= 2.0093
 DoSCS=F DFT=T ScalE2(SS,OS)=  1.000000  1.000000
 Range of M.O.s used for correlation:     1    46
 NBasis=    46 NAE=    11 NBE=    11 NFC=     0 NFV=     0
 NROrb=     46 NOA=    11 NOB=    11 NVA=    35 NVB=    35
   4 Symmetry operations used in ECPInt.
 ECPInt:  NShTT=     253 NPrTT=    1035 LenC2=     254 LenP2D=     920.
 LDataN:  DoStor=T MaxTD1= 5 Len=  102
 Symmetrizing basis deriv contribution to polar:
 IMax=3 JMax=2 DiffMx= 0.00D+00
 G2DrvN: will do     6 centers at a time, making    1 passes.
 Calling FoFCou, ICntrl=  3107 FMM=F I1Cent=   0 AccDes= 0.00D+00.
 End of G2Drv F.D. properties file   721 does not exist.
 End of G2Drv F.D. properties file   722 does not exist.
 End of G2Drv F.D. properties file   788 does not exist.
          IDoAtm=11111
          Differentiating once with respect to electric field.
                with respect to dipole field.
          Differentiating once with respect to nuclear coordinates.
 Keep R1 ints in memory in symmetry-blocked form, NReq=14500693.
          There are    15 degrees of freedom in the 1st order CPHF.  IDoFFX=4 NUNeed=    15.
     15 vectors produced by pass  0 Test12= 2.57D-15 6.67D-09 XBig12= 4.76D+01 5.35D+00.
 AX will form    15 AO Fock derivatives at one time.
     15 vectors produced by pass  1 Test12= 2.57D-15 6.67D-09 XBig12= 1.12D+01 1.09D+00.
     15 vectors produced by pass  2 Test12= 2.57D-15 6.67D-09 XBig12= 1.62D-01 1.16D-01.
     15 vectors produced by pass  3 Test12= 2.57D-15 6.67D-09 XBig12= 4.37D-04 6.27D-03.
     15 vectors produced by pass  4 Test12= 2.57D-15 6.67D-09 XBig12= 9.43D-07 2.90D-04.
      9 vectors produced by pass  5 Test12= 2.57D-15 6.67D-09 XBig12= 7.28D-10 7.76D-06.
      3 vectors produced by pass  6 Test12= 2.57D-15 6.67D-09 XBig12= 3.94D-13 1.70D-07.
 InvSVY:  IOpt=1 It=  1 EMax= 8.88D-16
 Solved reduced A of dimension    87 with    15 vectors.
 Isotropic polarizability for W=    0.000000       21.11 Bohr**3.
 End of Minotr F.D. properties file   721 does not exist.
 End of Minotr F.D. properties file   722 does not exist.
 End of Minotr F.D. properties file   788 does not exist.

 **********************************************************************

            Population analysis using the SCF Density.

 **********************************************************************

 Orbital symmetries:
       Occupied  (A1) (A1) (A1) (A1) (A1) (A1) (A1) (B2) (B1) (B2)
                 (B1)
       Virtual   (B2) (B1) (A1) (B2) (A1) (A1) (B1) (A1) (B2) (A1)
                 (B1) (A1) (B2) (A1) (B2) (A1) (B1) (A1) (B2) (B1)
                 (A1) (A2) (A1) (B2) (A2) (A1) (B1) (A1) (B2) (A2)
                 (A1) (A1) (B1) (B2) (A1)
 The electronic state is 1-A1.
 Alpha  occ. eigenvalues --  -19.20433 -10.31558 -10.19504  -1.10908  -0.76977
 Alpha  occ. eigenvalues --   -0.53598  -0.49027  -0.48849  -0.45556  -0.40978
 Alpha  occ. eigenvalues --   -0.24691
 Alpha virt. eigenvalues --   -0.04218   0.05737   0.07119   0.14109   0.16323
 Alpha virt. eigenvalues --    0.28953   0.45499   0.45595   0.47200   0.50735
 Alpha virt. eigenvalues --    0.55283   0.63966   0.66062   0.67622   0.72281
 Alpha virt. eigenvalues --    0.84419   1.01758   1.03096   1.08093   1.44054
 Alpha virt. eigenvalues --    1.46984   1.48548   1.56436   1.65030   1.78049
 Alpha virt. eigenvalues --    2.05346   2.20135   2.20326   2.29915   2.62345
 Alpha virt. eigenvalues --    2.62555   3.04561   3.28709   3.30641   3.71705
          Condensed to atoms (all electrons):
               1          2          3          4          5
     1  C    5.167236   0.626515  -0.047880   0.355162   0.355162
     2  C    0.626515   4.435303   0.729372   0.004889   0.004889
     3  O   -0.047880   0.729372   7.380290   0.000063   0.000063
     4  H    0.355162   0.004889   0.000063   0.498930  -0.018577
     5  H    0.355162   0.004889   0.000063  -0.018577   0.498930
 Mulliken charges:
               1
     1  C   -0.456194
     2  C    0.199034
     3  O   -0.061907
     4  H    0.159534
     5  H    0.159534
 Sum of Mulliken charges =  -0.00000
 Mulliken charges with hydrogens summed into heavy atoms:
               1
     1  C   -0.137126
     2  C    0.199034
     3  O   -0.061907
 APT charges:
               1
     1  C   -0.583661
     2  C    0.964461
     3  O   -0.670301
     4  H    0.144750
     5  H    0.144750
 Sum of APT charges =   0.00000
 APT charges with hydrogens summed into heavy atoms:
               1
     1  C   -0.294161
     2  C    0.964461
     3  O   -0.670301
 Electronic spatial extent (au):  <R**2>=            144.8695
 Charge=              0.0000 electrons
 Dipole moment (field-independent basis, Debye):
    X=              0.0000    Y=              0.0000    Z=             -1.3331  Tot=              1.3331
 Quadrupole moment (field-independent basis, Debye-Ang):
   XX=            -18.6309   YY=            -15.1580   ZZ=            -18.0558
   XY=             -0.0000   XZ=             -0.0000   YZ=             -0.0000
 Traceless Quadrupole moment (field-independent basis, Debye-Ang):
   XX=             -1.3493   YY=              2.1235   ZZ=             -0.7742
   XY=             -0.0000   XZ=             -0.0000   YZ=             -0.0000
 Octapole moment (field-independent basis, Debye-Ang**2):
  XXX=             -0.0000  YYY=              0.0000  ZZZ=              0.3638  XYY=              0.0000
  XXY=              0.0000  XXZ=              4.0531  XZZ=              0.0000  YZZ=              0.0000
  YYZ=              0.0281  XYZ=             -0.0000
 Hexadecapole moment (field-independent basis, Debye-Ang**3):
 XXXX=            -18.5370 YYYY=            -19.8463 ZZZZ=           -137.3661 XXXY=             -0.0000
 XXXZ=              0.0000 YYYX=             -0.0000 YYYZ=             -0.0000 ZZZX=             -0.0000
 ZZZY=             -0.0000 XXYY=             -6.7706 XXZZ=            -28.9823 YYZZ=            -22.3842
 XXYZ=              0.0000 YYXZ=             -0.0000 ZZXY=             -0.0000
 N-N= 5.827669556490D+01 E-N=-4.724919416027D+02  KE= 1.510830890075D+02
 Symmetry A1   KE= 1.384456747965D+02
 Symmetry A2   KE= 1.816143062289D-30
 Symmetry B1   KE= 6.715699187119D+00
 Symmetry B2   KE= 5.921715023855D+00
  Exact polarizability:      11.739       0.000      15.170      -0.000      -0.000      36.423
 Approx polarizability:      14.561       0.000      19.322      -0.000      -0.000      68.798
   4 Symmetry operations used in ECPInt.
 ECPInt:  NShTT=     253 NPrTT=    1035 LenC2=     254 LenP2D=     920.
 LDataN:  DoStor=T MaxTD1= 6 Len=  172
 Calling FoFJK, ICntrl=    100127 FMM=F ISym2X=1 I1Cent= 0 IOpClX= 0 NMat=1 NMatS=1 NMatT=0.
 Full mass-weighted force constant matrix:
 Low frequencies ---  -27.3990   -7.3263   -5.6239   -0.0009   -0.0009    0.0009
 Low frequencies ---  437.5220  556.5267  587.9741
 Diagonal vibrational polarizability:
       12.1111531       0.7174688       3.5460803
 Harmonic frequencies (cm**-1), IR intensities (KM/Mole), Raman scattering
 activities (A**4/AMU), depolarization ratios for plane and unpolarized
 incident light, reduced masses (AMU), force constants (mDyne/A),
 and normal coordinates:
                      1                      2                      3
                     B2                     B1                     B1
 Frequencies --    437.5220               556.5267               587.9739
 Red. masses --      2.2114                10.4167                 1.2386
 Frc consts  --      0.2494                 1.9009                 0.2523
 IR Inten    --      2.6769                51.5721                98.0202
  Atom  AN      X      Y      Z        X      Y      Z        X      Y      Z
     1   6    -0.00  -0.02  -0.00    -0.41  -0.00  -0.00    -0.11  -0.00  -0.00
     2   6     0.00   0.28   0.00     0.75  -0.00   0.00    -0.08   0.00   0.00
     3   8    -0.00  -0.15   0.00    -0.29   0.00   0.00     0.05  -0.00   0.00
     4   1    -0.00  -0.36   0.57     0.30   0.00  -0.00     0.70  -0.00   0.00
     5   1    -0.00  -0.36  -0.57     0.30   0.00   0.00     0.70  -0.00  -0.00
                      4                      5                      6
                     B2                     A1                     A1
 Frequencies --    976.4982              1170.1353              1403.8055
 Red. masses --      1.9170                 2.2280                 1.6249
 Frc consts  --      1.0770                 1.7974                 1.8866
 IR Inten    --     10.9584                 8.2399                16.5848
  Atom  AN      X      Y      Z        X      Y      Z        X      Y      Z
     1   6     0.00  -0.18   0.00     0.00  -0.00  -0.22    -0.00  -0.00   0.21
     2   6    -0.00   0.21  -0.00    -0.00   0.00   0.06     0.00   0.00  -0.00
     3   8     0.00  -0.05  -0.00    -0.00  -0.00   0.20     0.00  -0.00  -0.09
     4   1    -0.00   0.20  -0.65    -0.00   0.21  -0.64     0.00   0.44  -0.53
     5   1    -0.00   0.20   0.65    -0.00  -0.21  -0.64     0.00  -0.44  -0.53
                      7                      8                      9
                     A1                     A1                     B2
 Frequencies --   2257.5900              3169.1956              3256.9402
 Red. masses --     11.8962                 1.0567                 1.1189
 Frc consts  --     35.7229                 6.2534                 6.9932
 IR Inten    --    582.6929                30.2190                12.5631
  Atom  AN      X      Y      Z        X      Y      Z        X      Y      Z
     1   6     0.00  -0.00  -0.25    -0.00   0.00  -0.07     0.00  -0.10  -0.00
     2   6     0.00   0.00   0.83     0.00  -0.00   0.01    -0.00  -0.00   0.00
     3   8    -0.00   0.00  -0.42     0.00   0.00   0.00    -0.00  -0.00   0.00
     4   1    -0.00  -0.13  -0.14     0.00   0.61   0.35    -0.00   0.60   0.36
     5   1    -0.00   0.13  -0.14     0.00  -0.61   0.35    -0.00   0.60  -0.36

 -------------------
 - Thermochemistry -
 -------------------
 Temperature   298.150 Kelvin.  Pressure   0.98700 Atm.
 Thermochemistry will use frequencies scaled by 0.9610.
 Atom     1 has atomic number  6 and mass  12.00000
 Atom     2 has atomic number  6 and mass  12.00000
 Atom     3 has atomic number  8 and mass  15.99491
 Atom     4 has atomic number  1 and mass   1.00783
 Atom     5 has atomic number  1 and mass   1.00783
 Molecular mass:    42.01056 amu.
 Principal axes and moments of inertia in atomic units:
                           1         2         3
     Eigenvalues --     6.48625 176.85440 183.34065
           X           -0.00000  -0.00000   1.00000
           Y           -0.00000   1.00000   0.00000
           Z            1.00000   0.00000   0.00000
 This molecule is an asymmetric top.
 Rotational symmetry number  2.
 Rotational temperatures (Kelvin)     13.35346     0.48975     0.47242
 Rotational constants (GHZ):         278.24101    10.20467     9.84365
 Zero-point vibrational energy      79416.2 (Joules/Mol)
                                   18.98093 (Kcal/Mol)
 Warning -- explicit consideration of   3 degrees of freedom as
           vibrations may cause significant error
 Vibrational temperatures:    604.95   769.49   812.97  1350.17  1617.90
          (Kelvin)           1940.99  3121.49  4381.93  4503.26
 
 Zero-point correction=                           0.030248 (Hartree/Particle)
 Thermal correction to Energy=                    0.033829
 Thermal correction to Enthalpy=                  0.034773
 Thermal correction to Gibbs Free Energy=         0.007243
 Sum of electronic and zero-point Energies=           -152.456413
 Sum of electronic and thermal Energies=              -152.452832
 Sum of electronic and thermal Enthalpies=            -152.451888
 Sum of electronic and thermal Free Energies=         -152.479418
 
                     E (Thermal)             CV                S
                      KCal/Mol        Cal/Mol-Kelvin    Cal/Mol-Kelvin
 Total                   21.228             10.509             57.942
 Electronic               0.000              0.000              0.000
 Translational            0.889              2.981             37.159
 Rotational               0.889              2.981             18.603
 Vibrational             19.451              4.547              2.180
 Vibration     1          0.783              1.426              0.890
 Vibration     2          0.890              1.173              0.577
 Vibration     3          0.921              1.107              0.514
                       Q            Log10(Q)             Ln(Q)
 Total Bot       0.465999D-03         -3.331615         -7.671326
 Total V=0       0.381511D+11         10.581507         24.364820
 Vib (Bot)       0.165562D-13        -13.781039        -31.732015
 Vib (Bot)    1  0.417467D+00         -0.379378         -0.873550
 Vib (Bot)    2  0.297686D+00         -0.526241         -1.211714
 Vib (Bot)    3  0.273710D+00         -0.562709         -1.295686
 Vib (V=0)       0.135545D+01          0.132083          0.304131
 Vib (V=0)    1  0.115137D+01          0.061214          0.140950
 Vib (V=0)    2  0.108191D+01          0.034190          0.078726
 Vib (V=0)    3  0.107002D+01          0.029390          0.067673
 Electronic      0.100000D+01          0.000000          0.000000
 Translational   0.108436D+08          7.035175         16.199088
 Rotational      0.259567D+04          3.414250          7.861601
 ***** Axes restored to original set *****
 -------------------------------------------------------------------
 Center     Atomic                   Forces (Hartrees/Bohr)
 Number     Number              X              Y              Z
 -------------------------------------------------------------------
      1        6          -0.000229294   -0.000000000    0.000000000
      2        6          -0.000113352   -0.000000000    0.000000000
      3        8           0.000142609    0.000000000   -0.000000000
      4        1           0.000100019   -0.000046970   -0.000027122
      5        1           0.000100019    0.000046970    0.000027122
 -------------------------------------------------------------------
 Cartesian Forces:  Max     0.000229294 RMS     0.000086276
 FormGI is forming the generalized inverse of G from B-inverse, IUseBI=4.

 GradGradGradGradGradGradGradGradGradGradGradGradGradGradGradGradGradGrad
 Berny optimization.
 Internal  Forces:  Max     0.000156736 RMS     0.000076195
 Search for a local minimum.
 Step number   1 out of a maximum of    2
 All quantities printed in internal units (Hartrees-Bohrs-Radians)
 Second derivative matrix not updated -- analytic derivatives used.
 The second derivative matrix:
                          R1        R2        R3        R4        A1
           R1           0.64235
           R2           0.00615   0.36418
           R3           0.00615   0.00276   0.36418
           R4           0.04815  -0.00490  -0.00490   1.07702
           A1           0.01259   0.00865  -0.01146  -0.00068   0.05745
           A2           0.01259  -0.01146   0.00865  -0.00068  -0.02731
           A3          -0.02518   0.00281   0.00281   0.00137  -0.03014
           A4           0.00000  -0.00012   0.00012  -0.00000  -0.02021
           A5          -0.00000  -0.00000   0.00000  -0.00000   0.00000
           D1           0.00000  -0.00000   0.00000   0.00000   0.00000
                          A2        A3        A4        A5        D1
           A2           0.05745
           A3          -0.03014   0.06027
           A4           0.02021   0.00000   0.14529
           A5          -0.00000  -0.00000   0.00000   0.03146
           D1          -0.00000  -0.00000   0.00000   0.00791   0.01694
 ITU=  0
     Eigenvalues ---    0.01346   0.03494   0.07219   0.08857   0.15639
     Eigenvalues ---    0.36289   0.36668   0.63912   1.08234
 Angle between quadratic step and forces=  33.38 degrees.
 Linear search not attempted -- first point.
 Iteration  1 RMS(Cart)=  0.00064760 RMS(Int)=  0.00000036
 Iteration  2 RMS(Cart)=  0.00000035 RMS(Int)=  0.00000000
 ClnCor:  largest displacement from symmetrization is 4.68D-11 for atom     1.
 Variable       Old X    -DE/DX   Delta X   Delta X   Delta X     New X
                                 (Linear)    (Quad)   (Total)
    R1        2.49207   0.00003   0.00000   0.00014   0.00014   2.49221
    R2        2.06688  -0.00000   0.00000  -0.00003  -0.00003   2.06685
    R3        2.06688  -0.00000   0.00000  -0.00003  -0.00003   2.06685
    R4        2.20049   0.00014   0.00000   0.00012   0.00012   2.20061
    A1        2.09061  -0.00008   0.00000  -0.00089  -0.00089   2.08973
    A2        2.09061  -0.00008   0.00000  -0.00089  -0.00089   2.08973
    A3        2.10196   0.00016   0.00000   0.00177   0.00177   2.10373
    A4        3.14159  -0.00000   0.00000  -0.00000   0.00000   3.14159
    A5        3.14159  -0.00000   0.00000   0.00000   0.00000   3.14159
    D1        3.14159  -0.00000   0.00000  -0.00000   0.00000   3.14159
         Item               Value     Threshold  Converged?
 Maximum Force            0.000157     0.000450     YES
 RMS     Force            0.000076     0.000300     YES
 Maximum Displacement     0.000882     0.001800     YES
 RMS     Displacement     0.000648     0.001200     YES
 Predicted change in Energy=-2.192779D-07
 Optimization completed.
    -- Stationary point found.
                           ----------------------------
                           !   Optimized Parameters   !
                           ! (Angstroms and Degrees)  !
 --------------------------                            --------------------------
 ! Name  Definition              Value          Derivative Info.                !
 --------------------------------------------------------------------------------
 ! R1    R(1,2)                  1.3187         -DE/DX =    0.0                 !
 ! R2    R(1,4)                  1.0937         -DE/DX =    0.0                 !
 ! R3    R(1,5)                  1.0937         -DE/DX =    0.0                 !
 ! R4    R(2,3)                  1.1644         -DE/DX =    0.0001              !
 ! A1    A(2,1,4)              119.7833         -DE/DX =   -0.0001              !
 ! A2    A(2,1,5)              119.7833         -DE/DX =   -0.0001              !
 ! A3    A(4,1,5)              120.4335         -DE/DX =    0.0002              !
 ! A4    L(1,2,3,4,-1)         180.0            -DE/DX =    0.0                 !
 ! A5    L(1,2,3,4,-2)         180.0            -DE/DX =    0.0                 !
 ! D1    D(2,1,5,4)            180.0            -DE/DX =    0.0                 !
 --------------------------------------------------------------------------------
 GradGradGradGradGradGradGradGradGradGradGradGradGradGradGradGradGradGrad


 ----------------------------------------------------------------------

 Electric dipole moment (input orientation):
 (Debye = 10**-18 statcoulomb cm , SI units = C m)
                  (au)            (Debye)         (10**-30 SI)
   Tot        0.524483D+00      0.133310D+01      0.444675D+01
   x         -0.524483D+00     -0.133310D+01     -0.444675D+01
   y          0.000000D+00      0.000000D+00      0.000000D+00
   z          0.000000D+00      0.000000D+00      0.000000D+00

 Dipole polarizability, Alpha (input orientation).
 (esu units = cm**3 , SI units = C**2 m**2 J**-1)
 Alpha(0;0):
               (au)            (10**-24 esu)      (10**-40 SI)
   iso        0.211107D+02      0.312829D+01      0.348069D+01
   aniso      0.231594D+02      0.343186D+01      0.381846D+01
   xx         0.364227D+02      0.539729D+01      0.600530D+01
   yx         0.149283D-04      0.221214D-05      0.246134D-05
   yy         0.143122D+02      0.212085D+01      0.235976D+01
   zx        -0.155549D-04     -0.230500D-05     -0.256466D-05
   zy         0.148557D+01      0.220139D+00      0.244937D+00
   zz         0.125972D+02      0.186672D+01      0.207701D+01

 ----------------------------------------------------------------------

 Dipole orientation:
     6         -0.18484953          0.02426039         -1.99608548
     6         -0.18484953          0.02426039         -4.48815919
     8         -0.18484953          0.02426039         -6.68864637
     1         -1.08187015         -1.52921936         -0.96942586
     1          0.71217108          1.57774013         -0.96942586

 Electric dipole moment (dipole orientation):
 (Debye = 10**-18 statcoulomb cm , SI units = C m)
                  (au)            (Debye)         (10**-30 SI)
   Tot        0.524483D+00      0.133310D+01      0.444675D+01
   x          0.000000D+00      0.000000D+00      0.000000D+00
   y          0.000000D+00      0.000000D+00      0.000000D+00
   z          0.524483D+00      0.133310D+01      0.444675D+01

 Dipole polarizability, Alpha (dipole orientation).
 (esu units = cm**3 , SI units = C**2 m**2 J**-1)
 Alpha(0;0):
               (au)            (10**-24 esu)      (10**-40 SI)
   iso        0.211107D+02      0.312829D+01      0.348069D+01
   aniso      0.231594D+02      0.343186D+01      0.381846D+01
   xx         0.125972D+02      0.186672D+01      0.207700D+01
   yx         0.148557D+01      0.220139D+00      0.244937D+00
   yy         0.143122D+02      0.212085D+01      0.235976D+01
   zx         0.000000D+00      0.000000D+00      0.000000D+00
   zy         0.000000D+00      0.000000D+00      0.000000D+00
   zz         0.364227D+02      0.539729D+01      0.600530D+01

 ----------------------------------------------------------------------
 Unable to Open any file for archive entry.
 1\1\GINC-NODE01\Freq\RB3LYP\def2SVPP\C2H2O1\XUHJ\19-Dec-2023\0\\#N Geo
 m=AllCheck Guess=TCheck SCRF=Check GenChk RB3LYP/def2SVPP Freq\\C=C=O_
 1\\0,1\C,1.0562828769,0.0128387753,-0.0978188003\C,2.3750314961,0.0128
 396113,-0.0978196091\O,3.5394791649,0.0128403495,-0.0978203233\H,0.512
 9982335,-0.8092273473,-0.5725018549\H,0.5129977734,0.834904209,0.37686
 49208\\Version=ES64L-G16RevC.01\State=1-A1\HF=-152.4866613\RMSD=3.039e
 -10\RMSF=8.628e-05\ZeroPoint=0.030248\Thermal=0.0338292\ETot=-152.4528
 321\HTot=-152.451888\GTot=-152.4794182\Dipole=-0.5244828,-0.0000003,0.
 0000003\DipoleDeriv=-0.8967903,-0.0000003,0.0000001,-0.0000003,-0.3251
 766,0.1765784,0.0000001,0.1765784,-0.5290172,2.2051649,0.0000012,-0.00
 00011,0.0000012,0.3288483,-0.0264402,-0.0000011,-0.0264402,0.3593706,-
 1.5549153,-0.0000008,0.0000008,-0.0000008,-0.2375215,-0.016508,0.00000
 08,-0.016508,-0.2184648,0.1232703,0.0034345,0.0019833,0.0151454,0.1169
 249,-0.0668151,0.0087455,-0.0668151,0.1940557,0.1232703,-0.0034346,-0.
 0019831,-0.0151455,0.1169249,-0.0668151,-0.0087453,-0.0668151,0.194055
 7\Polar=36.4227307,0.0000149,14.3121743,-0.0000156,1.4855695,12.597245
 3\Quadrupole=-0.5756221,0.9331784,-0.3575563,-0.0000003,-0.0000006,1.1
 181081\PG=C02V [C2(C1C1O1),SGV(H2)]\NImag=0\\0.83628535,0.00000038,0.4
 7143792,-0.00000055,0.24626486,0.18715183,-0.54978638,-0.00000031,0.00
 000032,1.62307898,-0.00000031,-0.09050602,-0.03039451,0.00000095,0.146
 38903,0.00000032,-0.03039451,-0.05541885,-0.00000094,0.02595786,0.1164
 2350,-0.05473818,-0.00000005,0.00000004,-1.02887181,-0.00000062,0.0000
 0060,1.07701743,-0.00000005,0.03246021,0.00992636,-0.00000062,-0.06175
 430,-0.00355934,0.00000066,0.03031454,0.00000004,0.00992636,0.02100130
 ,0.00000060,-0.00355934,-0.05764543,-0.00000064,-0.00064696,0.03106139
 ,-0.11588033,-0.11295762,-0.06522474,-0.02221039,-0.02217120,-0.012802
 24,0.00329628,0.00336357,0.00194222,0.12362641,-0.11471159,-0.20669620
 ,-0.11289832,-0.00002136,0.00293563,0.00399799,0.00325846,-0.00051022,
 -0.00286003,0.12161986,0.21298522,-0.06623753,-0.11289832,-0.07636706,
 -0.00001231,0.00399801,-0.00167960,0.00188153,-0.00286003,0.00279137,0
 .07022654,0.11989612,0.07457786,-0.11588046,0.11295760,0.06522493,-0.0
 2221040,0.02217118,0.01280226,0.00329628,-0.00336357,-0.00194222,0.011
 16804,-0.01014538,-0.00585823,0.12362655,0.11471157,-0.20669591,-0.112
 89838,0.00002133,0.00293566,0.00399800,-0.00325846,-0.00051023,-0.0028
 6003,0.01014539,-0.00871443,-0.00813578,-0.12161983,0.21298491,0.06623
 772,-0.11289838,-0.07636722,0.00001233,0.00399798,-0.00167961,-0.00188
 153,-0.00286003,0.00279137,0.00585822,-0.00813576,0.00067743,-0.070226
 75,0.11989618,0.07457803\\0.00022929,0.,0.,0.00011335,0.,0.,-0.0001426
 1,0.,0.,-0.00010002,0.00004697,0.00002712,-0.00010002,-0.00004697,-0.0
 0002712\\\@
 The archive entry for this job was punched.


 THE VALUE OF PHILOSOPHY IS, IN FACT, TO BE SOUGHT LARGELY IN ITS
 VERY UNCERTAINTY.  THE MAN WHO HAS NO TINCTURE OF PHILOSOPHY GOES
 THROUGH LIFE IMPRISONED IN THE PREJUDICES DERIVED FROM COMMON SENSE,
 FROM THE HABITUAL BELIEFS OF HIS AGE OR HIS NATION, AND FROM
 CONVICTIONS WHICH HAVE GROWN UP IN HIS MIND WITHOUT THE CO-OPERATION
 OR CONSENT OF HIS DELIBERATE REASON.  TO SUCH A MAN THE WORLD TENDS
 TO BE DEFINITE, FINITE, OBVIOUS; COMMON OBJECTS ROUSE NO QUESTIONS,
 AND UNFAMILIAR POSSIBILITIES ARE CONTEMPTUOUSLY REJECTED.

                             -- BERTRAND RUSSELL
 Job cpu time:       0 days  0 hours  0 minutes 40.9 seconds.
 Elapsed time:       0 days  0 hours  0 minutes  3.1 seconds.
 File lengths (MBytes):  RWF=      6 Int=      0 D2E=      0 Chk=      1 Scr=      1
 Normal termination of Gaussian 16 at Tue Dec 19 12:53:33 2023.
