%nprocshared=16
%mem=6400MB
#N opt freq B3LYP/def2SVPP symm=veryloose em=gd3bj scale=0.961 press=0.987

c1cc2cccc3c4cccc5cccc(c(c1)c23)c54_1

0 1
C         -2.88200        2.34660       -0.43277
C         -3.55328        1.15262       -0.21356
C         -2.83690       -0.02706        0.01888
C         -3.52200       -1.21723        0.27542
C         -2.82225       -2.40137        0.46167
C         -1.43562       -2.41296        0.32425
C         -0.69576       -1.23280        0.07314
C          0.72035       -1.21741       -0.08764
C          1.48953       -2.37957       -0.33691
C          2.87831       -2.34135       -0.43175
C          3.54893       -1.14491       -0.21725
C          2.83327        0.03009        0.01438
C          3.51889        1.22578        0.26559
C          2.81883        2.40895        0.45411
C          1.43221        2.41707        0.31927
C          0.69316        1.23498        0.07266
C         -0.72389        1.21902       -0.09224
C         -1.49248        2.38306       -0.33819
C         -1.41115       -0.01345       -0.00081
C          1.40578        0.01505       -0.00090
H         -3.43681        3.25240       -0.66243
H         -4.63975        1.14477       -0.24918
H         -4.60711       -1.22853        0.35637
H         -3.35314       -3.31674        0.70800
H         -0.92900       -3.36339        0.47490
H          1.00392       -3.33721       -0.50875
H          3.43420       -3.24597       -0.66321
H          4.63442       -1.13754       -0.25031
H          4.60389        1.23903        0.33991
H          3.34836        3.32626        0.69553
H          0.92366        3.36583        0.47183
H         -1.00700        3.34063       -0.50853

