 Entering Gaussian System, Link 0=g16
 Initial command:
 /home/software/g16/l1.exe "/home/software/g16tmp/Gau-104812.inp" -scrdir="/home/software/g16tmp/"
 Default is to use a total of   8 processors:
                                8 via shared-memory
                                1 via Linda
 Entering Link 1 = /home/software/g16/l1.exe PID=    104813.
  
 Copyright (c) 1988-2019, Gaussian, Inc.  All Rights Reserved.
  
 This is part of the Gaussian(R) 16 program.  It is based on
 the Gaussian(R) 09 system (copyright 2009, Gaussian, Inc.),
 the Gaussian(R) 03 system (copyright 2003, Gaussian, Inc.),
 the Gaussian(R) 98 system (copyright 1998, Gaussian, Inc.),
 the Gaussian(R) 94 system (copyright 1995, Gaussian, Inc.),
 the Gaussian 92(TM) system (copyright 1992, Gaussian, Inc.),
 the Gaussian 90(TM) system (copyright 1990, Gaussian, Inc.),
 the Gaussian 88(TM) system (copyright 1988, Gaussian, Inc.),
 the Gaussian 86(TM) system (copyright 1986, Carnegie Mellon
 University), and the Gaussian 82(TM) system (copyright 1983,
 Carnegie Mellon University). Gaussian is a federally registered
 trademark of Gaussian, Inc.
  
 This software contains proprietary and confidential information,
 including trade secrets, belonging to Gaussian, Inc.
  
 This software is provided under written license and may be
 used, copied, transmitted, or stored only in accord with that
 written license.
  
 The following legend is applicable only to US Government
 contracts under FAR:
  
                    RESTRICTED RIGHTS LEGEND
  
 Use, reproduction and disclosure by the US Government is
 subject to restrictions as set forth in subparagraphs (a)
 and (c) of the Commercial Computer Software - Restricted
 Rights clause in FAR 52.227-19.
  
 Gaussian, Inc.
 340 Quinnipiac St., Bldg. 40, Wallingford CT 06492
  
  
 ---------------------------------------------------------------
 Warning -- This program may not be used in any manner that
 competes with the business of Gaussian, Inc. or will provide
 assistance to any competitor of Gaussian, Inc.  The licensee
 of this program is prohibited from giving any competitor of
 Gaussian, Inc. access to this program.  By using this program,
 the user acknowledges that Gaussian, Inc. is engaged in the
 business of creating and licensing software in the field of
 computational chemistry and represents and warrants to the
 licensee that it is not a competitor of Gaussian, Inc. and that
 it will not use this program in any manner prohibited above.
 ---------------------------------------------------------------
  

 Cite this work as:
 Gaussian 16, Revision C.01,
 M. J. Frisch, G. W. Trucks, H. B. Schlegel, G. E. Scuseria, 
 M. A. Robb, J. R. Cheeseman, G. Scalmani, V. Barone, 
 G. A. Petersson, H. Nakatsuji, X. Li, M. Caricato, A. V. Marenich, 
 J. Bloino, B. G. Janesko, R. Gomperts, B. Mennucci, H. P. Hratchian, 
 J. V. Ortiz, A. F. Izmaylov, J. L. Sonnenberg, D. Williams-Young, 
 F. Ding, F. Lipparini, F. Egidi, J. Goings, B. Peng, A. Petrone, 
 T. Henderson, D. Ranasinghe, V. G. Zakrzewski, J. Gao, N. Rega, 
 G. Zheng, W. Liang, M. Hada, M. Ehara, K. Toyota, R. Fukuda, 
 J. Hasegawa, M. Ishida, T. Nakajima, Y. Honda, O. Kitao, H. Nakai, 
 T. Vreven, K. Throssell, J. A. Montgomery, Jr., J. E. Peralta, 
 F. Ogliaro, M. J. Bearpark, J. J. Heyd, E. N. Brothers, K. N. Kudin, 
 V. N. Staroverov, T. A. Keith, R. Kobayashi, J. Normand, 
 K. Raghavachari, A. P. Rendell, J. C. Burant, S. S. Iyengar, 
 J. Tomasi, M. Cossi, J. M. Millam, M. Klene, C. Adamo, R. Cammi, 
 J. W. Ochterski, R. L. Martin, K. Morokuma, O. Farkas, 
 J. B. Foresman, and D. J. Fox, Gaussian, Inc., Wallingford CT, 2019.
 
 ******************************************
 Gaussian 16:  ES64L-G16RevC.01  3-Jul-2019
                19-Dec-2023 
 ******************************************
 %nprocshared=16
 Will use up to   16 processors via shared memory.
 %mem=960MB
 ----------------------------------------------------------------------
 #N opt freq B3LYP/def2SVPP symm=veryloose em=gd3bj scale=0.961 press=0
 .987
 ----------------------------------------------------------------------
 1/18=20,19=15,26=3,38=1,113=-987000,114=961000/1,3;
 2/9=110,12=2,17=2,18=2,40=1/2;
 3/5=43,7=202,11=2,25=1,30=1,71=1,74=-5,124=41/1,2,3;
 4//1;
 5/5=2,38=5/2;
 6/7=2,8=2,9=2,10=2,28=1/1;
 7//1,2,3,16;
 1/18=20,19=15,26=3/3(2);
 2/9=110/2;
 99//99;
 2/9=110/2;
 3/5=43,7=202,11=2,25=1,30=1,71=1,74=-5,124=41/1,2,3;
 4/5=5,16=3,69=1/1;
 5/5=2,38=5/2;
 7//1,2,3,16;
 1/18=20,19=15,26=3/3(-5);
 2/9=110/2;
 6/7=2,8=2,9=2,10=2,19=2,28=1/1;
 99/9=1/99;
 -------
 O=C=O_1
 -------
 Symbolic Z-matrix:
 Charge =  0 Multiplicity = 1
 O                     1.15895  -0.05374   0.00026 
 C                     2.35524  -0.05374   0.00026 
 O                     3.55152  -0.05374   0.00026 
 

 GradGradGradGradGradGradGradGradGradGradGradGradGradGradGradGradGradGrad
 Berny optimization.
 Initialization pass.
                           ----------------------------
                           !    Initial Parameters    !
                           ! (Angstroms and Degrees)  !
 --------------------------                            --------------------------
 ! Name  Definition              Value          Derivative Info.                !
 --------------------------------------------------------------------------------
 ! R1    R(1,2)                  1.1963         estimate D2E/DX2                !
 ! R2    R(2,3)                  1.1963         estimate D2E/DX2                !
 ! A1    L(1,2,3,-2,-1)        180.0            estimate D2E/DX2                !
 ! A2    L(1,2,3,-3,-2)        180.0            estimate D2E/DX2                !
 --------------------------------------------------------------------------------
 Trust Radius=3.00D-01 FncErr=1.00D-07 GrdErr=1.00D-06 EigMax=2.50D+02 EigMin=1.00D-04
 Number of steps in this run=     20 maximum allowed number of steps=    100.
 GradGradGradGradGradGradGradGradGradGradGradGradGradGradGradGradGradGrad

                          Input orientation:                          
 ---------------------------------------------------------------------
 Center     Atomic      Atomic             Coordinates (Angstroms)
 Number     Number       Type             X           Y           Z
 ---------------------------------------------------------------------
      1          8           0        1.158950   -0.053740    0.000260
      2          6           0        2.355240   -0.053740    0.000260
      3          8           0        3.551520   -0.053740    0.000260
 ---------------------------------------------------------------------
                    Distance matrix (angstroms):
                    1          2          3
     1  O    0.000000
     2  C    1.196290   0.000000
     3  O    2.392570   1.196280   0.000000
 Stoichiometry    CO2
 Framework group  D*H[O(C),C*(O.O)]
 Deg. of freedom     1
 Full point group                 D*H     NOp   8
 Largest Abelian subgroup         D2H     NOp   8
 Largest concise Abelian subgroup C2      NOp   2
                         Standard orientation:                         
 ---------------------------------------------------------------------
 Center     Atomic      Atomic             Coordinates (Angstroms)
 Number     Number       Type             X           Y           Z
 ---------------------------------------------------------------------
      1          8           0        0.000000    0.000000    1.196286
      2          6           0       -0.000000   -0.000000    0.000000
      3          8           0        0.000000   -0.000000   -1.196286
 ---------------------------------------------------------------------
 Rotational constants (GHZ):           0.0000000          11.0391332          11.0391332
 Standard basis: def2SVPP (5D, 7F)
 There are    14 symmetry adapted cartesian basis functions of AG  symmetry.
 There are     2 symmetry adapted cartesian basis functions of B1G symmetry.
 There are     4 symmetry adapted cartesian basis functions of B2G symmetry.
 There are     4 symmetry adapted cartesian basis functions of B3G symmetry.
 There are     1 symmetry adapted cartesian basis functions of AU  symmetry.
 There are    10 symmetry adapted cartesian basis functions of B1U symmetry.
 There are     5 symmetry adapted cartesian basis functions of B2U symmetry.
 There are     5 symmetry adapted cartesian basis functions of B3U symmetry.
 There are    12 symmetry adapted basis functions of AG  symmetry.
 There are     2 symmetry adapted basis functions of B1G symmetry.
 There are     4 symmetry adapted basis functions of B2G symmetry.
 There are     4 symmetry adapted basis functions of B3G symmetry.
 There are     1 symmetry adapted basis functions of AU  symmetry.
 There are     9 symmetry adapted basis functions of B1U symmetry.
 There are     5 symmetry adapted basis functions of B2U symmetry.
 There are     5 symmetry adapted basis functions of B3U symmetry.
    42 basis functions,    75 primitive gaussians,    45 cartesian basis functions
    11 alpha electrons       11 beta electrons
       nuclear repulsion energy        56.6207933624 Hartrees.
 NAtoms=    3 NActive=    3 NUniq=    2 SFac= 2.25D+00 NAtFMM=   60 NAOKFM=F Big=F
 Integral buffers will be    131072 words long.
 Raffenetti 2 integral format.
 Two-electron integral symmetry is turned on.
 Nuclear repulsion after empirical dispersion term =       56.6191576758 Hartrees.
 One-electron integrals computed using PRISM.
   8 Symmetry operations used in ECPInt.
 ECPInt:  NShTT=     171 NPrTT=     705 LenC2=     171 LenP2D=     625.
 LDataN:  DoStor=T MaxTD1= 4 Len=   56
 NBasis=    42 RedAO= T EigKep=  9.34D-03  NBF=    12     2     4     4     1     9     5     5
 NBsUse=    42 1.00D-06 EigRej= -1.00D+00 NBFU=    12     2     4     4     1     9     5     5
 ExpMin= 1.31D-01 ExpMax= 2.27D+03 ExpMxC= 3.41D+02 IAcc=3 IRadAn=         5 AccDes= 0.00D+00
 Harris functional with IExCor=  402 and IRadAn=       5 diagonalized for initial guess.
 HarFok:  IExCor=  402 AccDes= 0.00D+00 IRadAn=         5 IDoV= 1 UseB2=F ITyADJ=14
 ICtDFT=  3500011 ScaDFX=  1.000000  1.000000  1.000000  1.000000
 FoFCou: FMM=F IPFlag=           0 FMFlag=      100000 FMFlg1=           0
         NFxFlg=           0 DoJE=T BraDBF=F KetDBF=T FulRan=T
         wScrn=  0.000000 ICntrl=       500 IOpCl=  0 I1Cent=   200000004 NGrid=           0
         NMat0=    1 NMatS0=      1 NMatT0=    0 NMatD0=    1 NMtDS0=    0 NMtDT0=    0
 Petite list used in FoFCou.
 Initial guess orbital symmetries:
       Occupied  (SGU) (SGG) (SGG) (SGG) (SGU) (SGG) (SGU) (PIU)
                 (PIU) (PIG) (PIG)
       Virtual   (PIU) (PIU) (SGG) (SGU) (SGG) (PIU) (PIU) (SGU)
                 (SGG) (PIG) (PIG) (SGU) (PIU) (PIU) (SGG) (PIG)
                 (PIG) (SGU) (DLTG) (DLTG) (DLTU) (DLTU) (DLTG)
                 (DLTG) (SGG) (PIU) (PIU) (SGU) (PIG) (PIG) (SGG)
 The electronic state of the initial guess is 1-SGG.
 Keep R1 ints in memory in symmetry-blocked form, NReq=14309765.
 Requested convergence on RMS density matrix=1.00D-08 within 128 cycles.
 Requested convergence on MAX density matrix=1.00D-06.
 Requested convergence on             energy=1.00D-06.
 No special actions if energy rises.
 Integral accuracy reduced to 1.0D-05 until final iterations.
 Initial convergence to 1.0D-05 achieved.  Increase integral accuracy.
 SCF Done:  E(RB3LYP) =  -188.440414902     A.U. after   10 cycles
            NFock= 10  Conv=0.23D-08     -V/T= 2.0089

 **********************************************************************

            Population analysis using the SCF Density.

 **********************************************************************

 Orbital symmetries:
       Occupied  (SGU) (SGG) (SGG) (SGG) (SGU) (SGG) (SGU) (PIU)
                 (PIU) (PIG) (PIG)
       Virtual   (PIU) (PIU) (SGG) (SGU) (PIU) (PIU) (SGG) (SGU)
                 (SGG) (PIG) (PIG) (SGU) (PIU) (PIU) (SGG) (DLTG)
                 (DLTG) (PIG) (PIG) (SGU) (DLTU) (DLTU) (DLTG)
                 (DLTG) (SGG) (PIU) (PIU) (PIG) (PIG) (SGU) (SGG)
 The electronic state is 1-SGG.
 Alpha  occ. eigenvalues --  -19.22542 -19.22535 -10.39151  -1.13623  -1.09719
 Alpha  occ. eigenvalues --   -0.56012  -0.51659  -0.50874  -0.50874  -0.37273
 Alpha  occ. eigenvalues --   -0.37273
 Alpha virt. eigenvalues --    0.00732   0.00732   0.04495   0.34077   0.41807
 Alpha virt. eigenvalues --    0.41807   0.42546   0.71915   0.81405   0.89694
 Alpha virt. eigenvalues --    0.89694   1.01887   1.08029   1.08029   1.22657
 Alpha virt. eigenvalues --    1.53159   1.53159   1.54617   1.54617   1.57079
 Alpha virt. eigenvalues --    2.54795   2.54795   2.64673   2.64673   2.69355
 Alpha virt. eigenvalues --    2.72681   2.72681   3.45218   3.45218   3.45434
 Alpha virt. eigenvalues --    3.80066
          Condensed to atoms (all electrons):
               1          2          3
     1  O    7.523032   0.650125  -0.024293
     2  C    0.650125   4.402022   0.650125
     3  O   -0.024293   0.650125   7.523032
 Mulliken charges:
               1
     1  O   -0.148864
     2  C    0.297727
     3  O   -0.148864
 Sum of Mulliken charges =   0.00000
 Mulliken charges with hydrogens summed into heavy atoms:
               1
     1  O   -0.148864
     2  C    0.297727
     3  O   -0.148864
 Electronic spatial extent (au):  <R**2>=            117.8442
 Charge=              0.0000 electrons
 Dipole moment (field-independent basis, Debye):
    X=             -0.0000    Y=              0.0000    Z=             -0.0000  Tot=              0.0000
 Quadrupole moment (field-independent basis, Debye-Ang):
   XX=            -14.6214   YY=            -14.6214   ZZ=            -19.2797
   XY=              0.0000   XZ=              0.0000   YZ=             -0.0000
 Traceless Quadrupole moment (field-independent basis, Debye-Ang):
   XX=              1.5528   YY=              1.5528   ZZ=             -3.1055
   XY=              0.0000   XZ=              0.0000   YZ=             -0.0000
 Octapole moment (field-independent basis, Debye-Ang**2):
  XXX=             -0.0000  YYY=              0.0000  ZZZ=              0.0000  XYY=             -0.0000
  XXY=              0.0000  XXZ=              0.0000  XZZ=             -0.0000  YZZ=              0.0000
  YYZ=              0.0000  XYZ=             -0.0000
 Hexadecapole moment (field-independent basis, Debye-Ang**3):
 XXXX=            -10.7600 YYYY=            -10.7600 ZZZZ=           -105.4046 XXXY=              0.0000
 XXXZ=              0.0000 YYYX=              0.0000 YYYZ=             -0.0000 ZZZX=              0.0000
 ZZZY=              0.0000 XXYY=             -3.5867 XXZZ=            -18.8383 YYZZ=            -18.8383
 XXYZ=             -0.0000 YYXZ=              0.0000 ZZXY=              0.0000
 N-N= 5.661915767581D+01 E-N=-5.560109859366D+02  KE= 1.867827597707D+02
 Symmetry AG   KE= 1.007327851698D+02
 Symmetry B1G  KE= 8.493201203282D-34
 Symmetry B2G  KE= 4.918313747396D+00
 Symmetry B3G  KE= 4.918313747396D+00
 Symmetry AU   KE= 1.259834174596D-34
 Symmetry B1U  KE= 6.897937383684D+01
 Symmetry B2U  KE= 3.616986634641D+00
 Symmetry B3U  KE= 3.616986634641D+00
   8 Symmetry operations used in ECPInt.
 ECPInt:  NShTT=     171 NPrTT=     705 LenC2=     171 LenP2D=     625.
 LDataN:  DoStor=T MaxTD1= 5 Len=  102
 Calling FoFJK, ICntrl=      2127 FMM=F ISym2X=1 I1Cent= 0 IOpClX= 0 NMat=1 NMatS=1 NMatT=0.
 ***** Axes restored to original set *****
 -------------------------------------------------------------------
 Center     Atomic                   Forces (Hartrees/Bohr)
 Number     Number              X              Y              Z
 -------------------------------------------------------------------
      1        8           0.065357288   -0.000000000   -0.000000000
      2        6          -0.000000000    0.000000000    0.000000000
      3        8          -0.065357288   -0.000000000   -0.000000000
 -------------------------------------------------------------------
 Cartesian Forces:  Max     0.065357288 RMS     0.030809721

 GradGradGradGradGradGradGradGradGradGradGradGradGradGradGradGradGradGrad
 Berny optimization.
 FormGI is forming the generalized inverse of G from B-inverse, IUseBI=4.
 Internal  Forces:  Max     0.065357288 RMS     0.046214582
 Search for a local minimum.
 Step number   1 out of a maximum of   20
 All quantities printed in internal units (Hartrees-Bohrs-Radians)
 Mixed Optimization -- RFO/linear search
 Second derivative matrix not updated -- first step.
 The second derivative matrix:
                          R1        R2        A1        A2
           R1           1.06711
           R2           0.00000   1.06711
           A1           0.00000   0.00000   0.04387
           A2           0.00000   0.00000   0.00000   0.04387
 ITU=  0
     Eigenvalues ---    0.04387   0.04387   1.06711   1.06711
 RFO step:  Lambda=-7.94666864D-03 EMin= 4.38652125D-02
 Linear search not attempted -- first point.
 Iteration  1 RMS(Cart)=  0.04298787 RMS(Int)=  0.00000000
 Iteration  2 RMS(Cart)=  0.00000000 RMS(Int)=  0.00000000
 ClnCor:  largest displacement from symmetrization is 1.98D-13 for atom     2.
 Variable       Old X    -DE/DX   Delta X   Delta X   Delta X     New X
                                 (Linear)    (Quad)   (Total)
    R1        2.26065  -0.06536   0.00000  -0.06079  -0.06079   2.19986
    R2        2.26065  -0.06536   0.00000  -0.06079  -0.06079   2.19986
    A1        3.14159  -0.00000   0.00000  -0.00000   0.00000   3.14159
    A2        3.14159   0.00000   0.00000   0.00000   0.00000   3.14159
         Item               Value     Threshold  Converged?
 Maximum Force            0.065357     0.000450     NO 
 RMS     Force            0.046215     0.000300     NO 
 Maximum Displacement     0.060794     0.001800     NO 
 RMS     Displacement     0.042988     0.001200     NO 
 Predicted change in Energy=-4.002703D-03
 GradGradGradGradGradGradGradGradGradGradGradGradGradGradGradGradGradGrad

                          Input orientation:                          
 ---------------------------------------------------------------------
 Center     Atomic      Atomic             Coordinates (Angstroms)
 Number     Number       Type             X           Y           Z
 ---------------------------------------------------------------------
      1          8           0        1.191121   -0.053740    0.000260
      2          6           0        2.355236   -0.053740    0.000260
      3          8           0        3.519352   -0.053740    0.000260
 ---------------------------------------------------------------------
                    Distance matrix (angstroms):
                    1          2          3
     1  O    0.000000
     2  C    1.164116   0.000000
     3  O    2.328231   1.164116   0.000000
 Stoichiometry    CO2
 Framework group  D*H[O(C),C*(O.O)]
 Deg. of freedom     1
 Full point group                 D*H     NOp   8
 Largest Abelian subgroup         D2H     NOp   8
 Largest concise Abelian subgroup C2      NOp   2
                         Standard orientation:                         
 ---------------------------------------------------------------------
 Center     Atomic      Atomic             Coordinates (Angstroms)
 Number     Number       Type             X           Y           Z
 ---------------------------------------------------------------------
      1          8           0        0.000000    0.000000    1.164116
      2          6           0        0.000000    0.000000    0.000000
      3          8           0        0.000000    0.000000   -1.164116
 ---------------------------------------------------------------------
 Rotational constants (GHZ):           0.0000000          11.6577059          11.6577059
 Standard basis: def2SVPP (5D, 7F)
 There are    14 symmetry adapted cartesian basis functions of AG  symmetry.
 There are     2 symmetry adapted cartesian basis functions of B1G symmetry.
 There are     4 symmetry adapted cartesian basis functions of B2G symmetry.
 There are     4 symmetry adapted cartesian basis functions of B3G symmetry.
 There are     1 symmetry adapted cartesian basis functions of AU  symmetry.
 There are    10 symmetry adapted cartesian basis functions of B1U symmetry.
 There are     5 symmetry adapted cartesian basis functions of B2U symmetry.
 There are     5 symmetry adapted cartesian basis functions of B3U symmetry.
 There are    12 symmetry adapted basis functions of AG  symmetry.
 There are     2 symmetry adapted basis functions of B1G symmetry.
 There are     4 symmetry adapted basis functions of B2G symmetry.
 There are     4 symmetry adapted basis functions of B3G symmetry.
 There are     1 symmetry adapted basis functions of AU  symmetry.
 There are     9 symmetry adapted basis functions of B1U symmetry.
 There are     5 symmetry adapted basis functions of B2U symmetry.
 There are     5 symmetry adapted basis functions of B3U symmetry.
    42 basis functions,    75 primitive gaussians,    45 cartesian basis functions
    11 alpha electrons       11 beta electrons
       nuclear repulsion energy        58.1855323288 Hartrees.
 NAtoms=    3 NActive=    3 NUniq=    2 SFac= 2.25D+00 NAtFMM=   60 NAOKFM=F Big=F
 Integral buffers will be    131072 words long.
 Raffenetti 2 integral format.
 Two-electron integral symmetry is turned on.
 Nuclear repulsion after empirical dispersion term =       58.1838896361 Hartrees.
 One-electron integrals computed using PRISM.
   8 Symmetry operations used in ECPInt.
 ECPInt:  NShTT=     171 NPrTT=     705 LenC2=     171 LenP2D=     625.
 LDataN:  DoStor=T MaxTD1= 4 Len=   56
 NBasis=    42 RedAO= T EigKep=  9.14D-03  NBF=    12     2     4     4     1     9     5     5
 NBsUse=    42 1.00D-06 EigRej= -1.00D+00 NBFU=    12     2     4     4     1     9     5     5
 Initial guess from the checkpoint file:  "/home/software/g16tmp/Gau-104813.chk"
 B after Tr=    -0.000000   -0.000000    0.000000
         Rot=    1.000000   -0.000000    0.000000    0.000000 Ang=   0.00 deg.
 Initial guess orbital symmetries:
       Occupied  (SGU) (SGG) (SGG) (SGG) (SGU) (SGG) (SGU) (PIU)
                 (PIU) (PIG) (PIG)
       Virtual   (PIU) (PIU) (SGG) (SGU) (PIU) (PIU) (SGG) (SGU)
                 (SGG) (PIG) (PIG) (SGU) (PIU) (PIU) (SGG) (DLTG)
                 (DLTG) (PIG) (PIG) (SGU) (DLTU) (DLTU) (DLTG)
                 (DLTG) (SGG) (PIU) (PIU) (PIG) (PIG) (SGU) (SGG)
 ExpMin= 1.31D-01 ExpMax= 2.27D+03 ExpMxC= 3.41D+02 IAcc=3 IRadAn=         5 AccDes= 0.00D+00
 Harris functional with IExCor=  402 and IRadAn=       5 diagonalized for initial guess.
 HarFok:  IExCor=  402 AccDes= 0.00D+00 IRadAn=         5 IDoV= 1 UseB2=F ITyADJ=14
 ICtDFT=  3500011 ScaDFX=  1.000000  1.000000  1.000000  1.000000
 FoFCou: FMM=F IPFlag=           0 FMFlag=      100000 FMFlg1=           0
         NFxFlg=           0 DoJE=T BraDBF=F KetDBF=T FulRan=T
         wScrn=  0.000000 ICntrl=       500 IOpCl=  0 I1Cent=   200000004 NGrid=           0
         NMat0=    1 NMatS0=      1 NMatT0=    0 NMatD0=    1 NMtDS0=    0 NMtDT0=    0
 Petite list used in FoFCou.
 Keep R1 ints in memory in symmetry-blocked form, NReq=14309765.
 Requested convergence on RMS density matrix=1.00D-08 within 128 cycles.
 Requested convergence on MAX density matrix=1.00D-06.
 Requested convergence on             energy=1.00D-06.
 No special actions if energy rises.
 Integral accuracy reduced to 1.0D-05 until final iterations.
 Initial convergence to 1.0D-05 achieved.  Increase integral accuracy.
 SCF Done:  E(RB3LYP) =  -188.444674989     A.U. after    9 cycles
            NFock=  9  Conv=0.16D-08     -V/T= 2.0076
   8 Symmetry operations used in ECPInt.
 ECPInt:  NShTT=     171 NPrTT=     705 LenC2=     171 LenP2D=     625.
 LDataN:  DoStor=T MaxTD1= 5 Len=  102
 Calling FoFJK, ICntrl=      2127 FMM=F ISym2X=1 I1Cent= 0 IOpClX= 0 NMat=1 NMatS=1 NMatT=0.
 ***** Axes restored to original set *****
 -------------------------------------------------------------------
 Center     Atomic                   Forces (Hartrees/Bohr)
 Number     Number              X              Y              Z
 -------------------------------------------------------------------
      1        8           0.002313153   -0.000000000   -0.000000000
      2        6          -0.000000000    0.000000000    0.000000000
      3        8          -0.002313153   -0.000000000   -0.000000000
 -------------------------------------------------------------------
 Cartesian Forces:  Max     0.002313153 RMS     0.001090431

 GradGradGradGradGradGradGradGradGradGradGradGradGradGradGradGradGradGrad
 Berny optimization.
 Using GEDIIS/GDIIS optimizer.
 Internal  Forces:  Max     0.002313153 RMS     0.001635647
 Search for a local minimum.
 Step number   2 out of a maximum of   20
 All quantities printed in internal units (Hartrees-Bohrs-Radians)
 Mixed Optimization -- RFO/linear search
 Update second derivatives using D2CorX and points    1    2
 DE= -4.26D-03 DEPred=-4.00D-03 R= 1.06D+00
 TightC=F SS=  1.41D+00  RLast= 8.60D-02 DXNew= 5.0454D-01 2.5793D-01
 Trust test= 1.06D+00 RLast= 8.60D-02 DXMaxT set to 3.00D-01
 The second derivative matrix:
                          R1        R2        A1        A2
           R1           1.05206
           R2          -0.01505   1.05206
           A1          -0.00000  -0.00000   0.04387
           A2           0.00000   0.00000  -0.00000   0.04387
 ITU=  1  0
 Use linear search instead of GDIIS.
     Eigenvalues ---    0.04387   0.04387   1.03701   1.06711
 RFO step:  Lambda= 0.00000000D+00 EMin= 4.38652125D-02
 Quartic linear search produced a step of  0.03274.
 Iteration  1 RMS(Cart)=  0.00140761 RMS(Int)=  0.00000000
 Iteration  2 RMS(Cart)=  0.00000000 RMS(Int)=  0.00000000
 ClnCor:  largest displacement from symmetrization is 2.40D-13 for atom     2.
 Variable       Old X    -DE/DX   Delta X   Delta X   Delta X     New X
                                 (Linear)    (Quad)   (Total)
    R1        2.19986  -0.00231  -0.00199  -0.00000  -0.00199   2.19787
    R2        2.19986  -0.00231  -0.00199   0.00000  -0.00199   2.19787
    A1        3.14159  -0.00000   0.00000  -0.00000   0.00000   3.14159
    A2        3.14159   0.00000   0.00000   0.00000   0.00000   3.14159
         Item               Value     Threshold  Converged?
 Maximum Force            0.002313     0.000450     NO 
 RMS     Force            0.001636     0.000300     NO 
 Maximum Displacement     0.001991     0.001800     NO 
 RMS     Displacement     0.001408     0.001200     NO 
 Predicted change in Energy=-5.100011D-06
 GradGradGradGradGradGradGradGradGradGradGradGradGradGradGradGradGradGrad

                          Input orientation:                          
 ---------------------------------------------------------------------
 Center     Atomic      Atomic             Coordinates (Angstroms)
 Number     Number       Type             X           Y           Z
 ---------------------------------------------------------------------
      1          8           0        1.192174   -0.053740    0.000260
      2          6           0        2.355236   -0.053740    0.000260
      3          8           0        3.518298   -0.053740    0.000260
 ---------------------------------------------------------------------
                    Distance matrix (angstroms):
                    1          2          3
     1  O    0.000000
     2  C    1.163062   0.000000
     3  O    2.326124   1.163062   0.000000
 Stoichiometry    CO2
 Framework group  D*H[O(C),C*(O.O)]
 Deg. of freedom     1
 Full point group                 D*H     NOp   8
 Largest Abelian subgroup         D2H     NOp   8
 Largest concise Abelian subgroup C2      NOp   2
                         Standard orientation:                         
 ---------------------------------------------------------------------
 Center     Atomic      Atomic             Coordinates (Angstroms)
 Number     Number       Type             X           Y           Z
 ---------------------------------------------------------------------
      1          8           0        0.000000    0.000000    1.163062
      2          6           0        0.000000    0.000000    0.000000
      3          8           0        0.000000    0.000000   -1.163062
 ---------------------------------------------------------------------
 Rotational constants (GHZ):           0.0000000          11.6788328          11.6788328
 Standard basis: def2SVPP (5D, 7F)
 There are    14 symmetry adapted cartesian basis functions of AG  symmetry.
 There are     2 symmetry adapted cartesian basis functions of B1G symmetry.
 There are     4 symmetry adapted cartesian basis functions of B2G symmetry.
 There are     4 symmetry adapted cartesian basis functions of B3G symmetry.
 There are     1 symmetry adapted cartesian basis functions of AU  symmetry.
 There are    10 symmetry adapted cartesian basis functions of B1U symmetry.
 There are     5 symmetry adapted cartesian basis functions of B2U symmetry.
 There are     5 symmetry adapted cartesian basis functions of B3U symmetry.
 There are    12 symmetry adapted basis functions of AG  symmetry.
 There are     2 symmetry adapted basis functions of B1G symmetry.
 There are     4 symmetry adapted basis functions of B2G symmetry.
 There are     4 symmetry adapted basis functions of B3G symmetry.
 There are     1 symmetry adapted basis functions of AU  symmetry.
 There are     9 symmetry adapted basis functions of B1U symmetry.
 There are     5 symmetry adapted basis functions of B2U symmetry.
 There are     5 symmetry adapted basis functions of B3U symmetry.
    42 basis functions,    75 primitive gaussians,    45 cartesian basis functions
    11 alpha electrons       11 beta electrons
       nuclear repulsion energy        58.2382324290 Hartrees.
 NAtoms=    3 NActive=    3 NUniq=    2 SFac= 2.25D+00 NAtFMM=   60 NAOKFM=F Big=F
 Integral buffers will be    131072 words long.
 Raffenetti 2 integral format.
 Two-electron integral symmetry is turned on.
 Nuclear repulsion after empirical dispersion term =       58.2365895233 Hartrees.
 One-electron integrals computed using PRISM.
   8 Symmetry operations used in ECPInt.
 ECPInt:  NShTT=     171 NPrTT=     705 LenC2=     171 LenP2D=     625.
 LDataN:  DoStor=T MaxTD1= 4 Len=   56
 NBasis=    42 RedAO= T EigKep=  9.13D-03  NBF=    12     2     4     4     1     9     5     5
 NBsUse=    42 1.00D-06 EigRej= -1.00D+00 NBFU=    12     2     4     4     1     9     5     5
 Initial guess from the checkpoint file:  "/home/software/g16tmp/Gau-104813.chk"
 B after Tr=    -0.000000    0.000000    0.000000
         Rot=    1.000000    0.000000    0.000000    0.000000 Ang=   0.00 deg.
 Initial guess orbital symmetries:
       Occupied  (SGU) (SGG) (SGG) (SGG) (SGU) (SGG) (PIU) (PIU)
                 (SGU) (PIG) (PIG)
       Virtual   (PIU) (PIU) (SGG) (SGU) (PIU) (PIU) (SGG) (SGU)
                 (SGG) (PIG) (PIG) (SGU) (PIU) (PIU) (SGG) (DLTG)
                 (DLTG) (SGU) (PIG) (PIG) (DLTU) (DLTU) (DLTG)
                 (DLTG) (PIU) (PIU) (SGG) (SGU) (PIG) (PIG) (SGG)
 Keep R1 ints in memory in symmetry-blocked form, NReq=14309765.
 Requested convergence on RMS density matrix=1.00D-08 within 128 cycles.
 Requested convergence on MAX density matrix=1.00D-06.
 Requested convergence on             energy=1.00D-06.
 No special actions if energy rises.
 SCF Done:  E(RB3LYP) =  -188.444679593     A.U. after    6 cycles
            NFock=  6  Conv=0.46D-08     -V/T= 2.0075
   8 Symmetry operations used in ECPInt.
 ECPInt:  NShTT=     171 NPrTT=     705 LenC2=     171 LenP2D=     625.
 LDataN:  DoStor=T MaxTD1= 5 Len=  102
 Calling FoFJK, ICntrl=      2127 FMM=F ISym2X=1 I1Cent= 0 IOpClX= 0 NMat=1 NMatS=1 NMatT=0.
 ***** Axes restored to original set *****
 -------------------------------------------------------------------
 Center     Atomic                   Forces (Hartrees/Bohr)
 Number     Number              X              Y              Z
 -------------------------------------------------------------------
      1        8          -0.000003195   -0.000000000   -0.000000000
      2        6          -0.000000000    0.000000000    0.000000000
      3        8           0.000003195   -0.000000000   -0.000000000
 -------------------------------------------------------------------
 Cartesian Forces:  Max     0.000003195 RMS     0.000001506

 GradGradGradGradGradGradGradGradGradGradGradGradGradGradGradGradGradGrad
 Berny optimization.
 Using GEDIIS/GDIIS optimizer.
 Internal  Forces:  Max     0.000003195 RMS     0.000002259
 Search for a local minimum.
 Step number   3 out of a maximum of   20
 All quantities printed in internal units (Hartrees-Bohrs-Radians)
 Mixed Optimization -- En-DIIS/RFO-DIIS
 Update second derivatives using D2CorX and points    1    2    3
 DE= -4.60D-06 DEPred=-5.10D-06 R= 9.03D-01
 TightC=F SS=  1.41D+00  RLast= 2.82D-03 DXNew= 5.0454D-01 8.4457D-03
 Trust test= 9.03D-01 RLast= 2.82D-03 DXMaxT set to 3.00D-01
 The second derivative matrix:
                          R1        R2        A1        A2
           R1           1.11536
           R2           0.04825   1.11536
           A1          -0.00000  -0.00000   0.04387
           A2           0.00000   0.00000  -0.00000   0.04387
 ITU=  1  1  0
 Use linear search instead of GDIIS.
     Eigenvalues ---    0.04387   0.04387   1.06711   1.16361
 RFO step:  Lambda= 0.00000000D+00 EMin= 4.38652125D-02
 Quartic linear search produced a step of -0.00137.
 Iteration  1 RMS(Cart)=  0.00000193 RMS(Int)=  0.00000000
 Iteration  2 RMS(Cart)=  0.00000000 RMS(Int)=  0.00000000
 ClnCor:  largest displacement from symmetrization is 2.40D-13 for atom     2.
 Variable       Old X    -DE/DX   Delta X   Delta X   Delta X     New X
                                 (Linear)    (Quad)   (Total)
    R1        2.19787   0.00000   0.00000  -0.00000   0.00000   2.19787
    R2        2.19787   0.00000   0.00000   0.00000   0.00000   2.19787
    A1        3.14159  -0.00000   0.00000  -0.00000   0.00000   3.14159
    A2        3.14159   0.00000   0.00000   0.00000   0.00000   3.14159
         Item               Value     Threshold  Converged?
 Maximum Force            0.000003     0.000450     YES
 RMS     Force            0.000002     0.000300     YES
 Maximum Displacement     0.000003     0.001800     YES
 RMS     Displacement     0.000002     0.001200     YES
 Predicted change in Energy=-8.774880D-12
 Optimization completed.
    -- Stationary point found.
                           ----------------------------
                           !   Optimized Parameters   !
                           ! (Angstroms and Degrees)  !
 --------------------------                            --------------------------
 ! Name  Definition              Value          Derivative Info.                !
 --------------------------------------------------------------------------------
 ! R1    R(1,2)                  1.1631         -DE/DX =    0.0                 !
 ! R2    R(2,3)                  1.1631         -DE/DX =    0.0                 !
 ! A1    L(1,2,3,-2,-1)        180.0            -DE/DX =    0.0                 !
 ! A2    L(1,2,3,-3,-2)        180.0            -DE/DX =    0.0                 !
 --------------------------------------------------------------------------------
 GradGradGradGradGradGradGradGradGradGradGradGradGradGradGradGradGradGrad

                          Input orientation:                          
 ---------------------------------------------------------------------
 Center     Atomic      Atomic             Coordinates (Angstroms)
 Number     Number       Type             X           Y           Z
 ---------------------------------------------------------------------
      1          8           0        1.192174   -0.053740    0.000260
      2          6           0        2.355236   -0.053740    0.000260
      3          8           0        3.518298   -0.053740    0.000260
 ---------------------------------------------------------------------
                    Distance matrix (angstroms):
                    1          2          3
     1  O    0.000000
     2  C    1.163062   0.000000
     3  O    2.326124   1.163062   0.000000
 Stoichiometry    CO2
 Framework group  D*H[O(C),C*(O.O)]
 Deg. of freedom     1
 Full point group                 D*H     NOp   8
 Largest Abelian subgroup         D2H     NOp   8
 Largest concise Abelian subgroup C2      NOp   2
                         Standard orientation:                         
 ---------------------------------------------------------------------
 Center     Atomic      Atomic             Coordinates (Angstroms)
 Number     Number       Type             X           Y           Z
 ---------------------------------------------------------------------
      1          8           0        0.000000    0.000000    1.163062
      2          6           0        0.000000    0.000000    0.000000
      3          8           0        0.000000    0.000000   -1.163062
 ---------------------------------------------------------------------
 Rotational constants (GHZ):           0.0000000          11.6788328          11.6788328

 **********************************************************************

            Population analysis using the SCF Density.

 **********************************************************************

 Orbital symmetries:
       Occupied  (SGU) (SGG) (SGG) (SGG) (SGU) (SGG) (PIU) (PIU)
                 (SGU) (PIG) (PIG)
       Virtual   (PIU) (PIU) (SGG) (SGU) (PIU) (PIU) (SGG) (SGU)
                 (SGG) (PIG) (PIG) (SGU) (PIU) (PIU) (SGG) (DLTG)
                 (DLTG) (SGU) (PIG) (PIG) (DLTU) (DLTU) (DLTG)
                 (DLTG) (PIU) (PIU) (SGG) (SGU) (PIG) (PIG) (SGG)
 The electronic state is 1-SGG.
 Alpha  occ. eigenvalues --  -19.21827 -19.21821 -10.38012  -1.15089  -1.11208
 Alpha  occ. eigenvalues --   -0.55446  -0.51976  -0.51976  -0.51764  -0.37371
 Alpha  occ. eigenvalues --   -0.37371
 Alpha virt. eigenvalues --    0.03021   0.03021   0.05833   0.33925   0.41417
 Alpha virt. eigenvalues --    0.41417   0.46281   0.75560   0.80414   0.89864
 Alpha virt. eigenvalues --    0.89864   1.07681   1.08946   1.08946   1.22936
 Alpha virt. eigenvalues --    1.52531   1.52531   1.56179   1.57113   1.57113
 Alpha virt. eigenvalues --    2.54560   2.54560   2.66509   2.66509   2.76182
 Alpha virt. eigenvalues --    2.76182   2.82470   3.53090   3.53844   3.53844
 Alpha virt. eigenvalues --    3.83911
          Condensed to atoms (all electrons):
               1          2          3
     1  O    7.476966   0.681440  -0.025766
     2  C    0.681440   4.371841   0.681440
     3  O   -0.025766   0.681440   7.476966
 Mulliken charges:
               1
     1  O   -0.132639
     2  C    0.265279
     3  O   -0.132639
 Sum of Mulliken charges =   0.00000
 Mulliken charges with hydrogens summed into heavy atoms:
               1
     1  O   -0.132639
     2  C    0.265279
     3  O   -0.132639
 Electronic spatial extent (au):  <R**2>=            113.0259
 Charge=              0.0000 electrons
 Dipole moment (field-independent basis, Debye):
    X=             -0.0000    Y=              0.0000    Z=             -0.0000  Tot=              0.0000
 Quadrupole moment (field-independent basis, Debye-Ang):
   XX=            -14.4656   YY=            -14.4656   ZZ=            -19.1346
   XY=              0.0000   XZ=              0.0000   YZ=             -0.0000
 Traceless Quadrupole moment (field-independent basis, Debye-Ang):
   XX=              1.5563   YY=              1.5563   ZZ=             -3.1127
   XY=              0.0000   XZ=              0.0000   YZ=             -0.0000
 Octapole moment (field-independent basis, Debye-Ang**2):
  XXX=             -0.0000  YYY=              0.0000  ZZZ=             -0.0000  XYY=             -0.0000
  XXY=             -0.0000  XXZ=              0.0000  XZZ=             -0.0000  YZZ=             -0.0000
  YYZ=             -0.0000  XYZ=             -0.0000
 Hexadecapole moment (field-independent basis, Debye-Ang**3):
 XXXX=            -10.5189 YYYY=            -10.5189 ZZZZ=           -100.3189 XXXY=              0.0000
 XXXZ=              0.0000 YYYX=              0.0000 YYYZ=             -0.0000 ZZZX=              0.0000
 ZZZY=              0.0000 XXYY=             -3.5063 XXZZ=            -17.9177 YYZZ=            -17.9177
 XXYZ=             -0.0000 YYXZ=              0.0000 ZZXY=              0.0000
 N-N= 5.823658952331D+01 E-N=-5.594289842046D+02  KE= 1.870384904011D+02
 Symmetry AG   KE= 1.008323739778D+02
 Symmetry B1G  KE= 9.771275400618D-34
 Symmetry B2G  KE= 4.934388131811D+00
 Symmetry B3G  KE= 4.934388131811D+00
 Symmetry AU   KE= 1.433561434082D-34
 Symmetry B1U  KE= 6.907703601267D+01
 Symmetry B2U  KE= 3.630152073486D+00
 Symmetry B3U  KE= 3.630152073486D+00
 Unable to Open any file for archive entry.
 1\1\GINC-NODE01\FOpt\RB3LYP\def2SVPP\C1O2\XUHJ\19-Dec-2023\0\\#N opt f
 req B3LYP/def2SVPP symm=veryloose em=gd3bj scale=0.961 press=0.987\\O=
 C=O_1\\0,1\O,1.1921742278,-0.05374,0.00026\C,2.3552363636,-0.05374,0.0
 0026\O,3.5182984995,-0.05374,0.00026\\Version=ES64L-G16RevC.01\State=1
 -SGG\HF=-188.4446796\RMSD=4.635e-09\RMSF=1.506e-06\Dipole=0.,0.,0.\Qua
 drupole=-2.314185,1.1570925,1.1570925,0.,0.,0.\PG=D*H [O(C1),C*(O1.O1)
 ]\\@
 The archive entry for this job was punched.


 BUT 'GLORY' DOESN'T MEAN 'A NICE KNOCK DOWN ARGUMENT', ALICE OBJECTED.
 WHEN I USE A WORD, HUMPTY DUMPTY SAID, IN A RATHER SCORNFUL TONE,
 IT MEANS JUST WHAT I CHOOSE IT TO MEAN....
 NEITHER MORE NOR LESS....
 THE QUESTION IS, SAID ALICE,
 WHETHER YOU CAN MAKE WORDS MEAN SO MANY DIFFERENT THINGS...
 THE QUESTION IS, SAID HUMPTY DUMPTY,
 WHICH IS TO BE MASTER....
 THAT IS ALL.....

 ALICE THROUGH THE LOOKING GLASS
 Job cpu time:       0 days  0 hours  0 minutes 55.1 seconds.
 Elapsed time:       0 days  0 hours  0 minutes  4.6 seconds.
 File lengths (MBytes):  RWF=      6 Int=      0 D2E=      0 Chk=      1 Scr=      1
 Normal termination of Gaussian 16 at Tue Dec 19 12:57:58 2023.
 Link1:  Proceeding to internal job step number  2.
 --------------------------------------------------------------------
 #N Geom=AllCheck Guess=TCheck SCRF=Check GenChk RB3LYP/def2SVPP Freq
 --------------------------------------------------------------------
 1/10=4,29=7,30=1,38=1,40=1,113=-987000,114=961000/1,3;
 2/12=2,17=2,18=2,40=1/2;
 3/5=43,7=202,11=2,14=-4,25=1,30=1,70=2,71=2,74=-5,116=1,124=41,140=1/1,2,3;
 4/5=101/1;
 5/5=2,38=6,98=1/2;
 8/6=4,10=90,11=11/1;
 11/6=1,8=1,9=11,15=111,16=1/1,2,10;
 10/6=1/2;
 6/7=2,8=2,9=2,10=2,28=1/1;
 7/8=1,10=1,25=1/1,2,3,16;
 1/10=4,30=1/3;
 99//99;
 Structure from the checkpoint file:  "/home/software/g16tmp/Gau-104813.chk"
 -------
 O=C=O_1
 -------
 Charge =  0 Multiplicity = 1
 Redundant internal coordinates found in file.  (old form).
 O,0,1.1921742278,-0.05374,0.00026
 C,0,2.3552363636,-0.05374,0.00026
 O,0,3.5182984995,-0.05374,0.00026
 Recover connectivity data from disk.

 GradGradGradGradGradGradGradGradGradGradGradGradGradGradGradGradGradGrad
 Berny optimization.
 Initialization pass.
                           ----------------------------
                           !    Initial Parameters    !
                           ! (Angstroms and Degrees)  !
 --------------------------                            --------------------------
 ! Name  Definition              Value          Derivative Info.                !
 --------------------------------------------------------------------------------
 ! R1    R(1,2)                  1.1631         calculate D2E/DX2 analytically  !
 ! R2    R(2,3)                  1.1631         calculate D2E/DX2 analytically  !
 ! A1    L(1,2,3,-2,-1)        180.0            calculate D2E/DX2 analytically  !
 ! A2    L(1,2,3,-3,-2)        180.0            calculate D2E/DX2 analytically  !
 --------------------------------------------------------------------------------
 Trust Radius=3.00D-01 FncErr=1.00D-07 GrdErr=1.00D-07 EigMax=2.50D+02 EigMin=1.00D-04
 Number of steps in this run=      2 maximum allowed number of steps=      2.
 GradGradGradGradGradGradGradGradGradGradGradGradGradGradGradGradGradGrad

                          Input orientation:                          
 ---------------------------------------------------------------------
 Center     Atomic      Atomic             Coordinates (Angstroms)
 Number     Number       Type             X           Y           Z
 ---------------------------------------------------------------------
      1          8           0        1.192174   -0.053740    0.000260
      2          6           0        2.355236   -0.053740    0.000260
      3          8           0        3.518298   -0.053740    0.000260
 ---------------------------------------------------------------------
                    Distance matrix (angstroms):
                    1          2          3
     1  O    0.000000
     2  C    1.163062   0.000000
     3  O    2.326124   1.163062   0.000000
 Stoichiometry    CO2
 Framework group  D*H[O(C),C*(O.O)]
 Deg. of freedom     1
 Full point group                 D*H     NOp   8
 Largest Abelian subgroup         D2H     NOp   8
 Largest concise Abelian subgroup C2      NOp   2
                         Standard orientation:                         
 ---------------------------------------------------------------------
 Center     Atomic      Atomic             Coordinates (Angstroms)
 Number     Number       Type             X           Y           Z
 ---------------------------------------------------------------------
      1          8           0        0.000000    0.000000    1.163062
      2          6           0        0.000000    0.000000    0.000000
      3          8           0        0.000000    0.000000   -1.163062
 ---------------------------------------------------------------------
 Rotational constants (GHZ):           0.0000000          11.6788328          11.6788328
 Standard basis: def2SVPP (5D, 7F)
 There are    14 symmetry adapted cartesian basis functions of AG  symmetry.
 There are     2 symmetry adapted cartesian basis functions of B1G symmetry.
 There are     4 symmetry adapted cartesian basis functions of B2G symmetry.
 There are     4 symmetry adapted cartesian basis functions of B3G symmetry.
 There are     1 symmetry adapted cartesian basis functions of AU  symmetry.
 There are    10 symmetry adapted cartesian basis functions of B1U symmetry.
 There are     5 symmetry adapted cartesian basis functions of B2U symmetry.
 There are     5 symmetry adapted cartesian basis functions of B3U symmetry.
 There are    12 symmetry adapted basis functions of AG  symmetry.
 There are     2 symmetry adapted basis functions of B1G symmetry.
 There are     4 symmetry adapted basis functions of B2G symmetry.
 There are     4 symmetry adapted basis functions of B3G symmetry.
 There are     1 symmetry adapted basis functions of AU  symmetry.
 There are     9 symmetry adapted basis functions of B1U symmetry.
 There are     5 symmetry adapted basis functions of B2U symmetry.
 There are     5 symmetry adapted basis functions of B3U symmetry.
    42 basis functions,    75 primitive gaussians,    45 cartesian basis functions
    11 alpha electrons       11 beta electrons
       nuclear repulsion energy        58.2382324290 Hartrees.
 NAtoms=    3 NActive=    3 NUniq=    2 SFac= 2.25D+00 NAtFMM=   60 NAOKFM=F Big=F
 Integral buffers will be    131072 words long.
 Raffenetti 2 integral format.
 Two-electron integral symmetry is turned on.
 Nuclear repulsion after empirical dispersion term =       58.2365895233 Hartrees.
 One-electron integrals computed using PRISM.
   8 Symmetry operations used in ECPInt.
 ECPInt:  NShTT=     171 NPrTT=     705 LenC2=     171 LenP2D=     625.
 LDataN:  DoStor=T MaxTD1= 4 Len=   56
 NBasis=    42 RedAO= T EigKep=  9.13D-03  NBF=    12     2     4     4     1     9     5     5
 NBsUse=    42 1.00D-06 EigRej= -1.00D+00 NBFU=    12     2     4     4     1     9     5     5
 Initial guess from the checkpoint file:  "/home/software/g16tmp/Gau-104813.chk"
 B after Tr=     0.000000    0.000000    0.000000
         Rot=    1.000000    0.000000    0.000000    0.000000 Ang=   0.00 deg.
 Initial guess orbital symmetries:
       Occupied  (SGU) (SGG) (SGG) (SGG) (SGU) (SGG) (PIU) (PIU)
                 (SGU) (PIG) (PIG)
       Virtual   (PIU) (PIU) (SGG) (SGU) (PIU) (PIU) (SGG) (SGU)
                 (SGG) (PIG) (PIG) (SGU) (PIU) (PIU) (SGG) (DLTG)
                 (DLTG) (SGU) (PIG) (PIG) (DLTU) (DLTU) (DLTG)
                 (DLTG) (PIU) (PIU) (SGG) (SGU) (PIG) (PIG) (SGG)
 Keep R1 ints in memory in symmetry-blocked form, NReq=14309765.
 Requested convergence on RMS density matrix=1.00D-08 within 128 cycles.
 Requested convergence on MAX density matrix=1.00D-06.
 Requested convergence on             energy=1.00D-06.
 No special actions if energy rises.
 SCF Done:  E(RB3LYP) =  -188.444679593     A.U. after    1 cycles
            NFock=  1  Conv=0.14D-08     -V/T= 2.0075
 DoSCS=F DFT=T ScalE2(SS,OS)=  1.000000  1.000000
 Range of M.O.s used for correlation:     1    42
 NBasis=    42 NAE=    11 NBE=    11 NFC=     0 NFV=     0
 NROrb=     42 NOA=    11 NOB=    11 NVA=    31 NVB=    31
   8 Symmetry operations used in ECPInt.
 ECPInt:  NShTT=     171 NPrTT=     705 LenC2=     171 LenP2D=     625.
 LDataN:  DoStor=T MaxTD1= 5 Len=  102
 Symmetrizing basis deriv contribution to polar:
 IMax=3 JMax=2 DiffMx= 0.00D+00
 G2DrvN: will do     4 centers at a time, making    1 passes.
 Calling FoFCou, ICntrl=  3107 FMM=F I1Cent=   0 AccDes= 0.00D+00.
 End of G2Drv F.D. properties file   721 does not exist.
 End of G2Drv F.D. properties file   722 does not exist.
 End of G2Drv F.D. properties file   788 does not exist.
          IDoAtm=111
          Differentiating once with respect to electric field.
                with respect to dipole field.
          Differentiating once with respect to nuclear coordinates.
 Keep R1 ints in memory in symmetry-blocked form, NReq=14256531.
          There are     9 degrees of freedom in the 1st order CPHF.  IDoFFX=4 NUNeed=     9.
      9 vectors produced by pass  0 Test12= 3.79D-15 1.11D-08 XBig12= 2.53D+01 3.39D+00.
 AX will form     9 AO Fock derivatives at one time.
      9 vectors produced by pass  1 Test12= 3.79D-15 1.11D-08 XBig12= 8.84D+00 1.33D+00.
      9 vectors produced by pass  2 Test12= 3.79D-15 1.11D-08 XBig12= 3.60D-02 7.60D-02.
      9 vectors produced by pass  3 Test12= 3.79D-15 1.11D-08 XBig12= 1.18D-04 4.44D-03.
      9 vectors produced by pass  4 Test12= 3.79D-15 1.11D-08 XBig12= 2.14D-07 1.86D-04.
      7 vectors produced by pass  5 Test12= 3.79D-15 1.11D-08 XBig12= 2.36D-09 2.48D-05.
      2 vectors produced by pass  6 Test12= 3.79D-15 1.11D-08 XBig12= 1.46D-11 1.47D-06.
      1 vectors produced by pass  7 Test12= 3.79D-15 1.11D-08 XBig12= 1.15D-14 5.43D-08.
 InvSVY:  IOpt=1 It=  1 EMax= 2.22D-16
 Solved reduced A of dimension    55 with     9 vectors.
 Isotropic polarizability for W=    0.000000       12.04 Bohr**3.
 End of Minotr F.D. properties file   721 does not exist.
 End of Minotr F.D. properties file   722 does not exist.
 End of Minotr F.D. properties file   788 does not exist.

 **********************************************************************

            Population analysis using the SCF Density.

 **********************************************************************

 Orbital symmetries:
       Occupied  (SGU) (SGG) (SGG) (SGG) (SGU) (SGG) (PIU) (PIU)
                 (SGU) (PIG) (PIG)
       Virtual   (PIU) (PIU) (SGG) (SGU) (PIU) (PIU) (SGG) (SGU)
                 (SGG) (PIG) (PIG) (SGU) (PIU) (PIU) (SGG) (DLTG)
                 (DLTG) (SGU) (PIG) (PIG) (DLTU) (DLTU) (DLTG)
                 (DLTG) (PIU) (PIU) (SGG) (SGU) (PIG) (PIG) (SGG)
 The electronic state is 1-SGG.
 Alpha  occ. eigenvalues --  -19.21827 -19.21821 -10.38012  -1.15089  -1.11208
 Alpha  occ. eigenvalues --   -0.55446  -0.51976  -0.51976  -0.51764  -0.37371
 Alpha  occ. eigenvalues --   -0.37371
 Alpha virt. eigenvalues --    0.03021   0.03021   0.05833   0.33925   0.41417
 Alpha virt. eigenvalues --    0.41417   0.46281   0.75560   0.80414   0.89864
 Alpha virt. eigenvalues --    0.89864   1.07681   1.08946   1.08946   1.22936
 Alpha virt. eigenvalues --    1.52531   1.52531   1.56179   1.57113   1.57113
 Alpha virt. eigenvalues --    2.54560   2.54560   2.66509   2.66509   2.76182
 Alpha virt. eigenvalues --    2.76182   2.82470   3.53090   3.53844   3.53844
 Alpha virt. eigenvalues --    3.83911
          Condensed to atoms (all electrons):
               1          2          3
     1  O    7.476966   0.681440  -0.025766
     2  C    0.681440   4.371841   0.681440
     3  O   -0.025766   0.681440   7.476966
 Mulliken charges:
               1
     1  O   -0.132640
     2  C    0.265279
     3  O   -0.132640
 Sum of Mulliken charges =  -0.00000
 Mulliken charges with hydrogens summed into heavy atoms:
               1
     1  O   -0.132640
     2  C    0.265279
     3  O   -0.132640
 APT charges:
               1
     1  O   -0.571350
     2  C    1.142701
     3  O   -0.571350
 Sum of APT charges =   0.00000
 APT charges with hydrogens summed into heavy atoms:
               1
     1  O   -0.571350
     2  C    1.142701
     3  O   -0.571350
 Electronic spatial extent (au):  <R**2>=            113.0259
 Charge=              0.0000 electrons
 Dipole moment (field-independent basis, Debye):
    X=             -0.0000    Y=              0.0000    Z=              0.0000  Tot=              0.0000
 Quadrupole moment (field-independent basis, Debye-Ang):
   XX=            -14.4656   YY=            -14.4656   ZZ=            -19.1346
   XY=              0.0000   XZ=              0.0000   YZ=             -0.0000
 Traceless Quadrupole moment (field-independent basis, Debye-Ang):
   XX=              1.5563   YY=              1.5563   ZZ=             -3.1127
   XY=              0.0000   XZ=              0.0000   YZ=             -0.0000
 Octapole moment (field-independent basis, Debye-Ang**2):
  XXX=             -0.0000  YYY=              0.0000  ZZZ=             -0.0000  XYY=             -0.0000
  XXY=             -0.0000  XXZ=              0.0000  XZZ=             -0.0000  YZZ=             -0.0000
  YYZ=             -0.0000  XYZ=             -0.0000
 Hexadecapole moment (field-independent basis, Debye-Ang**3):
 XXXX=            -10.5189 YYYY=            -10.5189 ZZZZ=           -100.3189 XXXY=              0.0000
 XXXZ=              0.0000 YYYX=              0.0000 YYYZ=             -0.0000 ZZZX=              0.0000
 ZZZY=              0.0000 XXYY=             -3.5063 XXZZ=            -17.9177 YYZZ=            -17.9177
 XXYZ=             -0.0000 YYXZ=              0.0000 ZZXY=              0.0000
 N-N= 5.823658952331D+01 E-N=-5.594289843161D+02  KE= 1.870384905061D+02
 Symmetry AG   KE= 1.008323739679D+02
 Symmetry B1G  KE= 9.771275281472D-34
 Symmetry B2G  KE= 4.934388141419D+00
 Symmetry B3G  KE= 4.934388141419D+00
 Symmetry AU   KE= 1.433561370968D-34
 Symmetry B1U  KE= 6.907703604793D+01
 Symmetry B2U  KE= 3.630152103716D+00
 Symmetry B3U  KE= 3.630152103716D+00
  Exact polarizability:       7.390      -0.000       7.390       0.000       0.000      21.334
 Approx polarizability:       9.070      -0.000       9.070      -0.000      -0.000      45.265
   8 Symmetry operations used in ECPInt.
 ECPInt:  NShTT=     171 NPrTT=     705 LenC2=     171 LenP2D=     625.
 LDataN:  DoStor=T MaxTD1= 6 Len=  172
 Calling FoFJK, ICntrl=    100127 FMM=F ISym2X=1 I1Cent= 0 IOpClX= 0 NMat=1 NMatS=1 NMatT=0.
 Full mass-weighted force constant matrix:
 Low frequencies ---   -2.0608   -2.0608   -0.0010    0.0009    0.0010  653.7395
 Low frequencies ---  653.7395 1389.0251 2472.7655
 Diagonal vibrational polarizability:
        2.0701220       2.0701220       2.6994629
 Harmonic frequencies (cm**-1), IR intensities (KM/Mole), Raman scattering
 activities (A**4/AMU), depolarization ratios for plane and unpolarized
 incident light, reduced masses (AMU), force constants (mDyne/A),
 and normal coordinates:
                      1                      2                      3
                     PIU                    PIU                    SGG
 Frequencies --    653.7395               653.7395              1389.0251
 Red. masses --     12.8774                12.8774                15.9949
 Frc consts  --      3.2426                 3.2426                18.1824
 IR Inten    --     32.8755                32.8755                 0.0000
  Atom  AN      X      Y      Z        X      Y      Z        X      Y      Z
     1   8    -0.33  -0.00  -0.00     0.00  -0.33   0.00    -0.00   0.00   0.71
     2   6     0.88   0.00  -0.00    -0.00   0.88  -0.00     0.00  -0.00   0.00
     3   8    -0.33  -0.00   0.00     0.00  -0.33  -0.00    -0.00   0.00  -0.71
                      4
                     SGU
 Frequencies --   2472.7655
 Red. masses --     12.8774
 Frc consts  --     46.3920
 IR Inten    --    613.3524
  Atom  AN      X      Y      Z
     1   8    -0.00  -0.00  -0.33
     2   6     0.00   0.00   0.88
     3   8    -0.00  -0.00  -0.33

 -------------------
 - Thermochemistry -
 -------------------
 Temperature   298.150 Kelvin.  Pressure   0.98700 Atm.
 Thermochemistry will use frequencies scaled by 0.9610.
 Atom     1 has atomic number  8 and mass  15.99491
 Atom     2 has atomic number  6 and mass  12.00000
 Atom     3 has atomic number  8 and mass  15.99491
 Molecular mass:    43.98983 amu.
 Principal axes and moments of inertia in atomic units:
                           1         2         3
     Eigenvalues --     0.00000 154.53096 154.53096
           X           -0.00000   1.00000  -0.00000
           Y            0.00000   0.00000   1.00000
           Z            1.00000   0.00000  -0.00000
 This molecule is a prolate symmetric top.
 Rotational symmetry number  2.
 Rotational temperature (Kelvin)      0.56050
 Rotational constant (GHZ):          11.678833
 Zero-point vibrational energy      29713.3 (Joules/Mol)
                                    7.10164 (Kcal/Mol)
 Vibrational temperatures:    903.90   903.90  1920.56  3419.01
          (Kelvin)
 
 Zero-point correction=                           0.011317 (Hartree/Particle)
 Thermal correction to Energy=                    0.013978
 Thermal correction to Enthalpy=                  0.014922
 Thermal correction to Gibbs Free Energy=        -0.009410
 Sum of electronic and zero-point Energies=           -188.433362
 Sum of electronic and thermal Energies=              -188.430702
 Sum of electronic and thermal Enthalpies=            -188.429758
 Sum of electronic and thermal Free Energies=         -188.454089
 
                     E (Thermal)             CV                S
                      KCal/Mol        Cal/Mol-Kelvin    Cal/Mol-Kelvin
 Total                    8.771              7.048             51.210
 Electronic               0.000              0.000              0.000
 Translational            0.889              2.981             37.296
 Rotational               0.592              1.987             13.083
 Vibrational              7.290              2.080              0.831
                       Q            Log10(Q)             Ln(Q)
 Total Bot       0.212861D+05          4.328097          9.965812
 Total V=0       0.341691D+10          9.533634         21.952004
 Vib (Bot)       0.688810D-05         -5.161901        -11.885716
 Vib (V=0)       0.110570D+01          0.043636          0.100476
 Electronic      0.100000D+01          0.000000          0.000000
 Translational   0.116189D+08          7.065165         16.268144
 Rotational      0.265970D+03          2.424833          5.583383
 ***** Axes restored to original set *****
 -------------------------------------------------------------------
 Center     Atomic                   Forces (Hartrees/Bohr)
 Number     Number              X              Y              Z
 -------------------------------------------------------------------
      1        8          -0.000003179   -0.000000000   -0.000000000
      2        6          -0.000000000    0.000000000   -0.000000000
      3        8           0.000003179    0.000000000    0.000000000
 -------------------------------------------------------------------
 Cartesian Forces:  Max     0.000003179 RMS     0.000001498
 FormGI is forming the generalized inverse of G from B-inverse, IUseBI=4.

 GradGradGradGradGradGradGradGradGradGradGradGradGradGradGradGradGradGrad
 Berny optimization.
 Internal  Forces:  Max     0.000003179 RMS     0.000002248
 Search for a local minimum.
 Step number   1 out of a maximum of    2
 All quantities printed in internal units (Hartrees-Bohrs-Radians)
 Second derivative matrix not updated -- analytic derivatives used.
 The second derivative matrix:
                          R1        R2        A1        A2
           R1           1.08876
           R2           0.07911   1.08876
           A1          -0.00000  -0.00000   0.17045
           A2          -0.00000   0.00000   0.00000   0.17045
 ITU=  0
     Eigenvalues ---    0.17045   0.17045   1.00964   1.16787
 Angle between quadratic step and forces=   0.00 degrees.
 Linear search not attempted -- first point.
 Iteration  1 RMS(Cart)=  0.00000192 RMS(Int)=  0.00000000
 Iteration  2 RMS(Cart)=  0.00000000 RMS(Int)=  0.00000001
 ClnCor:  largest displacement from symmetrization is 3.26D-14 for atom     2.
 Variable       Old X    -DE/DX   Delta X   Delta X   Delta X     New X
                                 (Linear)    (Quad)   (Total)
    R1        2.19787   0.00000   0.00000   0.00000   0.00000   2.19787
    R2        2.19787   0.00000   0.00000   0.00000   0.00000   2.19787
    A1        3.14159   0.00000   0.00000   0.00000   0.00000   3.14159
    A2        3.14159   0.00000   0.00000   0.00000   0.00000   3.14159
         Item               Value     Threshold  Converged?
 Maximum Force            0.000003     0.000450     YES
 RMS     Force            0.000002     0.000300     YES
 Maximum Displacement     0.000003     0.001800     YES
 RMS     Displacement     0.000002     0.001200     YES
 Predicted change in Energy=-8.651849D-12
 Optimization completed.
    -- Stationary point found.
                           ----------------------------
                           !   Optimized Parameters   !
                           ! (Angstroms and Degrees)  !
 --------------------------                            --------------------------
 ! Name  Definition              Value          Derivative Info.                !
 --------------------------------------------------------------------------------
 ! R1    R(1,2)                  1.1631         -DE/DX =    0.0                 !
 ! R2    R(2,3)                  1.1631         -DE/DX =    0.0                 !
 ! A1    L(1,2,3,-2,-1)        180.0            -DE/DX =    0.0                 !
 ! A2    L(1,2,3,-3,-2)        180.0            -DE/DX =    0.0                 !
 --------------------------------------------------------------------------------
 GradGradGradGradGradGradGradGradGradGradGradGradGradGradGradGradGradGrad

 Dipole is zero, so no output in dipole orientation.

 ----------------------------------------------------------------------

 Electric dipole moment (input orientation):
 (Debye = 10**-18 statcoulomb cm , SI units = C m)
                  (au)            (Debye)         (10**-30 SI)
   Tot        0.000000D+00      0.000000D+00      0.000000D+00
   x          0.000000D+00      0.000000D+00      0.000000D+00
   y          0.000000D+00      0.000000D+00      0.000000D+00
   z          0.000000D+00      0.000000D+00      0.000000D+00

 Dipole polarizability, Alpha (input orientation).
 (esu units = cm**3 , SI units = C**2 m**2 J**-1)
 Alpha(0;0):
               (au)            (10**-24 esu)      (10**-40 SI)
   iso        0.120380D+02      0.178385D+01      0.198481D+01
   aniso      0.139439D+02      0.206627D+01      0.229904D+01
   xx         0.213340D+02      0.316137D+01      0.351750D+01
   yx         0.000000D+00      0.000000D+00      0.000000D+00
   yy         0.739008D+01      0.109510D+01      0.121846D+01
   zx         0.000000D+00      0.000000D+00      0.000000D+00
   zy         0.000000D+00      0.000000D+00      0.000000D+00
   zz         0.739008D+01      0.109510D+01      0.121846D+01

 ----------------------------------------------------------------------
 Unable to Open any file for archive entry.
 1\1\GINC-NODE01\Freq\RB3LYP\def2SVPP\C1O2\XUHJ\19-Dec-2023\0\\#N Geom=
 AllCheck Guess=TCheck SCRF=Check GenChk RB3LYP/def2SVPP Freq\\O=C=O_1\
 \0,1\O,1.1921742278,-0.05374,0.00026\C,2.3552363636,-0.05374,0.00026\O
 ,3.5182984995,-0.05374,0.00026\\Version=ES64L-G16RevC.01\State=1-SGG\H
 F=-188.4446796\RMSD=1.407e-09\RMSF=1.498e-06\ZeroPoint=0.0113172\Therm
 al=0.0139776\ETot=-188.430702\HTot=-188.4297578\GTot=-188.4540892\Dipo
 le=0.,0.,0.\DipoleDeriv=-1.1715744,0.,0.,0.,-0.2712383,0.,0.,0.,-0.271
 2383,2.3431488,0.,0.,0.,0.5424765,0.,0.,0.,0.5424765,-1.1715744,0.,0.,
 0.,-0.2712383,0.,0.,0.,-0.2712383\Polar=21.333973,0.,7.3900803,0.,0.,7
 .3900803\Quadrupole=-2.3141855,1.1570927,1.1570927,0.,0.,0.\PG=D*H [O(
 C1),C*(O1.O1)]\NImag=0\\1.08875564,0.,0.03528304,0.,0.,0.03528304,-1.0
 0964383,0.,0.,2.01928766,0.,-0.07056865,0.,0.,0.14113731,0.,0.,-0.0705
 6865,0.,0.,0.14113731,-0.07911181,0.,0.,-1.00964383,0.,0.,1.08875564,0
 .,0.03528561,0.,0.,-0.07056865,0.,0.,0.03528304,0.,0.,0.03528561,0.,0.
 ,-0.07056865,0.,0.,0.03528304\\0.00000318,0.,0.,0.,0.,0.,-0.00000318,0
 .,0.\\\@
 The archive entry for this job was punched.


 MICRO CREDO - NEVER TRUST A COMPUTER BIGGER
               BIGGER THAN YOU CAN LIFT.
 Job cpu time:       0 days  0 hours  0 minutes 35.9 seconds.
 Elapsed time:       0 days  0 hours  0 minutes  2.8 seconds.
 File lengths (MBytes):  RWF=      6 Int=      0 D2E=      0 Chk=      1 Scr=      1
 Normal termination of Gaussian 16 at Tue Dec 19 12:58:01 2023.
