%nprocshared=8
%mem=10400MB
#N opt freq B3LYP/def2SVPP symm=veryloose em=gd3bj scale=0.961 press=0.987

c1ccc2cc3c(ccc4c5cc6ccccc6cc5ccc34)cc2c1_2

0 1
C         -7.01060        0.02380       -0.58730
C         -6.75060       -0.88630        0.43200
C         -5.43330       -1.14640        0.81320
C         -4.35800       -0.49920        0.17960
C         -3.02130       -0.74730        0.54910
C         -1.90950       -0.11170       -0.06900
C         -2.21470        0.80510       -1.09900
C         -1.18410        1.46990       -1.75520
C          0.14720        1.24330       -1.40960
C          0.52510        0.34290       -0.39240
C          1.90950        0.11170       -0.03810
C          3.02130        0.74730       -0.65630
C          4.35800        0.49920       -0.28680
C          5.43330        1.14640       -0.92040
C          6.75060        0.88630       -0.53910
C          7.01060       -0.02380        0.48020
C          5.95310       -0.67350        1.11780
C          4.62280       -0.41950        0.74230
C          3.54590       -1.05970        1.36800
C          2.21470       -0.80510        0.99180
C          1.18410       -1.46990        1.64800
C         -0.14720       -1.24320        1.30240
C         -0.52510       -0.34280        0.28530
C         -3.54590        1.05970       -1.47520
C         -4.62280        0.41950       -0.84940
C         -5.95320        0.67350       -1.22500
H         -8.03480        0.22900       -0.88700
H         -7.57130       -1.39460        0.93130
H         -5.25040       -1.86130        1.61240
H         -2.85800       -1.46410        1.34890
H         -1.39950        2.18000       -2.55130
H          0.89000        1.80260       -1.97060
H          2.85800        1.46410       -1.45610
H          5.25040        1.86130       -1.71950
H          7.57130        1.39450       -1.03840
H          8.03480       -0.22900        0.77990
H          6.17430       -1.38220        1.91280
H          3.74890       -1.77230        2.16610
H          1.39950       -2.17990        2.44410
H         -0.89000       -1.80250        1.86350
H         -3.74890        1.77230       -2.27320
H         -6.17430        1.38210       -2.01990

