 Entering Gaussian System, Link 0=g16
 Initial command:
 /opt/g16/l1.exe "/tmp/Gau-1710141.inp" -scrdir="/tmp/"
 Entering Link 1 = /opt/g16/l1.exe PID=   1710143.
  
 Copyright (c) 1988-2019, Gaussian, Inc.  All Rights Reserved.
  
 This is part of the Gaussian(R) 16 program.  It is based on
 the Gaussian(R) 09 system (copyright 2009, Gaussian, Inc.),
 the Gaussian(R) 03 system (copyright 2003, Gaussian, Inc.),
 the Gaussian(R) 98 system (copyright 1998, Gaussian, Inc.),
 the Gaussian(R) 94 system (copyright 1995, Gaussian, Inc.),
 the Gaussian 92(TM) system (copyright 1992, Gaussian, Inc.),
 the Gaussian 90(TM) system (copyright 1990, Gaussian, Inc.),
 the Gaussian 88(TM) system (copyright 1988, Gaussian, Inc.),
 the Gaussian 86(TM) system (copyright 1986, Carnegie Mellon
 University), and the Gaussian 82(TM) system (copyright 1983,
 Carnegie Mellon University). Gaussian is a federally registered
 trademark of Gaussian, Inc.
  
 This software contains proprietary and confidential information,
 including trade secrets, belonging to Gaussian, Inc.
  
 This software is provided under written license and may be
 used, copied, transmitted, or stored only in accord with that
 written license.
  
 The following legend is applicable only to US Government
 contracts under FAR:
  
                    RESTRICTED RIGHTS LEGEND
  
 Use, reproduction and disclosure by the US Government is
 subject to restrictions as set forth in subparagraphs (a)
 and (c) of the Commercial Computer Software - Restricted
 Rights clause in FAR 52.227-19.
  
 Gaussian, Inc.
 340 Quinnipiac St., Bldg. 40, Wallingford CT 06492
  
  
 ---------------------------------------------------------------
 Warning -- This program may not be used in any manner that
 competes with the business of Gaussian, Inc. or will provide
 assistance to any competitor of Gaussian, Inc.  The licensee
 of this program is prohibited from giving any competitor of
 Gaussian, Inc. access to this program.  By using this program,
 the user acknowledges that Gaussian, Inc. is engaged in the
 business of creating and licensing software in the field of
 computational chemistry and represents and warrants to the
 licensee that it is not a competitor of Gaussian, Inc. and that
 it will not use this program in any manner prohibited above.
 ---------------------------------------------------------------
  

 Cite this work as:
 Gaussian 16, Revision C.01,
 M. J. Frisch, G. W. Trucks, H. B. Schlegel, G. E. Scuseria, 
 M. A. Robb, J. R. Cheeseman, G. Scalmani, V. Barone, 
 G. A. Petersson, H. Nakatsuji, X. Li, M. Caricato, A. V. Marenich, 
 J. Bloino, B. G. Janesko, R. Gomperts, B. Mennucci, H. P. Hratchian, 
 J. V. Ortiz, A. F. Izmaylov, J. L. Sonnenberg, D. Williams-Young, 
 F. Ding, F. Lipparini, F. Egidi, J. Goings, B. Peng, A. Petrone, 
 T. Henderson, D. Ranasinghe, V. G. Zakrzewski, J. Gao, N. Rega, 
 G. Zheng, W. Liang, M. Hada, M. Ehara, K. Toyota, R. Fukuda, 
 J. Hasegawa, M. Ishida, T. Nakajima, Y. Honda, O. Kitao, H. Nakai, 
 T. Vreven, K. Throssell, J. A. Montgomery, Jr., J. E. Peralta, 
 F. Ogliaro, M. J. Bearpark, J. J. Heyd, E. N. Brothers, K. N. Kudin, 
 V. N. Staroverov, T. A. Keith, R. Kobayashi, J. Normand, 
 K. Raghavachari, A. P. Rendell, J. C. Burant, S. S. Iyengar, 
 J. Tomasi, M. Cossi, J. M. Millam, M. Klene, C. Adamo, R. Cammi, 
 J. W. Ochterski, R. L. Martin, K. Morokuma, O. Farkas, 
 J. B. Foresman, and D. J. Fox, Gaussian, Inc., Wallingford CT, 2019.
 
 ******************************************
 Gaussian 16:  ES64L-G16RevC.01  3-Jul-2019
                 8-Jan-2025 
 ******************************************
 %nprocshared=16
 Will use up to   16 processors via shared memory.
 %mem=3200MB
 ----------------------------------------------------------------------
 #N opt freq B3LYP/def2SVPP symm=veryloose em=gd3bj scale=0.961 press=0
 .987
 ----------------------------------------------------------------------
 1/18=20,19=15,26=3,38=1,113=-987000,114=961000/1,3;
 2/9=110,12=2,17=2,18=2,40=1/2;
 3/5=43,7=202,11=2,25=1,30=1,71=1,74=-5,124=41/1,2,3;
 4//1;
 5/5=2,38=5/2;
 6/7=2,8=2,9=2,10=2,28=1/1;
 7//1,2,3,16;
 1/18=20,19=15,26=3/3(2);
 2/9=110/2;
 99//99;
 2/9=110/2;
 3/5=43,7=202,11=2,25=1,30=1,71=1,74=-5,124=41/1,2,3;
 4/5=5,16=3,69=1/1;
 5/5=2,38=5/2;
 7//1,2,3,16;
 1/18=20,19=15,26=3/3(-5);
 2/9=110/2;
 6/7=2,8=2,9=2,10=2,19=2,28=1/1;
 99/9=1/99;
 ---------
 O=C=C=O_1
 ---------
 Symbolic Z-matrix:
 Charge =  0 Multiplicity = 1
 C                     0.64067   0.        0. 
 C                    -0.64067   0.        0. 
 O                     1.82902   0.        0. 
 O                    -1.82902   0.        0. 
 

 GradGradGradGradGradGradGradGradGradGradGradGradGradGradGradGradGradGrad
 Berny optimization.
 Initialization pass.
                           ----------------------------
                           !    Initial Parameters    !
                           ! (Angstroms and Degrees)  !
 --------------------------                            --------------------------
 ! Name  Definition              Value          Derivative Info.                !
 --------------------------------------------------------------------------------
 ! R1    R(1,2)                  1.2813         estimate D2E/DX2                !
 ! R2    R(1,3)                  1.1883         estimate D2E/DX2                !
 ! R3    R(2,4)                  1.1883         estimate D2E/DX2                !
 ! A1    L(2,1,3,-2,-1)        180.0            estimate D2E/DX2                !
 ! A2    L(1,2,4,-2,-1)        180.0            estimate D2E/DX2                !
 ! A3    L(2,1,3,-3,-2)        180.0            estimate D2E/DX2                !
 ! A4    L(1,2,4,-3,-2)        180.0            estimate D2E/DX2                !
 --------------------------------------------------------------------------------
 Trust Radius=3.00D-01 FncErr=1.00D-07 GrdErr=1.00D-06 EigMax=2.50D+02 EigMin=1.00D-04
 Number of steps in this run=     20 maximum allowed number of steps=    100.
 GradGradGradGradGradGradGradGradGradGradGradGradGradGradGradGradGradGrad

                          Input orientation:                          
 ---------------------------------------------------------------------
 Center     Atomic      Atomic             Coordinates (Angstroms)
 Number     Number       Type             X           Y           Z
 ---------------------------------------------------------------------
      1          6           0        0.640667    0.000000    0.000000
      2          6           0       -0.640667    0.000000    0.000000
      3          8           0        1.829015    0.000000    0.000000
      4          8           0       -1.829015    0.000000    0.000000
 ---------------------------------------------------------------------
                    Distance matrix (angstroms):
                    1          2          3          4
     1  C    0.000000
     2  C    1.281334   0.000000
     3  O    1.188348   2.469682   0.000000
     4  O    2.469682   1.188348   3.658030   0.000000
 Stoichiometry    C2O2
 Framework group  D*H[C*(OC.CO)]
 Deg. of freedom     2
 Full point group                 D*H     NOp   8
 Largest Abelian subgroup         D2H     NOp   8
 Largest concise Abelian subgroup C2      NOp   2
                         Standard orientation:                         
 ---------------------------------------------------------------------
 Center     Atomic      Atomic             Coordinates (Angstroms)
 Number     Number       Type             X           Y           Z
 ---------------------------------------------------------------------
      1          6           0        0.000000    0.000000    0.640667
      2          6           0        0.000000    0.000000   -0.640667
      3          8           0        0.000000    0.000000    1.829015
      4          8           0        0.000000    0.000000   -1.829015
 ---------------------------------------------------------------------
 Rotational constants (GHZ):           0.0000000           4.3244187           4.3244187
 Standard basis: def2SVPP (5D, 7F)
 There are    16 symmetry adapted cartesian basis functions of AG  symmetry.
 There are     2 symmetry adapted cartesian basis functions of B1G symmetry.
 There are     6 symmetry adapted cartesian basis functions of B2G symmetry.
 There are     6 symmetry adapted cartesian basis functions of B3G symmetry.
 There are     2 symmetry adapted cartesian basis functions of AU  symmetry.
 There are    16 symmetry adapted cartesian basis functions of B1U symmetry.
 There are     6 symmetry adapted cartesian basis functions of B2U symmetry.
 There are     6 symmetry adapted cartesian basis functions of B3U symmetry.
 There are    14 symmetry adapted basis functions of AG  symmetry.
 There are     2 symmetry adapted basis functions of B1G symmetry.
 There are     6 symmetry adapted basis functions of B2G symmetry.
 There are     6 symmetry adapted basis functions of B3G symmetry.
 There are     2 symmetry adapted basis functions of AU  symmetry.
 There are    14 symmetry adapted basis functions of B1U symmetry.
 There are     6 symmetry adapted basis functions of B2U symmetry.
 There are     6 symmetry adapted basis functions of B3U symmetry.
    56 basis functions,   100 primitive gaussians,    60 cartesian basis functions
    14 alpha electrons       14 beta electrons
       nuclear repulsion energy        87.4451015417 Hartrees.
 NAtoms=    4 NActive=    4 NUniq=    2 SFac= 4.00D+00 NAtFMM=   60 NAOKFM=F Big=F
 Integral buffers will be    131072 words long.
 Raffenetti 2 integral format.
 Two-electron integral symmetry is turned on.
 Nuclear repulsion after empirical dispersion term =       87.4417690819 Hartrees.
 One-electron integrals computed using PRISM.
   8 Symmetry operations used in ECPInt.
 ECPInt:  NShTT=     300 NPrTT=    1228 LenC2=     300 LenP2D=    1044.
 LDataN:  DoStor=T MaxTD1= 4 Len=   56
 NBasis=    56 RedAO= T EigKep=  3.60D-04  NBF=    14     2     6     6     2    14     6     6
 NBsUse=    56 1.00D-06 EigRej= -1.00D+00 NBFU=    14     2     6     6     2    14     6     6
 ExpMin= 1.31D-01 ExpMax= 2.27D+03 ExpMxC= 3.41D+02 IAcc=3 IRadAn=         5 AccDes= 0.00D+00
 Harris functional with IExCor=  402 and IRadAn=       5 diagonalized for initial guess.
 HarFok:  IExCor=  402 AccDes= 0.00D+00 IRadAn=         5 IDoV= 1 UseB2=F ITyADJ=14
 ICtDFT=  3500011 ScaDFX=  1.000000  1.000000  1.000000  1.000000
 FoFCou: FMM=F IPFlag=           0 FMFlag=      100000 FMFlg1=           0
         NFxFlg=           0 DoJE=T BraDBF=F KetDBF=T FulRan=T
         wScrn=  0.000000 ICntrl=       500 IOpCl=  0 I1Cent=   200000004 NGrid=           0
         NMat0=    1 NMatS0=      1 NMatT0=    0 NMatD0=    1 NMtDS0=    0 NMtDT0=    0
 Petite list used in FoFCou.
 Initial guess orbital symmetries:
       Occupied  (SGU) (SGG) (SGG) (SGU) (SGG) (SGU) (SGG) (SGU)
                 (SGG) (PIU) (PIU) (PIG) (PIG) (PIU)
       Virtual   (PIU) (PIG) (PIG) (SGU) (SGG) (SGU) (PIU) (PIU)
                 (SGG) (PIG) (PIG) (SGG) (SGU) (SGU) (SGG) (PIU)
                 (PIU) (PIG) (PIG) (SGU) (PIU) (PIU) (SGG) (DLTG)
                 (DLTG) (DLTU) (DLTU) (SGU) (PIG) (PIG) (SGG) (DLTG)
                 (DLTG) (DLTU) (DLTU) (PIU) (PIU) (SGU) (PIG) (PIG)
                 (SGG) (SGU)
 Keep R1 ints in memory in symmetry-blocked form, NReq=15442638.
 Requested convergence on RMS density matrix=1.00D-08 within 128 cycles.
 Requested convergence on MAX density matrix=1.00D-06.
 Requested convergence on             energy=1.00D-06.
 No special actions if energy rises.
 Integral accuracy reduced to 1.0D-05 until final iterations.
 Initial convergence to 1.0D-05 achieved.  Increase integral accuracy.
 SCF Done:  E(RB3LYP) =  -226.367555446     A.U. after   10 cycles
            NFock= 10  Conv=0.53D-08     -V/T= 2.0081

 **********************************************************************

            Population analysis using the SCF Density.

 **********************************************************************

 Orbital symmetries:
       Occupied  (SGU) (SGG) (SGG) (SGU) (SGG) (SGU) (SGG) (SGU)
                 (SGG) (PIU) (PIU) (PIG) (PIG) (PIU)
       Virtual   (PIU) (PIG) (PIG) (SGU) (SGG) (PIU) (PIU) (SGU)
                 (SGG) (PIG) (PIG) (SGG) (SGU) (SGU) (SGG) (PIU)
                 (PIU) (PIG) (PIG) (SGU) (PIU) (PIU) (?A) (?A)
                 (?A) (?B) (?B) (?B) (PIG) (PIG) (SGG) (DLTG) (DLTG)
                 (DLTU) (DLTU) (PIU) (PIU) (SGU) (PIG) (PIG) (SGG)
                 (SGU)
 Unable to determine electronic state:  partially filled degenerate orbitals.
 Alpha  occ. eigenvalues --  -19.22420 -19.22398 -10.32770 -10.32646  -1.11304
 Alpha  occ. eigenvalues --   -1.10685  -0.79720  -0.53364  -0.51971  -0.49411
 Alpha  occ. eigenvalues --   -0.48986  -0.43135  -0.42949  -0.22458
 Alpha virt. eigenvalues --   -0.17098   0.08981   0.09080   0.09649   0.11700
 Alpha virt. eigenvalues --    0.40864   0.41789   0.42750   0.49745   0.53512
 Alpha virt. eigenvalues --    0.54668   0.61694   0.64309   0.89798   0.92567
 Alpha virt. eigenvalues --    0.95564   0.96417   1.08923   1.09769   1.12699
 Alpha virt. eigenvalues --    1.37949   1.39515   1.40209   1.43297   1.43447
 Alpha virt. eigenvalues --    1.74539   1.74629   1.78913   2.04668   2.06362
 Alpha virt. eigenvalues --    2.51773   2.58932   2.59006   2.61796   2.61871
 Alpha virt. eigenvalues --    2.97873   2.99564   3.15349   3.47831   3.49635
 Alpha virt. eigenvalues --    3.57972   3.89298
          Condensed to atoms (all electrons):
               1          2          3          4
     1  C    5.234085   0.108269   0.676964  -0.033311
     2  C    0.108269   5.234085  -0.033311   0.676964
     3  O    0.676964  -0.033311   7.370395  -0.000054
     4  O   -0.033311   0.676964  -0.000054   7.370395
 Mulliken charges:
               1
     1  C    0.013993
     2  C    0.013993
     3  O   -0.013993
     4  O   -0.013993
 Sum of Mulliken charges =   0.00000
 Mulliken charges with hydrogens summed into heavy atoms:
               1
     1  C    0.013993
     2  C    0.013993
     3  O   -0.013993
     4  O   -0.013993
 Electronic spatial extent (au):  <R**2>=            258.7410
 Charge=              0.0000 electrons
 Dipole moment (field-independent basis, Debye):
    X=             -0.0000    Y=              0.0000    Z=             -0.0000  Tot=              0.0000
 Quadrupole moment (field-independent basis, Debye-Ang):
   XX=            -18.8745   YY=            -21.5334   ZZ=            -26.8595
   XY=              0.0000   XZ=              0.0000   YZ=             -0.0000
 Traceless Quadrupole moment (field-independent basis, Debye-Ang):
   XX=              3.5480   YY=              0.8891   ZZ=             -4.4370
   XY=              0.0000   XZ=              0.0000   YZ=             -0.0000
 Octapole moment (field-independent basis, Debye-Ang**2):
  XXX=             -0.0000  YYY=             -0.0000  ZZZ=              0.0000  XYY=             -0.0000
  XXY=              0.0000  XXZ=              0.0000  XZZ=             -0.0000  YZZ=             -0.0000
  YYZ=             -0.0000  XYZ=             -0.0000
 Hexadecapole moment (field-independent basis, Debye-Ang**3):
 XXXX=            -15.0607 YYYY=            -19.2709 ZZZZ=           -275.7557 XXXY=              0.0000
 XXXZ=              0.0000 YYYX=             -0.0000 YYYZ=              0.0000 ZZZX=              0.0000
 ZZZY=             -0.0000 XXYY=             -5.7219 XXZZ=            -41.9261 YYZZ=            -45.8066
 XXYZ=              0.0000 YYXZ=              0.0000 ZZXY=              0.0000
 N-N= 8.744176908190D+01 E-N=-7.054871940900D+02  KE= 2.245592445804D+02
 Symmetry AG   KE= 1.044818123285D+02
 Symmetry B1G  KE= 5.963514239422D-34
 Symmetry B2G  KE= 4.198318330333D+00
 Symmetry B3G  KE= 4.317869057689D+00
 Symmetry AU   KE= 8.059389485954D-34
 Symmetry B1U  KE= 1.006207548023D+02
 Symmetry B2U  KE= 7.630302661639D+00
 Symmetry B3U  KE= 3.310187399889D+00
   8 Symmetry operations used in ECPInt.
 ECPInt:  NShTT=     300 NPrTT=    1228 LenC2=     300 LenP2D=    1044.
 LDataN:  DoStor=T MaxTD1= 5 Len=  102
 Calling FoFJK, ICntrl=      2127 FMM=F ISym2X=1 I1Cent= 0 IOpClX= 0 NMat=1 NMatS=1 NMatT=0.
 ***** Axes restored to original set *****
 -------------------------------------------------------------------
 Center     Atomic                   Forces (Hartrees/Bohr)
 Number     Number              X              Y              Z
 -------------------------------------------------------------------
      1        6           0.019644150    0.000000000   -0.000000000
      2        6          -0.019644150    0.000000000   -0.000000000
      3        8           0.002933371   -0.000000000   -0.000000000
      4        8          -0.002933371   -0.000000000    0.000000000
 -------------------------------------------------------------------
 Cartesian Forces:  Max     0.019644150 RMS     0.008108610

 GradGradGradGradGradGradGradGradGradGradGradGradGradGradGradGradGradGrad
 Berny optimization.
 FormGI is forming the generalized inverse of G from B-inverse, IUseBI=4.
 Internal  Forces:  Max     0.022577521 RMS     0.008676354
 Search for a local minimum.
 Step number   1 out of a maximum of   20
 All quantities printed in internal units (Hartrees-Bohrs-Radians)
 Mixed Optimization -- RFO/linear search
 Second derivative matrix not updated -- first step.
 The second derivative matrix:
                          R1        R2        R3        A1        A2
           R1           0.72656
           R2           0.00000   1.10903
           R3           0.00000   0.00000   1.10903
           A1           0.00000   0.00000   0.00000   0.04492
           A2           0.00000   0.00000   0.00000   0.00000   0.04492
           A3           0.00000   0.00000   0.00000   0.00000   0.00000
           A4           0.00000   0.00000   0.00000   0.00000   0.00000
                          A3        A4
           A3           0.04492
           A4           0.00000   0.04492
 ITU=  0
     Eigenvalues ---    0.04492   0.04492   0.04492   0.04492   0.72656
     Eigenvalues ---    1.10903   1.10903
 RFO step:  Lambda=-7.16406488D-04 EMin= 4.49153058D-02
 Linear search not attempted -- first point.
 Iteration  1 RMS(Cart)=  0.01277178 RMS(Int)=  0.00000000
 Iteration  2 RMS(Cart)=  0.00000000 RMS(Int)=  0.00000000
 ClnCor:  largest displacement from symmetrization is 2.63D-13 for atom     2.
 Variable       Old X    -DE/DX   Delta X   Delta X   Delta X     New X
                                 (Linear)    (Quad)   (Total)
    R1        2.42137   0.02258   0.00000   0.03104   0.03104   2.45241
    R2        2.24565   0.00293   0.00000   0.00264   0.00264   2.24830
    R3        2.24565   0.00293   0.00000   0.00264   0.00264   2.24830
    A1        3.14159   0.00000   0.00000   0.00000   0.00000   3.14159
    A2        3.14159  -0.00000   0.00000  -0.00000   0.00000   3.14159
    A3        3.14159   0.00000   0.00000   0.00000   0.00000   3.14159
    A4        3.14159  -0.00000   0.00000  -0.00000   0.00000   3.14159
         Item               Value     Threshold  Converged?
 Maximum Force            0.022578     0.000450     NO 
 RMS     Force            0.008676     0.000300     NO 
 Maximum Displacement     0.018165     0.001800     NO 
 RMS     Displacement     0.012772     0.001200     NO 
 Predicted change in Energy=-3.585538D-04
 GradGradGradGradGradGradGradGradGradGradGradGradGradGradGradGradGradGrad

                          Input orientation:                          
 ---------------------------------------------------------------------
 Center     Atomic      Atomic             Coordinates (Angstroms)
 Number     Number       Type             X           Y           Z
 ---------------------------------------------------------------------
      1          6           0        0.648881    0.000000    0.000000
      2          6           0       -0.648881    0.000000   -0.000000
      3          8           0        1.838628    0.000000    0.000000
      4          8           0       -1.838628    0.000000   -0.000000
 ---------------------------------------------------------------------
                    Distance matrix (angstroms):
                    1          2          3          4
     1  C    0.000000
     2  C    1.297762   0.000000
     3  O    1.189747   2.487509   0.000000
     4  O    2.487509   1.189747   3.677255   0.000000
 Stoichiometry    C2O2
 Framework group  D*H[C*(OC.CO)]
 Deg. of freedom     2
 Full point group                 D*H     NOp   8
 Largest Abelian subgroup         D2H     NOp   8
 Largest concise Abelian subgroup C2      NOp   2
                         Standard orientation:                         
 ---------------------------------------------------------------------
 Center     Atomic      Atomic             Coordinates (Angstroms)
 Number     Number       Type             X           Y           Z
 ---------------------------------------------------------------------
      1          6           0        0.000000    0.000000    0.648881
      2          6           0        0.000000    0.000000   -0.648881
      3          8           0        0.000000    0.000000    1.838628
      4          8           0        0.000000    0.000000   -1.838628
 ---------------------------------------------------------------------
 Rotational constants (GHZ):           0.0000000           4.2738765           4.2738765
 Standard basis: def2SVPP (5D, 7F)
 There are    16 symmetry adapted cartesian basis functions of AG  symmetry.
 There are     2 symmetry adapted cartesian basis functions of B1G symmetry.
 There are     6 symmetry adapted cartesian basis functions of B2G symmetry.
 There are     6 symmetry adapted cartesian basis functions of B3G symmetry.
 There are     2 symmetry adapted cartesian basis functions of AU  symmetry.
 There are    16 symmetry adapted cartesian basis functions of B1U symmetry.
 There are     6 symmetry adapted cartesian basis functions of B2U symmetry.
 There are     6 symmetry adapted cartesian basis functions of B3U symmetry.
 There are    14 symmetry adapted basis functions of AG  symmetry.
 There are     2 symmetry adapted basis functions of B1G symmetry.
 There are     6 symmetry adapted basis functions of B2G symmetry.
 There are     6 symmetry adapted basis functions of B3G symmetry.
 There are     2 symmetry adapted basis functions of AU  symmetry.
 There are    14 symmetry adapted basis functions of B1U symmetry.
 There are     6 symmetry adapted basis functions of B2U symmetry.
 There are     6 symmetry adapted basis functions of B3U symmetry.
    56 basis functions,   100 primitive gaussians,    60 cartesian basis functions
    14 alpha electrons       14 beta electrons
       nuclear repulsion energy        87.0108213392 Hartrees.
 NAtoms=    4 NActive=    4 NUniq=    2 SFac= 4.00D+00 NAtFMM=   60 NAOKFM=F Big=F
 Integral buffers will be    131072 words long.
 Raffenetti 2 integral format.
 Two-electron integral symmetry is turned on.
 Nuclear repulsion after empirical dispersion term =       87.0074978712 Hartrees.
 One-electron integrals computed using PRISM.
   8 Symmetry operations used in ECPInt.
 ECPInt:  NShTT=     300 NPrTT=    1228 LenC2=     300 LenP2D=    1042.
 LDataN:  DoStor=T MaxTD1= 4 Len=   56
 NBasis=    56 RedAO= T EigKep=  4.01D-04  NBF=    14     2     6     6     2    14     6     6
 NBsUse=    56 1.00D-06 EigRej= -1.00D+00 NBFU=    14     2     6     6     2    14     6     6
 Initial guess from the checkpoint file:  "/tmp/Gau-1710143.chk"
 B after Tr=     0.000000    0.000000    0.000000
         Rot=    1.000000    0.000000    0.000000    0.000000 Ang=   0.00 deg.
 Initial guess orbital symmetries:
       Occupied  (SGU) (SGG) (SGG) (SGU) (SGG) (SGU) (SGG) (SGU)
                 (SGG) (PIU) (PIU) (PIG) (PIG) (PIU)
       Virtual   (PIU) (PIG) (PIG) (SGU) (SGG) (PIU) (PIU) (SGU)
                 (SGG) (PIG) (PIG) (SGG) (SGU) (SGU) (SGG) (PIU)
                 (PIU) (PIG) (PIG) (SGU) (PIU) (PIU) (?A) (?A)
                 (?A) (?B) (?B) (?B) (PIG) (PIG) (SGG) (DLTG) (DLTG)
                 (DLTU) (DLTU) (PIU) (PIU) (SGU) (PIG) (PIG) (SGG)
                 (SGU)
 Keep R1 ints in memory in symmetry-blocked form, NReq=15442638.
 Requested convergence on RMS density matrix=1.00D-08 within 128 cycles.
 Requested convergence on MAX density matrix=1.00D-06.
 Requested convergence on             energy=1.00D-06.
 No special actions if energy rises.
 SCF Done:  E(RB3LYP) =  -226.367885241     A.U. after    8 cycles
            NFock=  8  Conv=0.19D-08     -V/T= 2.0084
   8 Symmetry operations used in ECPInt.
 ECPInt:  NShTT=     300 NPrTT=    1228 LenC2=     300 LenP2D=    1042.
 LDataN:  DoStor=T MaxTD1= 5 Len=  102
 Calling FoFJK, ICntrl=      2127 FMM=F ISym2X=1 I1Cent= 0 IOpClX= 0 NMat=1 NMatS=1 NMatT=0.
 ***** Axes restored to original set *****
 -------------------------------------------------------------------
 Center     Atomic                   Forces (Hartrees/Bohr)
 Number     Number              X              Y              Z
 -------------------------------------------------------------------
      1        6          -0.000482119    0.000000000   -0.000000000
      2        6           0.000482119    0.000000000   -0.000000000
      3        8          -0.000846439   -0.000000000   -0.000000000
      4        8           0.000846439   -0.000000000    0.000000000
 -------------------------------------------------------------------
 Cartesian Forces:  Max     0.000846439 RMS     0.000397680

 GradGradGradGradGradGradGradGradGradGradGradGradGradGradGradGradGradGrad
 Berny optimization.
 Using GEDIIS/GDIIS optimizer.
 Internal  Forces:  Max     0.001328558 RMS     0.000675910
 Search for a local minimum.
 Step number   2 out of a maximum of   20
 All quantities printed in internal units (Hartrees-Bohrs-Radians)
 Mixed Optimization -- En-DIIS/RFO-DIIS
 Update second derivatives using D2CorX and points    1    2
 DE= -3.30D-04 DEPred=-3.59D-04 R= 9.20D-01
 TightC=F SS=  1.41D+00  RLast= 3.13D-02 DXNew= 5.0454D-01 9.3805D-02
 Trust test= 9.20D-01 RLast= 3.13D-02 DXMaxT set to 3.00D-01
 The second derivative matrix:
                          R1        R2        R3        A1        A2
           R1           0.76561
           R2           0.02618   1.11577
           R3           0.02618   0.00674   1.11577
           A1           0.00000   0.00000   0.00000   0.04492
           A2          -0.00000  -0.00000  -0.00000  -0.00000   0.04492
           A3          -0.00000  -0.00000  -0.00000  -0.00000   0.00000
           A4          -0.00000  -0.00000  -0.00000  -0.00000   0.00000
                          A3        A4
           A3           0.04492
           A4           0.00000   0.04492
 ITU=  1  0
 Use linear search instead of GDIIS.
     Eigenvalues ---    0.04492   0.04492   0.04492   0.04492   0.76181
     Eigenvalues ---    1.10903   1.12631
 RFO step:  Lambda=-6.97904050D-07 EMin= 4.49153058D-02
 Quartic linear search produced a step of -0.06253.
 Iteration  1 RMS(Cart)=  0.00097731 RMS(Int)=  0.00000000
 Iteration  2 RMS(Cart)=  0.00000000 RMS(Int)=  0.00000000
 ClnCor:  largest displacement from symmetrization is 2.66D-13 for atom     2.
 Variable       Old X    -DE/DX   Delta X   Delta X   Delta X     New X
                                 (Linear)    (Quad)   (Total)
    R1        2.45241  -0.00133  -0.00194   0.00017  -0.00177   2.45065
    R2        2.24830  -0.00085  -0.00017  -0.00055  -0.00072   2.24758
    R3        2.24830  -0.00085  -0.00017  -0.00055  -0.00072   2.24758
    A1        3.14159   0.00000   0.00000   0.00000   0.00000   3.14159
    A2        3.14159  -0.00000   0.00000  -0.00000   0.00000   3.14159
    A3        3.14159   0.00000   0.00000   0.00000   0.00000   3.14159
    A4        3.14159  -0.00000   0.00000  -0.00000   0.00000   3.14159
         Item               Value     Threshold  Converged?
 Maximum Force            0.001329     0.000450     NO 
 RMS     Force            0.000676     0.000300     NO 
 Maximum Displacement     0.001601     0.001800     YES
 RMS     Displacement     0.000977     0.001200     YES
 Predicted change in Energy=-1.722743D-06
 GradGradGradGradGradGradGradGradGradGradGradGradGradGradGradGradGradGrad

                          Input orientation:                          
 ---------------------------------------------------------------------
 Center     Atomic      Atomic             Coordinates (Angstroms)
 Number     Number       Type             X           Y           Z
 ---------------------------------------------------------------------
      1          6           0        0.648413    0.000000   -0.000000
      2          6           0       -0.648413    0.000000   -0.000000
      3          8           0        1.837781    0.000000    0.000000
      4          8           0       -1.837781    0.000000   -0.000000
 ---------------------------------------------------------------------
                    Distance matrix (angstroms):
                    1          2          3          4
     1  C    0.000000
     2  C    1.296827   0.000000
     3  O    1.189367   2.486194   0.000000
     4  O    2.486194   1.189367   3.675561   0.000000
 Stoichiometry    C2O2
 Framework group  D*H[C*(OC.CO)]
 Deg. of freedom     2
 Full point group                 D*H     NOp   8
 Largest Abelian subgroup         D2H     NOp   8
 Largest concise Abelian subgroup C2      NOp   2
                         Standard orientation:                         
 ---------------------------------------------------------------------
 Center     Atomic      Atomic             Coordinates (Angstroms)
 Number     Number       Type             X           Y           Z
 ---------------------------------------------------------------------
      1          6           0        0.000000    0.000000    0.648413
      2          6           0        0.000000    0.000000   -0.648413
      3          8           0        0.000000    0.000000    1.837781
      4          8           0        0.000000    0.000000   -1.837781
 ---------------------------------------------------------------------
 Rotational constants (GHZ):           0.0000000           4.2780074           4.2780074
 Standard basis: def2SVPP (5D, 7F)
 There are    16 symmetry adapted cartesian basis functions of AG  symmetry.
 There are     2 symmetry adapted cartesian basis functions of B1G symmetry.
 There are     6 symmetry adapted cartesian basis functions of B2G symmetry.
 There are     6 symmetry adapted cartesian basis functions of B3G symmetry.
 There are     2 symmetry adapted cartesian basis functions of AU  symmetry.
 There are    16 symmetry adapted cartesian basis functions of B1U symmetry.
 There are     6 symmetry adapted cartesian basis functions of B2U symmetry.
 There are     6 symmetry adapted cartesian basis functions of B3U symmetry.
 There are    14 symmetry adapted basis functions of AG  symmetry.
 There are     2 symmetry adapted basis functions of B1G symmetry.
 There are     6 symmetry adapted basis functions of B2G symmetry.
 There are     6 symmetry adapted basis functions of B3G symmetry.
 There are     2 symmetry adapted basis functions of AU  symmetry.
 There are    14 symmetry adapted basis functions of B1U symmetry.
 There are     6 symmetry adapted basis functions of B2U symmetry.
 There are     6 symmetry adapted basis functions of B3U symmetry.
    56 basis functions,   100 primitive gaussians,    60 cartesian basis functions
    14 alpha electrons       14 beta electrons
       nuclear repulsion energy        87.0500787765 Hartrees.
 NAtoms=    4 NActive=    4 NUniq=    2 SFac= 4.00D+00 NAtFMM=   60 NAOKFM=F Big=F
 Integral buffers will be    131072 words long.
 Raffenetti 2 integral format.
 Two-electron integral symmetry is turned on.
 Nuclear repulsion after empirical dispersion term =       87.0467545889 Hartrees.
 One-electron integrals computed using PRISM.
   8 Symmetry operations used in ECPInt.
 ECPInt:  NShTT=     300 NPrTT=    1228 LenC2=     300 LenP2D=    1042.
 LDataN:  DoStor=T MaxTD1= 4 Len=   56
 NBasis=    56 RedAO= T EigKep=  3.99D-04  NBF=    14     2     6     6     2    14     6     6
 NBsUse=    56 1.00D-06 EigRej= -1.00D+00 NBFU=    14     2     6     6     2    14     6     6
 Initial guess from the checkpoint file:  "/tmp/Gau-1710143.chk"
 B after Tr=    -0.000000    0.000000    0.000000
         Rot=    1.000000    0.000000    0.000000    0.000000 Ang=   0.00 deg.
 Initial guess orbital symmetries:
       Occupied  (SGU) (SGG) (SGG) (SGU) (SGG) (SGU) (SGG) (SGU)
                 (SGG) (PIU) (PIU) (PIG) (PIG) (PIU)
       Virtual   (PIU) (PIG) (PIG) (SGU) (SGG) (PIU) (SGU) (PIU)
                 (SGG) (PIG) (PIG) (SGG) (SGU) (SGU) (SGG) (PIU)
                 (PIU) (PIG) (PIG) (SGU) (PIU) (PIU) (?A) (?A)
                 (?A) (?B) (?B) (?B) (PIG) (PIG) (SGG) (DLTG) (DLTG)
                 (DLTU) (DLTU) (PIU) (PIU) (SGU) (PIG) (PIG) (SGG)
                 (SGU)
 Keep R1 ints in memory in symmetry-blocked form, NReq=15442638.
 Requested convergence on RMS density matrix=1.00D-08 within 128 cycles.
 Requested convergence on MAX density matrix=1.00D-06.
 Requested convergence on             energy=1.00D-06.
 No special actions if energy rises.
 SCF Done:  E(RB3LYP) =  -226.367887063     A.U. after    6 cycles
            NFock=  6  Conv=0.93D-08     -V/T= 2.0083
   8 Symmetry operations used in ECPInt.
 ECPInt:  NShTT=     300 NPrTT=    1228 LenC2=     300 LenP2D=    1042.
 LDataN:  DoStor=T MaxTD1= 5 Len=  102
 Calling FoFJK, ICntrl=      2127 FMM=F ISym2X=1 I1Cent= 0 IOpClX= 0 NMat=1 NMatS=1 NMatT=0.
 ***** Axes restored to original set *****
 -------------------------------------------------------------------
 Center     Atomic                   Forces (Hartrees/Bohr)
 Number     Number              X              Y              Z
 -------------------------------------------------------------------
      1        6           0.000093710    0.000000000   -0.000000000
      2        6          -0.000093710    0.000000000   -0.000000000
      3        8          -0.000076445   -0.000000000   -0.000000000
      4        8           0.000076445   -0.000000000    0.000000000
 -------------------------------------------------------------------
 Cartesian Forces:  Max     0.000093710 RMS     0.000049372

 GradGradGradGradGradGradGradGradGradGradGradGradGradGradGradGradGradGrad
 Berny optimization.
 Using GEDIIS/GDIIS optimizer.
 Internal  Forces:  Max     0.000076445 RMS     0.000041379
 Search for a local minimum.
 Step number   3 out of a maximum of   20
 All quantities printed in internal units (Hartrees-Bohrs-Radians)
 Mixed Optimization -- En-DIIS/RFO-DIIS
 Swapping is turned off.
 Update second derivatives using D2CorX and points    1    2    3
 DE= -1.82D-06 DEPred=-1.72D-06 R= 1.06D+00
 TightC=F SS=  1.41D+00  RLast= 2.04D-03 DXNew= 5.0454D-01 6.1120D-03
 Trust test= 1.06D+00 RLast= 2.04D-03 DXMaxT set to 3.00D-01
 The second derivative matrix:
                          R1        R2        R3        A1        A2
           R1           0.75965
           R2           0.00264   1.08783
           R3           0.00264  -0.02120   1.08783
           A1           0.00000   0.00000   0.00000   0.04492
           A2          -0.00000  -0.00000  -0.00000  -0.00000   0.04492
           A3           0.00000   0.00000   0.00000   0.00000  -0.00000
           A4          -0.00000  -0.00000  -0.00000  -0.00000   0.00000
                          A3        A4
           A3           0.04492
           A4          -0.00000   0.04492
 ITU=  1  1  0
     Eigenvalues ---    0.04492   0.04492   0.04492   0.04492   0.75961
     Eigenvalues ---    1.06667   1.10903
 En-DIIS/RFO-DIIS/Sim-DIIS IScMMF=       -3 using points:     3    2
 RFO step:  Lambda=-1.13124867D-08.
 DidBck=F Rises=F RFO-DIIS coefs:    1.01491   -0.01491
 Iteration  1 RMS(Cart)=  0.00003273 RMS(Int)=  0.00000000
 Iteration  2 RMS(Cart)=  0.00000000 RMS(Int)=  0.00000000
 ClnCor:  largest displacement from symmetrization is 2.69D-13 for atom     2.
 Variable       Old X    -DE/DX   Delta X   Delta X   Delta X     New X
                                 (Linear)    (Quad)   (Total)
    R1        2.45065   0.00002  -0.00003   0.00005   0.00002   2.45067
    R2        2.24758  -0.00008  -0.00001  -0.00006  -0.00007   2.24751
    R3        2.24758  -0.00008  -0.00001  -0.00006  -0.00007   2.24751
    A1        3.14159   0.00000  -0.00000   0.00000   0.00000   3.14159
    A2        3.14159  -0.00000  -0.00000  -0.00000   0.00000   3.14159
    A3        3.14159   0.00000  -0.00000   0.00000   0.00000   3.14159
    A4        3.14159  -0.00000  -0.00000  -0.00000   0.00000   3.14159
         Item               Value     Threshold  Converged?
 Maximum Force            0.000076     0.000450     YES
 RMS     Force            0.000041     0.000300     YES
 Maximum Displacement     0.000060     0.001800     YES
 RMS     Displacement     0.000033     0.001200     YES
 Predicted change in Energy=-5.683641D-09
 Optimization completed.
    -- Stationary point found.
                           ----------------------------
                           !   Optimized Parameters   !
                           ! (Angstroms and Degrees)  !
 --------------------------                            --------------------------
 ! Name  Definition              Value          Derivative Info.                !
 --------------------------------------------------------------------------------
 ! R1    R(1,2)                  1.2968         -DE/DX =    0.0                 !
 ! R2    R(1,3)                  1.1894         -DE/DX =   -0.0001              !
 ! R3    R(2,4)                  1.1894         -DE/DX =   -0.0001              !
 ! A1    L(2,1,3,-2,-1)        180.0            -DE/DX =    0.0                 !
 ! A2    L(1,2,4,-2,-1)        180.0            -DE/DX =    0.0                 !
 ! A3    L(2,1,3,-3,-2)        180.0            -DE/DX =    0.0                 !
 ! A4    L(1,2,4,-3,-2)        180.0            -DE/DX =    0.0                 !
 --------------------------------------------------------------------------------
 GradGradGradGradGradGradGradGradGradGradGradGradGradGradGradGradGradGrad

                          Input orientation:                          
 ---------------------------------------------------------------------
 Center     Atomic      Atomic             Coordinates (Angstroms)
 Number     Number       Type             X           Y           Z
 ---------------------------------------------------------------------
      1          6           0        0.648413    0.000000   -0.000000
      2          6           0       -0.648413    0.000000   -0.000000
      3          8           0        1.837781    0.000000    0.000000
      4          8           0       -1.837781    0.000000   -0.000000
 ---------------------------------------------------------------------
                    Distance matrix (angstroms):
                    1          2          3          4
     1  C    0.000000
     2  C    1.296827   0.000000
     3  O    1.189367   2.486194   0.000000
     4  O    2.486194   1.189367   3.675561   0.000000
 Stoichiometry    C2O2
 Framework group  D*H[C*(OC.CO)]
 Deg. of freedom     2
 Full point group                 D*H     NOp   8
 Largest Abelian subgroup         D2H     NOp   8
 Largest concise Abelian subgroup C2      NOp   2
                         Standard orientation:                         
 ---------------------------------------------------------------------
 Center     Atomic      Atomic             Coordinates (Angstroms)
 Number     Number       Type             X           Y           Z
 ---------------------------------------------------------------------
      1          6           0        0.000000    0.000000    0.648413
      2          6           0        0.000000    0.000000   -0.648413
      3          8           0        0.000000    0.000000    1.837781
      4          8           0        0.000000    0.000000   -1.837781
 ---------------------------------------------------------------------
 Rotational constants (GHZ):           0.0000000           4.2780074           4.2780074

 **********************************************************************

            Population analysis using the SCF Density.

 **********************************************************************

 Orbital symmetries:
       Occupied  (SGU) (SGG) (SGG) (SGU) (SGG) (SGU) (SGG) (SGU)
                 (SGG) (PIU) (PIU) (PIG) (PIG) (PIU)
       Virtual   (PIU) (PIG) (PIG) (SGU) (SGG) (PIU) (SGU) (PIU)
                 (SGG) (PIG) (PIG) (SGG) (SGU) (SGU) (SGG) (PIU)
                 (PIU) (PIG) (PIG) (SGU) (PIU) (PIU) (?A) (?A)
                 (?A) (?B) (?B) (?B) (PIG) (PIG) (SGG) (DLTG) (DLTG)
                 (DLTU) (DLTU) (PIU) (PIU) (SGU) (PIG) (PIG) (SGG)
                 (SGU)
 Unable to determine electronic state:  partially filled degenerate orbitals.
 Alpha  occ. eigenvalues --  -19.22478 -19.22457 -10.33036 -10.32930  -1.11279
 Alpha  occ. eigenvalues --   -1.10685  -0.79265  -0.53422  -0.51973  -0.49270
 Alpha  occ. eigenvalues --   -0.48853  -0.43202  -0.43003  -0.22349
 Alpha virt. eigenvalues --   -0.16996   0.08438   0.08567   0.08919   0.11791
 Alpha virt. eigenvalues --    0.40990   0.41892   0.41908   0.50007   0.53373
 Alpha virt. eigenvalues --    0.54525   0.61359   0.64594   0.89016   0.92291
 Alpha virt. eigenvalues --    0.95433   0.96282   1.08736   1.09578   1.11599
 Alpha virt. eigenvalues --    1.37494   1.39038   1.40203   1.43773   1.43920
 Alpha virt. eigenvalues --    1.73909   1.73996   1.77455   2.03636   2.05318
 Alpha virt. eigenvalues --    2.49996   2.58935   2.59008   2.61652   2.61725
 Alpha virt. eigenvalues --    2.97518   2.99193   3.13368   3.46141   3.47926
 Alpha virt. eigenvalues --    3.57257   3.87695
          Condensed to atoms (all electrons):
               1          2          3          4
     1  C    5.199860   0.144759   0.672671  -0.031931
     2  C    0.144759   5.199860  -0.031931   0.672671
     3  O    0.672671  -0.031931   7.373928  -0.000028
     4  O   -0.031931   0.672671  -0.000028   7.373928
 Mulliken charges:
               1
     1  C    0.014641
     2  C    0.014641
     3  O   -0.014641
     4  O   -0.014641
 Sum of Mulliken charges =  -0.00000
 Mulliken charges with hydrogens summed into heavy atoms:
               1
     1  C    0.014641
     2  C    0.014641
     3  O   -0.014641
     4  O   -0.014641
 Electronic spatial extent (au):  <R**2>=            261.1042
 Charge=             -0.0000 electrons
 Dipole moment (field-independent basis, Debye):
    X=             -0.0000    Y=              0.0000    Z=              0.0000  Tot=              0.0000
 Quadrupole moment (field-independent basis, Debye-Ang):
   XX=            -18.9065   YY=            -21.5943   ZZ=            -26.8995
   XY=              0.0000   XZ=              0.0000   YZ=             -0.0000
 Traceless Quadrupole moment (field-independent basis, Debye-Ang):
   XX=              3.5603   YY=              0.8725   ZZ=             -4.4327
   XY=              0.0000   XZ=              0.0000   YZ=             -0.0000
 Octapole moment (field-independent basis, Debye-Ang**2):
  XXX=             -0.0000  YYY=              0.0000  ZZZ=              0.0000  XYY=             -0.0000
  XXY=             -0.0000  XXZ=              0.0000  XZZ=             -0.0000  YZZ=              0.0000
  YYZ=             -0.0000  XYZ=             -0.0000
 Hexadecapole moment (field-independent basis, Debye-Ang**3):
 XXXX=            -15.1121 YYYY=            -19.4114 ZZZZ=           -278.6830 XXXY=              0.0000
 XXXZ=              0.0000 YYYX=              0.0000 YYYZ=              0.0000 ZZZX=              0.0000
 ZZZY=             -0.0000 XXYY=             -5.7539 XXZZ=            -42.3672 YYZZ=            -46.2622
 XXYZ=              0.0000 YYXZ=              0.0000 ZZXY=              0.0000
 N-N= 8.704675458892D+01 E-N=-7.046437743072D+02  KE= 2.244974771957D+02
 Symmetry AG   KE= 1.044352777232D+02
 Symmetry B1G  KE= 5.907854259112D-34
 Symmetry B2G  KE= 4.192113967211D+00
 Symmetry B3G  KE= 4.311290745606D+00
 Symmetry AU   KE= 7.888989335943D-34
 Symmetry B1U  KE= 1.006181075416D+02
 Symmetry B2U  KE= 7.618601238641D+00
 Symmetry B3U  KE= 3.322085979450D+00
 Unable to Open any file for archive entry.
 1\1\GINC-NODE01\FOpt\RB3LYP\def2SVPP\C2O2\XUHJ\08-Jan-2025\0\\#N opt f
 req B3LYP/def2SVPP symm=veryloose em=gd3bj scale=0.961 press=0.987\\O=
 C=C=O_1\\0,1\C,0.6484134905,0.,0.\C,-0.6484134905,0.,0.\O,1.8377805556
 ,0.,0.\O,-1.8377805556,0.,0.\\Version=ES64L-G16RevC.01\HF=-226.3678871
 \RMSD=9.349e-09\RMSF=4.937e-05\Dipole=0.,0.,0.\Quadrupole=-3.2956384,0
 .6486724,2.646966,0.,0.,0.\PG=D*H [C*(O1C1.C1O1)]\\@
 The archive entry for this job was punched.


 Any fool can criticize, condemn, and complain -- and most do.
 -- Dale Carnegie
 Job cpu time:       0 days  0 hours  0 minutes 24.9 seconds.
 Elapsed time:       0 days  0 hours  0 minutes  1.6 seconds.
 File lengths (MBytes):  RWF=      6 Int=      0 D2E=      0 Chk=      1 Scr=      1
 Normal termination of Gaussian 16 at Wed Jan  8 22:38:09 2025.
 Link1:  Proceeding to internal job step number  2.
 --------------------------------------------------------------------
 #N Geom=AllCheck Guess=TCheck SCRF=Check GenChk RB3LYP/def2SVPP Freq
 --------------------------------------------------------------------
 1/10=4,29=7,30=1,38=1,40=1,113=-987000,114=961000/1,3;
 2/12=2,17=2,18=2,40=1/2;
 3/5=43,7=202,11=2,14=-4,25=1,30=1,70=2,71=2,74=-5,116=1,124=41,140=1/1,2,3;
 4/5=101/1;
 5/5=2,38=6,98=1/2;
 8/6=4,10=90,11=11/1;
 11/6=1,8=1,9=11,15=111,16=1/1,2,10;
 10/6=1/2;
 6/7=2,8=2,9=2,10=2,28=1/1;
 7/8=1,10=1,25=1/1,2,3,16;
 1/10=4,30=1/3;
 99//99;
 Structure from the checkpoint file:  "/tmp/Gau-1710143.chk"
 ---------
 O=C=C=O_1
 ---------
 Charge =  0 Multiplicity = 1
 Redundant internal coordinates found in file.  (old form).
 C,0,0.6484134905,0.,0.
 C,0,-0.6484134905,0.,0.
 O,0,1.8377805556,0.,0.
 O,0,-1.8377805556,0.,0.
 Recover connectivity data from disk.

 GradGradGradGradGradGradGradGradGradGradGradGradGradGradGradGradGradGrad
 Berny optimization.
 Initialization pass.
                           ----------------------------
                           !    Initial Parameters    !
                           ! (Angstroms and Degrees)  !
 --------------------------                            --------------------------
 ! Name  Definition              Value          Derivative Info.                !
 --------------------------------------------------------------------------------
 ! R1    R(1,2)                  1.2968         calculate D2E/DX2 analytically  !
 ! R2    R(1,3)                  1.1894         calculate D2E/DX2 analytically  !
 ! R3    R(2,4)                  1.1894         calculate D2E/DX2 analytically  !
 ! A1    L(2,1,3,-2,-1)        180.0            calculate D2E/DX2 analytically  !
 ! A2    L(1,2,4,-2,-1)        180.0            calculate D2E/DX2 analytically  !
 ! A3    L(2,1,3,-3,-2)        180.0            calculate D2E/DX2 analytically  !
 ! A4    L(1,2,4,-3,-2)        180.0            calculate D2E/DX2 analytically  !
 --------------------------------------------------------------------------------
 Trust Radius=3.00D-01 FncErr=1.00D-07 GrdErr=1.00D-07 EigMax=2.50D+02 EigMin=1.00D-04
 Number of steps in this run=      2 maximum allowed number of steps=      2.
 GradGradGradGradGradGradGradGradGradGradGradGradGradGradGradGradGradGrad

                          Input orientation:                          
 ---------------------------------------------------------------------
 Center     Atomic      Atomic             Coordinates (Angstroms)
 Number     Number       Type             X           Y           Z
 ---------------------------------------------------------------------
      1          6           0        0.648413    0.000000   -0.000000
      2          6           0       -0.648413    0.000000   -0.000000
      3          8           0        1.837781    0.000000    0.000000
      4          8           0       -1.837781    0.000000   -0.000000
 ---------------------------------------------------------------------
                    Distance matrix (angstroms):
                    1          2          3          4
     1  C    0.000000
     2  C    1.296827   0.000000
     3  O    1.189367   2.486194   0.000000
     4  O    2.486194   1.189367   3.675561   0.000000
 Stoichiometry    C2O2
 Framework group  D*H[C*(OC.CO)]
 Deg. of freedom     2
 Full point group                 D*H     NOp   8
 Largest Abelian subgroup         D2H     NOp   8
 Largest concise Abelian subgroup C2      NOp   2
                         Standard orientation:                         
 ---------------------------------------------------------------------
 Center     Atomic      Atomic             Coordinates (Angstroms)
 Number     Number       Type             X           Y           Z
 ---------------------------------------------------------------------
      1          6           0        0.000000    0.000000    0.648413
      2          6           0        0.000000    0.000000   -0.648413
      3          8           0        0.000000    0.000000    1.837781
      4          8           0        0.000000    0.000000   -1.837781
 ---------------------------------------------------------------------
 Rotational constants (GHZ):           0.0000000           4.2780074           4.2780074
 Standard basis: def2SVPP (5D, 7F)
 There are    16 symmetry adapted cartesian basis functions of AG  symmetry.
 There are     2 symmetry adapted cartesian basis functions of B1G symmetry.
 There are     6 symmetry adapted cartesian basis functions of B2G symmetry.
 There are     6 symmetry adapted cartesian basis functions of B3G symmetry.
 There are     2 symmetry adapted cartesian basis functions of AU  symmetry.
 There are    16 symmetry adapted cartesian basis functions of B1U symmetry.
 There are     6 symmetry adapted cartesian basis functions of B2U symmetry.
 There are     6 symmetry adapted cartesian basis functions of B3U symmetry.
 There are    14 symmetry adapted basis functions of AG  symmetry.
 There are     2 symmetry adapted basis functions of B1G symmetry.
 There are     6 symmetry adapted basis functions of B2G symmetry.
 There are     6 symmetry adapted basis functions of B3G symmetry.
 There are     2 symmetry adapted basis functions of AU  symmetry.
 There are    14 symmetry adapted basis functions of B1U symmetry.
 There are     6 symmetry adapted basis functions of B2U symmetry.
 There are     6 symmetry adapted basis functions of B3U symmetry.
    56 basis functions,   100 primitive gaussians,    60 cartesian basis functions
    14 alpha electrons       14 beta electrons
       nuclear repulsion energy        87.0500787765 Hartrees.
 NAtoms=    4 NActive=    4 NUniq=    2 SFac= 4.00D+00 NAtFMM=   60 NAOKFM=F Big=F
 Integral buffers will be    131072 words long.
 Raffenetti 2 integral format.
 Two-electron integral symmetry is turned on.
 Nuclear repulsion after empirical dispersion term =       87.0467545889 Hartrees.
 One-electron integrals computed using PRISM.
   8 Symmetry operations used in ECPInt.
 ECPInt:  NShTT=     300 NPrTT=    1228 LenC2=     300 LenP2D=    1042.
 LDataN:  DoStor=T MaxTD1= 4 Len=   56
 NBasis=    56 RedAO= T EigKep=  3.99D-04  NBF=    14     2     6     6     2    14     6     6
 NBsUse=    56 1.00D-06 EigRej= -1.00D+00 NBFU=    14     2     6     6     2    14     6     6
 Initial guess from the checkpoint file:  "/tmp/Gau-1710143.chk"
 B after Tr=     0.000000    0.000000    0.000000
         Rot=    1.000000    0.000000    0.000000    0.000000 Ang=   0.00 deg.
 Initial guess orbital symmetries:
       Occupied  (SGU) (SGG) (SGG) (SGU) (SGG) (SGU) (SGG) (SGU)
                 (SGG) (PIU) (PIU) (PIG) (PIG) (PIU)
       Virtual   (PIU) (PIG) (PIG) (SGU) (SGG) (PIU) (SGU) (PIU)
                 (SGG) (PIG) (PIG) (SGG) (SGU) (SGU) (SGG) (PIU)
                 (PIU) (PIG) (PIG) (SGU) (PIU) (PIU) (?A) (?A)
                 (?A) (?B) (?B) (?B) (PIG) (PIG) (SGG) (DLTG) (DLTG)
                 (DLTU) (DLTU) (PIU) (PIU) (SGU) (PIG) (PIG) (SGG)
                 (SGU)
 Keep R1 ints in memory in symmetry-blocked form, NReq=15442638.
 Requested convergence on RMS density matrix=1.00D-08 within 128 cycles.
 Requested convergence on MAX density matrix=1.00D-06.
 Requested convergence on             energy=1.00D-06.
 No special actions if energy rises.
 SCF Done:  E(RB3LYP) =  -226.367887063     A.U. after    1 cycles
            NFock=  1  Conv=0.27D-08     -V/T= 2.0083
 DoSCS=F DFT=T ScalE2(SS,OS)=  1.000000  1.000000
 Range of M.O.s used for correlation:     1    56
 NBasis=    56 NAE=    14 NBE=    14 NFC=     0 NFV=     0
 NROrb=     56 NOA=    14 NOB=    14 NVA=    42 NVB=    42

 **** Warning!!: The largest alpha MO coefficient is  0.16914146D+02


 **** Warning!!: The smallest alpha delta epsilon is  0.53527392D-01

   8 Symmetry operations used in ECPInt.
 ECPInt:  NShTT=     300 NPrTT=    1228 LenC2=     300 LenP2D=    1042.
 LDataN:  DoStor=T MaxTD1= 5 Len=  102
 Symmetrizing basis deriv contribution to polar:
 IMax=3 JMax=2 DiffMx= 0.00D+00
 G2DrvN: will do     5 centers at a time, making    1 passes.
 Calling FoFCou, ICntrl=  3107 FMM=F I1Cent=   0 AccDes= 0.00D+00.
 End of G2Drv F.D. properties file   721 does not exist.
 End of G2Drv F.D. properties file   722 does not exist.
 End of G2Drv F.D. properties file   788 does not exist.
          IDoAtm=1111
          Differentiating once with respect to electric field.
                with respect to dipole field.
          Differentiating once with respect to nuclear coordinates.
 Keep R1 ints in memory in symmetry-blocked form, NReq=15390297.
          There are     9 degrees of freedom in the 1st order CPHF.  IDoFFX=4 NUNeed=     9.
      9 vectors produced by pass  0 Test12= 6.53D-15 1.11D-08 XBig12= 8.65D+01 6.87D+00.
 AX will form     9 AO Fock derivatives at one time.
      9 vectors produced by pass  1 Test12= 6.53D-15 1.11D-08 XBig12= 2.43D+01 1.59D+00.
      9 vectors produced by pass  2 Test12= 6.53D-15 1.11D-08 XBig12= 3.07D+00 8.73D-01.
      9 vectors produced by pass  3 Test12= 6.53D-15 1.11D-08 XBig12= 4.93D-01 3.76D-01.
      9 vectors produced by pass  4 Test12= 6.53D-15 1.11D-08 XBig12= 4.78D-03 2.35D-02.
      9 vectors produced by pass  5 Test12= 6.53D-15 1.11D-08 XBig12= 4.03D-05 2.77D-03.
      5 vectors produced by pass  6 Test12= 6.53D-15 1.11D-08 XBig12= 8.08D-08 7.86D-05.
      2 vectors produced by pass  7 Test12= 6.53D-15 1.11D-08 XBig12= 1.82D-10 5.81D-06.
      1 vectors produced by pass  8 Test12= 6.53D-15 1.11D-08 XBig12= 1.89D-13 1.30D-07.
 InvSVY:  IOpt=1 It=  1 EMax= 1.78D-15
 Solved reduced A of dimension    62 with     9 vectors.
 Isotropic polarizability for W=    0.000000       22.60 Bohr**3.
 End of Minotr F.D. properties file   721 does not exist.
 End of Minotr F.D. properties file   722 does not exist.
 End of Minotr F.D. properties file   788 does not exist.

 **********************************************************************

            Population analysis using the SCF Density.

 **********************************************************************

 Orbital symmetries:
       Occupied  (SGU) (SGG) (SGG) (SGU) (SGG) (SGU) (SGG) (SGU)
                 (SGG) (PIU) (PIU) (PIG) (PIG) (PIU)
       Virtual   (PIU) (PIG) (PIG) (SGU) (SGG) (PIU) (SGU) (PIU)
                 (SGG) (PIG) (PIG) (SGG) (SGU) (SGU) (SGG) (PIU)
                 (PIU) (PIG) (PIG) (SGU) (PIU) (PIU) (?A) (?A)
                 (?A) (?B) (?B) (?B) (PIG) (PIG) (SGG) (DLTG) (DLTG)
                 (DLTU) (DLTU) (PIU) (PIU) (SGU) (PIG) (PIG) (SGG)
                 (SGU)
 Unable to determine electronic state:  partially filled degenerate orbitals.
 Alpha  occ. eigenvalues --  -19.22478 -19.22457 -10.33036 -10.32930  -1.11279
 Alpha  occ. eigenvalues --   -1.10685  -0.79265  -0.53422  -0.51973  -0.49270
 Alpha  occ. eigenvalues --   -0.48853  -0.43202  -0.43003  -0.22349
 Alpha virt. eigenvalues --   -0.16996   0.08438   0.08567   0.08919   0.11791
 Alpha virt. eigenvalues --    0.40990   0.41892   0.41908   0.50007   0.53373
 Alpha virt. eigenvalues --    0.54525   0.61359   0.64594   0.89016   0.92291
 Alpha virt. eigenvalues --    0.95433   0.96282   1.08736   1.09578   1.11599
 Alpha virt. eigenvalues --    1.37494   1.39038   1.40203   1.43773   1.43920
 Alpha virt. eigenvalues --    1.73909   1.73996   1.77455   2.03636   2.05318
 Alpha virt. eigenvalues --    2.49996   2.58935   2.59008   2.61652   2.61725
 Alpha virt. eigenvalues --    2.97518   2.99193   3.13368   3.46141   3.47926
 Alpha virt. eigenvalues --    3.57257   3.87695
          Condensed to atoms (all electrons):
               1          2          3          4
     1  C    5.199860   0.144759   0.672671  -0.031931
     2  C    0.144759   5.199860  -0.031931   0.672671
     3  O    0.672671  -0.031931   7.373928  -0.000028
     4  O   -0.031931   0.672671  -0.000028   7.373928
 Mulliken charges:
               1
     1  C    0.014641
     2  C    0.014641
     3  O   -0.014641
     4  O   -0.014641
 Sum of Mulliken charges =  -0.00000
 Mulliken charges with hydrogens summed into heavy atoms:
               1
     1  C    0.014641
     2  C    0.014641
     3  O   -0.014641
     4  O   -0.014641
 APT charges:
               1
     1  C    0.526477
     2  C    0.526477
     3  O   -0.526477
     4  O   -0.526477
 Sum of APT charges =   0.00000
 APT charges with hydrogens summed into heavy atoms:
               1
     1  C    0.526477
     2  C    0.526477
     3  O   -0.526477
     4  O   -0.526477
 Electronic spatial extent (au):  <R**2>=            261.1042
 Charge=             -0.0000 electrons
 Dipole moment (field-independent basis, Debye):
    X=             -0.0000    Y=              0.0000    Z=             -0.0000  Tot=              0.0000
 Quadrupole moment (field-independent basis, Debye-Ang):
   XX=            -18.9065   YY=            -21.5943   ZZ=            -26.8995
   XY=              0.0000   XZ=              0.0000   YZ=             -0.0000
 Traceless Quadrupole moment (field-independent basis, Debye-Ang):
   XX=              3.5603   YY=              0.8725   ZZ=             -4.4327
   XY=              0.0000   XZ=              0.0000   YZ=             -0.0000
 Octapole moment (field-independent basis, Debye-Ang**2):
  XXX=             -0.0000  YYY=             -0.0000  ZZZ=              0.0000  XYY=             -0.0000
  XXY=             -0.0000  XXZ=              0.0000  XZZ=             -0.0000  YZZ=              0.0000
  YYZ=              0.0000  XYZ=             -0.0000
 Hexadecapole moment (field-independent basis, Debye-Ang**3):
 XXXX=            -15.1121 YYYY=            -19.4114 ZZZZ=           -278.6830 XXXY=              0.0000
 XXXZ=              0.0000 YYYX=              0.0000 YYYZ=              0.0000 ZZZX=              0.0000
 ZZZY=             -0.0000 XXYY=             -5.7539 XXZZ=            -42.3672 YYZZ=            -46.2622
 XXYZ=              0.0000 YYXZ=              0.0000 ZZXY=              0.0000
 N-N= 8.704675458892D+01 E-N=-7.046437746822D+02  KE= 2.244974774593D+02
 Symmetry AG   KE= 1.044352777904D+02
 Symmetry B1G  KE= 5.907854065400D-34
 Symmetry B2G  KE= 4.192113997970D+00
 Symmetry B3G  KE= 4.311290828138D+00
 Symmetry AU   KE= 7.888989086907D-34
 Symmetry B1U  KE= 1.006181076155D+02
 Symmetry B2U  KE= 7.618601255306D+00
 Symmetry B3U  KE= 3.322085971974D+00
  Exact polarizability:      10.917       0.000      11.966       0.000       0.000      44.907
 Approx polarizability:      14.299      -0.000      14.383      -0.000      -0.000     105.605
   8 Symmetry operations used in ECPInt.
 ECPInt:  NShTT=     300 NPrTT=    1228 LenC2=     300 LenP2D=    1042.
 LDataN:  DoStor=T MaxTD1= 6 Len=  172
 Calling FoFJK, ICntrl=    100127 FMM=F ISym2X=1 I1Cent= 0 IOpClX= 0 NMat=1 NMatS=1 NMatT=0.
 Full mass-weighted force constant matrix:
 Low frequencies --- -552.9518   -0.0017   -0.0015   -0.0014    4.0424    4.0511
 Low frequencies ---  282.2943  326.4411  711.8695
 ******    1 imaginary frequencies (negative Signs) ****** 
 Diagonal vibrational polarizability:
        6.7546530       0.9632038       3.2682502
 Harmonic frequencies (cm**-1), IR intensities (KM/Mole), Raman scattering
 activities (A**4/AMU), depolarization ratios for plane and unpolarized
 incident light, reduced masses (AMU), force constants (mDyne/A),
 and normal coordinates:
                      1                      2                      3
                     PIG                    PIU                    PIU
 Frequencies --   -552.9518               282.2943               326.4411
 Red. masses --     12.2616                13.4388                13.4388
 Frc consts  --      2.2089                 0.6310                 0.8438
 IR Inten    --      0.0000                20.0020                 3.8141
  Atom  AN      X      Y      Z        X      Y      Z        X      Y      Z
     1   6     0.00   0.68  -0.00     0.57  -0.00  -0.00     0.00   0.57  -0.00
     2   6    -0.00  -0.68   0.00     0.57  -0.00  -0.00     0.00   0.57  -0.00
     3   8    -0.00  -0.18   0.00    -0.42   0.00  -0.00    -0.00  -0.42   0.00
     4   8     0.00   0.18   0.00    -0.42   0.00   0.00    -0.00  -0.42  -0.00
                      4                      5                      6
                     PIG                    SGG                    SGU
 Frequencies --    711.8695               950.1785              1833.8488
 Red. masses --     12.2616                15.2456                13.4388
 Frc consts  --      3.6610                 8.1097                26.6279
 IR Inten    --      0.0000                 0.0000               408.4221
  Atom  AN      X      Y      Z        X      Y      Z        X      Y      Z
     1   6     0.68  -0.00  -0.00     0.00  -0.00   0.31     0.00   0.00   0.57
     2   6    -0.68   0.00   0.00     0.00  -0.00  -0.31     0.00   0.00   0.57
     3   8    -0.18   0.00  -0.00    -0.00   0.00   0.64    -0.00  -0.00  -0.42
     4   8     0.18  -0.00  -0.00    -0.00   0.00  -0.64    -0.00  -0.00  -0.42
                      7
                     SGG
 Frequencies --   2407.2382
 Red. masses --     12.4594
 Frc consts  --     42.5390
 IR Inten    --      0.0000
  Atom  AN      X      Y      Z
     1   6     0.00   0.00   0.67
     2   6    -0.00  -0.00  -0.67
     3   8    -0.00  -0.00  -0.24
     4   8     0.00  -0.00   0.24

 -------------------
 - Thermochemistry -
 -------------------
 Temperature   298.150 Kelvin.  Pressure   0.98700 Atm.
 Thermochemistry will use frequencies scaled by 0.9610.
 Atom     1 has atomic number  6 and mass  12.00000
 Atom     2 has atomic number  6 and mass  12.00000
 Atom     3 has atomic number  8 and mass  15.99491
 Atom     4 has atomic number  8 and mass  15.99491
 Molecular mass:    55.98983 amu.
 Principal axes and moments of inertia in atomic units:
                           1         2         3
     Eigenvalues --     0.00000 421.86491 421.86491
           X           -0.00000   1.00000  -0.00000
           Y            0.00000   0.00000   1.00000
           Z            1.00000   0.00000  -0.00000
 This molecule is a prolate symmetric top.
 Rotational symmetry number  2.
 Rotational temperature (Kelvin)      0.20531
 Rotational constant (GHZ):           4.278007
    1 imaginary frequencies ignored.
 Zero-point vibrational energy      37430.6 (Joules/Mol)
                                    8.94613 (Kcal/Mol)
 Warning -- explicit consideration of   2 degrees of freedom as
           vibrations may cause significant error
 Vibrational temperatures:    390.32   451.36   984.28  1313.78  2535.60
          (Kelvin)           3328.40
 
 Zero-point correction=                           0.014257 (Hartree/Particle)
 Thermal correction to Energy=                    0.017650
 Thermal correction to Enthalpy=                  0.018594
 Thermal correction to Gibbs Free Energy=        -0.008244
 Sum of electronic and zero-point Energies=           -226.353631
 Sum of electronic and thermal Energies=              -226.350237
 Sum of electronic and thermal Enthalpies=            -226.349293
 Sum of electronic and thermal Free Energies=         -226.376131
 
                     E (Thermal)             CV                S
                      KCal/Mol        Cal/Mol-Kelvin    Cal/Mol-Kelvin
 Total                   11.076              9.717             56.486
 Electronic               0.000              0.000              0.000
 Translational            0.889              2.981             38.015
 Rotational               0.592              1.987             15.078
 Vibrational              9.594              4.749              3.393
 Vibration     1          0.675              1.726              1.588
 Vibration     2          0.702              1.648              1.343
                       Q            Log10(Q)             Ln(Q)
 Total Bot       0.619590D+04          3.792104          8.731643
 Total V=0       0.223698D+11         10.349662         23.830978
 Vib (Bot)       0.511462D-06         -6.291186        -14.485992
 Vib (Bot)    1  0.711925D+00         -0.147566         -0.339783
 Vib (Bot)    2  0.601459D+00         -0.220794         -0.508396
 Vib (V=0)       0.184659D+01          0.266371          0.613342
 Vib (V=0)    1  0.136996D+01          0.136709          0.314784
 Vib (V=0)    2  0.128215D+01          0.107938          0.248536
 Electronic      0.100000D+01          0.000000          0.000000
 Translational   0.166840D+08          7.222300         16.629961
 Rotational      0.726090D+03          2.860991          6.587674
 ***** Axes restored to original set *****
 -------------------------------------------------------------------
 Center     Atomic                   Forces (Hartrees/Bohr)
 Number     Number              X              Y              Z
 -------------------------------------------------------------------
      1        6           0.000093694    0.000000000    0.000000000
      2        6          -0.000093694   -0.000000000    0.000000000
      3        8          -0.000076449   -0.000000000    0.000000000
      4        8           0.000076449    0.000000000   -0.000000000
 -------------------------------------------------------------------
 Cartesian Forces:  Max     0.000093694 RMS     0.000049368
 FormGI is forming the generalized inverse of G from B-inverse, IUseBI=4.

 GradGradGradGradGradGradGradGradGradGradGradGradGradGradGradGradGradGrad
 Berny optimization.
 Internal  Forces:  Max     0.000076449 RMS     0.000041380
 Search for a local minimum.
 Step number   1 out of a maximum of    2
 All quantities printed in internal units (Hartrees-Bohrs-Radians)
 Second derivative matrix not updated -- analytic derivatives used.
 The second derivative matrix:
                          R1        R2        R3        A1        A2
           R1           0.73376
           R2           0.03691   0.92813
           R3           0.03691   0.05555   0.92813
           A1           0.00000  -0.00000   0.00000   0.11831
           A2           0.00000   0.00000  -0.00000   0.01403   0.11831
           A3           0.00000  -0.00000   0.00000   0.00000  -0.00000
           A4           0.00000   0.00000   0.00000  -0.00000  -0.00000
                          A3        A4
           A3           0.02981
           A4          -0.10969   0.02981
 ITU=  0
     Eigenvalues ---   -0.07988   0.10428   0.13233   0.13950   0.72330
     Eigenvalues ---    0.87257   0.99414
 Eigenvalue     1 is  -7.99D-02 should be greater than     0.000000 Eigenvector:
                          A3        A4        R2        R1        A1
   1                    0.70711   0.70711   0.00000  -0.00000  -0.00000
                          R3        A2
   1                   -0.00000  -0.00000
 Angle between quadratic step and forces=   6.67 degrees.
 Linear search not attempted -- first point.
 Iteration  1 RMS(Cart)=  0.00003480 RMS(Int)=  0.00000000
 Iteration  2 RMS(Cart)=  0.00000000 RMS(Int)=  0.00000000
 ClnCor:  largest displacement from symmetrization is 5.75D-14 for atom     2.
 Variable       Old X    -DE/DX   Delta X   Delta X   Delta X     New X
                                 (Linear)    (Quad)   (Total)
    R1        2.45065   0.00002   0.00000   0.00003   0.00003   2.45068
    R2        2.24758  -0.00008   0.00000  -0.00008  -0.00008   2.24750
    R3        2.24758  -0.00008   0.00000  -0.00008  -0.00008   2.24750
    A1        3.14159  -0.00000   0.00000  -0.00000   0.00000   3.14159
    A2        3.14159   0.00000   0.00000   0.00000   0.00000   3.14159
    A3        3.14159   0.00000   0.00000   0.00000   0.00000   3.14159
    A4        3.14159   0.00000   0.00000   0.00000   0.00000   3.14159
         Item               Value     Threshold  Converged?
 Maximum Force            0.000076     0.000450     YES
 RMS     Force            0.000041     0.000300     YES
 Maximum Displacement     0.000063     0.001800     YES
 RMS     Displacement     0.000035     0.001200     YES
 Predicted change in Energy=-6.302728D-09
 Optimization completed.
    -- Stationary point found.
                           ----------------------------
                           !   Optimized Parameters   !
                           ! (Angstroms and Degrees)  !
 --------------------------                            --------------------------
 ! Name  Definition              Value          Derivative Info.                !
 --------------------------------------------------------------------------------
 ! R1    R(1,2)                  1.2968         -DE/DX =    0.0                 !
 ! R2    R(1,3)                  1.1894         -DE/DX =   -0.0001              !
 ! R3    R(2,4)                  1.1894         -DE/DX =   -0.0001              !
 ! A1    L(2,1,3,-2,-1)        180.0            -DE/DX =    0.0                 !
 ! A2    L(1,2,4,-2,-1)        180.0            -DE/DX =    0.0                 !
 ! A3    L(2,1,3,-3,-2)        180.0            -DE/DX =    0.0                 !
 ! A4    L(1,2,4,-3,-2)        180.0            -DE/DX =    0.0                 !
 --------------------------------------------------------------------------------
 GradGradGradGradGradGradGradGradGradGradGradGradGradGradGradGradGradGrad

 Dipole is zero, so no output in dipole orientation.

 ----------------------------------------------------------------------

 Electric dipole moment (input orientation):
 (Debye = 10**-18 statcoulomb cm , SI units = C m)
                  (au)            (Debye)         (10**-30 SI)
   Tot        0.000000D+00      0.000000D+00      0.000000D+00
   x          0.000000D+00      0.000000D+00      0.000000D+00
   y          0.000000D+00      0.000000D+00      0.000000D+00
   z          0.000000D+00      0.000000D+00      0.000000D+00

 Dipole polarizability, Alpha (input orientation).
 (esu units = cm**3 , SI units = C**2 m**2 J**-1)
 Alpha(0;0):
               (au)            (10**-24 esu)      (10**-40 SI)
   iso        0.225967D+02      0.334849D+01      0.372570D+01
   aniso      0.334774D+02      0.496084D+01      0.551968D+01
   xx         0.449068D+02      0.665450D+01      0.740413D+01
   yx         0.000000D+00      0.000000D+00      0.000000D+00
   yy         0.119662D+02      0.177321D+01      0.197296D+01
   zx         0.000000D+00      0.000000D+00      0.000000D+00
   zy         0.000000D+00      0.000000D+00      0.000000D+00
   zz         0.109172D+02      0.161776D+01      0.180000D+01

 ----------------------------------------------------------------------
 Unable to Open any file for archive entry.
 1\1\GINC-NODE01\Freq\RB3LYP\def2SVPP\C2O2\XUHJ\08-Jan-2025\0\\#N Geom=
 AllCheck Guess=TCheck SCRF=Check GenChk RB3LYP/def2SVPP Freq\\O=C=C=O_
 1\\0,1\C,0.6484134905,0.,0.\C,-0.6484134905,0.,0.\O,1.8377805556,0.,0.
 \O,-1.8377805556,0.,0.\\Version=ES64L-G16RevC.01\HF=-226.3678871\RMSD=
 2.700e-09\RMSF=4.937e-05\ZeroPoint=0.0142566\Thermal=0.01765\ETot=-226
 .3502371\HTot=-226.3492929\GTot=-226.3761313\Dipole=0.,0.,0.\DipoleDer
 iv=1.1984116,0.,0.,0.,0.1158107,0.,0.,0.,0.2652091,1.1984116,0.,0.,0.,
 0.1158107,0.,0.,0.,0.2652091,-1.1984116,0.,0.,0.,-0.1158107,0.,0.,0.,-
 0.2652091,-1.1984116,0.,0.,0.,-0.1158107,0.,0.,0.,-0.2652091\Polar=44.
 9067969,0.,11.9661854,0.,0.,10.9172086\Quadrupole=-3.2956393,0.6486729
 ,2.6469664,0.,0.,0.\PG=D*H [C*(O1C1.C1O1)]\NImag=1\\1.58806370,0.,-0.0
 4967681,0.,0.,0.11556830,-0.71548915,0.,0.,1.58806370,0.,0.07732618,0.
 ,0.,-0.04967681,0.,0.,-0.09489168,0.,0.,0.11556830,-0.89121342,0.,0.,0
 .01863887,0.,0.,0.92812523,0.,0.00856782,0.,0.,-0.03621718,0.,0.,0.005
 93383,0.,0.,-0.04747912,0.,0.,0.02680250,0.,0.,0.02345255,0.01863887,0
 .,0.,-0.89121342,0.,0.,-0.05555068,0.,0.,0.92812523,0.,-0.03621718,0.,
 0.,0.00856782,0.,0.,0.02171553,0.,0.,0.00593383,0.,0.,0.02680250,0.,0.
 ,-0.04747912,0.,0.,-0.00277593,0.,0.,0.02345255\\-0.00009369,0.,0.,0.0
 0009369,0.,0.,0.00007645,0.,0.,-0.00007645,0.,0.\\\@
 The archive entry for this job was punched.


 STEINBACH'S GUIDELINES FOR SYSTEMS PROGRAMMING:
 NEVER TEST FOR AN ERROR CONDITION YOU DON'T KNOW HOW
 TO HANDLE.
 Job cpu time:       0 days  0 hours  0 minutes 19.7 seconds.
 Elapsed time:       0 days  0 hours  0 minutes  1.3 seconds.
 File lengths (MBytes):  RWF=      6 Int=      0 D2E=      0 Chk=      1 Scr=      1
 Normal termination of Gaussian 16 at Wed Jan  8 22:38:11 2025.
