%nprocshared=16
%mem=16000MB
#N opt freq B3LYP/def2SVPP symm=veryloose em=gd3bj scale=0.961 press=0.987 

c1ccc2c(c1)-c1cccc3c1c-2cc1ccccc13_1

0 1
 C                 -4.66100099    0.60850205    0.00000000
 C                 -4.07585615    1.90566936    0.00000000
 C                 -2.66937922    2.05834301    0.00000000
 C                 -1.91912391    0.94069417    0.00000000
 C                 -2.46793892   -0.32158015    0.00000000
 C                 -3.83844355   -0.53652306    0.00000000
 C                 -1.28940980   -1.30642188    0.00000000
 C                 -1.25598478   -2.65471001    0.00000000
 C                  0.01978532   -3.28236590    0.00000000
 C                  1.21336485   -2.49973712    0.00000000
 C                  1.11329818   -1.09663670    0.00000000
 C                 -0.13528469   -0.55632041    0.00000000
 C                 -0.38784245    0.75734494    0.00000000
 C                  0.60750630    1.67080767    0.00000000
 C                  1.94364254    1.18950481    0.00000000
 C                  3.01671820    2.08973941    0.00000000
 C                  4.33506255    1.60924722    0.00000000
 C                  4.58495814    0.22777173    0.00000000
 C                  3.51773755   -0.68163709    0.00000000
 C                  2.20066931   -0.20803536    0.00000000
 H                 -5.72569861    0.50211238    0.00000000
 H                 -4.70414669    2.77178209    0.00000000
 H                 -2.21775236    3.02836010    0.00000000
 H                 -4.25131228   -1.52366001    0.00000000
 H                 -2.15728910   -3.23138172    0.00000000
 H                  0.08563350   -4.35033787    0.00000000
 H                  2.17232451   -2.97439131    0.00000000
 H                  0.39662128    2.71982021    0.00000000
 H                  2.83119828    3.14353367    0.00000000
 H                  5.15335818    2.29866154    0.00000000
 H                  5.59261036   -0.13214087    0.00000000
 H                  3.70958211   -1.73429832    0.00000000

