%nprocshared=8
%mem=10400MB
#N opt freq B3LYP/def2SVPP symm=veryloose em=gd3bj scale=0.961 press=0.987

c1ccc2cc3c(cc2c1)c1ccccc1c1cc2ccccc2cc13_2

0 1
C          5.45030        2.14730        0.84310
C          4.64760        3.27820        0.74310
C          3.27470        3.13750        0.53730
C          2.68840        1.86290        0.42930
C          1.31010        1.68930        0.22220
C          0.67270        0.41840        0.10660
C          1.49260       -0.73470        0.20890
C          2.88880       -0.53410        0.41900
C          3.49410        0.72800        0.52970
C          4.87760        0.87940        0.73720
C          0.90890       -2.04190        0.10060
C          1.68020       -3.23720        0.19500
C          1.13230       -4.51480        0.09250
C         -0.22170       -4.64890       -0.11030
C         -1.01040       -3.50380       -0.20800
C         -0.48940       -2.18050       -0.10880
C         -1.31890       -1.01330       -0.21220
C         -2.72740       -1.09060       -0.42220
C         -3.56930        0.02820       -0.52830
C         -4.95550       -0.09490       -0.73570
C         -5.76660        1.03600       -0.83700
C         -5.20210        2.30230       -0.73230
C         -3.82830        2.43380       -0.52660
C         -3.00260        1.29910       -0.42320
C         -1.61700        1.39930       -0.21620
C         -0.74190        0.27830       -0.10530
H          6.52020        2.24970        1.00330
H          5.08710        4.26870        0.82470
H          2.66130        4.03260        0.46140
H          0.72570        2.60160        0.15080
H          3.55530       -1.38730        0.50360
H          5.51980        0.00520        0.81780
H          2.75350       -3.20440        0.35450
H          1.76840       -5.39170        0.17220
H         -0.67280       -5.63360       -0.19350
H         -2.06920       -3.68230       -0.36790
H         -3.21300       -2.05780       -0.51020
H         -5.41320       -1.07800       -0.81980
H         -6.83580        0.92640       -0.99720
H         -5.82800        3.18720       -0.81020
H         -3.40300        3.43170       -0.44690
H         -1.22360        2.40850       -0.14110

