%nprocshared=8
%mem=8800MB
#N opt freq B3LYP/def2SVPP symm=veryloose em=gd3bj scale=0.961 press=0.987

c1ccc2c(c1)ccc1c2ccc2c3ccccc3ccc21_2

0 1
C         -5.75490       -0.25730       -0.23710
C         -5.11070       -1.43430       -0.58070
C         -3.71300       -1.49500       -0.56090
C         -2.90300       -0.38480       -0.19790
C         -3.59430        0.79930        0.14660
C         -4.99940        0.85330        0.12450
C         -2.87440        1.93000        0.51340
C         -1.48010        1.90900        0.54530
C         -0.72150        0.76350        0.21450
C         -1.45580       -0.39450       -0.16110
C         -0.70730       -1.53520       -0.49070
C          0.68870       -1.55360       -0.45800
C          1.45080       -0.43300       -0.09300
C          2.89790       -0.46160       -0.06210
C          3.69440       -1.59310       -0.38750
C          5.09250       -1.56930       -0.34170
C          5.75090       -0.40960        0.03230
C          5.00890        0.72080        0.35890
C          3.60340        0.70400        0.31510
C          2.89730        1.85370        0.64860
C          1.50290        1.86950        0.61510
C          0.73060        0.74430        0.24850
H         -6.83970       -0.20090       -0.24960
H         -5.68780       -2.31010       -0.86540
H         -3.26580       -2.44440       -0.84010
H         -5.51940        1.77110        0.39190
H         -3.38690        2.85150        0.78220
H         -0.99990        2.83610        0.84310
H         -1.19240       -2.46030       -0.78790
H          1.16250       -2.49150       -0.73280
H          3.23570       -2.53050       -0.68780
H          5.65900       -2.46030       -0.59970
H          6.83620       -0.38190        0.07060
H          5.53990        1.62470        0.65090
H          3.42080        2.76140        0.94160
H          1.03400        2.80920        0.89070

