%nprocshared=8
%mem=10400MB
#N opt freq B3LYP/def2SVPP symm=veryloose em=gd3bj scale=0.961 press=0.987

c1ccc2c(c1)c1ccccc1c1c3ccccc3c3ccccc3c21_2

0 1
C         -3.93740        2.52360        0.60110
C         -2.87050        3.29610        0.21070
C         -1.63470        2.68390        0.00140
C         -1.38070        1.29570        0.20480
C         -2.52880        0.49400        0.40940
C         -3.77090        1.14400        0.67460
C         -2.42880       -0.91200        0.23220
C         -3.56350       -1.77370        0.30670
C         -3.53760       -3.10180       -0.10800
C         -2.38040       -3.59770       -0.65830
C         -1.24580       -2.78690       -0.68820
C         -1.18400       -1.47040       -0.14380
C          0.05000       -0.70370       -0.02800
C          1.38070       -1.29570       -0.08350
C          1.63480       -2.68390        0.12000
C          2.87060       -3.29610       -0.08940
C          3.93750       -2.52350       -0.47990
C          3.77090       -1.14390       -0.55330
C          2.52880       -0.49390       -0.28810
C          2.42880        0.91200       -0.11080
C          3.56350        1.77380       -0.18530
C          3.53750        3.10180        0.22950
C          2.38040        3.59770        0.77980
C          1.24580        2.78680        0.80970
C          1.18400        1.47040        0.26530
C         -0.05000        0.70370        0.14940
H         -4.90910        2.97160        0.78650
H         -2.98460        4.36590        0.06180
H         -0.84910        3.33200       -0.38190
H         -4.66670        0.57590        0.90570
H         -4.52560       -1.41070        0.65510
H         -4.43400       -3.71250       -0.05620
H         -2.34710       -4.60270       -1.06860
H         -0.38440       -3.20430       -1.20570
H          0.84920       -3.33200        0.50330
H          2.98470       -4.36590        0.05940
H          4.90910       -2.97150       -0.66530
H          4.66670       -0.57580       -0.78450
H          4.52550        1.41080       -0.53380
H          4.43390        3.71260        0.17760
H          2.34710        4.60270        1.19020
H          0.38440        3.20420        1.32730

