%nprocshared=16
%mem=5120MB
#N opt freq B3LYP/def2SVPP symm=veryloose em=gd3bj scale=0.961 press=0.987

c1ccc2c(c1)-c1cccc3cccc-2c13_1

0 1
C          3.66629        0.70267        0.02633
C          3.66503       -0.70572        0.04852
C          2.46752       -1.42757        0.02149
C          1.28474       -0.71304       -0.01724
C          1.28621        0.71137       -0.02530
C          2.46961        1.42543       -0.01282
C         -0.10599        1.13971       -0.01907
C         -0.71260        2.38265        0.00803
C         -2.11761        2.44299        0.03555
C         -2.90546        1.27099        0.03817
C         -2.29172        0.00268        0.01691
C         -2.90836       -1.26402        0.03584
C         -2.12323       -2.43732        0.01835
C         -0.71784       -2.38052       -0.01274
C         -0.10796       -1.13873       -0.02069
C         -0.89929        0.00153       -0.01146
H          4.61438        1.23578        0.04865
H          4.61215       -1.23921        0.09347
H          2.47289       -2.51127        0.04417
H          2.47673        2.50914       -0.02255
H         -0.12415        3.29422        0.01742
H         -2.60961        3.41365        0.06292
H         -3.98878        1.35332        0.06390
H         -3.99168       -1.34382        0.07020
H         -2.61732       -3.40723        0.03639
H         -0.13203       -3.29375       -0.02338

