%nprocshared=8
%mem=10400MB
#N opt freq B3LYP/def2SVPP symm=veryloose em=gd3bj scale=0.961 press=0.987

c1ccc2c(c1)ccc1cc3c4ccccc4c4ccccc4c3cc12_2

0 1
C          6.09630        0.62150        0.29470
C          5.20400        1.65900        0.07470
C          3.82880        1.40480        0.05740
C          3.29460        0.10610        0.25900
C          4.23220       -0.93470        0.48160
C          5.61200       -0.66760        0.49690
C          3.78360       -2.24010        0.68820
C          2.42330       -2.53240        0.67820
C          1.47240       -1.52840        0.46130
C          0.10280       -1.84530        0.45520
C         -0.93930       -0.90090        0.24460
C         -2.32900       -1.26560        0.24580
C         -2.77280       -2.60350        0.45830
C         -4.11650       -2.97490        0.46270
C         -5.07870       -2.01390        0.25290
C         -4.68490       -0.69380        0.04130
C         -3.32280       -0.27430        0.02930
C         -2.93700        1.08960       -0.19030
C         -3.88790        2.12740       -0.41300
C         -3.53410        3.45810       -0.62820
C         -2.20280        3.80560       -0.62900
C         -1.24230        2.81800       -0.41460
C         -1.56160        1.44680       -0.19080
C         -0.55690        0.44200        0.02850
C          0.84290        0.73460        0.04030
C          1.88370       -0.20660        0.25020
H          7.16580        0.81190        0.30950
H          5.57090        2.66970       -0.08440
H          3.17680        2.25500       -0.11940
H          6.32620       -1.47050        0.66820
H          4.49050       -3.04890        0.86020
H          2.11290       -3.56210        0.84310
H         -0.14380       -2.88960        0.62540
H         -2.06740       -3.41070        0.63000
H         -4.39800       -4.01070        0.63000
H         -6.13230       -2.27820        0.25170
H         -5.49280        0.01380       -0.11770
H         -4.95370        1.92090       -0.42470
H         -4.30120        4.20930       -0.79290
H         -1.90150        4.83600       -0.79450
H         -0.21310        3.16290       -0.42850
H          1.15100        1.75960       -0.12390

