%nprocshared=8
%mem=8800MB
#N opt freq B3LYP/def2SVPP symm=veryloose em=gd3bj scale=0.961 press=0.987

c1cc2ccc3ccc4ccc5cccc6c(c1)c2c3c4c56_2

0 1
C         -0.66060       -3.90250       -0.11450
C         -1.92240       -3.34360        0.02140
C         -2.07270       -1.95660        0.09610
C         -3.34880       -1.39920        0.23320
C         -3.51650       -0.01880        0.30910
C         -2.41080        0.83380        0.24940
C         -2.57910        2.22050        0.32560
C         -1.47760        3.07140        0.26620
C         -0.18560        2.55310        0.12940
C          0.91850        3.40790        0.06990
C          2.20470        2.89160       -0.06630
C          2.41460        1.51050       -0.14600
C          3.71160        1.00950       -0.28240
C          3.92680       -0.35810       -0.36190
C          2.84410       -1.23640       -0.30540
C          1.50720       -0.78610       -0.16760
C          0.37100       -1.66400       -0.10640
C          0.46230       -3.07670       -0.17690
C         -0.93010       -1.11300        0.03270
C         -1.11000        0.28860        0.11060
C          0.00630        1.15110        0.05040
C          1.30980        0.61770       -0.08810
H         -0.54550       -4.98170       -0.17240
H         -2.78770       -4.00050        0.06860
H         -4.22900       -2.03660        0.28260
H         -4.52160        0.38300        0.41550
H         -3.57140        2.65300        0.43220
H         -1.64000        4.14520        0.32800
H          0.78890        4.48610        0.12910
H          3.04390        3.58260       -0.10970
H          4.56580        1.68110       -0.32800
H          4.93640       -0.74610       -0.46810
H          3.07370       -2.29580       -0.37250
H          1.42360       -3.57080       -0.28350

