%nprocshared=16
%mem=16000MB
#N opt freq B3LYP/def2SVPP symm=veryloose em=gd3bj scale=0.961 press=0.987 

c1ccc2cc3c(cc2c1)-c1cccc2cccc-3c12_1

0 1
 C                  0.00000000   -0.70403246    4.99486636
 C                  0.00000000    0.70403246    4.99486636
 C                  0.00000000    1.39593859    3.79727548
 C                  0.00000000    0.72299062    2.56567474
 C                  0.00000000    1.43614866    1.35043072
 C                  0.00000000    0.72344256    0.16503887
 C                  0.00000000   -0.72344256    0.16503887
 C                  0.00000000   -1.43614866    1.35043072
 C                  0.00000000   -0.72299062    2.56567474
 C                  0.00000000   -1.39593859    3.79727548
 C                  0.00000000   -1.13142298   -1.22028576
 C                  0.00000000   -2.37915351   -1.81617232
 C                  0.00000000   -2.45019230   -3.22041954
 C                  0.00000000   -1.28313168   -4.01552979
 C                  0.00000000    0.00000000   -3.41117564
 C                  0.00000000    1.28313168   -4.01552979
 C                  0.00000000    2.45019230   -3.22041954
 C                  0.00000000    2.37915351   -1.81617232
 C                  0.00000000    1.13142298   -1.22028576
 C                  0.00000000    0.00000000   -2.01862080
 H                  0.00000000   -1.25434004    5.93235542
 H                  0.00000000    1.25434004    5.93235542
 H                  0.00000000    2.48303003    3.83079509
 H                  0.00000000    2.52100285    1.33866113
 H                  0.00000000   -2.52100285    1.33866113
 H                  0.00000000   -2.48303003    3.83079509
 H                  0.00000000   -3.28575378   -1.22072590
 H                  0.00000000   -3.42463421   -3.70443279
 H                  0.00000000   -1.37399266   -5.09866910
 H                  0.00000000    1.37399266   -5.09866910
 H                  0.00000000    3.42463421   -3.70443279
 H                  0.00000000    3.28575378   -1.22072590

