%nprocshared=8
%mem=10400MB
#N opt freq B3LYP/def2SVPP symm=veryloose em=gd3bj scale=0.961 press=0.987

c1ccc2cc3c(ccc4cc5c(ccc6ccccc65)cc43)cc2c1_2

0 1
C         -6.84540        0.64920        0.18900
C         -6.23180        1.87850        0.40620
C         -4.83900        1.96610        0.43150
C         -4.04130        0.82470        0.23990
C         -2.63500        0.89300        0.26200
C         -1.80280       -0.24090        0.07200
C         -2.45850       -1.47660       -0.14660
C         -1.70730       -2.63760       -0.34200
C         -0.31640       -2.59790       -0.32490
C          0.36590       -1.39660       -0.11210
C          1.77510       -1.38880       -0.10040
C          2.54400       -0.21920        0.10750
C          1.81920        0.97400        0.30870
C          2.50230        2.17560        0.52160
C          3.89350        2.21570        0.53870
C          4.64390        1.05450        0.34330
C          6.04740        1.12640        0.36590
C          6.82830       -0.01000        0.17510
C          6.21280       -1.23300       -0.04100
C          4.81720       -1.31680       -0.06570
C          3.98620       -0.18300        0.12440
C          0.40990        0.96590        0.29700
C         -0.35970       -0.20380        0.08900
C         -3.86230       -1.55080       -0.16970
C         -4.66300       -0.41680        0.02060
C         -6.06620       -0.49240       -0.00280
H         -7.92960        0.57700        0.16850
H         -6.83520        2.76990        0.55590
H         -4.37800        2.93630        0.60280
H         -2.18730        1.86790        0.43400
H         -2.19840       -3.59370       -0.51100
H          0.23100       -3.52530       -0.48140
H          2.28190       -2.33710       -0.26080
H          1.95510        3.10300        0.67800
H          4.38560        3.17120        0.70760
H          6.54700        2.07840        0.53430
H          7.91210        0.06240        0.19550
H          6.81270       -2.12680       -0.19130
H          4.38790       -2.29920       -0.23880
H         -0.09540        1.91480        0.45740
H         -4.34350       -2.51280       -0.33970
H         -6.56280       -1.44530       -0.17130

