 Entering Gaussian System, Link 0=g16
 Initial command:
 /home/software/g16/l1.exe "/home/software/g16tmp/Gau-167138.inp" -scrdir="/home/software/g16tmp/"
 Default is to use a total of   8 processors:
                                8 via shared-memory
                                1 via Linda
 Entering Link 1 = /home/software/g16/l1.exe PID=    167139.
  
 Copyright (c) 1988-2019, Gaussian, Inc.  All Rights Reserved.
  
 This is part of the Gaussian(R) 16 program.  It is based on
 the Gaussian(R) 09 system (copyright 2009, Gaussian, Inc.),
 the Gaussian(R) 03 system (copyright 2003, Gaussian, Inc.),
 the Gaussian(R) 98 system (copyright 1998, Gaussian, Inc.),
 the Gaussian(R) 94 system (copyright 1995, Gaussian, Inc.),
 the Gaussian 92(TM) system (copyright 1992, Gaussian, Inc.),
 the Gaussian 90(TM) system (copyright 1990, Gaussian, Inc.),
 the Gaussian 88(TM) system (copyright 1988, Gaussian, Inc.),
 the Gaussian 86(TM) system (copyright 1986, Carnegie Mellon
 University), and the Gaussian 82(TM) system (copyright 1983,
 Carnegie Mellon University). Gaussian is a federally registered
 trademark of Gaussian, Inc.
  
 This software contains proprietary and confidential information,
 including trade secrets, belonging to Gaussian, Inc.
  
 This software is provided under written license and may be
 used, copied, transmitted, or stored only in accord with that
 written license.
  
 The following legend is applicable only to US Government
 contracts under FAR:
  
                    RESTRICTED RIGHTS LEGEND
  
 Use, reproduction and disclosure by the US Government is
 subject to restrictions as set forth in subparagraphs (a)
 and (c) of the Commercial Computer Software - Restricted
 Rights clause in FAR 52.227-19.
  
 Gaussian, Inc.
 340 Quinnipiac St., Bldg. 40, Wallingford CT 06492
  
  
 ---------------------------------------------------------------
 Warning -- This program may not be used in any manner that
 competes with the business of Gaussian, Inc. or will provide
 assistance to any competitor of Gaussian, Inc.  The licensee
 of this program is prohibited from giving any competitor of
 Gaussian, Inc. access to this program.  By using this program,
 the user acknowledges that Gaussian, Inc. is engaged in the
 business of creating and licensing software in the field of
 computational chemistry and represents and warrants to the
 licensee that it is not a competitor of Gaussian, Inc. and that
 it will not use this program in any manner prohibited above.
 ---------------------------------------------------------------
  

 Cite this work as:
 Gaussian 16, Revision C.01,
 M. J. Frisch, G. W. Trucks, H. B. Schlegel, G. E. Scuseria, 
 M. A. Robb, J. R. Cheeseman, G. Scalmani, V. Barone, 
 G. A. Petersson, H. Nakatsuji, X. Li, M. Caricato, A. V. Marenich, 
 J. Bloino, B. G. Janesko, R. Gomperts, B. Mennucci, H. P. Hratchian, 
 J. V. Ortiz, A. F. Izmaylov, J. L. Sonnenberg, D. Williams-Young, 
 F. Ding, F. Lipparini, F. Egidi, J. Goings, B. Peng, A. Petrone, 
 T. Henderson, D. Ranasinghe, V. G. Zakrzewski, J. Gao, N. Rega, 
 G. Zheng, W. Liang, M. Hada, M. Ehara, K. Toyota, R. Fukuda, 
 J. Hasegawa, M. Ishida, T. Nakajima, Y. Honda, O. Kitao, H. Nakai, 
 T. Vreven, K. Throssell, J. A. Montgomery, Jr., J. E. Peralta, 
 F. Ogliaro, M. J. Bearpark, J. J. Heyd, E. N. Brothers, K. N. Kudin, 
 V. N. Staroverov, T. A. Keith, R. Kobayashi, J. Normand, 
 K. Raghavachari, A. P. Rendell, J. C. Burant, S. S. Iyengar, 
 J. Tomasi, M. Cossi, J. M. Millam, M. Klene, C. Adamo, R. Cammi, 
 J. W. Ochterski, R. L. Martin, K. Morokuma, O. Farkas, 
 J. B. Foresman, and D. J. Fox, Gaussian, Inc., Wallingford CT, 2019.
 
 ******************************************
 Gaussian 16:  ES64L-G16RevC.01  3-Jul-2019
                19-Dec-2023 
 ******************************************
 %nprocshared=16
 Will use up to   16 processors via shared memory.
 %mem=960MB
 ----------------------------------------------------------------------
 #N opt freq B3LYP/def2SVPP symm=veryloose em=gd3bj scale=0.961 press=0
 .987
 ----------------------------------------------------------------------
 1/18=20,19=15,26=3,38=1,113=-987000,114=961000/1,3;
 2/9=110,12=2,17=2,18=2,40=1/2;
 3/5=43,7=202,11=2,25=1,30=1,71=1,74=-5,124=41/1,2,3;
 4//1;
 5/5=2,38=5/2;
 6/7=2,8=2,9=2,10=2,28=1/1;
 7//1,2,3,16;
 1/18=20,19=15,26=3/3(2);
 2/9=110/2;
 99//99;
 2/9=110/2;
 3/5=43,7=202,11=2,25=1,30=1,71=1,74=-5,124=41/1,2,3;
 4/5=5,16=3,69=1/1;
 5/5=2,38=5/2;
 7//1,2,3,16;
 1/18=20,19=15,26=3/3(-5);
 2/9=110/2;
 6/7=2,8=2,9=2,10=2,19=2,28=1/1;
 99/9=1/99;
 --------
 C[CH]C_1
 --------
 Symbolic Z-matrix:
 Charge =  0 Multiplicity = 2
 C                     1.0527   -0.01424  -0.09843 
 C                     2.57623  -0.02888  -0.07343 
 C                     3.10984  -0.90686   1.05192 
 H                     0.7055    0.62142  -0.93932 
 H                     0.65412   0.39839   0.85289 
 H                     0.66281  -1.0434   -0.24641 
 H                     2.95699   1.00787   0.05015 
 H                     2.75467  -1.95109   0.92338 
 H                     2.77211  -0.52061   2.03725 
 H                     4.21934  -0.90331   1.0256 
 

 GradGradGradGradGradGradGradGradGradGradGradGradGradGradGradGradGradGrad
 Berny optimization.
 Initialization pass.
                           ----------------------------
                           !    Initial Parameters    !
                           ! (Angstroms and Degrees)  !
 --------------------------                            --------------------------
 ! Name  Definition              Value          Derivative Info.                !
 --------------------------------------------------------------------------------
 ! R1    R(1,2)                  1.5238         estimate D2E/DX2                !
 ! R2    R(1,4)                  1.1098         estimate D2E/DX2                !
 ! R3    R(1,5)                  1.1109         estimate D2E/DX2                !
 ! R4    R(1,6)                  1.1104         estimate D2E/DX2                !
 ! R5    R(2,3)                  1.5238         estimate D2E/DX2                !
 ! R6    R(2,7)                  1.1114         estimate D2E/DX2                !
 ! R7    R(3,8)                  1.1104         estimate D2E/DX2                !
 ! R8    R(3,9)                  1.1109         estimate D2E/DX2                !
 ! R9    R(3,10)                 1.1098         estimate D2E/DX2                !
 ! A1    A(2,1,4)              109.3125         estimate D2E/DX2                !
 ! A2    A(2,1,5)              110.3796         estimate D2E/DX2                !
 ! A3    A(2,1,6)              110.141          estimate D2E/DX2                !
 ! A4    A(4,1,5)              108.8956         estimate D2E/DX2                !
 ! A5    A(4,1,6)              108.6641         estimate D2E/DX2                !
 ! A6    A(5,1,6)              109.4137         estimate D2E/DX2                !
 ! A7    A(1,2,3)              111.5781         estimate D2E/DX2                !
 ! A8    A(1,2,7)              109.5975         estimate D2E/DX2                !
 ! A9    A(3,2,7)              109.5969         estimate D2E/DX2                !
 ! A10   A(2,3,8)              110.1407         estimate D2E/DX2                !
 ! A11   A(2,3,9)              110.3796         estimate D2E/DX2                !
 ! A12   A(2,3,10)             109.3127         estimate D2E/DX2                !
 ! A13   A(8,3,9)              109.4138         estimate D2E/DX2                !
 ! A14   A(8,3,10)             108.6639         estimate D2E/DX2                !
 ! A15   A(9,3,10)             108.8957         estimate D2E/DX2                !
 ! D1    D(4,1,2,3)           -179.1141         estimate D2E/DX2                !
 ! D2    D(4,1,2,7)             59.3076         estimate D2E/DX2                !
 ! D3    D(5,1,2,3)             61.1334         estimate D2E/DX2                !
 ! D4    D(5,1,2,7)            -60.4448         estimate D2E/DX2                !
 ! D5    D(6,1,2,3)            -59.7922         estimate D2E/DX2                !
 ! D6    D(6,1,2,7)            178.6295         estimate D2E/DX2                !
 ! D7    D(1,2,3,8)             59.7907         estimate D2E/DX2                !
 ! D8    D(1,2,3,9)            -61.1349         estimate D2E/DX2                !
 ! D9    D(1,2,3,10)           179.1123         estimate D2E/DX2                !
 ! D10   D(7,2,3,8)           -178.6307         estimate D2E/DX2                !
 ! D11   D(7,2,3,9)             60.4437         estimate D2E/DX2                !
 ! D12   D(7,2,3,10)           -59.3091         estimate D2E/DX2                !
 --------------------------------------------------------------------------------
 Trust Radius=3.00D-01 FncErr=1.00D-07 GrdErr=1.00D-06 EigMax=2.50D+02 EigMin=1.00D-04
 Number of steps in this run=     46 maximum allowed number of steps=    100.
 GradGradGradGradGradGradGradGradGradGradGradGradGradGradGradGradGradGrad

                          Input orientation:                          
 ---------------------------------------------------------------------
 Center     Atomic      Atomic             Coordinates (Angstroms)
 Number     Number       Type             X           Y           Z
 ---------------------------------------------------------------------
      1          6           0        1.052700   -0.014240   -0.098430
      2          6           0        2.576230   -0.028880   -0.073430
      3          6           0        3.109840   -0.906860    1.051920
      4          1           0        0.705500    0.621420   -0.939320
      5          1           0        0.654120    0.398390    0.852890
      6          1           0        0.662810   -1.043400   -0.246410
      7          1           0        2.956990    1.007870    0.050150
      8          1           0        2.754670   -1.951090    0.923380
      9          1           0        2.772110   -0.520610    2.037250
     10          1           0        4.219340   -0.903310    1.025600
 ---------------------------------------------------------------------
                    Distance matrix (angstroms):
                    1          2          3          4          5
     1  C    0.000000
     2  C    1.523805   0.000000
     3  C    2.520298   1.523811   0.000000
     4  H    1.109823   2.161547   3.475849   0.000000
     5  H    1.110918   2.176037   2.788163   1.806765   0.000000
     6  H    1.110443   2.172636   2.773492   1.803766   1.813090
     7  H    2.166358   1.111351   2.166356   2.489498   2.513776
     8  H    2.773479   2.172639   1.110443   3.779756   3.152354
     9  H    2.788173   2.176037   1.110912   3.799352   2.594832
    10  H    3.475845   2.161552   1.109818   4.304972   3.799348
                    6          7          8          9         10
     6  H    0.000000
     7  H    3.091750   0.000000
     8  H    2.562848   3.091748   0.000000
     9  H    3.152389   2.513762   1.813087   0.000000
    10  H    3.779754   2.489506   1.803760   1.806757   0.000000
 Stoichiometry    C3H7(2)
 Framework group  CS[SG(CH),X(C2H6)]
 Deg. of freedom    13
 Full point group                 CS      NOp   2
 Largest Abelian subgroup         CS      NOp   2
 Largest concise Abelian subgroup CS      NOp   2
                         Standard orientation:                         
 ---------------------------------------------------------------------
 Center     Atomic      Atomic             Coordinates (Angstroms)
 Number     Number       Type             X           Y           Z
 ---------------------------------------------------------------------
      1          6           0        0.089531   -0.200381    1.260148
      2          6           0       -0.381111    0.515520   -0.000000
      3          6           0        0.089531   -0.200381   -1.260148
      4          1           0       -0.286386    0.341951    2.152487
      5          1           0        1.199467   -0.228556    1.297408
      6          1           0       -0.306931   -1.237418    1.281429
      7          1           0        0.000000    1.559481   -0.000000
      8          1           0       -0.306931   -1.237418   -1.281429
      9          1           0        1.199467   -0.228556   -1.297408
     10          1           0       -0.286386    0.341951   -2.152487
 ---------------------------------------------------------------------
 Rotational constants (GHZ):          33.2985456           8.7032342           7.7257191
 Standard basis: def2SVPP (5D, 7F)
 There are    34 symmetry adapted cartesian basis functions of A'  symmetry.
 There are    25 symmetry adapted cartesian basis functions of A"  symmetry.
 There are    32 symmetry adapted basis functions of A'  symmetry.
 There are    24 symmetry adapted basis functions of A"  symmetry.
    56 basis functions,   103 primitive gaussians,    59 cartesian basis functions
    13 alpha electrons       12 beta electrons
       nuclear repulsion energy        75.0521704703 Hartrees.
 NAtoms=   10 NActive=   10 NUniq=    6 SFac= 2.78D+00 NAtFMM=   60 NAOKFM=F Big=F
 Integral buffers will be    131072 words long.
 Raffenetti 2 integral format.
 Two-electron integral symmetry is turned on.
 Nuclear repulsion after empirical dispersion term =       75.0431873263 Hartrees.
 One-electron integrals computed using PRISM.
   2 Symmetry operations used in ECPInt.
 ECPInt:  NShTT=     528 NPrTT=    2140 LenC2=     529 LenP2D=    1911.
 LDataN:  DoStor=T MaxTD1= 4 Len=   56
 NBasis=    56 RedAO= T EigKep=  3.83D-03  NBF=    32    24
 NBsUse=    56 1.00D-06 EigRej= -1.00D+00 NBFU=    32    24
 ExpMin= 1.22D-01 ExpMax= 1.24D+03 ExpMxC= 1.86D+02 IAcc=3 IRadAn=         5 AccDes= 0.00D+00
 Harris functional with IExCor=  402 and IRadAn=       5 diagonalized for initial guess.
 HarFok:  IExCor=  402 AccDes= 0.00D+00 IRadAn=         5 IDoV= 1 UseB2=F ITyADJ=14
 ICtDFT=  3500011 ScaDFX=  1.000000  1.000000  1.000000  1.000000
 FoFCou: FMM=F IPFlag=           0 FMFlag=      100000 FMFlg1=           0
         NFxFlg=           0 DoJE=T BraDBF=F KetDBF=T FulRan=T
         wScrn=  0.000000 ICntrl=       500 IOpCl=  0 I1Cent=   200000004 NGrid=           0
         NMat0=    1 NMatS0=      1 NMatT0=    0 NMatD0=    1 NMtDS0=    0 NMtDT0=    0
 Petite list used in FoFCou.
 Initial guess orbital symmetries:
 Alpha Orbitals:
       Occupied  (A") (A') (A') (A') (A") (A') (A') (A') (A") (A")
                 (A") (A') (A')
       Virtual   (A') (A') (A") (A') (A") (A') (A") (A') (A") (A')
                 (A") (A') (A") (A') (A') (A') (A") (A') (A") (A')
                 (A") (A") (A') (A") (A') (A') (A') (A") (A") (A')
                 (A') (A") (A") (A') (A") (A') (A') (A") (A') (A")
                 (A') (A') (A")
 Beta  Orbitals:
       Occupied  (A") (A') (A') (A') (A") (A') (A') (A') (A") (A")
                 (A") (A')
       Virtual   (A') (A') (A') (A") (A') (A") (A') (A") (A') (A")
                 (A') (A") (A') (A") (A') (A') (A') (A") (A') (A")
                 (A') (A") (A") (A') (A") (A') (A') (A') (A") (A")
                 (A') (A') (A") (A") (A') (A") (A') (A') (A") (A')
                 (A") (A') (A') (A")
 The electronic state of the initial guess is 2-A'.
 Initial guess <Sx>= 0.0000 <Sy>= 0.0000 <Sz>= 0.5000 <S**2>= 0.7500 S= 0.5000
 Keep R1 and R2 ints in memory in symmetry-blocked form, NReq=15381125.
 Requested convergence on RMS density matrix=1.00D-08 within 128 cycles.
 Requested convergence on MAX density matrix=1.00D-06.
 Requested convergence on             energy=1.00D-06.
 No special actions if energy rises.
 Integral accuracy reduced to 1.0D-05 until final iterations.
 Initial convergence to 1.0D-05 achieved.  Increase integral accuracy.
 SCF Done:  E(UB3LYP) =  -118.372703466     A.U. after   13 cycles
            NFock= 13  Conv=0.55D-08     -V/T= 2.0124
 <Sx>= 0.0000 <Sy>= 0.0000 <Sz>= 0.5000 <S**2>= 0.7529 S= 0.5014
 <L.S>=  0.00000000000    
 Annihilation of the first spin contaminant:
 S**2 before annihilation     0.7529,   after     0.7500

 **********************************************************************

            Population analysis using the SCF Density.

 **********************************************************************

 Orbital symmetries:
 Alpha Orbitals:
       Occupied  (A') (A") (A') (A') (A") (A') (A') (A') (A") (A")
                 (A') (A") (A')
       Virtual   (A') (A') (A") (A') (A') (A") (A") (A') (A") (A')
                 (A") (A') (A") (A') (A') (A') (A") (A") (A') (A')
                 (A") (A') (A") (A") (A') (A') (A') (A") (A") (A')
                 (A') (A") (A') (A") (A") (A') (A') (A") (A') (A")
                 (A') (A') (A")
 Beta  Orbitals:
       Occupied  (A') (A") (A') (A') (A") (A') (A') (A') (A") (A")
                 (A') (A")
       Virtual   (A') (A') (A') (A") (A') (A') (A") (A") (A') (A")
                 (A') (A") (A") (A') (A') (A') (A') (A") (A") (A')
                 (A') (A") (A") (A') (A") (A') (A') (A') (A") (A")
                 (A') (A') (A") (A") (A') (A") (A') (A') (A") (A')
                 (A") (A') (A') (A")
 The electronic state is 2-A'.
 Alpha  occ. eigenvalues --  -10.19719 -10.17690 -10.17688  -0.77438  -0.67512
 Alpha  occ. eigenvalues --   -0.56047  -0.45053  -0.43370  -0.40501  -0.38915
 Alpha  occ. eigenvalues --   -0.34097  -0.33986  -0.22044
 Alpha virt. eigenvalues --    0.05823   0.10076   0.10202   0.11931   0.13932
 Alpha virt. eigenvalues --    0.15364   0.16150   0.21196   0.25153   0.40170
 Alpha virt. eigenvalues --    0.43427   0.45060   0.45613   0.48645   0.52341
 Alpha virt. eigenvalues --    0.63173   0.64577   0.65166   0.65969   0.66985
 Alpha virt. eigenvalues --    0.69992   0.70571   0.70835   0.71840   0.73204
 Alpha virt. eigenvalues --    0.75168   0.86955   1.01968   1.44088   1.45613
 Alpha virt. eigenvalues --    1.68036   1.72594   1.88636   1.89335   1.99260
 Alpha virt. eigenvalues --    2.04031   2.10909   2.13178   2.16395   2.28978
 Alpha virt. eigenvalues --    2.34740   2.50940   2.63896
  Beta  occ. eigenvalues --  -10.18216 -10.17730 -10.17728  -0.75936  -0.67259
  Beta  occ. eigenvalues --   -0.54209  -0.44235  -0.42081  -0.39898  -0.38497
  Beta  occ. eigenvalues --   -0.33498  -0.33469
  Beta virt. eigenvalues --   -0.06041   0.06080   0.10288   0.10379   0.12302
  Beta virt. eigenvalues --    0.14450   0.15493   0.16351   0.22477   0.26347
  Beta virt. eigenvalues --    0.40399   0.43759   0.46140   0.46186   0.52475
  Beta virt. eigenvalues --    0.55815   0.64685   0.64980   0.66069   0.66175
  Beta virt. eigenvalues --    0.67659   0.70083   0.71082   0.71647   0.71972
  Beta virt. eigenvalues --    0.73398   0.76030   0.87950   1.02235   1.45849
  Beta virt. eigenvalues --    1.47606   1.71240   1.72907   1.90349   1.91530
  Beta virt. eigenvalues --    2.00584   2.04638   2.11382   2.13190   2.20210
  Beta virt. eigenvalues --    2.30795   2.36540   2.52529   2.65557
          Condensed to atoms (all electrons):
               1          2          3          4          5          6
     1  C    4.855913   0.427654  -0.078862   0.367482   0.360743   0.379386
     2  C    0.427654   5.083796   0.427654  -0.022705  -0.018907  -0.034584
     3  C   -0.078862   0.427654   4.855913   0.008889  -0.005192  -0.005444
     4  H    0.367482  -0.022705   0.008889   0.596965  -0.023009  -0.023065
     5  H    0.360743  -0.018907  -0.005192  -0.023009   0.611260  -0.026012
     6  H    0.379386  -0.034584  -0.005444  -0.023065  -0.026012   0.596457
     7  H   -0.039920   0.348414  -0.039920  -0.005560  -0.005743   0.008304
     8  H   -0.005444  -0.034584   0.379386  -0.000097  -0.001169   0.008051
     9  H   -0.005192  -0.018907   0.360743  -0.000127   0.008058  -0.001169
    10  H    0.008889  -0.022705   0.367482  -0.000466  -0.000127  -0.000097
               7          8          9         10
     1  C   -0.039920  -0.005444  -0.005192   0.008889
     2  C    0.348414  -0.034584  -0.018907  -0.022705
     3  C   -0.039920   0.379386   0.360743   0.367482
     4  H   -0.005560  -0.000097  -0.000127  -0.000466
     5  H   -0.005743  -0.001169   0.008058  -0.000127
     6  H    0.008304   0.008051  -0.001169  -0.000097
     7  H    0.660935   0.008304  -0.005743  -0.005560
     8  H    0.008304   0.596457  -0.026012  -0.023065
     9  H   -0.005743  -0.026012   0.611260  -0.023009
    10  H   -0.005560  -0.023065  -0.023009   0.596965
          Atomic-Atomic Spin Densities.
               1          2          3          4          5          6
     1  C   -0.049690  -0.037149   0.004269   0.007853   0.000198   0.007765
     2  C   -0.037149   1.169912  -0.037149  -0.006320  -0.022423  -0.007539
     3  C    0.004269  -0.037149  -0.049690   0.000091  -0.002032   0.001606
     4  H    0.007853  -0.006320   0.000091   0.007901  -0.006471   0.001867
     5  H    0.000198  -0.022423  -0.002032  -0.006471   0.095478  -0.008920
     6  H    0.007765  -0.007539   0.001606   0.001867  -0.008920   0.012585
     7  H    0.005662  -0.014687   0.005662   0.001557  -0.004809   0.000348
     8  H    0.001606  -0.007539   0.007765   0.000093  -0.001292   0.000868
     9  H   -0.002032  -0.022423   0.000198  -0.000253   0.008730  -0.001292
    10  H    0.000091  -0.006320   0.007853   0.000023  -0.000253   0.000093
               7          8          9         10
     1  C    0.005662   0.001606  -0.002032   0.000091
     2  C   -0.014687  -0.007539  -0.022423  -0.006320
     3  C    0.005662   0.007765   0.000198   0.007853
     4  H    0.001557   0.000093  -0.000253   0.000023
     5  H   -0.004809  -0.001292   0.008730  -0.000253
     6  H    0.000348   0.000868  -0.001292   0.000093
     7  H   -0.020188   0.000348  -0.004809   0.001557
     8  H    0.000348   0.012585  -0.008920   0.001867
     9  H   -0.004809  -0.008920   0.095478  -0.006471
    10  H    0.001557   0.001867  -0.006471   0.007901
 Mulliken charges and spin densities:
               1          2
     1  C   -0.270647  -0.061427
     2  C   -0.135123   1.008362
     3  C   -0.270647  -0.061427
     4  H    0.101693   0.006340
     5  H    0.100097   0.058205
     6  H    0.098174   0.007381
     7  H    0.076487  -0.029359
     8  H    0.098174   0.007381
     9  H    0.100097   0.058205
    10  H    0.101693   0.006340
 Sum of Mulliken charges =  -0.00000   1.00000
 Mulliken charges and spin densities with hydrogens summed into heavy atoms:
               1          2
     1  C    0.029318   0.010499
     2  C   -0.058636   0.979003
     3  C    0.029318   0.010499
 Electronic spatial extent (au):  <R**2>=            215.7626
 Charge=              0.0000 electrons
 Dipole moment (field-independent basis, Debye):
    X=              0.6445    Y=             -0.0983    Z=             -0.0000  Tot=              0.6520
 Quadrupole moment (field-independent basis, Debye-Ang):
   XX=            -21.7001   YY=            -21.0172   ZZ=            -21.3588
   XY=              0.6265   XZ=              0.0000   YZ=              0.0000
 Traceless Quadrupole moment (field-independent basis, Debye-Ang):
   XX=             -0.3414   YY=              0.3415   ZZ=             -0.0001
   XY=              0.6265   XZ=              0.0000   YZ=              0.0000
 Octapole moment (field-independent basis, Debye-Ang**2):
  XXX=              2.8041  YYY=             -0.5729  ZZZ=             -0.0000  XYY=              0.1599
  XXY=             -0.7231  XXZ=              0.0000  XZZ=             -0.5432  YZZ=              1.2659
  YYZ=              0.0000  XYZ=             -0.0000
 Hexadecapole moment (field-independent basis, Debye-Ang**3):
 XXXX=            -43.0821 YYYY=            -59.1401 ZZZZ=           -199.7624 XXXY=              4.6147
 XXXZ=             -0.0000 YYYX=              5.7306 YYYZ=             -0.0000 ZZZX=              0.0000
 ZZZY=              0.0000 XXYY=            -18.0418 XXZZ=            -40.0227 YYZZ=            -43.1302
 XXYZ=             -0.0000 YYXZ=             -0.0000 ZZXY=              0.9968
 N-N= 7.504318732632D+01 E-N=-4.228525060308D+02  KE= 1.169267764789D+02
 Symmetry A'   KE= 7.586325649265D+01
 Symmetry A"   KE= 4.106351998624D+01
 Symmetry A'   SP= 1.000000000000D+00
 Symmetry A"   SP=-9.256450586494D-15
                          Isotropic Fermi Contact Couplings
        Atom                 a.u.       MegaHertz       Gauss      10(-4) cm-1
     1  C(13)             -0.01407     -15.82264      -5.64591      -5.27786
     2  C(13)              0.43856     493.02482     175.92352     164.45538
     3  C(13)             -0.01407     -15.82264      -5.64591      -5.27786
     4  H(1)               0.00361      16.12290       5.75305       5.37802
     5  H(1)               0.02200      98.32911      35.08627      32.79906
     6  H(1)               0.00410      18.33355       6.54187       6.11541
     7  H(1)              -0.00291     -13.01968      -4.64575      -4.34290
     8  H(1)               0.00410      18.33355       6.54187       6.11541
     9  H(1)               0.02200      98.32911      35.08627      32.79906
    10  H(1)               0.00361      16.12290       5.75305       5.37802
 --------------------------------------------------------
       Center         ----  Spin Dipole Couplings  ----
                      3XX-RR        3YY-RR        3ZZ-RR
 --------------------------------------------------------
     1   Atom        0.002098     -0.009087      0.006988
     2   Atom        0.980308     -0.487909     -0.492399
     3   Atom        0.002098     -0.009087      0.006988
     4   Atom       -0.008135     -0.010819      0.018954
     5   Atom        0.005749     -0.006365      0.000616
     6   Atom       -0.008030      0.008901     -0.000871
     7   Atom       -0.001382      0.057927     -0.056545
     8   Atom       -0.008030      0.008901     -0.000871
     9   Atom        0.005749     -0.006365      0.000616
    10   Atom       -0.008135     -0.010819      0.018954
 --------------------------------------------------------
                        XY            XZ            YZ
 --------------------------------------------------------
     1   Atom       -0.013893      0.022003     -0.016205
     2   Atom       -0.029264      0.000000      0.000000
     3   Atom       -0.013893     -0.022003      0.016205
     4   Atom       -0.000442      0.004568     -0.002235
     5   Atom       -0.004487      0.007447     -0.005458
     6   Atom       -0.003528      0.002290     -0.013762
     7   Atom        0.030480     -0.000000     -0.000000
     8   Atom       -0.003528     -0.002290      0.013762
     9   Atom       -0.004487     -0.007447      0.005458
    10   Atom       -0.000442     -0.004568      0.002235
 --------------------------------------------------------


 ---------------------------------------------------------------------------------
              Anisotropic Spin Dipole Couplings in Principal Axis System
 ---------------------------------------------------------------------------------

       Atom             a.u.   MegaHertz   Gauss  10(-4) cm-1        Axes

              Baa    -0.0192    -2.570    -0.917    -0.857  0.0816  0.8764  0.4746
     1 C(13)  Bbb    -0.0175    -2.347    -0.837    -0.783  0.7945  0.2302 -0.5619
              Bcc     0.0366     4.917     1.754     1.640  0.6017 -0.4229  0.6776
 
              Baa    -0.4924   -66.075   -23.577   -22.040 -0.0000 -0.0000  1.0000
     2 C(13)  Bbb    -0.4885   -65.551   -23.390   -21.865  0.0199  0.9998  0.0000
              Bcc     0.9809   131.626    46.967    43.906  0.9998 -0.0199  0.0000
 
              Baa    -0.0192    -2.570    -0.917    -0.857  0.0816  0.8764 -0.4746
     3 C(13)  Bbb    -0.0175    -2.347    -0.837    -0.783  0.7945  0.2302  0.5619
              Bcc     0.0366     4.917     1.754     1.640 -0.6017  0.4229  0.6776
 
              Baa    -0.0110    -5.864    -2.092    -1.956  0.0466  0.9966  0.0673
     4 H(1)   Bbb    -0.0089    -4.739    -1.691    -1.581  0.9857 -0.0350 -0.1646
              Bcc     0.0199    10.603     3.783     3.537  0.1617 -0.0740  0.9841
 
              Baa    -0.0094    -4.998    -1.783    -1.667  0.0386  0.8886  0.4570
     5 H(1)   Bbb    -0.0041    -2.169    -0.774    -0.724 -0.6612 -0.3202  0.6785
              Bcc     0.0134     7.167     2.557     2.391  0.7492 -0.3284  0.5752
 
              Baa    -0.0106    -5.657    -2.019    -1.887  0.0832  0.5845  0.8071
     6 H(1)   Bbb    -0.0087    -4.622    -1.649    -1.542  0.9848  0.0754 -0.1562
              Bcc     0.0193    10.279     3.668     3.429 -0.1522  0.8078 -0.5694
 
              Baa    -0.0565   -30.170   -10.765   -10.064 -0.0000  0.0000  1.0000
     7 H(1)   Bbb    -0.0143    -7.604    -2.713    -2.537  0.9212 -0.3890  0.0000
              Bcc     0.0708    37.774    13.479    12.600  0.3890  0.9212 -0.0000
 
              Baa    -0.0106    -5.657    -2.019    -1.887 -0.0832 -0.5845  0.8071
     8 H(1)   Bbb    -0.0087    -4.622    -1.649    -1.542  0.9848  0.0754  0.1562
              Bcc     0.0193    10.279     3.668     3.429 -0.1522  0.8078  0.5694
 
              Baa    -0.0094    -4.998    -1.783    -1.667  0.0386  0.8886 -0.4570
     9 H(1)   Bbb    -0.0041    -2.169    -0.774    -0.724  0.6612  0.3202  0.6785
              Bcc     0.0134     7.167     2.557     2.391  0.7492 -0.3284 -0.5752
 
              Baa    -0.0110    -5.864    -2.092    -1.956  0.0466  0.9966 -0.0673
    10 H(1)   Bbb    -0.0089    -4.739    -1.691    -1.581  0.9857 -0.0350  0.1646
              Bcc     0.0199    10.603     3.783     3.537 -0.1617  0.0740  0.9841
 

 ---------------------------------------------------------------------------------

   2 Symmetry operations used in ECPInt.
 ECPInt:  NShTT=     528 NPrTT=    2140 LenC2=     529 LenP2D=    1911.
 LDataN:  DoStor=T MaxTD1= 5 Len=  102
 Calling FoFJK, ICntrl=      2127 FMM=F ISym2X=1 I1Cent= 0 IOpClX= 1 NMat=1 NMatS=1 NMatT=0.
 ***** Axes restored to original set *****
 -------------------------------------------------------------------
 Center     Atomic                   Forces (Hartrees/Bohr)
 Number     Number              X              Y              Z
 -------------------------------------------------------------------
      1        6           0.012829805   -0.003790999   -0.023104988
      2        6          -0.021388084    0.012017504    0.047572768
      3        6           0.010758519   -0.002892238   -0.024263249
      4        1          -0.004623953   -0.001756239    0.003924216
      5        1          -0.000355239   -0.000902501   -0.000785202
      6        1          -0.002776415    0.003726191    0.002138176
      7        1           0.006291864   -0.004423479   -0.014683990
      8        1           0.001484248    0.001877429    0.004520735
      9        1           0.000181363   -0.001135340   -0.000485135
     10        1          -0.002402108   -0.002720329    0.005166670
 -------------------------------------------------------------------
 Cartesian Forces:  Max     0.047572768 RMS     0.012517479

 GradGradGradGradGradGradGradGradGradGradGradGradGradGradGradGradGradGrad
 Berny optimization.
 FormGI is forming the generalized inverse of G from B-inverse, IUseBI=4.
 Internal  Forces:  Max     0.021387910 RMS     0.006016821
 Search for a local minimum.
 Step number   1 out of a maximum of   46
 All quantities printed in internal units (Hartrees-Bohrs-Radians)
 Mixed Optimization -- RFO/linear search
 Second derivative matrix not updated -- first step.
 ITU=  0
     Eigenvalues ---    0.00451   0.00451   0.02535   0.07189   0.07189
     Eigenvalues ---    0.07343   0.07343   0.10795   0.16000   0.16000
     Eigenvalues ---    0.16000   0.16000   0.16000   0.16000   0.23386
     Eigenvalues ---    0.30003   0.30003   0.32457   0.32503   0.32503
     Eigenvalues ---    0.32553   0.32553   0.32619   0.32619
 RFO step:  Lambda=-1.56794319D-02 EMin= 4.51014240D-03
 Linear search not attempted -- first point.
 Iteration  1 RMS(Cart)=  0.08384927 RMS(Int)=  0.00862458
 Iteration  2 RMS(Cart)=  0.00784382 RMS(Int)=  0.00666147
 Iteration  3 RMS(Cart)=  0.00000899 RMS(Int)=  0.00666147
 Iteration  4 RMS(Cart)=  0.00000013 RMS(Int)=  0.00666147
 ClnCor:  largest displacement from symmetrization is 1.29D-11 for atom    10.
 Variable       Old X    -DE/DX   Delta X   Delta X   Delta X     New X
                                 (Linear)    (Quad)   (Total)
    R1        2.87958  -0.00481   0.00000  -0.01523  -0.01523   2.86435
    R2        2.09726  -0.00253   0.00000  -0.00741  -0.00741   2.08985
    R3        2.09933  -0.00088   0.00000  -0.00258  -0.00258   2.09675
    R4        2.09843  -0.00276   0.00000  -0.00810  -0.00810   2.09033
    R5        2.87958  -0.00481   0.00000  -0.01523  -0.01523   2.86435
    R6        2.10015  -0.00360   0.00000  -0.01059  -0.01059   2.08956
    R7        2.09843  -0.00276   0.00000  -0.00810  -0.00810   2.09033
    R8        2.09933  -0.00088   0.00000  -0.00258  -0.00258   2.09675
    R9        2.09726  -0.00253   0.00000  -0.00741  -0.00741   2.08985
    A1        1.90786   0.00816   0.00000   0.05113   0.05052   1.95838
    A2        1.92649  -0.00204   0.00000  -0.01714  -0.01699   1.90950
    A3        1.92232   0.00462   0.00000   0.02709   0.02645   1.94877
    A4        1.90059  -0.00356   0.00000  -0.02196  -0.02179   1.87880
    A5        1.89655  -0.00394   0.00000  -0.01137  -0.01262   1.88392
    A6        1.90963  -0.00336   0.00000  -0.02814  -0.02804   1.88159
    A7        1.94740   0.02139   0.00000   0.13012   0.11013   2.05753
    A8        1.91283  -0.00082   0.00000   0.10573   0.08218   1.99501
    A9        1.91283  -0.00082   0.00000   0.10573   0.08218   1.99501
   A10        1.92232   0.00462   0.00000   0.02709   0.02645   1.94877
   A11        1.92649  -0.00204   0.00000  -0.01714  -0.01699   1.90950
   A12        1.90786   0.00816   0.00000   0.05113   0.05052   1.95838
   A13        1.90963  -0.00336   0.00000  -0.02814  -0.02804   1.88159
   A14        1.89655  -0.00394   0.00000  -0.01137  -0.01262   1.88392
   A15        1.90059  -0.00356   0.00000  -0.02196  -0.02179   1.87880
    D1       -3.12613   0.00514   0.00000   0.13510   0.13715  -2.98898
    D2        1.03511  -0.00740   0.00000  -0.15659  -0.15974   0.87537
    D3        1.06698   0.00565   0.00000   0.14060   0.14322   1.21020
    D4       -1.05496  -0.00688   0.00000  -0.15110  -0.15367  -1.20864
    D5       -1.04357   0.00816   0.00000   0.16920   0.17233  -0.87124
    D6        3.11767  -0.00437   0.00000  -0.12249  -0.12456   2.99311
    D7        1.04357  -0.00816   0.00000  -0.16920  -0.17233   0.87124
    D8       -1.06698  -0.00565   0.00000  -0.14060  -0.14322  -1.21020
    D9        3.12613  -0.00514   0.00000  -0.13510  -0.13715   2.98898
   D10       -3.11767   0.00437   0.00000   0.12249   0.12456  -2.99311
   D11        1.05496   0.00688   0.00000   0.15110   0.15367   1.20864
   D12       -1.03511   0.00740   0.00000   0.15659   0.15974  -0.87537
         Item               Value     Threshold  Converged?
 Maximum Force            0.021388     0.000450     NO 
 RMS     Force            0.006017     0.000300     NO 
 Maximum Displacement     0.218816     0.001800     NO 
 RMS     Displacement     0.078751     0.001200     NO 
 Predicted change in Energy=-1.136166D-02
 GradGradGradGradGradGradGradGradGradGradGradGradGradGradGradGradGradGrad

                          Input orientation:                          
 ---------------------------------------------------------------------
 Center     Atomic      Atomic             Coordinates (Angstroms)
 Number     Number       Type             X           Y           Z
 ---------------------------------------------------------------------
      1          6           0        1.025350    0.001308   -0.121454
      2          6           0        2.532122    0.018687    0.042364
      3          6           0        3.145075   -0.918471    1.063894
      4          1           0        0.692335    0.600266   -0.989424
      5          1           0        0.550974    0.430347    0.785186
      6          1           0        0.640529   -1.027779   -0.249810
      7          1           0        2.980138    1.029465    0.025509
      8          1           0        2.773661   -1.953376    0.943036
      9          1           0        2.875298   -0.578210    2.084946
     10          1           0        4.248822   -0.942944    0.999360
 ---------------------------------------------------------------------
                    Distance matrix (angstroms):
                    1          2          3          4          5
     1  C    0.000000
     2  C    1.515751   0.000000
     3  C    2.596974   1.515751   0.000000
     4  H    1.105903   2.188066   3.540989   0.000000
     5  H    1.109551   2.155504   2.937064   1.788322   0.000000
     6  H    1.106157   2.181417   2.830286   1.788922   1.790355
     7  H    2.213572   1.105746   2.213572   2.539358   2.614745
     8  H    2.830286   2.181417   1.106157   3.819346   3.263034
     9  H    2.937064   2.155504   1.109551   3.950428   2.847638
    10  H    3.540989   2.188066   1.105903   4.357219   3.950428
                    6          7          8          9         10
     6  H    0.000000
     7  H    3.127591   0.000000
     8  H    2.613400   3.127591   0.000000
     9  H    3.263034   2.614745   1.790355   0.000000
    10  H    3.819346   2.539358   1.788922   1.788322   0.000000
 Stoichiometry    C3H7(2)
 Framework group  CS[SG(CH),X(C2H6)]
 Deg. of freedom    13
 Full point group                 CS      NOp   2
 Largest Abelian subgroup         CS      NOp   2
 Largest concise Abelian subgroup CS      NOp   2
                         Standard orientation:                         
 ---------------------------------------------------------------------
 Center     Atomic      Atomic             Coordinates (Angstroms)
 Number     Number       Type             X           Y           Z
 ---------------------------------------------------------------------
      1          6           0       -0.029619   -0.203603    1.298487
      2          6           0       -0.029619    0.578337   -0.000000
      3          6           0       -0.029619   -0.203603   -1.298487
      4          1           0       -0.185268    0.447687    2.178609
      5          1           0        0.949591   -0.710105    1.423819
      6          1           0       -0.816230   -0.981265    1.306700
      7          1           0        0.636953    1.460583   -0.000000
      8          1           0       -0.816230   -0.981265   -1.306700
      9          1           0        0.949591   -0.710105   -1.423819
     10          1           0       -0.185268    0.447687   -2.178609
 ---------------------------------------------------------------------
 Rotational constants (GHZ):          35.6924069           8.2730952           7.4109812
 Standard basis: def2SVPP (5D, 7F)
 There are    34 symmetry adapted cartesian basis functions of A'  symmetry.
 There are    25 symmetry adapted cartesian basis functions of A"  symmetry.
 There are    32 symmetry adapted basis functions of A'  symmetry.
 There are    24 symmetry adapted basis functions of A"  symmetry.
    56 basis functions,   103 primitive gaussians,    59 cartesian basis functions
    13 alpha electrons       12 beta electrons
       nuclear repulsion energy        74.6900329283 Hartrees.
 NAtoms=   10 NActive=   10 NUniq=    6 SFac= 2.78D+00 NAtFMM=   60 NAOKFM=F Big=F
 Integral buffers will be    131072 words long.
 Raffenetti 2 integral format.
 Two-electron integral symmetry is turned on.
 Nuclear repulsion after empirical dispersion term =       74.6812122761 Hartrees.
 One-electron integrals computed using PRISM.
   2 Symmetry operations used in ECPInt.
 ECPInt:  NShTT=     528 NPrTT=    2140 LenC2=     529 LenP2D=    1903.
 LDataN:  DoStor=T MaxTD1= 4 Len=   56
 NBasis=    56 RedAO= T EigKep=  4.45D-03  NBF=    32    24
 NBsUse=    56 1.00D-06 EigRej= -1.00D+00 NBFU=    32    24
 Initial guess from the checkpoint file:  "/home/software/g16tmp/Gau-167139.chk"
 B after Tr=    -0.000000    0.000001    0.000000
         Rot=    0.972701   -0.000000   -0.000000    0.232063 Ang=  26.84 deg.
 Initial guess orbital symmetries:
 Alpha Orbitals:
       Occupied  (A') (A") (A') (A') (A") (A') (A') (A') (A") (A")
                 (A') (A") (A')
       Virtual   (A') (A') (A") (A') (A') (A") (A") (A') (A") (A')
                 (A") (A') (A") (A') (A') (A') (A") (A") (A') (A')
                 (A") (A') (A") (A") (A') (A') (A') (A") (A") (A')
                 (A') (A") (A') (A") (A") (A') (A') (A") (A') (A")
                 (A') (A') (A")
 Beta  Orbitals:
       Occupied  (A') (A") (A') (A') (A") (A') (A') (A') (A") (A")
                 (A') (A")
       Virtual   (A') (A') (A') (A") (A') (A') (A") (A") (A') (A")
                 (A') (A") (A") (A') (A') (A') (A') (A") (A") (A')
                 (A') (A") (A") (A') (A") (A') (A') (A') (A") (A")
                 (A') (A') (A") (A") (A') (A") (A') (A') (A") (A')
                 (A") (A') (A') (A")
 Initial guess <Sx>= 0.0000 <Sy>= 0.0000 <Sz>= 0.5000 <S**2>= 0.7529 S= 0.5015
 ExpMin= 1.22D-01 ExpMax= 1.24D+03 ExpMxC= 1.86D+02 IAcc=3 IRadAn=         5 AccDes= 0.00D+00
 Harris functional with IExCor=  402 and IRadAn=       5 diagonalized for initial guess.
 HarFok:  IExCor=  402 AccDes= 0.00D+00 IRadAn=         5 IDoV= 1 UseB2=F ITyADJ=14
 ICtDFT=  3500011 ScaDFX=  1.000000  1.000000  1.000000  1.000000
 FoFCou: FMM=F IPFlag=           0 FMFlag=      100000 FMFlg1=           0
         NFxFlg=           0 DoJE=T BraDBF=F KetDBF=T FulRan=T
         wScrn=  0.000000 ICntrl=       500 IOpCl=  0 I1Cent=   200000004 NGrid=           0
         NMat0=    1 NMatS0=      1 NMatT0=    0 NMatD0=    1 NMtDS0=    0 NMtDT0=    0
 Petite list used in FoFCou.
 Keep R1 and R2 ints in memory in symmetry-blocked form, NReq=15381125.
 Requested convergence on RMS density matrix=1.00D-08 within 128 cycles.
 Requested convergence on MAX density matrix=1.00D-06.
 Requested convergence on             energy=1.00D-06.
 No special actions if energy rises.
 Integral accuracy reduced to 1.0D-05 until final iterations.
 Initial convergence to 1.0D-05 achieved.  Increase integral accuracy.
 SCF Done:  E(UB3LYP) =  -118.381959268     A.U. after   12 cycles
            NFock= 12  Conv=0.50D-08     -V/T= 2.0124
 <Sx>= 0.0000 <Sy>= 0.0000 <Sz>= 0.5000 <S**2>= 0.7534 S= 0.5017
 <L.S>=  0.00000000000    
 Annihilation of the first spin contaminant:
 S**2 before annihilation     0.7534,   after     0.7500
   2 Symmetry operations used in ECPInt.
 ECPInt:  NShTT=     528 NPrTT=    2140 LenC2=     529 LenP2D=    1903.
 LDataN:  DoStor=T MaxTD1= 5 Len=  102
 Calling FoFJK, ICntrl=      2127 FMM=F ISym2X=1 I1Cent= 0 IOpClX= 1 NMat=1 NMatS=1 NMatT=0.
 ***** Axes restored to original set *****
 -------------------------------------------------------------------
 Center     Atomic                   Forces (Hartrees/Bohr)
 Number     Number              X              Y              Z
 -------------------------------------------------------------------
      1        6           0.012829252   -0.002305539   -0.004989212
      2        6          -0.008268595    0.001823298    0.016201295
      3        6          -0.001880681    0.004077309   -0.013214993
      4        1           0.000251250    0.000399787    0.001085804
      5        1          -0.003130740    0.000202549    0.001037790
      6        1          -0.000466801    0.000093525    0.001007103
      7        1           0.001484198   -0.003889676   -0.005672368
      8        1          -0.000541137    0.000125780    0.000965535
      9        1           0.000384682   -0.001322842    0.003003610
     10        1          -0.000661427    0.000795810    0.000575436
 -------------------------------------------------------------------
 Cartesian Forces:  Max     0.016201295 RMS     0.005165281

 GradGradGradGradGradGradGradGradGradGradGradGradGradGradGradGradGradGrad
 Berny optimization.
 Using GEDIIS/GDIIS optimizer.
 FormGI is forming the generalized inverse of G from B-inverse, IUseBI=4.
 Internal  Forces:  Max     0.009207460 RMS     0.002788110
 Search for a local minimum.
 Step number   2 out of a maximum of   46
 All quantities printed in internal units (Hartrees-Bohrs-Radians)
 Mixed Optimization -- RFO/linear search
 Update second derivatives using D2CorX and points    1    2
 DE= -9.26D-03 DEPred=-1.14D-02 R= 8.15D-01
 TightC=F SS=  1.41D+00  RLast= 5.51D-01 DXNew= 5.0454D-01 1.6533D+00
 Trust test= 8.15D-01 RLast= 5.51D-01 DXMaxT set to 5.05D-01
 ITU=  1  0
 Use linear search instead of GDIIS.
     Eigenvalues ---    0.00451   0.00451   0.02367   0.06863   0.06865
     Eigenvalues ---    0.07191   0.07200   0.13011   0.15024   0.16000
     Eigenvalues ---    0.16000   0.16000   0.16000   0.16771   0.22430
     Eigenvalues ---    0.30003   0.30548   0.32315   0.32503   0.32514
     Eigenvalues ---    0.32553   0.32597   0.32619   0.33023
 RFO step:  Lambda=-4.03001846D-03 EMin= 4.51005990D-03
 Quartic linear search produced a step of  0.79671.
 Iteration  1 RMS(Cart)=  0.07906461 RMS(Int)=  0.01315207
 Iteration  2 RMS(Cart)=  0.01075473 RMS(Int)=  0.01086125
 Iteration  3 RMS(Cart)=  0.00002373 RMS(Int)=  0.01086119
 Iteration  4 RMS(Cart)=  0.00000041 RMS(Int)=  0.01086119
 ClnCor:  largest displacement from symmetrization is 4.02D-09 for atom    10.
 Variable       Old X    -DE/DX   Delta X   Delta X   Delta X     New X
                                 (Linear)    (Quad)   (Total)
    R1        2.86435  -0.00921  -0.01213  -0.04273  -0.05486   2.80949
    R2        2.08985  -0.00071  -0.00590   0.00173  -0.00417   2.08568
    R3        2.09675   0.00226  -0.00206   0.01426   0.01221   2.10895
    R4        2.09033  -0.00004  -0.00645   0.00588  -0.00057   2.08976
    R5        2.86435  -0.00921  -0.01213  -0.04273  -0.05486   2.80949
    R6        2.08956  -0.00287  -0.00844  -0.00763  -0.01607   2.07349
    R7        2.09033  -0.00004  -0.00645   0.00588  -0.00057   2.08976
    R8        2.09675   0.00226  -0.00206   0.01426   0.01221   2.10895
    R9        2.08985  -0.00071  -0.00590   0.00173  -0.00417   2.08568
    A1        1.95838  -0.00068   0.04025  -0.04355  -0.00378   1.95460
    A2        1.90950   0.00324  -0.01354   0.04731   0.03386   1.94336
    A3        1.94877   0.00013   0.02107  -0.01826   0.00228   1.95105
    A4        1.87880  -0.00140  -0.01736   0.00117  -0.01607   1.86272
    A5        1.88392   0.00047  -0.01006   0.01679   0.00574   1.88966
    A6        1.88159  -0.00192  -0.02234  -0.00188  -0.02418   1.85741
    A7        2.05753   0.00248   0.08774  -0.02428   0.02701   2.08454
    A8        1.99501   0.00031   0.06547   0.04602   0.07366   2.06867
    A9        1.99501   0.00031   0.06547   0.04602   0.07366   2.06867
   A10        1.94877   0.00013   0.02107  -0.01826   0.00228   1.95105
   A11        1.90950   0.00324  -0.01354   0.04731   0.03386   1.94336
   A12        1.95838  -0.00068   0.04025  -0.04355  -0.00378   1.95460
   A13        1.88159  -0.00192  -0.02234  -0.00188  -0.02418   1.85741
   A14        1.88392   0.00047  -0.01006   0.01679   0.00574   1.88966
   A15        1.87880  -0.00140  -0.01736   0.00117  -0.01607   1.86272
    D1       -2.98898   0.00189   0.10927   0.04585   0.15676  -2.83222
    D2        0.87537  -0.00222  -0.12727  -0.06211  -0.19188   0.68349
    D3        1.21020   0.00192   0.11410   0.04045   0.15667   1.36686
    D4       -1.20864  -0.00219  -0.12243  -0.06750  -0.19198  -1.40062
    D5       -0.87124   0.00211   0.13730   0.02336   0.16313  -0.70811
    D6        2.99311  -0.00200  -0.09924  -0.08459  -0.18551   2.80760
    D7        0.87124  -0.00211  -0.13730  -0.02336  -0.16313   0.70811
    D8       -1.21020  -0.00192  -0.11410  -0.04045  -0.15667  -1.36686
    D9        2.98898  -0.00189  -0.10927  -0.04585  -0.15676   2.83222
   D10       -2.99311   0.00200   0.09924   0.08459   0.18551  -2.80760
   D11        1.20864   0.00219   0.12243   0.06750   0.19198   1.40062
   D12       -0.87537   0.00222   0.12727   0.06211   0.19188  -0.68349
         Item               Value     Threshold  Converged?
 Maximum Force            0.009207     0.000450     NO 
 RMS     Force            0.002788     0.000300     NO 
 Maximum Displacement     0.206687     0.001800     NO 
 RMS     Displacement     0.079224     0.001200     NO 
 Predicted change in Energy=-1.045074D-03
 GradGradGradGradGradGradGradGradGradGradGradGradGradGradGradGradGradGrad

                          Input orientation:                          
 ---------------------------------------------------------------------
 Center     Atomic      Atomic             Coordinates (Angstroms)
 Number     Number       Type             X           Y           Z
 ---------------------------------------------------------------------
      1          6           0        1.035440    0.004414   -0.105035
      2          6           0        2.497832    0.080617    0.151738
      3          6           0        3.131282   -0.905002    1.066958
      4          1           0        0.745344    0.563154   -1.011566
      5          1           0        0.451298    0.438983    0.740782
      6          1           0        0.692369   -1.040854   -0.217425
      7          1           0        3.013247    1.031690   -0.031972
      8          1           0        2.724736   -1.922727    0.919073
      9          1           0        2.946514   -0.643727    2.136105
     10          1           0        4.226240   -0.947256    0.934948
 ---------------------------------------------------------------------
                    Distance matrix (angstroms):
                    1          2          3          4          5
     1  C    0.000000
     2  C    1.486718   0.000000
     3  C    2.567715   1.486718   0.000000
     4  H    1.103696   2.158085   3.488330   0.000000
     5  H    1.116011   2.159561   3.015792   1.781181   0.000000
     6  H    1.105854   2.157238   2.759781   1.790617   1.779380
     7  H    2.229878   1.097242   2.229878   2.514461   2.740809
     8  H    2.759781   2.157238   1.105854   3.718193   3.282984
     9  H    3.015792   2.159561   1.116011   4.026108   3.057007
    10  H    3.488330   2.158085   1.103696   4.264609   4.026108
                    6          7          8          9         10
     6  H    0.000000
     7  H    3.117099   0.000000
     8  H    2.489948   3.117099   0.000000
     9  H    3.282984   2.740809   1.779380   0.000000
    10  H    3.718193   2.514461   1.790617   1.781181   0.000000
 Stoichiometry    C3H7(2)
 Framework group  CS[SG(CH),X(C2H6)]
 Deg. of freedom    13
 Full point group                 CS      NOp   2
 Largest Abelian subgroup         CS      NOp   2
 Largest concise Abelian subgroup CS      NOp   2
                         Standard orientation:                         
 ---------------------------------------------------------------------
 Center     Atomic      Atomic             Coordinates (Angstroms)
 Number     Number       Type             X           Y           Z
 ---------------------------------------------------------------------
      1          6           0       -0.017168   -0.200778    1.283857
      2          6           0       -0.017168    0.548916    0.000000
      3          6           0       -0.017168   -0.200778   -1.283857
      4          1           0       -0.328756    0.432621    2.132304
      5          1           0        1.000743   -0.587410    1.528504
      6          1           0       -0.685039   -1.081319    1.244974
      7          1           0        0.335135    1.588061    0.000000
      8          1           0       -0.685039   -1.081319   -1.244974
      9          1           0        1.000743   -0.587410   -1.528504
     10          1           0       -0.328756    0.432621   -2.132304
 ---------------------------------------------------------------------
 Rotational constants (GHZ):          36.5143363           8.4480772           7.5280640
 Standard basis: def2SVPP (5D, 7F)
 There are    34 symmetry adapted cartesian basis functions of A'  symmetry.
 There are    25 symmetry adapted cartesian basis functions of A"  symmetry.
 There are    32 symmetry adapted basis functions of A'  symmetry.
 There are    24 symmetry adapted basis functions of A"  symmetry.
    56 basis functions,   103 primitive gaussians,    59 cartesian basis functions
    13 alpha electrons       12 beta electrons
       nuclear repulsion energy        75.3336392457 Hartrees.
 NAtoms=   10 NActive=   10 NUniq=    6 SFac= 2.78D+00 NAtFMM=   60 NAOKFM=F Big=F
 Integral buffers will be    131072 words long.
 Raffenetti 2 integral format.
 Two-electron integral symmetry is turned on.
 Nuclear repulsion after empirical dispersion term =       75.3248219358 Hartrees.
 One-electron integrals computed using PRISM.
   2 Symmetry operations used in ECPInt.
 ECPInt:  NShTT=     528 NPrTT=    2140 LenC2=     529 LenP2D=    1901.
 LDataN:  DoStor=T MaxTD1= 4 Len=   56
 NBasis=    56 RedAO= T EigKep=  4.13D-03  NBF=    32    24
 NBsUse=    56 1.00D-06 EigRej= -1.00D+00 NBFU=    32    24
 Initial guess from the checkpoint file:  "/home/software/g16tmp/Gau-167139.chk"
 B after Tr=     0.000000    0.000000   -0.000000
         Rot=    0.998209    0.000000   -0.000000   -0.059824 Ang=  -6.86 deg.
 Initial guess orbital symmetries:
 Alpha Orbitals:
       Occupied  (A') (A") (A') (A') (A") (A') (A') (A') (A") (A")
                 (A") (A') (A')
       Virtual   (A') (A') (A") (A') (A') (A") (A") (A') (A") (A')
                 (A") (A') (A") (A') (A') (A') (A") (A') (A") (A')
                 (A") (A") (A') (A') (A") (A') (A') (A") (A") (A')
                 (A") (A') (A') (A") (A') (A") (A') (A") (A') (A")
                 (A') (A') (A")
 Beta  Orbitals:
       Occupied  (A") (A') (A') (A') (A") (A') (A') (A') (A") (A")
                 (A") (A')
       Virtual   (A') (A') (A') (A") (A') (A') (A") (A") (A') (A")
                 (A') (A") (A') (A") (A') (A') (A') (A") (A') (A")
                 (A') (A") (A") (A') (A") (A') (A') (A') (A") (A")
                 (A') (A") (A') (A') (A") (A') (A") (A') (A") (A')
                 (A") (A') (A') (A")
 Initial guess <Sx>= 0.0000 <Sy>= 0.0000 <Sz>= 0.5000 <S**2>= 0.7534 S= 0.5017
 ExpMin= 1.22D-01 ExpMax= 1.24D+03 ExpMxC= 1.86D+02 IAcc=3 IRadAn=         5 AccDes= 0.00D+00
 Harris functional with IExCor=  402 and IRadAn=       5 diagonalized for initial guess.
 HarFok:  IExCor=  402 AccDes= 0.00D+00 IRadAn=         5 IDoV= 1 UseB2=F ITyADJ=14
 ICtDFT=  3500011 ScaDFX=  1.000000  1.000000  1.000000  1.000000
 FoFCou: FMM=F IPFlag=           0 FMFlag=      100000 FMFlg1=           0
         NFxFlg=           0 DoJE=T BraDBF=F KetDBF=T FulRan=T
         wScrn=  0.000000 ICntrl=       500 IOpCl=  0 I1Cent=   200000004 NGrid=           0
         NMat0=    1 NMatS0=      1 NMatT0=    0 NMatD0=    1 NMtDS0=    0 NMtDT0=    0
 Petite list used in FoFCou.
 Keep R1 and R2 ints in memory in symmetry-blocked form, NReq=15381125.
 Requested convergence on RMS density matrix=1.00D-08 within 128 cycles.
 Requested convergence on MAX density matrix=1.00D-06.
 Requested convergence on             energy=1.00D-06.
 No special actions if energy rises.
 Integral accuracy reduced to 1.0D-05 until final iterations.
 Initial convergence to 1.0D-05 achieved.  Increase integral accuracy.
 SCF Done:  E(UB3LYP) =  -118.384721329     A.U. after   12 cycles
            NFock= 12  Conv=0.99D-08     -V/T= 2.0118
 <Sx>= 0.0000 <Sy>= 0.0000 <Sz>= 0.5000 <S**2>= 0.7539 S= 0.5019
 <L.S>=  0.00000000000    
 Annihilation of the first spin contaminant:
 S**2 before annihilation     0.7539,   after     0.7500
   2 Symmetry operations used in ECPInt.
 ECPInt:  NShTT=     528 NPrTT=    2140 LenC2=     529 LenP2D=    1901.
 LDataN:  DoStor=T MaxTD1= 5 Len=  102
 Calling FoFJK, ICntrl=      2127 FMM=F ISym2X=1 I1Cent= 0 IOpClX= 1 NMat=1 NMatS=1 NMatT=0.
 ***** Axes restored to original set *****
 -------------------------------------------------------------------
 Center     Atomic                   Forces (Hartrees/Bohr)
 Number     Number              X              Y              Z
 -------------------------------------------------------------------
      1        6          -0.001984029    0.003009599   -0.001124390
      2        6          -0.001048469   -0.001523083    0.000693102
      3        6           0.003237468    0.000743918    0.001795466
      4        1          -0.001245119    0.000696301   -0.000664751
      5        1          -0.000980198   -0.000274239   -0.000568416
      6        1          -0.000106384   -0.000556067   -0.000163135
      7        1           0.000388618   -0.000196474   -0.000847411
      8        1          -0.000164581   -0.000530815   -0.000195678
      9        1           0.000590850   -0.000955939    0.000310112
     10        1           0.001311845   -0.000413201    0.000765100
 -------------------------------------------------------------------
 Cartesian Forces:  Max     0.003237468 RMS     0.001178847

 GradGradGradGradGradGradGradGradGradGradGradGradGradGradGradGradGradGrad
 Berny optimization.
 Using GEDIIS/GDIIS optimizer.
 FormGI is forming the generalized inverse of G from B-inverse, IUseBI=4.
 Internal  Forces:  Max     0.005833289 RMS     0.001718681
 Search for a local minimum.
 Step number   3 out of a maximum of   46
 All quantities printed in internal units (Hartrees-Bohrs-Radians)
 Mixed Optimization -- RFO/linear search
 Update second derivatives using D2CorX and points    2    3
 DE= -2.76D-03 DEPred=-1.05D-03 R= 2.64D+00
 TightC=F SS=  1.41D+00  RLast= 6.24D-01 DXNew= 8.4853D-01 1.8733D+00
 Trust test= 2.64D+00 RLast= 6.24D-01 DXMaxT set to 8.49D-01
 ITU=  1  1  0
 Use linear search instead of GDIIS.
     Eigenvalues ---    0.00445   0.00451   0.01187   0.06744   0.06824
     Eigenvalues ---    0.06976   0.06998   0.14425   0.15006   0.16000
     Eigenvalues ---    0.16000   0.16000   0.16050   0.16779   0.22150
     Eigenvalues ---    0.30003   0.32270   0.32335   0.32503   0.32536
     Eigenvalues ---    0.32553   0.32619   0.32638   0.36402
 RFO step:  Lambda=-4.95757485D-04 EMin= 4.45201029D-03
 Quartic linear search produced a step of -0.00047.
 Iteration  1 RMS(Cart)=  0.02443679 RMS(Int)=  0.00030829
 Iteration  2 RMS(Cart)=  0.00032169 RMS(Int)=  0.00007033
 Iteration  3 RMS(Cart)=  0.00000004 RMS(Int)=  0.00007033
 ClnCor:  largest displacement from symmetrization is 1.73D-13 for atom     8.
 Variable       Old X    -DE/DX   Delta X   Delta X   Delta X     New X
                                 (Linear)    (Quad)   (Total)
    R1        2.80949   0.00453   0.00003   0.00937   0.00939   2.81888
    R2        2.08568   0.00123   0.00000   0.00353   0.00353   2.08921
    R3        2.10895  -0.00002  -0.00001   0.00140   0.00139   2.11035
    R4        2.08976   0.00058   0.00000   0.00198   0.00198   2.09174
    R5        2.80949   0.00453   0.00003   0.00937   0.00939   2.81888
    R6        2.07349   0.00015   0.00001  -0.00099  -0.00098   2.07251
    R7        2.08976   0.00058   0.00000   0.00198   0.00198   2.09174
    R8        2.10895  -0.00002  -0.00001   0.00140   0.00139   2.11035
    R9        2.08568   0.00123   0.00000   0.00353   0.00353   2.08921
    A1        1.95460   0.00106   0.00000   0.00440   0.00438   1.95898
    A2        1.94336   0.00152  -0.00002   0.01453   0.01449   1.95785
    A3        1.95105  -0.00061  -0.00000  -0.00520  -0.00519   1.94586
    A4        1.86272  -0.00120   0.00001  -0.00720  -0.00724   1.85549
    A5        1.88966  -0.00037  -0.00000  -0.00206  -0.00206   1.88760
    A6        1.85741  -0.00055   0.00001  -0.00536  -0.00533   1.85208
    A7        2.08454   0.00583  -0.00001   0.02537   0.02513   2.10967
    A8        2.06867  -0.00272  -0.00003  -0.00631  -0.00659   2.06209
    A9        2.06867  -0.00272  -0.00003  -0.00631  -0.00659   2.06209
   A10        1.95105  -0.00061  -0.00000  -0.00520  -0.00519   1.94586
   A11        1.94336   0.00152  -0.00002   0.01453   0.01449   1.95785
   A12        1.95460   0.00106   0.00000   0.00440   0.00438   1.95898
   A13        1.85741  -0.00055   0.00001  -0.00536  -0.00533   1.85208
   A14        1.88966  -0.00037  -0.00000  -0.00206  -0.00206   1.88760
   A15        1.86272  -0.00120   0.00001  -0.00720  -0.00724   1.85549
    D1       -2.83222   0.00023  -0.00007  -0.01588  -0.01592  -2.84814
    D2        0.68349  -0.00031   0.00009  -0.05175  -0.05165   0.63184
    D3        1.36686  -0.00000  -0.00007  -0.01963  -0.01972   1.34715
    D4       -1.40062  -0.00055   0.00009  -0.05550  -0.05544  -1.45606
    D5       -0.70811   0.00008  -0.00008  -0.01914  -0.01920  -0.72731
    D6        2.80760  -0.00046   0.00009  -0.05501  -0.05493   2.75267
    D7        0.70811  -0.00008   0.00008   0.01914   0.01920   0.72731
    D8       -1.36686   0.00000   0.00007   0.01963   0.01972  -1.34715
    D9        2.83222  -0.00023   0.00007   0.01588   0.01592   2.84814
   D10       -2.80760   0.00046  -0.00009   0.05501   0.05493  -2.75267
   D11        1.40062   0.00055  -0.00009   0.05550   0.05544   1.45606
   D12       -0.68349   0.00031  -0.00009   0.05175   0.05165  -0.63184
         Item               Value     Threshold  Converged?
 Maximum Force            0.005833     0.000450     NO 
 RMS     Force            0.001719     0.000300     NO 
 Maximum Displacement     0.056191     0.001800     NO 
 RMS     Displacement     0.024370     0.001200     NO 
 Predicted change in Energy=-2.534548D-04
 GradGradGradGradGradGradGradGradGradGradGradGradGradGradGradGradGradGrad

                          Input orientation:                          
 ---------------------------------------------------------------------
 Center     Atomic      Atomic             Coordinates (Angstroms)
 Number     Number       Type             X           Y           Z
 ---------------------------------------------------------------------
      1          6           0        1.023795    0.013770   -0.106833
      2          6           0        2.490672    0.071913    0.157790
      3          6           0        3.141903   -0.905307    1.077611
      4          1           0        0.738331    0.585549   -1.008970
      5          1           0        0.426315    0.438354    0.735707
      6          1           0        0.675941   -1.029182   -0.235196
      7          1           0        3.019336    1.007402   -0.061707
      8          1           0        2.750188   -1.929227    0.924721
      9          1           0        2.958238   -0.660284    2.151556
     10          1           0        4.239585   -0.933695    0.948928
 ---------------------------------------------------------------------
                    Distance matrix (angstroms):
                    1          2          3          4          5
     1  C    0.000000
     2  C    1.491688   0.000000
     3  C    2.594994   1.491688   0.000000
     4  H    1.105564   2.166991   3.514774   0.000000
     5  H    1.116748   2.174818   3.049055   1.778459   0.000000
     6  H    1.106900   2.158726   2.796386   1.791640   1.777252
     7  H    2.229692   1.096724   2.229692   2.505644   2.771902
     8  H    2.796386   2.158726   1.106900   3.756439   3.322883
     9  H    3.049055   2.174818   1.116748   4.058203   3.101978
    10  H    3.514774   2.166991   1.105564   4.289552   4.058203
                    6          7          8          9         10
     6  H    0.000000
     7  H    3.109545   0.000000
     8  H    2.541258   3.109545   0.000000
     9  H    3.322883   2.771902   1.777252   0.000000
    10  H    3.756439   2.505644   1.791640   1.778459   0.000000
 Stoichiometry    C3H7(2)
 Framework group  CS[SG(CH),X(C2H6)]
 Deg. of freedom    13
 Full point group                 CS      NOp   2
 Largest Abelian subgroup         CS      NOp   2
 Largest concise Abelian subgroup CS      NOp   2
                         Standard orientation:                         
 ---------------------------------------------------------------------
 Center     Atomic      Atomic             Coordinates (Angstroms)
 Number     Number       Type             X           Y           Z
 ---------------------------------------------------------------------
      1          6           0       -0.015049   -0.197525    1.297497
      2          6           0       -0.015049    0.538434    0.000000
      3          6           0       -0.015049   -0.197525   -1.297497
      4          1           0       -0.311050    0.448055    2.144776
      5          1           0        0.993333   -0.604997    1.550989
      6          1           0       -0.699826   -1.066770    1.270629
      7          1           0        0.305965    1.587125    0.000000
      8          1           0       -0.699826   -1.066770   -1.270629
      9          1           0        0.993333   -0.604997   -1.550989
     10          1           0       -0.311050    0.448055   -2.144776
 ---------------------------------------------------------------------
 Rotational constants (GHZ):          37.0371704           8.2823873           7.4118904
 Standard basis: def2SVPP (5D, 7F)
 There are    34 symmetry adapted cartesian basis functions of A'  symmetry.
 There are    25 symmetry adapted cartesian basis functions of A"  symmetry.
 There are    32 symmetry adapted basis functions of A'  symmetry.
 There are    24 symmetry adapted basis functions of A"  symmetry.
    56 basis functions,   103 primitive gaussians,    59 cartesian basis functions
    13 alpha electrons       12 beta electrons
       nuclear repulsion energy        75.0343122985 Hartrees.
 NAtoms=   10 NActive=   10 NUniq=    6 SFac= 2.78D+00 NAtFMM=   60 NAOKFM=F Big=F
 Integral buffers will be    131072 words long.
 Raffenetti 2 integral format.
 Two-electron integral symmetry is turned on.
 Nuclear repulsion after empirical dispersion term =       75.0255463673 Hartrees.
 One-electron integrals computed using PRISM.
   2 Symmetry operations used in ECPInt.
 ECPInt:  NShTT=     528 NPrTT=    2140 LenC2=     529 LenP2D=    1901.
 LDataN:  DoStor=T MaxTD1= 4 Len=   56
 NBasis=    56 RedAO= T EigKep=  4.24D-03  NBF=    32    24
 NBsUse=    56 1.00D-06 EigRej= -1.00D+00 NBFU=    32    24
 Initial guess from the checkpoint file:  "/home/software/g16tmp/Gau-167139.chk"
 B after Tr=     0.000000   -0.000000    0.000000
         Rot=    0.999994   -0.000000    0.000000    0.003356 Ang=   0.38 deg.
 Initial guess orbital symmetries:
 Alpha Orbitals:
       Occupied  (A') (A") (A') (A') (A") (A') (A') (A') (A") (A")
                 (A") (A') (A')
       Virtual   (A') (A') (A") (A') (A') (A") (A") (A') (A") (A')
                 (A") (A') (A") (A') (A') (A') (A") (A') (A") (A')
                 (A') (A") (A") (A') (A") (A') (A') (A") (A") (A')
                 (A") (A') (A') (A") (A') (A") (A') (A") (A') (A")
                 (A') (A') (A")
 Beta  Orbitals:
       Occupied  (A") (A') (A') (A') (A") (A') (A') (A') (A") (A")
                 (A") (A')
       Virtual   (A') (A') (A') (A") (A') (A') (A") (A") (A') (A")
                 (A') (A") (A') (A") (A') (A') (A') (A") (A') (A")
                 (A') (A') (A") (A") (A") (A') (A') (A') (A") (A")
                 (A') (A") (A') (A') (A") (A') (A") (A') (A") (A')
                 (A") (A') (A') (A")
 Initial guess <Sx>= 0.0000 <Sy>= 0.0000 <Sz>= 0.5000 <S**2>= 0.7539 S= 0.5020
 ExpMin= 1.22D-01 ExpMax= 1.24D+03 ExpMxC= 1.86D+02 IAcc=3 IRadAn=         5 AccDes= 0.00D+00
 Harris functional with IExCor=  402 and IRadAn=       5 diagonalized for initial guess.
 HarFok:  IExCor=  402 AccDes= 0.00D+00 IRadAn=         5 IDoV= 1 UseB2=F ITyADJ=14
 ICtDFT=  3500011 ScaDFX=  1.000000  1.000000  1.000000  1.000000
 FoFCou: FMM=F IPFlag=           0 FMFlag=      100000 FMFlg1=           0
         NFxFlg=           0 DoJE=T BraDBF=F KetDBF=T FulRan=T
         wScrn=  0.000000 ICntrl=       500 IOpCl=  0 I1Cent=   200000004 NGrid=           0
         NMat0=    1 NMatS0=      1 NMatT0=    0 NMatD0=    1 NMtDS0=    0 NMtDT0=    0
 Petite list used in FoFCou.
 Keep R1 and R2 ints in memory in symmetry-blocked form, NReq=15381125.
 Requested convergence on RMS density matrix=1.00D-08 within 128 cycles.
 Requested convergence on MAX density matrix=1.00D-06.
 Requested convergence on             energy=1.00D-06.
 No special actions if energy rises.
 Integral accuracy reduced to 1.0D-05 until final iterations.
 Initial convergence to 1.0D-05 achieved.  Increase integral accuracy.
 SCF Done:  E(UB3LYP) =  -118.385009450     A.U. after   11 cycles
            NFock= 11  Conv=0.39D-08     -V/T= 2.0120
 <Sx>= 0.0000 <Sy>= 0.0000 <Sz>= 0.5000 <S**2>= 0.7540 S= 0.5020
 <L.S>=  0.00000000000    
 Annihilation of the first spin contaminant:
 S**2 before annihilation     0.7540,   after     0.7500
   2 Symmetry operations used in ECPInt.
 ECPInt:  NShTT=     528 NPrTT=    2140 LenC2=     529 LenP2D=    1901.
 LDataN:  DoStor=T MaxTD1= 5 Len=  102
 Calling FoFJK, ICntrl=      2127 FMM=F ISym2X=1 I1Cent= 0 IOpClX= 1 NMat=1 NMatS=1 NMatT=0.
 ***** Axes restored to original set *****
 -------------------------------------------------------------------
 Center     Atomic                   Forces (Hartrees/Bohr)
 Number     Number              X              Y              Z
 -------------------------------------------------------------------
      1        6          -0.000639942    0.000852798   -0.000281380
      2        6          -0.000973123   -0.000161982    0.001614517
      3        6           0.000915477    0.000177879    0.000588408
      4        1           0.000265064   -0.000122989    0.000097018
      5        1           0.000524955   -0.000362456   -0.000272585
      6        1          -0.000245446   -0.000251214   -0.000176952
      7        1           0.000497313    0.000218931   -0.000719450
      8        1           0.000068204   -0.000387312   -0.000001559
      9        1          -0.000180982   -0.000056140   -0.000667345
     10        1          -0.000231521    0.000092486   -0.000180672
 -------------------------------------------------------------------
 Cartesian Forces:  Max     0.001614517 RMS     0.000525550

 GradGradGradGradGradGradGradGradGradGradGradGradGradGradGradGradGradGrad
 Berny optimization.
 Using GEDIIS/GDIIS optimizer.
 FormGI is forming the generalized inverse of G from B-inverse, IUseBI=4.
 Internal  Forces:  Max     0.001178260 RMS     0.000359098
 Search for a local minimum.
 Step number   4 out of a maximum of   46
 All quantities printed in internal units (Hartrees-Bohrs-Radians)
 Mixed Optimization -- En-DIIS/RFO-DIIS
 Update second derivatives using D2CorX and points    3    4
 DE= -2.88D-04 DEPred=-2.53D-04 R= 1.14D+00
 TightC=F SS=  1.41D+00  RLast= 1.45D-01 DXNew= 1.4270D+00 4.3632D-01
 Trust test= 1.14D+00 RLast= 1.45D-01 DXMaxT set to 8.49D-01
 ITU=  1  1  1  0
 Use linear search instead of GDIIS.
     Eigenvalues ---    0.00389   0.00451   0.01101   0.06743   0.06799
     Eigenvalues ---    0.06881   0.06919   0.14708   0.15215   0.16000
     Eigenvalues ---    0.16000   0.16000   0.16219   0.17770   0.20460
     Eigenvalues ---    0.30003   0.31911   0.32435   0.32489   0.32503
     Eigenvalues ---    0.32553   0.32619   0.33285   0.37075
 RFO step:  Lambda=-5.87212329D-05 EMin= 3.89026577D-03
 Quartic linear search produced a step of  0.21960.
 Iteration  1 RMS(Cart)=  0.01349812 RMS(Int)=  0.00018640
 Iteration  2 RMS(Cart)=  0.00017098 RMS(Int)=  0.00007135
 Iteration  3 RMS(Cart)=  0.00000001 RMS(Int)=  0.00007135
 ClnCor:  largest displacement from symmetrization is 5.17D-10 for atom    10.
 Variable       Old X    -DE/DX   Delta X   Delta X   Delta X     New X
                                 (Linear)    (Quad)   (Total)
    R1        2.81888   0.00020   0.00206  -0.00190   0.00017   2.81905
    R2        2.08921  -0.00021   0.00078  -0.00103  -0.00025   2.08896
    R3        2.11035  -0.00062   0.00031  -0.00182  -0.00151   2.10884
    R4        2.09174   0.00033   0.00043   0.00129   0.00172   2.09346
    R5        2.81888   0.00020   0.00206  -0.00190   0.00017   2.81905
    R6        2.07251   0.00057  -0.00022   0.00171   0.00150   2.07401
    R7        2.09174   0.00033   0.00043   0.00129   0.00172   2.09346
    R8        2.11035  -0.00062   0.00031  -0.00182  -0.00151   2.10884
    R9        2.08921  -0.00021   0.00078  -0.00103  -0.00025   2.08896
    A1        1.95898  -0.00029   0.00096  -0.00389  -0.00294   1.95605
    A2        1.95785  -0.00032   0.00318  -0.00123   0.00195   1.95980
    A3        1.94586   0.00034  -0.00114   0.00237   0.00123   1.94709
    A4        1.85549   0.00032  -0.00159   0.00272   0.00113   1.85661
    A5        1.88760  -0.00005  -0.00045   0.00010  -0.00036   1.88724
    A6        1.85208   0.00001  -0.00117   0.00019  -0.00098   1.85110
    A7        2.10967   0.00118   0.00552   0.00418   0.00946   2.11912
    A8        2.06209  -0.00052  -0.00145   0.00187   0.00018   2.06227
    A9        2.06209  -0.00052  -0.00145   0.00187   0.00018   2.06227
   A10        1.94586   0.00034  -0.00114   0.00237   0.00123   1.94709
   A11        1.95785  -0.00032   0.00318  -0.00123   0.00195   1.95980
   A12        1.95898  -0.00029   0.00096  -0.00389  -0.00294   1.95605
   A13        1.85208   0.00001  -0.00117   0.00019  -0.00098   1.85110
   A14        1.88760  -0.00005  -0.00045   0.00010  -0.00036   1.88724
   A15        1.85549   0.00032  -0.00159   0.00272   0.00113   1.85661
    D1       -2.84814   0.00010  -0.00350  -0.00513  -0.00861  -2.85675
    D2        0.63184  -0.00023  -0.01134  -0.03176  -0.04311   0.58873
    D3        1.34715   0.00011  -0.00433  -0.00505  -0.00937   1.33778
    D4       -1.45606  -0.00023  -0.01217  -0.03167  -0.04386  -1.49992
    D5       -0.72731   0.00008  -0.00422  -0.00607  -0.01028  -0.73759
    D6        2.75267  -0.00026  -0.01206  -0.03270  -0.04477   2.70790
    D7        0.72731  -0.00008   0.00422   0.00607   0.01028   0.73759
    D8       -1.34715  -0.00011   0.00433   0.00505   0.00937  -1.33778
    D9        2.84814  -0.00010   0.00350   0.00513   0.00861   2.85675
   D10       -2.75267   0.00026   0.01206   0.03270   0.04477  -2.70790
   D11        1.45606   0.00023   0.01217   0.03167   0.04386   1.49992
   D12       -0.63184   0.00023   0.01134   0.03176   0.04311  -0.58873
         Item               Value     Threshold  Converged?
 Maximum Force            0.001178     0.000450     NO 
 RMS     Force            0.000359     0.000300     NO 
 Maximum Displacement     0.043312     0.001800     NO 
 RMS     Displacement     0.013474     0.001200     NO 
 Predicted change in Energy=-3.639827D-05
 GradGradGradGradGradGradGradGradGradGradGradGradGradGradGradGradGradGrad

                          Input orientation:                          
 ---------------------------------------------------------------------
 Center     Atomic      Atomic             Coordinates (Angstroms)
 Number     Number       Type             X           Y           Z
 ---------------------------------------------------------------------
      1          6           0        1.019706    0.016733   -0.104983
      2          6           0        2.486129    0.069202    0.163810
      3          6           0        3.143596   -0.904853    1.082695
      4          1           0        0.740916    0.597997   -1.002972
      5          1           0        0.419624    0.433631    0.738487
      6          1           0        0.668605   -1.024517   -0.245594
      7          1           0        3.025540    0.992163   -0.084626
      8          1           0        2.763072   -1.933335    0.925630
      9          1           0        2.955661   -0.666791    2.156636
     10          1           0        4.241454   -0.920937    0.954526
 ---------------------------------------------------------------------
                    Distance matrix (angstroms):
                    1          2          3          4          5
     1  C    0.000000
     2  C    1.491777   0.000000
     3  C    2.602078   1.491777   0.000000
     4  H    1.105431   2.164896   3.518727   0.000000
     5  H    1.115949   2.175662   3.054512   1.778461   0.000000
     6  H    1.107810   2.160376   2.811450   1.792038   1.776682
     7  H    2.230526   1.097516   2.230526   2.493639   2.789314
     8  H    2.811450   2.160376   1.107810   3.770446   3.336060
     9  H    3.054512   2.175662   1.115949   4.060531   3.107018
    10  H    3.518727   2.164896   1.105431   4.288674   4.060531
                    6          7          8          9         10
     6  H    0.000000
     7  H    3.106131   0.000000
     8  H    2.566029   3.106131   0.000000
     9  H    3.336060   2.789314   1.776682   0.000000
    10  H    3.770446   2.493639   1.792038   1.778461   0.000000
 Stoichiometry    C3H7(2)
 Framework group  CS[SG(CH),X(C2H6)]
 Deg. of freedom    13
 Full point group                 CS      NOp   2
 Largest Abelian subgroup         CS      NOp   2
 Largest concise Abelian subgroup CS      NOp   2
                         Standard orientation:                         
 ---------------------------------------------------------------------
 Center     Atomic      Atomic             Coordinates (Angstroms)
 Number     Number       Type             X           Y           Z
 ---------------------------------------------------------------------
      1          6           0       -0.013496   -0.196704    1.301039
      2          6           0       -0.013496    0.533156    0.000000
      3          6           0       -0.013496   -0.196704   -1.301039
      4          1           0       -0.301359    0.457483    2.144337
      5          1           0        0.991172   -0.611726    1.553509
      6          1           0       -0.706378   -1.060899    1.283015
      7          1           0        0.276051    1.591790    0.000000
      8          1           0       -0.706378   -1.060899   -1.283015
      9          1           0        0.991172   -0.611726   -1.553509
     10          1           0       -0.301359    0.457483   -2.144337
 ---------------------------------------------------------------------
 Rotational constants (GHZ):          37.2340857           8.2443473           7.3859443
 Standard basis: def2SVPP (5D, 7F)
 There are    34 symmetry adapted cartesian basis functions of A'  symmetry.
 There are    25 symmetry adapted cartesian basis functions of A"  symmetry.
 There are    32 symmetry adapted basis functions of A'  symmetry.
 There are    24 symmetry adapted basis functions of A"  symmetry.
    56 basis functions,   103 primitive gaussians,    59 cartesian basis functions
    13 alpha electrons       12 beta electrons
       nuclear repulsion energy        74.9866152934 Hartrees.
 NAtoms=   10 NActive=   10 NUniq=    6 SFac= 2.78D+00 NAtFMM=   60 NAOKFM=F Big=F
 Integral buffers will be    131072 words long.
 Raffenetti 2 integral format.
 Two-electron integral symmetry is turned on.
 Nuclear repulsion after empirical dispersion term =       74.9778625469 Hartrees.
 One-electron integrals computed using PRISM.
   2 Symmetry operations used in ECPInt.
 ECPInt:  NShTT=     528 NPrTT=    2140 LenC2=     529 LenP2D=    1899.
 LDataN:  DoStor=T MaxTD1= 4 Len=   56
 NBasis=    56 RedAO= T EigKep=  4.24D-03  NBF=    32    24
 NBsUse=    56 1.00D-06 EigRej= -1.00D+00 NBFU=    32    24
 Initial guess from the checkpoint file:  "/home/software/g16tmp/Gau-167139.chk"
 B after Tr=    -0.000000    0.000000    0.000000
         Rot=    1.000000   -0.000000   -0.000000    0.000213 Ang=   0.02 deg.
 Initial guess orbital symmetries:
 Alpha Orbitals:
       Occupied  (A') (A") (A') (A') (A") (A') (A') (A') (A") (A")
                 (A") (A') (A')
       Virtual   (A') (A') (A") (A') (A') (A") (A") (A') (A") (A')
                 (A") (A') (A") (A') (A') (A') (A") (A') (A") (A')
                 (A') (A") (A") (A') (A") (A') (A') (A") (A") (A')
                 (A") (A') (A') (A") (A') (A") (A') (A") (A') (A")
                 (A') (A") (A')
 Beta  Orbitals:
       Occupied  (A") (A') (A') (A') (A") (A') (A') (A') (A") (A")
                 (A") (A')
       Virtual   (A') (A') (A') (A") (A') (A") (A') (A") (A') (A")
                 (A') (A") (A') (A") (A') (A') (A') (A") (A') (A")
                 (A') (A') (A") (A") (A") (A') (A') (A') (A") (A")
                 (A') (A") (A') (A') (A") (A') (A") (A') (A") (A')
                 (A") (A') (A") (A')
 Initial guess <Sx>= 0.0000 <Sy>= 0.0000 <Sz>= 0.5000 <S**2>= 0.7540 S= 0.5020
 ExpMin= 1.22D-01 ExpMax= 1.24D+03 ExpMxC= 1.86D+02 IAcc=3 IRadAn=         5 AccDes= 0.00D+00
 Harris functional with IExCor=  402 and IRadAn=       5 diagonalized for initial guess.
 HarFok:  IExCor=  402 AccDes= 0.00D+00 IRadAn=         5 IDoV= 1 UseB2=F ITyADJ=14
 ICtDFT=  3500011 ScaDFX=  1.000000  1.000000  1.000000  1.000000
 FoFCou: FMM=F IPFlag=           0 FMFlag=      100000 FMFlg1=           0
         NFxFlg=           0 DoJE=T BraDBF=F KetDBF=T FulRan=T
         wScrn=  0.000000 ICntrl=       500 IOpCl=  0 I1Cent=   200000004 NGrid=           0
         NMat0=    1 NMatS0=      1 NMatT0=    0 NMatD0=    1 NMtDS0=    0 NMtDT0=    0
 Petite list used in FoFCou.
 Keep R1 and R2 ints in memory in symmetry-blocked form, NReq=15381125.
 Requested convergence on RMS density matrix=1.00D-08 within 128 cycles.
 Requested convergence on MAX density matrix=1.00D-06.
 Requested convergence on             energy=1.00D-06.
 No special actions if energy rises.
 Integral accuracy reduced to 1.0D-05 until final iterations.
 Initial convergence to 1.0D-05 achieved.  Increase integral accuracy.
 SCF Done:  E(UB3LYP) =  -118.385060201     A.U. after   11 cycles
            NFock= 11  Conv=0.27D-08     -V/T= 2.0121
 <Sx>= 0.0000 <Sy>= 0.0000 <Sz>= 0.5000 <S**2>= 0.7540 S= 0.5020
 <L.S>=  0.00000000000    
 Annihilation of the first spin contaminant:
 S**2 before annihilation     0.7540,   after     0.7500
   2 Symmetry operations used in ECPInt.
 ECPInt:  NShTT=     528 NPrTT=    2140 LenC2=     529 LenP2D=    1899.
 LDataN:  DoStor=T MaxTD1= 5 Len=  102
 Calling FoFJK, ICntrl=      2127 FMM=F ISym2X=1 I1Cent= 0 IOpClX= 1 NMat=1 NMatS=1 NMatT=0.
 ***** Axes restored to original set *****
 -------------------------------------------------------------------
 Center     Atomic                   Forces (Hartrees/Bohr)
 Number     Number              X              Y              Z
 -------------------------------------------------------------------
      1        6          -0.000308963    0.000088489   -0.000316707
      2        6          -0.000177182    0.000585077    0.000770843
      3        6           0.000389860   -0.000214741    0.000074075
      4        1           0.000158985   -0.000191778    0.000126920
      5        1           0.000347985   -0.000189437    0.000058729
      6        1          -0.000067180    0.000073469   -0.000060366
      7        1           0.000073987   -0.000215321   -0.000299388
      8        1           0.000109791   -0.000003322    0.000038597
      9        1          -0.000268978    0.000078272   -0.000286276
     10        1          -0.000258306   -0.000010709   -0.000106428
 -------------------------------------------------------------------
 Cartesian Forces:  Max     0.000770843 RMS     0.000259542

 GradGradGradGradGradGradGradGradGradGradGradGradGradGradGradGradGradGrad
 Berny optimization.
 Using GEDIIS/GDIIS optimizer.
 FormGI is forming the generalized inverse of G from B-inverse, IUseBI=4.
 Internal  Forces:  Max     0.000415400 RMS     0.000162506
 Search for a local minimum.
 Step number   5 out of a maximum of   46
 All quantities printed in internal units (Hartrees-Bohrs-Radians)
 Mixed Optimization -- En-DIIS/RFO-DIIS
 Swapping is turned off.
 Update second derivatives using D2CorX and points    3    4    5
 DE= -5.08D-05 DEPred=-3.64D-05 R= 1.39D+00
 TightC=F SS=  1.41D+00  RLast= 1.11D-01 DXNew= 1.4270D+00 3.3195D-01
 Trust test= 1.39D+00 RLast= 1.11D-01 DXMaxT set to 8.49D-01
 ITU=  1  1  1  1  0
     Eigenvalues ---    0.00238   0.00451   0.01034   0.06770   0.06813
     Eigenvalues ---    0.06899   0.06903   0.14756   0.15369   0.16000
     Eigenvalues ---    0.16000   0.16000   0.16186   0.17594   0.22525
     Eigenvalues ---    0.30003   0.32213   0.32472   0.32503   0.32553
     Eigenvalues ---    0.32619   0.32903   0.33110   0.39461
 En-DIIS/RFO-DIIS/Sim-DIIS IScMMF=       -3 using points:     5    4
 RFO step:  Lambda=-2.59592611D-05.
 DidBck=F Rises=F RFO-DIIS coefs:    1.83749   -0.83749
 Iteration  1 RMS(Cart)=  0.01134632 RMS(Int)=  0.00013287
 Iteration  2 RMS(Cart)=  0.00010005 RMS(Int)=  0.00007431
 Iteration  3 RMS(Cart)=  0.00000000 RMS(Int)=  0.00007431
 ClnCor:  largest displacement from symmetrization is 2.15D-12 for atom     8.
 Variable       Old X    -DE/DX   Delta X   Delta X   Delta X     New X
                                 (Linear)    (Quad)   (Total)
    R1        2.81905  -0.00009   0.00014  -0.00035  -0.00021   2.81884
    R2        2.08896  -0.00024  -0.00021  -0.00056  -0.00077   2.08819
    R3        2.10884  -0.00021  -0.00126   0.00042  -0.00085   2.10799
    R4        2.09346  -0.00004   0.00144  -0.00102   0.00042   2.09388
    R5        2.81905  -0.00009   0.00014  -0.00035  -0.00021   2.81884
    R6        2.07401  -0.00008   0.00125  -0.00164  -0.00038   2.07362
    R7        2.09346  -0.00004   0.00144  -0.00102   0.00042   2.09388
    R8        2.10884  -0.00021  -0.00126   0.00042  -0.00085   2.10799
    R9        2.08896  -0.00024  -0.00021  -0.00056  -0.00077   2.08819
    A1        1.95605  -0.00005  -0.00246   0.00160  -0.00086   1.95518
    A2        1.95980  -0.00042   0.00163  -0.00281  -0.00118   1.95862
    A3        1.94709   0.00020   0.00103   0.00000   0.00103   1.94812
    A4        1.85661   0.00029   0.00094   0.00153   0.00247   1.85909
    A5        1.88724  -0.00006  -0.00030  -0.00013  -0.00043   1.88681
    A6        1.85110   0.00005  -0.00082  -0.00014  -0.00097   1.85013
    A7        2.11912  -0.00008   0.00792  -0.00437   0.00329   2.12241
    A8        2.06227   0.00006   0.00015   0.00164   0.00153   2.06380
    A9        2.06227   0.00006   0.00015   0.00164   0.00153   2.06380
   A10        1.94709   0.00020   0.00103   0.00000   0.00103   1.94812
   A11        1.95980  -0.00042   0.00163  -0.00281  -0.00118   1.95862
   A12        1.95605  -0.00005  -0.00246   0.00160  -0.00086   1.95518
   A13        1.85110   0.00005  -0.00082  -0.00014  -0.00097   1.85013
   A14        1.88724  -0.00006  -0.00030  -0.00013  -0.00043   1.88681
   A15        1.85661   0.00029   0.00094   0.00153   0.00247   1.85909
    D1       -2.85675   0.00003  -0.00721  -0.00325  -0.01046  -2.86721
    D2        0.58873  -0.00010  -0.03610   0.00049  -0.03562   0.55311
    D3        1.33778  -0.00002  -0.00785  -0.00438  -0.01221   1.32557
    D4       -1.49992  -0.00015  -0.03673  -0.00063  -0.03737  -1.53729
    D5       -0.73759   0.00006  -0.00861  -0.00229  -0.01089  -0.74847
    D6        2.70790  -0.00008  -0.03750   0.00146  -0.03605   2.67185
    D7        0.73759  -0.00006   0.00861   0.00229   0.01089   0.74847
    D8       -1.33778   0.00002   0.00785   0.00438   0.01221  -1.32557
    D9        2.85675  -0.00003   0.00721   0.00325   0.01046   2.86721
   D10       -2.70790   0.00008   0.03750  -0.00146   0.03605  -2.67185
   D11        1.49992   0.00015   0.03673   0.00063   0.03737   1.53729
   D12       -0.58873   0.00010   0.03610  -0.00049   0.03562  -0.55311
         Item               Value     Threshold  Converged?
 Maximum Force            0.000415     0.000450     YES
 RMS     Force            0.000163     0.000300     YES
 Maximum Displacement     0.039189     0.001800     NO 
 RMS     Displacement     0.011346     0.001200     NO 
 Predicted change in Energy=-1.307113D-05
 GradGradGradGradGradGradGradGradGradGradGradGradGradGradGradGradGradGrad

                          Input orientation:                          
 ---------------------------------------------------------------------
 Center     Atomic      Atomic             Coordinates (Angstroms)
 Number     Number       Type             X           Y           Z
 ---------------------------------------------------------------------
      1          6           0        1.018118    0.018535   -0.103158
      2          6           0        2.484476    0.068104    0.165912
      3          6           0        3.143807   -0.903831    1.085526
      4          1           0        0.740463    0.607796   -0.995769
      5          1           0        0.419541    0.426647    0.745073
      6          1           0        0.665567   -1.021101   -0.253508
      7          1           0        3.031731    0.979705   -0.105364
      8          1           0        2.771954   -1.935093    0.924381
      9          1           0        2.946743   -0.669942    2.158281
     10          1           0        4.241903   -0.911528    0.962233
 ---------------------------------------------------------------------
                    Distance matrix (angstroms):
                    1          2          3          4          5
     1  C    0.000000
     2  C    1.491665   0.000000
     3  C    2.604282   1.491665   0.000000
     4  H    1.105022   2.163874   3.520350   0.000000
     5  H    1.115501   2.174382   3.050853   1.779420   0.000000
     6  H    1.108035   2.161183   2.819298   1.791610   1.775857
     7  H    2.231253   1.097313   2.231253   2.486170   2.802258
     8  H    2.819298   2.161183   1.108035   3.778917   3.338234
     9  H    3.050853   2.174382   1.115501   4.055652   3.096193
    10  H    3.520350   2.163874   1.105022   4.289778   4.055652
                    6          7          8          9         10
     6  H    0.000000
     7  H    3.102242   0.000000
     8  H    2.580634   3.102242   0.000000
     9  H    3.338234   2.802258   1.775857   0.000000
    10  H    3.778917   2.486170   1.791610   1.779420   0.000000
 Stoichiometry    C3H7(2)
 Framework group  CS[SG(CH),X(C2H6)]
 Deg. of freedom    13
 Full point group                 CS      NOp   2
 Largest Abelian subgroup         CS      NOp   2
 Largest concise Abelian subgroup CS      NOp   2
                         Standard orientation:                         
 ---------------------------------------------------------------------
 Center     Atomic      Atomic             Coordinates (Angstroms)
 Number     Number       Type             X           Y           Z
 ---------------------------------------------------------------------
      1          6           0       -0.012495   -0.196408    1.302141
      2          6           0       -0.012495    0.531255   -0.000000
      3          6           0       -0.012495   -0.196408   -1.302141
      4          1           0       -0.290055    0.462235    2.144889
      5          1           0        0.989268   -0.621049    1.548096
      6          1           0       -0.713493   -1.054430    1.290317
      7          1           0        0.253463    1.595850   -0.000000
      8          1           0       -0.713493   -1.054430   -1.290317
      9          1           0        0.989268   -0.621049   -1.548096
     10          1           0       -0.290055    0.462235   -2.144889
 ---------------------------------------------------------------------
 Rotational constants (GHZ):          37.2968891           8.2351520           7.3790362
 Standard basis: def2SVPP (5D, 7F)
 There are    34 symmetry adapted cartesian basis functions of A'  symmetry.
 There are    25 symmetry adapted cartesian basis functions of A"  symmetry.
 There are    32 symmetry adapted basis functions of A'  symmetry.
 There are    24 symmetry adapted basis functions of A"  symmetry.
    56 basis functions,   103 primitive gaussians,    59 cartesian basis functions
    13 alpha electrons       12 beta electrons
       nuclear repulsion energy        74.9814869874 Hartrees.
 NAtoms=   10 NActive=   10 NUniq=    6 SFac= 2.78D+00 NAtFMM=   60 NAOKFM=F Big=F
 Integral buffers will be    131072 words long.
 Raffenetti 2 integral format.
 Two-electron integral symmetry is turned on.
 Nuclear repulsion after empirical dispersion term =       74.9727372066 Hartrees.
 One-electron integrals computed using PRISM.
   2 Symmetry operations used in ECPInt.
 ECPInt:  NShTT=     528 NPrTT=    2140 LenC2=     529 LenP2D=    1901.
 LDataN:  DoStor=T MaxTD1= 4 Len=   56
 NBasis=    56 RedAO= T EigKep=  4.25D-03  NBF=    32    24
 NBsUse=    56 1.00D-06 EigRej= -1.00D+00 NBFU=    32    24
 Initial guess from the checkpoint file:  "/home/software/g16tmp/Gau-167139.chk"
 B after Tr=     0.000000   -0.000000   -0.000000
         Rot=    1.000000   -0.000000    0.000000    0.000966 Ang=   0.11 deg.
 Initial guess orbital symmetries:
 Alpha Orbitals:
       Occupied  (A') (A") (A') (A') (A") (A') (A') (A') (A") (A")
                 (A") (A') (A')
       Virtual   (A') (A') (A") (A') (A') (A") (A") (A') (A") (A')
                 (A") (A') (A") (A') (A') (A') (A") (A') (A") (A')
                 (A') (A") (A") (A') (A") (A') (A') (A") (A") (A')
                 (A") (A') (A') (A") (A') (A") (A') (A") (A') (A")
                 (A') (A") (A')
 Beta  Orbitals:
       Occupied  (A") (A') (A') (A') (A") (A') (A') (A') (A") (A")
                 (A") (A')
       Virtual   (A') (A') (A') (A") (A') (A") (A') (A") (A') (A")
                 (A') (A") (A') (A") (A') (A') (A') (A") (A') (A")
                 (A') (A') (A") (A") (A") (A') (A') (A') (A") (A")
                 (A') (A") (A') (A') (A") (A') (A") (A') (A") (A')
                 (A") (A') (A") (A')
 Initial guess <Sx>= 0.0000 <Sy>= 0.0000 <Sz>= 0.5000 <S**2>= 0.7540 S= 0.5020
 ExpMin= 1.22D-01 ExpMax= 1.24D+03 ExpMxC= 1.86D+02 IAcc=3 IRadAn=         5 AccDes= 0.00D+00
 Harris functional with IExCor=  402 and IRadAn=       5 diagonalized for initial guess.
 HarFok:  IExCor=  402 AccDes= 0.00D+00 IRadAn=         5 IDoV= 1 UseB2=F ITyADJ=14
 ICtDFT=  3500011 ScaDFX=  1.000000  1.000000  1.000000  1.000000
 FoFCou: FMM=F IPFlag=           0 FMFlag=      100000 FMFlg1=           0
         NFxFlg=           0 DoJE=T BraDBF=F KetDBF=T FulRan=T
         wScrn=  0.000000 ICntrl=       500 IOpCl=  0 I1Cent=   200000004 NGrid=           0
         NMat0=    1 NMatS0=      1 NMatT0=    0 NMatD0=    1 NMtDS0=    0 NMtDT0=    0
 Petite list used in FoFCou.
 Keep R1 and R2 ints in memory in symmetry-blocked form, NReq=15381125.
 Requested convergence on RMS density matrix=1.00D-08 within 128 cycles.
 Requested convergence on MAX density matrix=1.00D-06.
 Requested convergence on             energy=1.00D-06.
 No special actions if energy rises.
 Integral accuracy reduced to 1.0D-05 until final iterations.
 Initial convergence to 1.0D-05 achieved.  Increase integral accuracy.
 SCF Done:  E(UB3LYP) =  -118.385077472     A.U. after   10 cycles
            NFock= 10  Conv=0.71D-08     -V/T= 2.0121
 <Sx>= 0.0000 <Sy>= 0.0000 <Sz>= 0.5000 <S**2>= 0.7540 S= 0.5020
 <L.S>=  0.00000000000    
 Annihilation of the first spin contaminant:
 S**2 before annihilation     0.7540,   after     0.7500
   2 Symmetry operations used in ECPInt.
 ECPInt:  NShTT=     528 NPrTT=    2140 LenC2=     529 LenP2D=    1901.
 LDataN:  DoStor=T MaxTD1= 5 Len=  102
 Calling FoFJK, ICntrl=      2127 FMM=F ISym2X=1 I1Cent= 0 IOpClX= 1 NMat=1 NMatS=1 NMatT=0.
 ***** Axes restored to original set *****
 -------------------------------------------------------------------
 Center     Atomic                   Forces (Hartrees/Bohr)
 Number     Number              X              Y              Z
 -------------------------------------------------------------------
      1        6          -0.000053703   -0.000141909   -0.000067622
      2        6           0.000168817    0.000469448    0.000062380
      3        6          -0.000013808   -0.000159220   -0.000045312
      4        1           0.000030467   -0.000076710    0.000070882
      5        1           0.000088589   -0.000052220    0.000114278
      6        1          -0.000002330    0.000033307   -0.000016568
      7        1           0.000001682   -0.000123059   -0.000098495
      8        1           0.000032376    0.000018247    0.000002840
      9        1          -0.000144794    0.000049048   -0.000016229
     10        1          -0.000107295   -0.000016933   -0.000006154
 -------------------------------------------------------------------
 Cartesian Forces:  Max     0.000469448 RMS     0.000116409

 GradGradGradGradGradGradGradGradGradGradGradGradGradGradGradGradGradGrad
 Berny optimization.
 Using GEDIIS/GDIIS optimizer.
 FormGI is forming the generalized inverse of G from B-inverse, IUseBI=4.
 Internal  Forces:  Max     0.000544823 RMS     0.000128920
 Search for a local minimum.
 Step number   6 out of a maximum of   46
 All quantities printed in internal units (Hartrees-Bohrs-Radians)
 Mixed Optimization -- En-DIIS/RFO-DIIS
 Swapping is turned off.
 Update second derivatives using D2CorX and points    3    4    5    6
 DE= -1.73D-05 DEPred=-1.31D-05 R= 1.32D+00
 TightC=F SS=  1.41D+00  RLast= 9.34D-02 DXNew= 1.4270D+00 2.8021D-01
 Trust test= 1.32D+00 RLast= 9.34D-02 DXMaxT set to 8.49D-01
 ITU=  1  1  1  1  1  0
     Eigenvalues ---    0.00147   0.00451   0.01097   0.06773   0.06816
     Eigenvalues ---    0.06882   0.06908   0.14627   0.15468   0.16000
     Eigenvalues ---    0.16000   0.16000   0.16251   0.16877   0.24734
     Eigenvalues ---    0.30003   0.32217   0.32451   0.32503   0.32553
     Eigenvalues ---    0.32619   0.32705   0.33934   0.37164
 En-DIIS/RFO-DIIS/Sim-DIIS IScMMF=       -3 using points:     6    5    4
 RFO step:  Lambda=-9.14349694D-06.
 DidBck=F Rises=F RFO-DIIS coefs:    1.55442   -0.45640   -0.09802
 Iteration  1 RMS(Cart)=  0.00859382 RMS(Int)=  0.00005834
 Iteration  2 RMS(Cart)=  0.00004365 RMS(Int)=  0.00003499
 Iteration  3 RMS(Cart)=  0.00000000 RMS(Int)=  0.00003499
 ClnCor:  largest displacement from symmetrization is 1.02D-12 for atom     8.
 Variable       Old X    -DE/DX   Delta X   Delta X   Delta X     New X
                                 (Linear)    (Quad)   (Total)
    R1        2.81884  -0.00007  -0.00010   0.00005  -0.00005   2.81879
    R2        2.08819  -0.00011  -0.00045  -0.00007  -0.00052   2.08767
    R3        2.10799   0.00002  -0.00062   0.00036  -0.00026   2.10773
    R4        2.09388  -0.00003   0.00040  -0.00018   0.00023   2.09411
    R5        2.81884  -0.00007  -0.00010   0.00005  -0.00005   2.81879
    R6        2.07362  -0.00008  -0.00007  -0.00017  -0.00023   2.07339
    R7        2.09388  -0.00003   0.00040  -0.00018   0.00023   2.09411
    R8        2.10799   0.00002  -0.00062   0.00036  -0.00026   2.10773
    R9        2.08819  -0.00011  -0.00045  -0.00007  -0.00052   2.08767
    A1        1.95518   0.00004  -0.00077   0.00087   0.00011   1.95529
    A2        1.95862  -0.00019  -0.00046  -0.00083  -0.00129   1.95732
    A3        1.94812   0.00004   0.00069  -0.00029   0.00040   1.94852
    A4        1.85909   0.00010   0.00148   0.00012   0.00160   1.86068
    A5        1.88681  -0.00002  -0.00027   0.00008  -0.00019   1.88662
    A6        1.85013   0.00003  -0.00063   0.00005  -0.00058   1.84955
    A7        2.12241  -0.00054   0.00275  -0.00345  -0.00082   2.12159
    A8        2.06380   0.00027   0.00087   0.00113   0.00188   2.06568
    A9        2.06380   0.00027   0.00087   0.00113   0.00188   2.06568
   A10        1.94812   0.00004   0.00069  -0.00029   0.00040   1.94852
   A11        1.95862  -0.00019  -0.00046  -0.00083  -0.00129   1.95732
   A12        1.95518   0.00004  -0.00077   0.00087   0.00011   1.95529
   A13        1.85013   0.00003  -0.00063   0.00005  -0.00058   1.84955
   A14        1.88681  -0.00002  -0.00027   0.00008  -0.00019   1.88662
   A15        1.85909   0.00010   0.00148   0.00012   0.00160   1.86068
    D1       -2.86721  -0.00002  -0.00664  -0.00373  -0.01036  -2.87757
    D2        0.55311  -0.00003  -0.02397   0.00096  -0.02301   0.53010
    D3        1.32557  -0.00006  -0.00769  -0.00391  -0.01159   1.31398
    D4       -1.53729  -0.00006  -0.02502   0.00078  -0.02424  -1.56153
    D5       -0.74847   0.00001  -0.00704  -0.00321  -0.01025  -0.75872
    D6        2.67185  -0.00000  -0.02437   0.00148  -0.02290   2.64895
    D7        0.74847  -0.00001   0.00704   0.00321   0.01025   0.75872
    D8       -1.32557   0.00006   0.00769   0.00391   0.01159  -1.31398
    D9        2.86721   0.00002   0.00664   0.00373   0.01036   2.87757
   D10       -2.67185   0.00000   0.02437  -0.00148   0.02290  -2.64895
   D11        1.53729   0.00006   0.02502  -0.00078   0.02424   1.56153
   D12       -0.55311   0.00003   0.02397  -0.00096   0.02301  -0.53010
         Item               Value     Threshold  Converged?
 Maximum Force            0.000545     0.000450     NO 
 RMS     Force            0.000129     0.000300     YES
 Maximum Displacement     0.028725     0.001800     NO 
 RMS     Displacement     0.008596     0.001200     NO 
 Predicted change in Energy=-4.557159D-06
 GradGradGradGradGradGradGradGradGradGradGradGradGradGradGradGradGradGrad

                          Input orientation:                          
 ---------------------------------------------------------------------
 Center     Atomic      Atomic             Coordinates (Angstroms)
 Number     Number       Type             X           Y           Z
 ---------------------------------------------------------------------
      1          6           0        1.018012    0.019343   -0.101639
      2          6           0        2.484853    0.067639    0.164878
      3          6           0        3.143178   -0.902797    1.086752
      4          1           0        0.738320    0.614503   -0.989345
      5          1           0        0.422185    0.420354    0.751717
      6          1           0        0.665107   -1.019342   -0.258482
      7          1           0        3.036838    0.971885   -0.120565
      8          1           0        2.776830   -1.935648    0.922392
      9          1           0        2.937275   -0.670979    2.158153
     10          1           0        4.241706   -0.905666    0.969746
 ---------------------------------------------------------------------
                    Distance matrix (angstroms):
                    1          2          3          4          5
     1  C    0.000000
     2  C    1.491639   0.000000
     3  C    2.603641   1.491639   0.000000
     4  H    1.104746   2.163716   3.520755   0.000000
     5  H    1.115364   2.173336   3.044138   1.780149   0.000000
     6  H    1.108155   2.161536   2.822069   1.791360   1.775454
     7  H    2.232343   1.097190   2.232343   2.483079   2.810955
     8  H    2.822069   2.161536   1.108155   3.783323   3.335301
     9  H    3.044138   2.173336   1.115364   4.049026   3.081355
    10  H    3.520755   2.163716   1.104746   4.292163   4.049026
                    6          7          8          9         10
     6  H    0.000000
     7  H    3.099857   0.000000
     8  H    2.587171   3.099857   0.000000
     9  H    3.335301   2.810955   1.775454   0.000000
    10  H    3.783323   2.483079   1.791360   1.780149   0.000000
 Stoichiometry    C3H7(2)
 Framework group  CS[SG(CH),X(C2H6)]
 Deg. of freedom    13
 Full point group                 CS      NOp   2
 Largest Abelian subgroup         CS      NOp   2
 Largest concise Abelian subgroup CS      NOp   2
                         Standard orientation:                         
 ---------------------------------------------------------------------
 Center     Atomic      Atomic             Coordinates (Angstroms)
 Number     Number       Type             X           Y           Z
 ---------------------------------------------------------------------
      1          6           0       -0.012019   -0.196534    1.301820
      2          6           0       -0.012019    0.531650    0.000000
      3          6           0       -0.012019   -0.196534   -1.301820
      4          1           0       -0.279266    0.463970    2.146082
      5          1           0        0.987175   -0.630809    1.540678
      6          1           0       -0.720680   -1.048437    1.293585
      7          1           0        0.241877    1.599059    0.000000
      8          1           0       -0.720680   -1.048437   -1.293585
      9          1           0        0.987175   -0.630809   -1.540678
     10          1           0       -0.279266    0.463970   -2.146082
 ---------------------------------------------------------------------
 Rotational constants (GHZ):          37.2613135           8.2409088           7.3814057
 Standard basis: def2SVPP (5D, 7F)
 There are    34 symmetry adapted cartesian basis functions of A'  symmetry.
 There are    25 symmetry adapted cartesian basis functions of A"  symmetry.
 There are    32 symmetry adapted basis functions of A'  symmetry.
 There are    24 symmetry adapted basis functions of A"  symmetry.
    56 basis functions,   103 primitive gaussians,    59 cartesian basis functions
    13 alpha electrons       12 beta electrons
       nuclear repulsion energy        74.9877057762 Hartrees.
 NAtoms=   10 NActive=   10 NUniq=    6 SFac= 2.78D+00 NAtFMM=   60 NAOKFM=F Big=F
 Integral buffers will be    131072 words long.
 Raffenetti 2 integral format.
 Two-electron integral symmetry is turned on.
 Nuclear repulsion after empirical dispersion term =       74.9789543336 Hartrees.
 One-electron integrals computed using PRISM.
   2 Symmetry operations used in ECPInt.
 ECPInt:  NShTT=     528 NPrTT=    2140 LenC2=     529 LenP2D=    1899.
 LDataN:  DoStor=T MaxTD1= 4 Len=   56
 NBasis=    56 RedAO= T EigKep=  4.26D-03  NBF=    32    24
 NBsUse=    56 1.00D-06 EigRej= -1.00D+00 NBFU=    32    24
 Initial guess from the checkpoint file:  "/home/software/g16tmp/Gau-167139.chk"
 B after Tr=    -0.000000    0.000000   -0.000000
         Rot=    0.999999    0.000000   -0.000000    0.001662 Ang=   0.19 deg.
 Initial guess orbital symmetries:
 Alpha Orbitals:
       Occupied  (A') (A") (A') (A') (A") (A') (A') (A') (A") (A")
                 (A") (A') (A')
       Virtual   (A') (A') (A") (A') (A") (A') (A") (A') (A") (A')
                 (A") (A') (A") (A') (A') (A') (A") (A') (A") (A')
                 (A') (A") (A") (A') (A") (A') (A') (A") (A") (A')
                 (A") (A') (A') (A") (A') (A") (A') (A") (A') (A")
                 (A') (A") (A')
 Beta  Orbitals:
       Occupied  (A") (A') (A') (A') (A") (A') (A') (A') (A") (A")
                 (A") (A')
       Virtual   (A') (A') (A') (A") (A') (A") (A') (A") (A') (A")
                 (A') (A") (A') (A") (A') (A') (A') (A") (A') (A")
                 (A') (A') (A") (A") (A") (A') (A') (A') (A") (A")
                 (A') (A") (A') (A') (A") (A') (A") (A') (A") (A')
                 (A") (A') (A") (A')
 Initial guess <Sx>= 0.0000 <Sy>= 0.0000 <Sz>= 0.5000 <S**2>= 0.7540 S= 0.5020
 ExpMin= 1.22D-01 ExpMax= 1.24D+03 ExpMxC= 1.86D+02 IAcc=3 IRadAn=         5 AccDes= 0.00D+00
 Harris functional with IExCor=  402 and IRadAn=       5 diagonalized for initial guess.
 HarFok:  IExCor=  402 AccDes= 0.00D+00 IRadAn=         5 IDoV= 1 UseB2=F ITyADJ=14
 ICtDFT=  3500011 ScaDFX=  1.000000  1.000000  1.000000  1.000000
 FoFCou: FMM=F IPFlag=           0 FMFlag=      100000 FMFlg1=           0
         NFxFlg=           0 DoJE=T BraDBF=F KetDBF=T FulRan=T
         wScrn=  0.000000 ICntrl=       500 IOpCl=  0 I1Cent=   200000004 NGrid=           0
         NMat0=    1 NMatS0=      1 NMatT0=    0 NMatD0=    1 NMtDS0=    0 NMtDT0=    0
 Petite list used in FoFCou.
 Keep R1 and R2 ints in memory in symmetry-blocked form, NReq=15381125.
 Requested convergence on RMS density matrix=1.00D-08 within 128 cycles.
 Requested convergence on MAX density matrix=1.00D-06.
 Requested convergence on             energy=1.00D-06.
 No special actions if energy rises.
 Integral accuracy reduced to 1.0D-05 until final iterations.
 Initial convergence to 1.0D-05 achieved.  Increase integral accuracy.
 SCF Done:  E(UB3LYP) =  -118.385083593     A.U. after   10 cycles
            NFock= 10  Conv=0.33D-08     -V/T= 2.0120
 <Sx>= 0.0000 <Sy>= 0.0000 <Sz>= 0.5000 <S**2>= 0.7540 S= 0.5020
 <L.S>=  0.00000000000    
 Annihilation of the first spin contaminant:
 S**2 before annihilation     0.7540,   after     0.7500
   2 Symmetry operations used in ECPInt.
 ECPInt:  NShTT=     528 NPrTT=    2140 LenC2=     529 LenP2D=    1899.
 LDataN:  DoStor=T MaxTD1= 5 Len=  102
 Calling FoFJK, ICntrl=      2127 FMM=F ISym2X=1 I1Cent= 0 IOpClX= 1 NMat=1 NMatS=1 NMatT=0.
 ***** Axes restored to original set *****
 -------------------------------------------------------------------
 Center     Atomic                   Forces (Hartrees/Bohr)
 Number     Number              X              Y              Z
 -------------------------------------------------------------------
      1        6           0.000071305   -0.000113458    0.000077681
      2        6           0.000237875    0.000234136   -0.000243707
      3        6          -0.000147185   -0.000018652   -0.000044498
      4        1          -0.000037723   -0.000000179    0.000023757
      5        1          -0.000043095   -0.000006191    0.000079918
      6        1           0.000024917    0.000000947   -0.000000497
      7        1          -0.000044664   -0.000093577    0.000007259
      8        1          -0.000007366    0.000014955   -0.000018550
      9        1          -0.000048799   -0.000003716    0.000076728
     10        1          -0.000005264   -0.000014264    0.000041909
 -------------------------------------------------------------------
 Cartesian Forces:  Max     0.000243707 RMS     0.000091537

 GradGradGradGradGradGradGradGradGradGradGradGradGradGradGradGradGradGrad
 Berny optimization.
 Using GEDIIS/GDIIS optimizer.
 FormGI is forming the generalized inverse of G from B-inverse, IUseBI=4.
 Internal  Forces:  Max     0.000486053 RMS     0.000105922
 Search for a local minimum.
 Step number   7 out of a maximum of   46
 All quantities printed in internal units (Hartrees-Bohrs-Radians)
 Mixed Optimization -- En-DIIS/RFO-DIIS
 Swapping is turned off.
 Update second derivatives using D2CorX and points    3    4    5    6    7
 DE= -6.12D-06 DEPred=-4.56D-06 R= 1.34D+00
 TightC=F SS=  1.41D+00  RLast= 6.32D-02 DXNew= 1.4270D+00 1.8962D-01
 Trust test= 1.34D+00 RLast= 6.32D-02 DXMaxT set to 8.49D-01
 ITU=  1  1  1  1  1  1  0
     Eigenvalues ---    0.00091   0.00451   0.01206   0.06742   0.06815
     Eigenvalues ---    0.06829   0.06916   0.14395   0.15511   0.15816
     Eigenvalues ---    0.16000   0.16000   0.16000   0.17037   0.22686
     Eigenvalues ---    0.30003   0.32201   0.32422   0.32503   0.32553
     Eigenvalues ---    0.32562   0.32619   0.34164   0.36984
 En-DIIS/RFO-DIIS/Sim-DIIS IScMMF=       -3 using points:     7    6    5    4
 RFO step:  Lambda=-6.13168412D-06.
 DIIS inversion failure, remove point   4.
 RFO-DIIS uses    3 points instead of    4
 DidBck=F Rises=F RFO-DIIS coefs:    2.37365   -2.00000    0.62635    0.00000
 Iteration  1 RMS(Cart)=  0.01345797 RMS(Int)=  0.00009137
 Iteration  2 RMS(Cart)=  0.00010242 RMS(Int)=  0.00002297
 Iteration  3 RMS(Cart)=  0.00000000 RMS(Int)=  0.00002297
 ClnCor:  largest displacement from symmetrization is 3.08D-12 for atom     8.
 Variable       Old X    -DE/DX   Delta X   Delta X   Delta X     New X
                                 (Linear)    (Quad)   (Total)
    R1        2.81879  -0.00004   0.00007  -0.00006   0.00000   2.81879
    R2        2.08767  -0.00001  -0.00023  -0.00022  -0.00045   2.08722
    R3        2.10773   0.00008   0.00017  -0.00021  -0.00004   2.10769
    R4        2.09411  -0.00001   0.00005   0.00022   0.00027   2.09438
    R5        2.81879  -0.00004   0.00007  -0.00006   0.00000   2.81879
    R6        2.07339  -0.00010  -0.00008  -0.00052  -0.00060   2.07279
    R7        2.09411  -0.00001   0.00005   0.00022   0.00027   2.09438
    R8        2.10773   0.00008   0.00017  -0.00021  -0.00004   2.10769
    R9        2.08767  -0.00001  -0.00023  -0.00022  -0.00045   2.08722
    A1        1.95529   0.00007   0.00069   0.00052   0.00121   1.95650
    A2        1.95732  -0.00001  -0.00104  -0.00025  -0.00129   1.95604
    A3        1.94852  -0.00005  -0.00010  -0.00017  -0.00027   1.94825
    A4        1.86068  -0.00001   0.00064   0.00075   0.00140   1.86208
    A5        1.88662  -0.00000   0.00001  -0.00021  -0.00021   1.88642
    A6        1.84955   0.00000  -0.00019  -0.00066  -0.00086   1.84870
    A7        2.12159  -0.00049  -0.00319  -0.00069  -0.00380   2.11780
    A8        2.06568   0.00023   0.00162   0.00107   0.00277   2.06845
    A9        2.06568   0.00023   0.00162   0.00107   0.00277   2.06845
   A10        1.94852  -0.00005  -0.00010  -0.00017  -0.00027   1.94825
   A11        1.95732  -0.00001  -0.00104  -0.00025  -0.00129   1.95604
   A12        1.95529   0.00007   0.00069   0.00052   0.00121   1.95650
   A13        1.84955   0.00000  -0.00019  -0.00066  -0.00086   1.84870
   A14        1.88662  -0.00000   0.00001  -0.00021  -0.00021   1.88642
   A15        1.86068  -0.00001   0.00064   0.00075   0.00140   1.86208
    D1       -2.87757  -0.00004  -0.00769  -0.01235  -0.02004  -2.89761
    D2        0.53010   0.00001  -0.00930  -0.01881  -0.02811   0.50199
    D3        1.31398  -0.00007  -0.00827  -0.01351  -0.02178   1.29219
    D4       -1.56153  -0.00002  -0.00989  -0.01997  -0.02986  -1.59139
    D5       -0.75872  -0.00003  -0.00726  -0.01238  -0.01964  -0.77836
    D6        2.64895   0.00002  -0.00888  -0.01884  -0.02771   2.62124
    D7        0.75872   0.00003   0.00726   0.01238   0.01964   0.77836
    D8       -1.31398   0.00007   0.00827   0.01351   0.02178  -1.29219
    D9        2.87757   0.00004   0.00769   0.01235   0.02004   2.89761
   D10       -2.64895  -0.00002   0.00888   0.01884   0.02771  -2.62124
   D11        1.56153   0.00002   0.00989   0.01997   0.02986   1.59139
   D12       -0.53010  -0.00001   0.00930   0.01881   0.02811  -0.50199
         Item               Value     Threshold  Converged?
 Maximum Force            0.000486     0.000450     NO 
 RMS     Force            0.000106     0.000300     YES
 Maximum Displacement     0.040882     0.001800     NO 
 RMS     Displacement     0.013460     0.001200     NO 
 Predicted change in Energy=-2.408382D-06
 GradGradGradGradGradGradGradGradGradGradGradGradGradGradGradGradGradGrad

                          Input orientation:                          
 ---------------------------------------------------------------------
 Center     Atomic      Atomic             Coordinates (Angstroms)
 Number     Number       Type             X           Y           Z
 ---------------------------------------------------------------------
      1          6           0        1.018820    0.020200   -0.099388
      2          6           0        2.487085    0.066018    0.159629
      3          6           0        3.141726   -0.900959    1.087740
      4          1           0        0.732911    0.624540   -0.978572
      5          1           0        0.428722    0.410190    0.762982
      6          1           0        0.665493   -1.017081   -0.265309
      7          1           0        3.044336    0.961287   -0.142199
      8          1           0        2.783095   -1.935939    0.918852
      9          1           0        2.920831   -0.671171    2.156567
     10          1           0        4.241281   -0.897791    0.983305
 ---------------------------------------------------------------------
                    Distance matrix (angstroms):
                    1          2          3          4          5
     1  C    0.000000
     2  C    1.491640   0.000000
     3  C    2.600872   1.491640   0.000000
     4  H    1.104508   2.164388   3.521248   0.000000
     5  H    1.115343   2.172406   3.030672   1.780867   0.000000
     6  H    1.108297   2.161452   2.824173   1.791148   1.774978
     7  H    2.233874   1.096875   2.233874   2.481049   2.822144
     8  H    2.824173   2.161452   1.108297   3.789397   3.327415
     9  H    3.030672   2.172406   1.115343   4.036702   3.053200
    10  H    3.521248   2.164388   1.104508   4.298269   4.036702
                    6          7          8          9         10
     6  H    0.000000
     7  H    3.096448   0.000000
     8  H    2.594374   3.096448   0.000000
     9  H    3.327415   2.822144   1.774978   0.000000
    10  H    3.789397   2.481049   1.791148   1.780867   0.000000
 Stoichiometry    C3H7(2)
 Framework group  CS[SG(CH),X(C2H6)]
 Deg. of freedom    13
 Full point group                 CS      NOp   2
 Largest Abelian subgroup         CS      NOp   2
 Largest concise Abelian subgroup CS      NOp   2
                         Standard orientation:                         
 ---------------------------------------------------------------------
 Center     Atomic      Atomic             Coordinates (Angstroms)
 Number     Number       Type             X           Y           Z
 ---------------------------------------------------------------------
      1          6           0       -0.011690   -0.196896    1.300436
      2          6           0       -0.011690    0.533759   -0.000000
      3          6           0       -0.011690   -0.196896   -1.300436
      4          1           0       -0.258899    0.465324    2.149135
      5          1           0        0.982053   -0.650013    1.526600
      6          1           0       -0.735065   -1.036562    1.297187
      7          1           0        0.234235    1.602709   -0.000000
      8          1           0       -0.735065   -1.036562   -1.297187
      9          1           0        0.982053   -0.650013   -1.526600
     10          1           0       -0.258899    0.465324   -2.149135
 ---------------------------------------------------------------------
 Rotational constants (GHZ):          37.1518824           8.2585539           7.3906399
 Standard basis: def2SVPP (5D, 7F)
 There are    34 symmetry adapted cartesian basis functions of A'  symmetry.
 There are    25 symmetry adapted cartesian basis functions of A"  symmetry.
 There are    32 symmetry adapted basis functions of A'  symmetry.
 There are    24 symmetry adapted basis functions of A"  symmetry.
    56 basis functions,   103 primitive gaussians,    59 cartesian basis functions
    13 alpha electrons       12 beta electrons
       nuclear repulsion energy        75.0039335746 Hartrees.
 NAtoms=   10 NActive=   10 NUniq=    6 SFac= 2.78D+00 NAtFMM=   60 NAOKFM=F Big=F
 Integral buffers will be    131072 words long.
 Raffenetti 2 integral format.
 Two-electron integral symmetry is turned on.
 Nuclear repulsion after empirical dispersion term =       74.9951767175 Hartrees.
 One-electron integrals computed using PRISM.
   2 Symmetry operations used in ECPInt.
 ECPInt:  NShTT=     528 NPrTT=    2140 LenC2=     529 LenP2D=    1899.
 LDataN:  DoStor=T MaxTD1= 4 Len=   56
 NBasis=    56 RedAO= T EigKep=  4.27D-03  NBF=    32    24
 NBsUse=    56 1.00D-06 EigRej= -1.00D+00 NBFU=    32    24
 Initial guess from the checkpoint file:  "/home/software/g16tmp/Gau-167139.chk"
 B after Tr=    -0.000000    0.000000    0.000000
         Rot=    0.999991   -0.000000   -0.000000    0.004340 Ang=   0.50 deg.
 Initial guess orbital symmetries:
 Alpha Orbitals:
       Occupied  (A') (A") (A') (A') (A") (A') (A') (A') (A") (A")
                 (A") (A') (A')
       Virtual   (A') (A') (A") (A') (A") (A') (A") (A') (A") (A')
                 (A") (A') (A") (A') (A') (A') (A") (A') (A") (A')
                 (A') (A") (A") (A') (A") (A') (A') (A") (A") (A')
                 (A") (A') (A') (A") (A') (A") (A') (A') (A") (A")
                 (A') (A") (A')
 Beta  Orbitals:
       Occupied  (A") (A') (A') (A') (A") (A') (A') (A') (A") (A")
                 (A") (A')
       Virtual   (A') (A') (A') (A") (A') (A") (A') (A") (A') (A")
                 (A') (A") (A") (A') (A') (A') (A') (A") (A') (A")
                 (A') (A') (A") (A") (A") (A') (A') (A') (A") (A")
                 (A') (A") (A') (A') (A") (A') (A") (A') (A") (A')
                 (A") (A') (A") (A')
 Initial guess <Sx>= 0.0000 <Sy>= 0.0000 <Sz>= 0.5000 <S**2>= 0.7540 S= 0.5020
 ExpMin= 1.22D-01 ExpMax= 1.24D+03 ExpMxC= 1.86D+02 IAcc=3 IRadAn=         5 AccDes= 0.00D+00
 Harris functional with IExCor=  402 and IRadAn=       5 diagonalized for initial guess.
 HarFok:  IExCor=  402 AccDes= 0.00D+00 IRadAn=         5 IDoV= 1 UseB2=F ITyADJ=14
 ICtDFT=  3500011 ScaDFX=  1.000000  1.000000  1.000000  1.000000
 FoFCou: FMM=F IPFlag=           0 FMFlag=      100000 FMFlg1=           0
         NFxFlg=           0 DoJE=T BraDBF=F KetDBF=T FulRan=T
         wScrn=  0.000000 ICntrl=       500 IOpCl=  0 I1Cent=   200000004 NGrid=           0
         NMat0=    1 NMatS0=      1 NMatT0=    0 NMatD0=    1 NMtDS0=    0 NMtDT0=    0
 Petite list used in FoFCou.
 Keep R1 and R2 ints in memory in symmetry-blocked form, NReq=15381125.
 Requested convergence on RMS density matrix=1.00D-08 within 128 cycles.
 Requested convergence on MAX density matrix=1.00D-06.
 Requested convergence on             energy=1.00D-06.
 No special actions if energy rises.
 Integral accuracy reduced to 1.0D-05 until final iterations.
 Initial convergence to 1.0D-05 achieved.  Increase integral accuracy.
 SCF Done:  E(UB3LYP) =  -118.385088903     A.U. after   10 cycles
            NFock= 10  Conv=0.50D-08     -V/T= 2.0120
 <Sx>= 0.0000 <Sy>= 0.0000 <Sz>= 0.5000 <S**2>= 0.7541 S= 0.5020
 <L.S>=  0.00000000000    
 Annihilation of the first spin contaminant:
 S**2 before annihilation     0.7541,   after     0.7500
   2 Symmetry operations used in ECPInt.
 ECPInt:  NShTT=     528 NPrTT=    2140 LenC2=     529 LenP2D=    1899.
 LDataN:  DoStor=T MaxTD1= 5 Len=  102
 Calling FoFJK, ICntrl=      2127 FMM=F ISym2X=1 I1Cent= 0 IOpClX= 1 NMat=1 NMatS=1 NMatT=0.
 ***** Axes restored to original set *****
 -------------------------------------------------------------------
 Center     Atomic                   Forces (Hartrees/Bohr)
 Number     Number              X              Y              Z
 -------------------------------------------------------------------
      1        6           0.000105194    0.000011440    0.000137362
      2        6           0.000126925   -0.000073450   -0.000283971
      3        6          -0.000130708    0.000113802    0.000005446
      4        1          -0.000028844    0.000037731   -0.000016240
      5        1          -0.000092366    0.000006050    0.000021433
      6        1           0.000005258   -0.000039136   -0.000000875
      7        1          -0.000023477    0.000005726    0.000046427
      8        1          -0.000023723   -0.000026561   -0.000017081
      9        1           0.000018236   -0.000041941    0.000083281
     10        1           0.000043505    0.000006338    0.000024217
 -------------------------------------------------------------------
 Cartesian Forces:  Max     0.000283971 RMS     0.000079839

 GradGradGradGradGradGradGradGradGradGradGradGradGradGradGradGradGradGrad
 Berny optimization.
 Using GEDIIS/GDIIS optimizer.
 FormGI is forming the generalized inverse of G from B-inverse, IUseBI=4.
 Internal  Forces:  Max     0.000160157 RMS     0.000050814
 Search for a local minimum.
 Step number   8 out of a maximum of   46
 All quantities printed in internal units (Hartrees-Bohrs-Radians)
 Mixed Optimization -- En-DIIS/RFO-DIIS
 Swapping is turned off.
 Update second derivatives using D2CorX and points    3    4    5    6    7
                                                      8
 DE= -5.31D-06 DEPred=-2.41D-06 R= 2.20D+00
 TightC=F SS=  1.41D+00  RLast= 8.64D-02 DXNew= 1.4270D+00 2.5922D-01
 Trust test= 2.20D+00 RLast= 8.64D-02 DXMaxT set to 8.49D-01
 ITU=  1  1  1  1  1  1  1  0
     Eigenvalues ---    0.00066   0.00451   0.01091   0.06761   0.06783
     Eigenvalues ---    0.06806   0.06926   0.14407   0.15345   0.15535
     Eigenvalues ---    0.16000   0.16000   0.16000   0.17545   0.19985
     Eigenvalues ---    0.30003   0.32087   0.32471   0.32503   0.32553
     Eigenvalues ---    0.32619   0.32646   0.33756   0.38557
 En-DIIS/RFO-DIIS/Sim-DIIS IScMMF=       -3 using points:     8    7    6    5    4
 RFO step:  Lambda=-1.53183955D-06.
 DIIS inversion failure, remove point   5.
 DIIS inversion failure, remove point   4.
 RFO-DIIS uses    3 points instead of    5
 DidBck=F Rises=F RFO-DIIS coefs:    2.06831   -2.00000    0.93169    0.00000    0.00000
 Iteration  1 RMS(Cart)=  0.00691271 RMS(Int)=  0.00002561
 Iteration  2 RMS(Cart)=  0.00003302 RMS(Int)=  0.00001032
 Iteration  3 RMS(Cart)=  0.00000000 RMS(Int)=  0.00001032
 ClnCor:  largest displacement from symmetrization is 1.34D-12 for atom     8.
 Variable       Old X    -DE/DX   Delta X   Delta X   Delta X     New X
                                 (Linear)    (Quad)   (Total)
    R1        2.81879  -0.00001   0.00005   0.00003   0.00008   2.81887
    R2        2.08722   0.00004   0.00000   0.00000   0.00001   2.08723
    R3        2.10769   0.00007   0.00020  -0.00005   0.00015   2.10784
    R4        2.09438   0.00004   0.00008   0.00020   0.00027   2.09465
    R5        2.81879  -0.00001   0.00005   0.00003   0.00008   2.81887
    R6        2.07279  -0.00002  -0.00042   0.00028  -0.00014   2.07266
    R7        2.09438   0.00004   0.00008   0.00020   0.00027   2.09465
    R8        2.10769   0.00007   0.00020  -0.00005   0.00015   2.10784
    R9        2.08722   0.00004   0.00000   0.00000   0.00001   2.08723
    A1        1.95650   0.00001   0.00119  -0.00056   0.00064   1.95714
    A2        1.95604   0.00010  -0.00017   0.00034   0.00017   1.95621
    A3        1.94825  -0.00005  -0.00066   0.00025  -0.00041   1.94784
    A4        1.86208  -0.00005   0.00000   0.00018   0.00018   1.86226
    A5        1.88642   0.00001  -0.00004  -0.00010  -0.00014   1.88628
    A6        1.84870  -0.00003  -0.00037  -0.00011  -0.00049   1.84821
    A7        2.11780  -0.00016  -0.00329   0.00083  -0.00243   2.11536
    A8        2.06845   0.00007   0.00121  -0.00042   0.00083   2.06927
    A9        2.06845   0.00007   0.00121  -0.00042   0.00083   2.06927
   A10        1.94825  -0.00005  -0.00066   0.00025  -0.00041   1.94784
   A11        1.95604   0.00010  -0.00017   0.00034   0.00017   1.95621
   A12        1.95650   0.00001   0.00119  -0.00056   0.00064   1.95714
   A13        1.84870  -0.00003  -0.00037  -0.00011  -0.00049   1.84821
   A14        1.88642   0.00001  -0.00004  -0.00010  -0.00014   1.88628
   A15        1.86208  -0.00005   0.00000   0.00018   0.00018   1.86226
    D1       -2.89761  -0.00003  -0.01175  -0.00099  -0.01274  -2.91035
    D2        0.50199   0.00003  -0.00859  -0.00086  -0.00945   0.49254
    D3        1.29219  -0.00004  -0.01247  -0.00107  -0.01354   1.27865
    D4       -1.59139   0.00001  -0.00931  -0.00094  -0.01025  -1.60165
    D5       -0.77836  -0.00004  -0.01143  -0.00133  -0.01276  -0.79113
    D6        2.62124   0.00001  -0.00827  -0.00120  -0.00947   2.61176
    D7        0.77836   0.00004   0.01143   0.00133   0.01276   0.79113
    D8       -1.29219   0.00004   0.01247   0.00107   0.01354  -1.27865
    D9        2.89761   0.00003   0.01175   0.00099   0.01274   2.91035
   D10       -2.62124  -0.00001   0.00827   0.00120   0.00947  -2.61176
   D11        1.59139  -0.00001   0.00931   0.00094   0.01025   1.60165
   D12       -0.50199  -0.00003   0.00859   0.00086   0.00945  -0.49254
         Item               Value     Threshold  Converged?
 Maximum Force            0.000160     0.000450     YES
 RMS     Force            0.000051     0.000300     YES
 Maximum Displacement     0.018174     0.001800     NO 
 RMS     Displacement     0.006916     0.001200     NO 
 Predicted change in Energy=-3.178524D-07
 GradGradGradGradGradGradGradGradGradGradGradGradGradGradGradGradGradGrad

                          Input orientation:                          
 ---------------------------------------------------------------------
 Center     Atomic      Atomic             Coordinates (Angstroms)
 Number     Number       Type             X           Y           Z
 ---------------------------------------------------------------------
      1          6           0        1.019435    0.020519   -0.098368
      2          6           0        2.488800    0.063986    0.154985
      3          6           0        3.140947   -0.900035    1.087980
      4          1           0        0.729682    0.629864   -0.972834
      5          1           0        0.432821    0.405158    0.768872
      6          1           0        0.665181   -1.015872   -0.268770
      7          1           0        3.047631    0.956486   -0.151816
      8          1           0        2.786477   -1.936332    0.917457
      9          1           0        2.912170   -0.670667    2.155322
     10          1           0        4.241157   -0.893815    0.990780
 ---------------------------------------------------------------------
                    Distance matrix (angstroms):
                    1          2          3          4          5
     1  C    0.000000
     2  C    1.491681   0.000000
     3  C    2.599165   1.491681   0.000000
     4  H    1.104513   2.164877   3.521611   0.000000
     5  H    1.115422   2.172626   3.023128   1.781056   0.000000
     6  H    1.108440   2.161307   2.825527   1.791177   1.774829
     7  H    2.234383   1.096802   2.234383   2.480653   2.826457
     8  H    2.825527   2.161307   1.108440   3.793279   3.323304
     9  H    3.023128   2.172626   1.115422   4.029888   3.037567
    10  H    3.521611   2.164877   1.104513   4.302074   4.029888
                    6          7          8          9         10
     6  H    0.000000
     7  H    3.095148   0.000000
     8  H    2.598898   3.095148   0.000000
     9  H    3.323304   2.826457   1.774829   0.000000
    10  H    3.793279   2.480653   1.791177   1.781056   0.000000
 Stoichiometry    C3H7(2)
 Framework group  CS[SG(CH),X(C2H6)]
 Deg. of freedom    13
 Full point group                 CS      NOp   2
 Largest Abelian subgroup         CS      NOp   2
 Largest concise Abelian subgroup CS      NOp   2
                         Standard orientation:                         
 ---------------------------------------------------------------------
 Center     Atomic      Atomic             Coordinates (Angstroms)
 Number     Number       Type             X           Y           Z
 ---------------------------------------------------------------------
      1          6           0       -0.011749   -0.197084    1.299582
      2          6           0       -0.011749    0.535172   -0.000000
      3          6           0       -0.011749   -0.197084   -1.299582
      4          1           0       -0.246226    0.466237    2.151037
      5          1           0        0.978054   -0.662281    1.518783
      6          1           0       -0.744643   -1.028653    1.299449
      7          1           0        0.237113    1.603367   -0.000000
      8          1           0       -0.744643   -1.028653   -1.299449
      9          1           0        0.978054   -0.662281   -1.518783
     10          1           0       -0.246226    0.466237   -2.151037
 ---------------------------------------------------------------------
 Rotational constants (GHZ):          37.0856756           8.2682997           7.3959845
 Standard basis: def2SVPP (5D, 7F)
 There are    34 symmetry adapted cartesian basis functions of A'  symmetry.
 There are    25 symmetry adapted cartesian basis functions of A"  symmetry.
 There are    32 symmetry adapted basis functions of A'  symmetry.
 There are    24 symmetry adapted basis functions of A"  symmetry.
    56 basis functions,   103 primitive gaussians,    59 cartesian basis functions
    13 alpha electrons       12 beta electrons
       nuclear repulsion energy        75.0102160268 Hartrees.
 NAtoms=   10 NActive=   10 NUniq=    6 SFac= 2.78D+00 NAtFMM=   60 NAOKFM=F Big=F
 Integral buffers will be    131072 words long.
 Raffenetti 2 integral format.
 Two-electron integral symmetry is turned on.
 Nuclear repulsion after empirical dispersion term =       75.0014562121 Hartrees.
 One-electron integrals computed using PRISM.
   2 Symmetry operations used in ECPInt.
 ECPInt:  NShTT=     528 NPrTT=    2140 LenC2=     529 LenP2D=    1899.
 LDataN:  DoStor=T MaxTD1= 4 Len=   56
 NBasis=    56 RedAO= T EigKep=  4.28D-03  NBF=    32    24
 NBsUse=    56 1.00D-06 EigRej= -1.00D+00 NBFU=    32    24
 Initial guess from the checkpoint file:  "/home/software/g16tmp/Gau-167139.chk"
 B after Tr=     0.000000    0.000000    0.000000
         Rot=    0.999994    0.000000   -0.000000    0.003407 Ang=   0.39 deg.
 Initial guess orbital symmetries:
 Alpha Orbitals:
       Occupied  (A') (A") (A') (A') (A") (A') (A') (A') (A") (A")
                 (A") (A') (A')
       Virtual   (A') (A') (A") (A') (A") (A') (A") (A') (A") (A')
                 (A") (A') (A") (A') (A') (A') (A") (A') (A") (A')
                 (A') (A") (A") (A') (A") (A') (A') (A") (A") (A')
                 (A") (A') (A') (A") (A') (A") (A') (A') (A") (A")
                 (A') (A") (A')
 Beta  Orbitals:
       Occupied  (A") (A') (A') (A') (A") (A') (A') (A') (A") (A")
                 (A") (A')
       Virtual   (A') (A') (A') (A") (A') (A") (A') (A") (A') (A")
                 (A') (A") (A") (A') (A') (A') (A') (A") (A') (A")
                 (A') (A') (A") (A") (A") (A') (A') (A') (A") (A")
                 (A') (A") (A') (A') (A") (A') (A") (A') (A") (A')
                 (A") (A') (A") (A')
 Initial guess <Sx>= 0.0000 <Sy>= 0.0000 <Sz>= 0.5000 <S**2>= 0.7541 S= 0.5020
 Keep R1 and R2 ints in memory in symmetry-blocked form, NReq=15381125.
 Requested convergence on RMS density matrix=1.00D-08 within 128 cycles.
 Requested convergence on MAX density matrix=1.00D-06.
 Requested convergence on             energy=1.00D-06.
 No special actions if energy rises.
 SCF Done:  E(UB3LYP) =  -118.385090160     A.U. after    9 cycles
            NFock=  9  Conv=0.52D-08     -V/T= 2.0120
 <Sx>= 0.0000 <Sy>= 0.0000 <Sz>= 0.5000 <S**2>= 0.7540 S= 0.5020
 <L.S>=  0.00000000000    
 Annihilation of the first spin contaminant:
 S**2 before annihilation     0.7540,   after     0.7500
   2 Symmetry operations used in ECPInt.
 ECPInt:  NShTT=     528 NPrTT=    2140 LenC2=     529 LenP2D=    1899.
 LDataN:  DoStor=T MaxTD1= 5 Len=  102
 Calling FoFJK, ICntrl=      2127 FMM=F ISym2X=1 I1Cent= 0 IOpClX= 1 NMat=1 NMatS=1 NMatT=0.
 ***** Axes restored to original set *****
 -------------------------------------------------------------------
 Center     Atomic                   Forces (Hartrees/Bohr)
 Number     Number              X              Y              Z
 -------------------------------------------------------------------
      1        6           0.000030840    0.000031704    0.000024491
      2        6          -0.000004418   -0.000062616   -0.000040687
      3        6          -0.000010171    0.000049499    0.000001558
      4        1           0.000013408    0.000000002   -0.000004115
      5        1          -0.000009695   -0.000007177    0.000001918
      6        1          -0.000005429   -0.000007052    0.000001738
      7        1          -0.000007224    0.000007438    0.000018689
      8        1          -0.000003567   -0.000007860    0.000002778
      9        1          -0.000002355   -0.000010362    0.000006022
     10        1          -0.000001390    0.000006423   -0.000012391
 -------------------------------------------------------------------
 Cartesian Forces:  Max     0.000062616 RMS     0.000020017

 GradGradGradGradGradGradGradGradGradGradGradGradGradGradGradGradGradGrad
 Berny optimization.
 Using GEDIIS/GDIIS optimizer.
 FormGI is forming the generalized inverse of G from B-inverse, IUseBI=4.
 Internal  Forces:  Max     0.000033283 RMS     0.000012346
 Search for a local minimum.
 Step number   9 out of a maximum of   46
 All quantities printed in internal units (Hartrees-Bohrs-Radians)
 Mixed Optimization -- En-DIIS/RFO-DIIS
 Swapping is turned off.
 Update second derivatives using D2CorX and points    3    4    5    6    7
                                                      8    9
 DE= -1.26D-06 DEPred=-3.18D-07 R= 3.95D+00
 TightC=F SS=  1.41D+00  RLast= 3.99D-02 DXNew= 1.4270D+00 1.1981D-01
 Trust test= 3.95D+00 RLast= 3.99D-02 DXMaxT set to 8.49D-01
 ITU=  1  1  1  1  1  1  1  1  0
     Eigenvalues ---    0.00067   0.00451   0.00694   0.06730   0.06802
     Eigenvalues ---    0.06821   0.06928   0.14803   0.15521   0.15759
     Eigenvalues ---    0.16000   0.16000   0.16000   0.16899   0.19257
     Eigenvalues ---    0.30003   0.32078   0.32479   0.32503   0.32553
     Eigenvalues ---    0.32573   0.32619   0.33026   0.38415
 En-DIIS/RFO-DIIS/Sim-DIIS IScMMF=       -3 using points:     9    8    7    6    5    4
 RFO step:  Lambda=-8.14245425D-08.
 DIIS inversion failure, remove point   6.
 DIIS inversion failure, remove point   5.
 DIIS inversion failure, remove point   4.
 RFO-DIIS uses    3 points instead of    6
 DidBck=F Rises=F RFO-DIIS coefs:    1.26565   -0.45254    0.18689    0.00000    0.00000
                  RFO-DIIS coefs:    0.00000
 Iteration  1 RMS(Cart)=  0.00075446 RMS(Int)=  0.00000080
 Iteration  2 RMS(Cart)=  0.00000066 RMS(Int)=  0.00000041
 ClnCor:  largest displacement from symmetrization is 7.31D-13 for atom     8.
 Variable       Old X    -DE/DX   Delta X   Delta X   Delta X     New X
                                 (Linear)    (Quad)   (Total)
    R1        2.81887  -0.00003   0.00002  -0.00010  -0.00008   2.81879
    R2        2.08723  -0.00000   0.00009  -0.00005   0.00003   2.08726
    R3        2.10784   0.00000   0.00005  -0.00003   0.00002   2.10786
    R4        2.09465   0.00001   0.00002  -0.00002  -0.00000   2.09465
    R5        2.81887  -0.00003   0.00002  -0.00010  -0.00008   2.81879
    R6        2.07266  -0.00000   0.00007  -0.00005   0.00003   2.07268
    R7        2.09465   0.00001   0.00002  -0.00002  -0.00000   2.09465
    R8        2.10784   0.00000   0.00005  -0.00003   0.00002   2.10786
    R9        2.08723  -0.00000   0.00009  -0.00005   0.00003   2.08726
    A1        1.95714  -0.00002  -0.00006  -0.00007  -0.00012   1.95702
    A2        1.95621   0.00002   0.00029  -0.00015   0.00014   1.95635
    A3        1.94784   0.00000  -0.00006   0.00007   0.00002   1.94785
    A4        1.86226   0.00001  -0.00021   0.00018  -0.00004   1.86223
    A5        1.88628   0.00001   0.00000   0.00000   0.00000   1.88628
    A6        1.84821  -0.00001   0.00003  -0.00003  -0.00000   1.84821
    A7        2.11536   0.00002   0.00006   0.00009   0.00015   2.11552
    A8        2.06927  -0.00001  -0.00030  -0.00005  -0.00035   2.06893
    A9        2.06927  -0.00001  -0.00030  -0.00005  -0.00035   2.06893
   A10        1.94784   0.00000  -0.00006   0.00007   0.00002   1.94785
   A11        1.95621   0.00002   0.00029  -0.00015   0.00014   1.95635
   A12        1.95714  -0.00002  -0.00006  -0.00007  -0.00012   1.95702
   A13        1.84821  -0.00001   0.00003  -0.00003  -0.00000   1.84821
   A14        1.88628   0.00001   0.00000   0.00000   0.00000   1.88628
   A15        1.86226   0.00001  -0.00021   0.00018  -0.00004   1.86223
    D1       -2.91035  -0.00000   0.00036   0.00001   0.00037  -2.90998
    D2        0.49254   0.00001   0.00274   0.00004   0.00278   0.49532
    D3        1.27865  -0.00001   0.00047  -0.00007   0.00040   1.27905
    D4       -1.60165   0.00000   0.00286  -0.00004   0.00281  -1.59883
    D5       -0.79113  -0.00001   0.00028   0.00002   0.00030  -0.79083
    D6        2.61176   0.00000   0.00266   0.00005   0.00271   2.61447
    D7        0.79113   0.00001  -0.00028  -0.00002  -0.00030   0.79083
    D8       -1.27865   0.00001  -0.00047   0.00007  -0.00040  -1.27905
    D9        2.91035   0.00000  -0.00036  -0.00001  -0.00037   2.90998
   D10       -2.61176  -0.00000  -0.00266  -0.00005  -0.00271  -2.61447
   D11        1.60165  -0.00000  -0.00286   0.00004  -0.00281   1.59883
   D12       -0.49254  -0.00001  -0.00274  -0.00004  -0.00278  -0.49532
         Item               Value     Threshold  Converged?
 Maximum Force            0.000033     0.000450     YES
 RMS     Force            0.000012     0.000300     YES
 Maximum Displacement     0.002914     0.001800     NO 
 RMS     Displacement     0.000754     0.001200     YES
 Predicted change in Energy=-2.800153D-08
 GradGradGradGradGradGradGradGradGradGradGradGradGradGradGradGradGradGrad

                          Input orientation:                          
 ---------------------------------------------------------------------
 Center     Atomic      Atomic             Coordinates (Angstroms)
 Number     Number       Type             X           Y           Z
 ---------------------------------------------------------------------
      1          6           0        1.019462    0.020429   -0.098527
      2          6           0        2.488800    0.063697    0.154760
      3          6           0        3.141004   -0.900138    1.087838
      4          1           0        0.729952    0.629407   -0.973350
      5          1           0        0.432821    0.405682    0.768435
      6          1           0        0.664963   -1.015959   -0.268431
      7          1           0        3.047067    0.957173   -0.150274
      8          1           0        2.786246   -1.936414    0.917789
      9          1           0        2.912799   -0.670416    2.155236
     10          1           0        4.241188   -0.894168    0.990130
 ---------------------------------------------------------------------
                    Distance matrix (angstroms):
                    1          2          3          4          5
     1  C    0.000000
     2  C    1.491637   0.000000
     3  C    2.599200   1.491637   0.000000
     4  H    1.104530   2.164765   3.521530   0.000000
     5  H    1.115433   2.172695   3.023481   1.781054   0.000000
     6  H    1.108439   2.161279   2.825536   1.791191   1.774836
     7  H    2.234133   1.096817   2.234133   2.480707   2.825323
     8  H    2.825536   2.161279   1.108439   3.793177   3.323602
     9  H    3.023481   2.172695   1.115433   4.030188   3.038338
    10  H    3.521530   2.164765   1.104530   4.301780   4.030188
                    6          7          8          9         10
     6  H    0.000000
     7  H    3.095421   0.000000
     8  H    2.598883   3.095421   0.000000
     9  H    3.323602   2.825323   1.774836   0.000000
    10  H    3.793177   2.480707   1.791191   1.781054   0.000000
 Stoichiometry    C3H7(2)
 Framework group  CS[SG(CH),X(C2H6)]
 Deg. of freedom    13
 Full point group                 CS      NOp   2
 Largest Abelian subgroup         CS      NOp   2
 Largest concise Abelian subgroup CS      NOp   2
                         Standard orientation:                         
 ---------------------------------------------------------------------
 Center     Atomic      Atomic             Coordinates (Angstroms)
 Number     Number       Type             X           Y           Z
 ---------------------------------------------------------------------
      1          6           0       -0.011834   -0.197046    1.299600
      2          6           0       -0.011834    0.535088    0.000000
      3          6           0       -0.011834   -0.197046   -1.299600
      4          1           0       -0.246695    0.466379    2.150890
      5          1           0        0.978042   -0.661939    1.519169
      6          1           0       -0.744505   -1.028809    1.299442
      7          1           0        0.239323    1.602762    0.000000
      8          1           0       -0.744505   -1.028809   -1.299442
      9          1           0        0.978042   -0.661939   -1.519169
     10          1           0       -0.246695    0.466379   -2.150890
 ---------------------------------------------------------------------
 Rotational constants (GHZ):          37.0918204           8.2679055           7.3960766
 Standard basis: def2SVPP (5D, 7F)
 There are    34 symmetry adapted cartesian basis functions of A'  symmetry.
 There are    25 symmetry adapted cartesian basis functions of A"  symmetry.
 There are    32 symmetry adapted basis functions of A'  symmetry.
 There are    24 symmetry adapted basis functions of A"  symmetry.
    56 basis functions,   103 primitive gaussians,    59 cartesian basis functions
    13 alpha electrons       12 beta electrons
       nuclear repulsion energy        75.0109286132 Hartrees.
 NAtoms=   10 NActive=   10 NUniq=    6 SFac= 2.78D+00 NAtFMM=   60 NAOKFM=F Big=F
 Integral buffers will be    131072 words long.
 Raffenetti 2 integral format.
 Two-electron integral symmetry is turned on.
 Nuclear repulsion after empirical dispersion term =       75.0021688311 Hartrees.
 One-electron integrals computed using PRISM.
   2 Symmetry operations used in ECPInt.
 ECPInt:  NShTT=     528 NPrTT=    2140 LenC2=     529 LenP2D=    1899.
 LDataN:  DoStor=T MaxTD1= 4 Len=   56
 NBasis=    56 RedAO= T EigKep=  4.28D-03  NBF=    32    24
 NBsUse=    56 1.00D-06 EigRej= -1.00D+00 NBFU=    32    24
 Initial guess from the checkpoint file:  "/home/software/g16tmp/Gau-167139.chk"
 B after Tr=     0.000000   -0.000000   -0.000000
         Rot=    1.000000    0.000000   -0.000000    0.000091 Ang=   0.01 deg.
 Initial guess orbital symmetries:
 Alpha Orbitals:
       Occupied  (A') (A") (A') (A') (A") (A') (A') (A') (A") (A")
                 (A") (A') (A')
       Virtual   (A') (A') (A") (A') (A") (A') (A") (A') (A") (A')
                 (A") (A') (A") (A') (A') (A') (A") (A') (A") (A')
                 (A') (A") (A") (A') (A") (A') (A') (A") (A") (A')
                 (A") (A') (A') (A") (A') (A") (A') (A') (A") (A")
                 (A') (A") (A')
 Beta  Orbitals:
       Occupied  (A") (A') (A') (A') (A") (A') (A') (A') (A") (A")
                 (A") (A')
       Virtual   (A') (A') (A') (A") (A') (A") (A') (A") (A') (A")
                 (A') (A") (A") (A') (A') (A') (A') (A") (A') (A")
                 (A') (A') (A") (A") (A") (A') (A') (A') (A") (A")
                 (A') (A") (A') (A') (A") (A') (A") (A') (A") (A')
                 (A") (A') (A") (A')
 Initial guess <Sx>= 0.0000 <Sy>= 0.0000 <Sz>= 0.5000 <S**2>= 0.7540 S= 0.5020
 Keep R1 and R2 ints in memory in symmetry-blocked form, NReq=15381125.
 Requested convergence on RMS density matrix=1.00D-08 within 128 cycles.
 Requested convergence on MAX density matrix=1.00D-06.
 Requested convergence on             energy=1.00D-06.
 No special actions if energy rises.
 SCF Done:  E(UB3LYP) =  -118.385090222     A.U. after    7 cycles
            NFock=  7  Conv=0.69D-08     -V/T= 2.0120
 <Sx>= 0.0000 <Sy>= 0.0000 <Sz>= 0.5000 <S**2>= 0.7540 S= 0.5020
 <L.S>=  0.00000000000    
 Annihilation of the first spin contaminant:
 S**2 before annihilation     0.7540,   after     0.7500
   2 Symmetry operations used in ECPInt.
 ECPInt:  NShTT=     528 NPrTT=    2140 LenC2=     529 LenP2D=    1899.
 LDataN:  DoStor=T MaxTD1= 5 Len=  102
 Calling FoFJK, ICntrl=      2127 FMM=F ISym2X=1 I1Cent= 0 IOpClX= 1 NMat=1 NMatS=1 NMatT=0.
 ***** Axes restored to original set *****
 -------------------------------------------------------------------
 Center     Atomic                   Forces (Hartrees/Bohr)
 Number     Number              X              Y              Z
 -------------------------------------------------------------------
      1        6          -0.000001119    0.000003691   -0.000004077
      2        6          -0.000000707   -0.000002922   -0.000001003
      3        6           0.000005544    0.000000800   -0.000000351
      4        1           0.000007318   -0.000003453    0.000001681
      5        1           0.000001607   -0.000002497    0.000004633
      6        1          -0.000002490   -0.000000740    0.000001214
      7        1           0.000001463    0.000003978    0.000000470
      8        1          -0.000000505   -0.000001601    0.000002324
      9        1          -0.000005430    0.000000557    0.000000698
     10        1          -0.000005681    0.000002187   -0.000005588
 -------------------------------------------------------------------
 Cartesian Forces:  Max     0.000007318 RMS     0.000003188

 GradGradGradGradGradGradGradGradGradGradGradGradGradGradGradGradGradGrad
 Berny optimization.
 Using GEDIIS/GDIIS optimizer.
 FormGI is forming the generalized inverse of G from B-inverse, IUseBI=4.
 Internal  Forces:  Max     0.000007526 RMS     0.000003498
 Search for a local minimum.
 Step number  10 out of a maximum of   46
 All quantities printed in internal units (Hartrees-Bohrs-Radians)
 Mixed Optimization -- En-DIIS/RFO-DIIS
 Swapping is turned off.
 Update second derivatives using D2CorX and points    3    4    5    6    7
                                                      8    9   10
 DE= -6.17D-08 DEPred=-2.80D-08 R= 2.20D+00
 Trust test= 2.20D+00 RLast= 6.87D-03 DXMaxT set to 8.49D-01
 ITU=  0  1  1  1  1  1  1  1  1  0
     Eigenvalues ---    0.00066   0.00451   0.00586   0.06656   0.06802
     Eigenvalues ---    0.06804   0.06927   0.14575   0.15146   0.15513
     Eigenvalues ---    0.15980   0.16000   0.16000   0.16000   0.18280
     Eigenvalues ---    0.30003   0.32104   0.32277   0.32503   0.32553
     Eigenvalues ---    0.32619   0.32625   0.32984   0.36785
 En-DIIS/RFO-DIIS/Sim-DIIS IScMMF=       -3 using points:    10    9    8    7    6    5    4
 RFO step:  Lambda=-1.71967028D-09.
 DIIS inversion failure, remove point   7.
 DIIS inversion failure, remove point   6.
 DIIS inversion failure, remove point   5.
 DIIS inversion failure, remove point   4.
 RFO-DIIS uses    3 points instead of    7
 DidBck=F Rises=F RFO-DIIS coefs:    1.09685   -0.08996   -0.00689    0.00000    0.00000
                  RFO-DIIS coefs:    0.00000    0.00000
 Iteration  1 RMS(Cart)=  0.00005674 RMS(Int)=  0.00000004
 Iteration  2 RMS(Cart)=  0.00000001 RMS(Int)=  0.00000003
 ClnCor:  largest displacement from symmetrization is 1.03D-12 for atom     8.
 Variable       Old X    -DE/DX   Delta X   Delta X   Delta X     New X
                                 (Linear)    (Quad)   (Total)
    R1        2.81879  -0.00001  -0.00001  -0.00000  -0.00001   2.81878
    R2        2.08726  -0.00001   0.00000  -0.00002  -0.00001   2.08725
    R3        2.10786   0.00000   0.00000   0.00000   0.00001   2.10787
    R4        2.09465   0.00000   0.00000   0.00000   0.00000   2.09465
    R5        2.81879  -0.00001  -0.00001  -0.00000  -0.00001   2.81878
    R6        2.07268   0.00000   0.00000   0.00001   0.00002   2.07270
    R7        2.09465   0.00000   0.00000   0.00000   0.00000   2.09465
    R8        2.10786   0.00000   0.00000   0.00000   0.00001   2.10787
    R9        2.08726  -0.00001   0.00000  -0.00002  -0.00001   2.08725
    A1        1.95702  -0.00001  -0.00001  -0.00003  -0.00004   1.95698
    A2        1.95635  -0.00000   0.00001  -0.00004  -0.00002   1.95633
    A3        1.94785   0.00000  -0.00000   0.00002   0.00002   1.94788
    A4        1.86223   0.00001  -0.00000   0.00005   0.00005   1.86227
    A5        1.88628   0.00000  -0.00000   0.00001   0.00001   1.88629
    A6        1.84821  -0.00000  -0.00000  -0.00001  -0.00001   1.84820
    A7        2.11552  -0.00000  -0.00000  -0.00001  -0.00001   2.11550
    A8        2.06893   0.00000  -0.00003   0.00001  -0.00002   2.06890
    A9        2.06893   0.00000  -0.00003   0.00001  -0.00002   2.06890
   A10        1.94785   0.00000  -0.00000   0.00002   0.00002   1.94788
   A11        1.95635  -0.00000   0.00001  -0.00004  -0.00002   1.95633
   A12        1.95702  -0.00001  -0.00001  -0.00003  -0.00004   1.95698
   A13        1.84821  -0.00000  -0.00000  -0.00001  -0.00001   1.84820
   A14        1.88628   0.00000  -0.00000   0.00001   0.00001   1.88629
   A15        1.86223   0.00001  -0.00000   0.00005   0.00005   1.86227
    D1       -2.90998  -0.00000  -0.00005   0.00000  -0.00005  -2.91003
    D2        0.49532   0.00000   0.00020   0.00000   0.00021   0.49553
    D3        1.27905  -0.00000  -0.00005  -0.00001  -0.00007   1.27899
    D4       -1.59883  -0.00000   0.00020  -0.00001   0.00019  -1.59864
    D5       -0.79083  -0.00000  -0.00006   0.00001  -0.00005  -0.79088
    D6        2.61447   0.00000   0.00020   0.00001   0.00021   2.61468
    D7        0.79083   0.00000   0.00006  -0.00001   0.00005   0.79088
    D8       -1.27905   0.00000   0.00005   0.00001   0.00007  -1.27899
    D9        2.90998   0.00000   0.00005  -0.00000   0.00005   2.91003
   D10       -2.61447  -0.00000  -0.00020  -0.00001  -0.00021  -2.61468
   D11        1.59883   0.00000  -0.00020   0.00001  -0.00019   1.59864
   D12       -0.49532  -0.00000  -0.00020  -0.00000  -0.00021  -0.49553
         Item               Value     Threshold  Converged?
 Maximum Force            0.000008     0.000450     YES
 RMS     Force            0.000003     0.000300     YES
 Maximum Displacement     0.000161     0.001800     YES
 RMS     Displacement     0.000057     0.001200     YES
 Predicted change in Energy=-1.528036D-09
 Optimization completed.
    -- Stationary point found.
                           ----------------------------
                           !   Optimized Parameters   !
                           ! (Angstroms and Degrees)  !
 --------------------------                            --------------------------
 ! Name  Definition              Value          Derivative Info.                !
 --------------------------------------------------------------------------------
 ! R1    R(1,2)                  1.4916         -DE/DX =    0.0                 !
 ! R2    R(1,4)                  1.1045         -DE/DX =    0.0                 !
 ! R3    R(1,5)                  1.1154         -DE/DX =    0.0                 !
 ! R4    R(1,6)                  1.1084         -DE/DX =    0.0                 !
 ! R5    R(2,3)                  1.4916         -DE/DX =    0.0                 !
 ! R6    R(2,7)                  1.0968         -DE/DX =    0.0                 !
 ! R7    R(3,8)                  1.1084         -DE/DX =    0.0                 !
 ! R8    R(3,9)                  1.1154         -DE/DX =    0.0                 !
 ! R9    R(3,10)                 1.1045         -DE/DX =    0.0                 !
 ! A1    A(2,1,4)              112.1289         -DE/DX =    0.0                 !
 ! A2    A(2,1,5)              112.0906         -DE/DX =    0.0                 !
 ! A3    A(2,1,6)              111.6038         -DE/DX =    0.0                 !
 ! A4    A(4,1,5)              106.6977         -DE/DX =    0.0                 !
 ! A5    A(4,1,6)              108.0758         -DE/DX =    0.0                 !
 ! A6    A(5,1,6)              105.8946         -DE/DX =    0.0                 !
 ! A7    A(1,2,3)              121.2103         -DE/DX =    0.0                 !
 ! A8    A(1,2,7)              118.5408         -DE/DX =    0.0                 !
 ! A9    A(3,2,7)              118.5408         -DE/DX =    0.0                 !
 ! A10   A(2,3,8)              111.6038         -DE/DX =    0.0                 !
 ! A11   A(2,3,9)              112.0906         -DE/DX =    0.0                 !
 ! A12   A(2,3,10)             112.1289         -DE/DX =    0.0                 !
 ! A13   A(8,3,9)              105.8946         -DE/DX =    0.0                 !
 ! A14   A(8,3,10)             108.0758         -DE/DX =    0.0                 !
 ! A15   A(9,3,10)             106.6977         -DE/DX =    0.0                 !
 ! D1    D(4,1,2,3)           -166.7298         -DE/DX =    0.0                 !
 ! D2    D(4,1,2,7)             28.3796         -DE/DX =    0.0                 !
 ! D3    D(5,1,2,3)             73.2843         -DE/DX =    0.0                 !
 ! D4    D(5,1,2,7)            -91.6062         -DE/DX =    0.0                 !
 ! D5    D(6,1,2,3)            -45.3111         -DE/DX =    0.0                 !
 ! D6    D(6,1,2,7)            149.7983         -DE/DX =    0.0                 !
 ! D7    D(1,2,3,8)             45.3111         -DE/DX =    0.0                 !
 ! D8    D(1,2,3,9)            -73.2843         -DE/DX =    0.0                 !
 ! D9    D(1,2,3,10)           166.7298         -DE/DX =    0.0                 !
 ! D10   D(7,2,3,8)           -149.7983         -DE/DX =    0.0                 !
 ! D11   D(7,2,3,9)             91.6062         -DE/DX =    0.0                 !
 ! D12   D(7,2,3,10)           -28.3796         -DE/DX =    0.0                 !
 --------------------------------------------------------------------------------
 GradGradGradGradGradGradGradGradGradGradGradGradGradGradGradGradGradGrad

                          Input orientation:                          
 ---------------------------------------------------------------------
 Center     Atomic      Atomic             Coordinates (Angstroms)
 Number     Number       Type             X           Y           Z
 ---------------------------------------------------------------------
      1          6           0        1.019462    0.020429   -0.098527
      2          6           0        2.488800    0.063697    0.154760
      3          6           0        3.141004   -0.900138    1.087838
      4          1           0        0.729952    0.629407   -0.973350
      5          1           0        0.432821    0.405682    0.768435
      6          1           0        0.664963   -1.015959   -0.268431
      7          1           0        3.047067    0.957173   -0.150274
      8          1           0        2.786246   -1.936414    0.917789
      9          1           0        2.912799   -0.670416    2.155236
     10          1           0        4.241188   -0.894168    0.990130
 ---------------------------------------------------------------------
                    Distance matrix (angstroms):
                    1          2          3          4          5
     1  C    0.000000
     2  C    1.491637   0.000000
     3  C    2.599200   1.491637   0.000000
     4  H    1.104530   2.164765   3.521530   0.000000
     5  H    1.115433   2.172695   3.023481   1.781054   0.000000
     6  H    1.108439   2.161279   2.825536   1.791191   1.774836
     7  H    2.234133   1.096817   2.234133   2.480707   2.825323
     8  H    2.825536   2.161279   1.108439   3.793177   3.323602
     9  H    3.023481   2.172695   1.115433   4.030188   3.038338
    10  H    3.521530   2.164765   1.104530   4.301780   4.030188
                    6          7          8          9         10
     6  H    0.000000
     7  H    3.095421   0.000000
     8  H    2.598883   3.095421   0.000000
     9  H    3.323602   2.825323   1.774836   0.000000
    10  H    3.793177   2.480707   1.791191   1.781054   0.000000
 Stoichiometry    C3H7(2)
 Framework group  CS[SG(CH),X(C2H6)]
 Deg. of freedom    13
 Full point group                 CS      NOp   2
 Largest Abelian subgroup         CS      NOp   2
 Largest concise Abelian subgroup CS      NOp   2
                         Standard orientation:                         
 ---------------------------------------------------------------------
 Center     Atomic      Atomic             Coordinates (Angstroms)
 Number     Number       Type             X           Y           Z
 ---------------------------------------------------------------------
      1          6           0       -0.011834   -0.197046    1.299600
      2          6           0       -0.011834    0.535088    0.000000
      3          6           0       -0.011834   -0.197046   -1.299600
      4          1           0       -0.246695    0.466379    2.150890
      5          1           0        0.978042   -0.661939    1.519169
      6          1           0       -0.744505   -1.028809    1.299442
      7          1           0        0.239323    1.602762    0.000000
      8          1           0       -0.744505   -1.028809   -1.299442
      9          1           0        0.978042   -0.661939   -1.519169
     10          1           0       -0.246695    0.466379   -2.150890
 ---------------------------------------------------------------------
 Rotational constants (GHZ):          37.0918204           8.2679055           7.3960766

 **********************************************************************

            Population analysis using the SCF Density.

 **********************************************************************

 Orbital symmetries:
 Alpha Orbitals:
       Occupied  (A') (A") (A') (A') (A") (A') (A') (A') (A") (A")
                 (A") (A') (A')
       Virtual   (A') (A') (A") (A') (A") (A') (A") (A') (A") (A')
                 (A") (A') (A") (A') (A') (A') (A") (A') (A") (A')
                 (A') (A") (A") (A') (A") (A') (A') (A") (A") (A')
                 (A") (A') (A') (A") (A') (A") (A') (A') (A") (A")
                 (A') (A") (A')
 Beta  Orbitals:
       Occupied  (A") (A') (A') (A') (A") (A') (A') (A') (A") (A")
                 (A") (A')
       Virtual   (A') (A') (A') (A") (A') (A") (A') (A") (A') (A")
                 (A') (A") (A") (A') (A') (A') (A') (A") (A') (A")
                 (A') (A') (A") (A") (A") (A') (A') (A') (A") (A")
                 (A') (A") (A') (A') (A") (A') (A") (A') (A") (A')
                 (A") (A') (A") (A')
 The electronic state is 2-A'.
 Alpha  occ. eigenvalues --  -10.18486 -10.17529 -10.17527  -0.77209  -0.68140
 Alpha  occ. eigenvalues --   -0.56294  -0.45153  -0.42840  -0.40936  -0.38521
 Alpha  occ. eigenvalues --   -0.35680  -0.34858  -0.18568
 Alpha virt. eigenvalues --    0.06382   0.09128   0.09951   0.12989   0.14750
 Alpha virt. eigenvalues --    0.14895   0.15669   0.23608   0.27914   0.38843
 Alpha virt. eigenvalues --    0.43243   0.46002   0.46784   0.48131   0.54665
 Alpha virt. eigenvalues --    0.62672   0.65126   0.65736   0.67041   0.67618
 Alpha virt. eigenvalues --    0.69081   0.70310   0.70541   0.71994   0.72135
 Alpha virt. eigenvalues --    0.77261   0.85862   0.97877   1.42975   1.49575
 Alpha virt. eigenvalues --    1.69389   1.75869   1.84836   1.94401   1.98713
 Alpha virt. eigenvalues --    2.01033   2.12022   2.13941   2.14527   2.35858
 Alpha virt. eigenvalues --    2.37415   2.62191   2.62765
  Beta  occ. eigenvalues --  -10.17632 -10.17631 -10.17054  -0.75500  -0.67888
  Beta  occ. eigenvalues --   -0.54269  -0.44661  -0.41073  -0.40351  -0.37873
  Beta  occ. eigenvalues --   -0.35311  -0.34362
  Beta virt. eigenvalues --   -0.03708   0.06518   0.09481   0.10113   0.13575
  Beta virt. eigenvalues --    0.14981   0.15514   0.15853   0.24883   0.28492
  Beta virt. eigenvalues --    0.39086   0.43492   0.47488   0.47772   0.50489
  Beta virt. eigenvalues --    0.59129   0.64727   0.65306   0.66339   0.67748
  Beta virt. eigenvalues --    0.68273   0.69338   0.70452   0.70808   0.72365
  Beta virt. eigenvalues --    0.72936   0.77751   0.86627   0.98196   1.45289
  Beta virt. eigenvalues --    1.52781   1.69421   1.76141   1.89912   1.94654
  Beta virt. eigenvalues --    1.99431   2.02309   2.12750   2.14497   2.16675
  Beta virt. eigenvalues --    2.38542   2.39414   2.62931   2.63895
          Condensed to atoms (all electrons):
               1          2          3          4          5          6
     1  C    4.796340   0.433157  -0.059719   0.372476   0.364075   0.375619
     2  C    0.433157   5.106250   0.433157  -0.016985  -0.033462  -0.030315
     3  C   -0.059719   0.433157   4.796340   0.007589  -0.002475  -0.007472
     4  H    0.372476  -0.016985   0.007589   0.597260  -0.027272  -0.022533
     5  H    0.364075  -0.033462  -0.002475  -0.027272   0.629866  -0.033727
     6  H    0.375619  -0.030315  -0.007472  -0.022533  -0.033727   0.608542
     7  H   -0.044575   0.387446  -0.044575  -0.007625   0.000654   0.006833
     8  H   -0.007472  -0.030315   0.375619   0.000047  -0.001396   0.009134
     9  H   -0.002475  -0.033462   0.364075  -0.000330   0.005252  -0.001396
    10  H    0.007589  -0.016985   0.372476  -0.000327  -0.000330   0.000047
               7          8          9         10
     1  C   -0.044575  -0.007472  -0.002475   0.007589
     2  C    0.387446  -0.030315  -0.033462  -0.016985
     3  C   -0.044575   0.375619   0.364075   0.372476
     4  H   -0.007625   0.000047  -0.000330  -0.000327
     5  H    0.000654  -0.001396   0.005252  -0.000330
     6  H    0.006833   0.009134  -0.001396   0.000047
     7  H    0.617019   0.006833   0.000654  -0.007625
     8  H    0.006833   0.608542  -0.033727  -0.022533
     9  H    0.000654  -0.033727   0.629866  -0.027272
    10  H   -0.007625  -0.022533  -0.027272   0.597260
          Atomic-Atomic Spin Densities.
               1          2          3          4          5          6
     1  C   -0.079422  -0.033778  -0.002404   0.006470   0.006705   0.008801
     2  C   -0.033778   1.221135  -0.033778  -0.006656  -0.033773  -0.016541
     3  C   -0.002404  -0.033778  -0.079422   0.000169  -0.000035   0.001476
     4  H    0.006470  -0.006656   0.000169   0.011914  -0.009253   0.004433
     5  H    0.006705  -0.033773  -0.000035  -0.009253   0.120513  -0.019219
     6  H    0.008801  -0.016541   0.001476   0.004433  -0.019219   0.042613
     7  H    0.000132  -0.002118   0.000132   0.001319  -0.001622   0.000419
     8  H    0.001476  -0.016541   0.008801   0.000245  -0.002185   0.003708
     9  H   -0.000035  -0.033773   0.006705  -0.000269   0.005827  -0.002185
    10  H    0.000169  -0.006656   0.006470   0.000037  -0.000269   0.000245
               7          8          9         10
     1  C    0.000132   0.001476  -0.000035   0.000169
     2  C   -0.002118  -0.016541  -0.033773  -0.006656
     3  C    0.000132   0.008801   0.006705   0.006470
     4  H    0.001319   0.000245  -0.000269   0.000037
     5  H   -0.001622  -0.002185   0.005827  -0.000269
     6  H    0.000419   0.003708  -0.002185   0.000245
     7  H   -0.049826   0.000419  -0.001622   0.001319
     8  H    0.000419   0.042613  -0.019219   0.004433
     9  H   -0.001622  -0.019219   0.120513  -0.009253
    10  H    0.001319   0.004433  -0.009253   0.011914
 Mulliken charges and spin densities:
               1          2
     1  C   -0.235015  -0.091885
     2  C   -0.198487   1.037523
     3  C   -0.235015  -0.091885
     4  H    0.097698   0.008409
     5  H    0.098814   0.066689
     6  H    0.095267   0.023750
     7  H    0.084959  -0.051448
     8  H    0.095267   0.023750
     9  H    0.098814   0.066689
    10  H    0.097698   0.008409
 Sum of Mulliken charges =   0.00000   1.00000
 Mulliken charges and spin densities with hydrogens summed into heavy atoms:
               1          2
     1  C    0.056764   0.006963
     2  C   -0.113528   0.986075
     3  C    0.056764   0.006963
 Electronic spatial extent (au):  <R**2>=            221.5408
 Charge=              0.0000 electrons
 Dipole moment (field-independent basis, Debye):
    X=              0.1956    Y=             -0.1335    Z=              0.0000  Tot=              0.2368
 Quadrupole moment (field-independent basis, Debye-Ang):
   XX=            -21.5844   YY=            -20.7347   ZZ=            -20.7978
   XY=              0.3065   XZ=             -0.0000   YZ=              0.0000
 Traceless Quadrupole moment (field-independent basis, Debye-Ang):
   XX=             -0.5454   YY=              0.3042   ZZ=              0.2412
   XY=              0.3065   XZ=             -0.0000   YZ=              0.0000
 Octapole moment (field-independent basis, Debye-Ang**2):
  XXX=              0.6486  YYY=              0.6536  ZZZ=              0.0000  XYY=              0.0722
  XXY=             -1.1541  XXZ=              0.0000  XZZ=             -0.1748  YZZ=              1.2014
  YYZ=              0.0000  XYZ=             -0.0000
 Hexadecapole moment (field-independent basis, Debye-Ang**3):
 XXXX=            -37.5098 YYYY=            -59.8851 ZZZZ=           -209.4366 XXXY=             -0.8219
 XXXZ=             -0.0000 YYYX=              0.5517 YYYZ=              0.0000 ZZZX=             -0.0000
 ZZZY=              0.0000 XXYY=            -16.3396 XXZZ=            -41.2681 YYZZ=            -44.6016
 XXYZ=              0.0000 YYXZ=             -0.0000 ZZXY=             -0.9180
 N-N= 7.500216883109D+01 E-N=-4.228468354695D+02  KE= 1.169761061449D+02
 Symmetry A'   KE= 7.592670379712D+01
 Symmetry A"   KE= 4.104940234781D+01
 Symmetry A'   SP= 1.000000000000D+00
 Symmetry A"   SP= 1.066748211574D-14
                          Isotropic Fermi Contact Couplings
        Atom                 a.u.       MegaHertz       Gauss      10(-4) cm-1
     1  C(13)             -0.04304     -48.38542     -17.26512     -16.13964
     2  C(13)              0.20569     231.23914      82.51188      77.13307
     3  C(13)             -0.04304     -48.38542     -17.26512     -16.13964
     4  H(1)               0.00390      17.42448       6.21749       5.81218
     5  H(1)               0.02741     122.51519      43.71647      40.86667
     6  H(1)               0.01013      45.29072      16.16085      15.10736
     7  H(1)              -0.01297     -57.96734     -20.68419     -19.33582
     8  H(1)               0.01013      45.29072      16.16085      15.10736
     9  H(1)               0.02741     122.51519      43.71647      40.86667
    10  H(1)               0.00390      17.42448       6.21749       5.81218
 --------------------------------------------------------
       Center         ----  Spin Dipole Couplings  ----
                      3XX-RR        3YY-RR        3ZZ-RR
 --------------------------------------------------------
     1   Atom       -0.006720     -0.004120      0.010841
     2   Atom        1.044793     -0.498458     -0.546335
     3   Atom       -0.006720     -0.004120      0.010841
     4   Atom       -0.007511     -0.009457      0.016968
     5   Atom       -0.003211     -0.001579      0.004789
     6   Atom       -0.006956      0.005577      0.001379
     7   Atom       -0.000979      0.067961     -0.066982
     8   Atom       -0.006956      0.005577      0.001379
     9   Atom       -0.003211     -0.001579      0.004789
    10   Atom       -0.007511     -0.009457      0.016968
 --------------------------------------------------------
                        XY            XZ            YZ
 --------------------------------------------------------
     1   Atom       -0.002870      0.002026     -0.014362
     2   Atom       -0.255538      0.000000      0.000000
     3   Atom       -0.002870     -0.002026      0.014362
     4   Atom       -0.000022     -0.000848     -0.002039
     5   Atom       -0.005483      0.005863     -0.010109
     6   Atom        0.004207     -0.004067     -0.012164
     7   Atom        0.021237      0.000000      0.000000
     8   Atom        0.004207      0.004067      0.012164
     9   Atom       -0.005483     -0.005863      0.010109
    10   Atom       -0.000022      0.000848      0.002039
 --------------------------------------------------------


 ---------------------------------------------------------------------------------
              Anisotropic Spin Dipole Couplings in Principal Axis System
 ---------------------------------------------------------------------------------

       Atom             a.u.   MegaHertz   Gauss  10(-4) cm-1        Axes

              Baa    -0.0132    -1.765    -0.630    -0.589  0.2235  0.8446  0.4866
     1 C(13)  Bbb    -0.0068    -0.911    -0.325    -0.304  0.9673 -0.1306 -0.2175
              Bcc     0.0199     2.676     0.955     0.893  0.1202 -0.5193  0.8461
 
              Baa    -0.5463   -73.313   -26.160   -24.455 -0.0000 -0.0000  1.0000
     2 C(13)  Bbb    -0.5397   -72.419   -25.841   -24.156  0.1592  0.9872  0.0000
              Bcc     1.0860   145.732    52.001    48.611  0.9872 -0.1592 -0.0000
 
              Baa    -0.0132    -1.765    -0.630    -0.589  0.2235  0.8446 -0.4866
     3 C(13)  Bbb    -0.0068    -0.911    -0.325    -0.304  0.9673 -0.1306  0.2175
              Bcc     0.0199     2.676     0.955     0.893 -0.1202  0.5193  0.8461
 
              Baa    -0.0096    -5.131    -1.831    -1.712  0.0418  0.9961  0.0777
     4 H(1)   Bbb    -0.0075    -4.021    -1.435    -1.341  0.9985 -0.0443  0.0309
              Bcc     0.0172     9.152     3.266     3.053 -0.0342 -0.0763  0.9965
 
              Baa    -0.0093    -4.954    -1.768    -1.652  0.2907  0.8304  0.4754
     5 H(1)   Bbb    -0.0063    -3.364    -1.200    -1.122  0.8733 -0.0273 -0.4864
              Bcc     0.0156     8.318     2.968     2.775  0.3909 -0.5565  0.7331
 
              Baa    -0.0091    -4.844    -1.728    -1.616  0.4661  0.4820  0.7419
     6 H(1)   Bbb    -0.0082    -4.350    -1.552    -1.451  0.8530 -0.4673 -0.2323
              Bcc     0.0172     9.194     3.281     3.067  0.2347  0.7412 -0.6289
 
              Baa    -0.0670   -35.738   -12.752   -11.921  0.0000 -0.0000  1.0000
     7 H(1)   Bbb    -0.0070    -3.733    -1.332    -1.245  0.9621 -0.2726 -0.0000
              Bcc     0.0740    39.471    14.084    13.166  0.2726  0.9621  0.0000
 
              Baa    -0.0091    -4.844    -1.728    -1.616 -0.4661 -0.4820  0.7419
     8 H(1)   Bbb    -0.0082    -4.350    -1.552    -1.451  0.8530 -0.4673  0.2323
              Bcc     0.0172     9.194     3.281     3.067  0.2347  0.7412  0.6289
 
              Baa    -0.0093    -4.954    -1.768    -1.652  0.2907  0.8304 -0.4754
     9 H(1)   Bbb    -0.0063    -3.364    -1.200    -1.122  0.8733 -0.0273  0.4864
              Bcc     0.0156     8.318     2.968     2.775 -0.3909  0.5565  0.7331
 
              Baa    -0.0096    -5.131    -1.831    -1.712  0.0418  0.9961 -0.0777
    10 H(1)   Bbb    -0.0075    -4.021    -1.435    -1.341  0.9985 -0.0443 -0.0309
              Bcc     0.0172     9.152     3.266     3.053  0.0342  0.0763  0.9965
 

 ---------------------------------------------------------------------------------

 Unable to Open any file for archive entry.
 1\1\GINC-NODE01\FOpt\UB3LYP\def2SVPP\C3H7(2)\XUHJ\19-Dec-2023\0\\#N op
 t freq B3LYP/def2SVPP symm=veryloose em=gd3bj scale=0.961 press=0.987\
 \C[CH]C_1\\0,2\C,1.0194622375,0.02042885,-0.0985265316\C,2.4888002726,
 0.0636965918,0.1547601525\C,3.1410039049,-0.9001381105,1.0878376368\H,
 0.7299520797,0.6294072105,-0.9733499743\H,0.4328206391,0.4056815786,0.
 7684347033\H,0.664963192,-1.0159591332,-0.2684305771\H,3.0470670804,0.
 9571733861,-0.1502735693\H,2.7862461184,-1.9364138222,0.9177889036\H,2
 .9127992754,-0.6704162565,2.1552364984\H,4.2411876892,-0.8941676229,0.
 990129781\\Version=ES64L-G16RevC.01\State=2-A'\HF=-118.3850902\S2=0.75
 4047\S2-1=0.\S2A=0.750012\RMSD=6.873e-09\RMSF=3.188e-06\Dipole=-0.0408
 177,0.0126407,0.0828017\Quadrupole=0.1428067,0.165326,-0.3081328,0.130
 5503,0.1665662,-0.2443048\PG=CS [SG(C1H1),X(C2H6)]\\@
 The archive entry for this job was punched.


 YOU KNOW YOU'RE A TEACHER WHEN YOU SAY 2, WRITE 3, AND MEAN 4.
 -- RONALD ANSTROM, HIGH SCHOOL TEACHER, UNDERWOOD, N.D. 1974
 Job cpu time:       0 days  0 hours  4 minutes 55.6 seconds.
 Elapsed time:       0 days  0 hours  0 minutes 22.0 seconds.
 File lengths (MBytes):  RWF=      6 Int=      0 D2E=      0 Chk=      2 Scr=      1
 Normal termination of Gaussian 16 at Tue Dec 19 13:03:28 2023.
 Link1:  Proceeding to internal job step number  2.
 --------------------------------------------------------------------
 #N Geom=AllCheck Guess=TCheck SCRF=Check GenChk UB3LYP/def2SVPP Freq
 --------------------------------------------------------------------
 1/10=4,29=7,30=1,38=1,40=1,113=-987000,114=961000/1,3;
 2/12=2,17=2,18=2,40=1/2;
 3/5=43,7=202,11=2,14=-4,25=1,30=1,70=2,71=2,74=-5,116=2,124=41,140=1/1,2,3;
 4/5=101/1;
 5/5=2,38=6,98=1/2;
 8/6=4,10=90,11=11/1;
 11/6=1,8=1,9=11,15=111,16=1/1,2,10;
 10/6=1/2;
 6/7=2,8=2,9=2,10=2,28=1/1;
 7/8=1,10=1,25=1/1,2,3,16;
 1/10=4,30=1/3;
 99//99;
 Structure from the checkpoint file:  "/home/software/g16tmp/Gau-167139.chk"
 --------
 C[CH]C_1
 --------
 Charge =  0 Multiplicity = 2
 Redundant internal coordinates found in file.  (old form).
 C,0,1.0194622375,0.02042885,-0.0985265316
 C,0,2.4888002726,0.0636965918,0.1547601525
 C,0,3.1410039049,-0.9001381105,1.0878376368
 H,0,0.7299520797,0.6294072105,-0.9733499743
 H,0,0.4328206391,0.4056815786,0.7684347033
 H,0,0.664963192,-1.0159591332,-0.2684305771
 H,0,3.0470670804,0.9571733861,-0.1502735693
 H,0,2.7862461184,-1.9364138222,0.9177889036
 H,0,2.9127992754,-0.6704162565,2.1552364984
 H,0,4.2411876892,-0.8941676229,0.990129781
 Recover connectivity data from disk.

 GradGradGradGradGradGradGradGradGradGradGradGradGradGradGradGradGradGrad
 Berny optimization.
 Initialization pass.
                           ----------------------------
                           !    Initial Parameters    !
                           ! (Angstroms and Degrees)  !
 --------------------------                            --------------------------
 ! Name  Definition              Value          Derivative Info.                !
 --------------------------------------------------------------------------------
 ! R1    R(1,2)                  1.4916         calculate D2E/DX2 analytically  !
 ! R2    R(1,4)                  1.1045         calculate D2E/DX2 analytically  !
 ! R3    R(1,5)                  1.1154         calculate D2E/DX2 analytically  !
 ! R4    R(1,6)                  1.1084         calculate D2E/DX2 analytically  !
 ! R5    R(2,3)                  1.4916         calculate D2E/DX2 analytically  !
 ! R6    R(2,7)                  1.0968         calculate D2E/DX2 analytically  !
 ! R7    R(3,8)                  1.1084         calculate D2E/DX2 analytically  !
 ! R8    R(3,9)                  1.1154         calculate D2E/DX2 analytically  !
 ! R9    R(3,10)                 1.1045         calculate D2E/DX2 analytically  !
 ! A1    A(2,1,4)              112.1289         calculate D2E/DX2 analytically  !
 ! A2    A(2,1,5)              112.0906         calculate D2E/DX2 analytically  !
 ! A3    A(2,1,6)              111.6038         calculate D2E/DX2 analytically  !
 ! A4    A(4,1,5)              106.6977         calculate D2E/DX2 analytically  !
 ! A5    A(4,1,6)              108.0758         calculate D2E/DX2 analytically  !
 ! A6    A(5,1,6)              105.8946         calculate D2E/DX2 analytically  !
 ! A7    A(1,2,3)              121.2103         calculate D2E/DX2 analytically  !
 ! A8    A(1,2,7)              118.5408         calculate D2E/DX2 analytically  !
 ! A9    A(3,2,7)              118.5408         calculate D2E/DX2 analytically  !
 ! A10   A(2,3,8)              111.6038         calculate D2E/DX2 analytically  !
 ! A11   A(2,3,9)              112.0906         calculate D2E/DX2 analytically  !
 ! A12   A(2,3,10)             112.1289         calculate D2E/DX2 analytically  !
 ! A13   A(8,3,9)              105.8946         calculate D2E/DX2 analytically  !
 ! A14   A(8,3,10)             108.0758         calculate D2E/DX2 analytically  !
 ! A15   A(9,3,10)             106.6977         calculate D2E/DX2 analytically  !
 ! D1    D(4,1,2,3)           -166.7298         calculate D2E/DX2 analytically  !
 ! D2    D(4,1,2,7)             28.3796         calculate D2E/DX2 analytically  !
 ! D3    D(5,1,2,3)             73.2843         calculate D2E/DX2 analytically  !
 ! D4    D(5,1,2,7)            -91.6062         calculate D2E/DX2 analytically  !
 ! D5    D(6,1,2,3)            -45.3111         calculate D2E/DX2 analytically  !
 ! D6    D(6,1,2,7)            149.7983         calculate D2E/DX2 analytically  !
 ! D7    D(1,2,3,8)             45.3111         calculate D2E/DX2 analytically  !
 ! D8    D(1,2,3,9)            -73.2843         calculate D2E/DX2 analytically  !
 ! D9    D(1,2,3,10)           166.7298         calculate D2E/DX2 analytically  !
 ! D10   D(7,2,3,8)           -149.7983         calculate D2E/DX2 analytically  !
 ! D11   D(7,2,3,9)             91.6062         calculate D2E/DX2 analytically  !
 ! D12   D(7,2,3,10)           -28.3796         calculate D2E/DX2 analytically  !
 --------------------------------------------------------------------------------
 Trust Radius=3.00D-01 FncErr=1.00D-07 GrdErr=1.00D-07 EigMax=2.50D+02 EigMin=1.00D-04
 Number of steps in this run=      2 maximum allowed number of steps=      2.
 GradGradGradGradGradGradGradGradGradGradGradGradGradGradGradGradGradGrad

                          Input orientation:                          
 ---------------------------------------------------------------------
 Center     Atomic      Atomic             Coordinates (Angstroms)
 Number     Number       Type             X           Y           Z
 ---------------------------------------------------------------------
      1          6           0        1.019462    0.020429   -0.098527
      2          6           0        2.488800    0.063697    0.154760
      3          6           0        3.141004   -0.900138    1.087838
      4          1           0        0.729952    0.629407   -0.973350
      5          1           0        0.432821    0.405682    0.768435
      6          1           0        0.664963   -1.015959   -0.268431
      7          1           0        3.047067    0.957173   -0.150274
      8          1           0        2.786246   -1.936414    0.917789
      9          1           0        2.912799   -0.670416    2.155236
     10          1           0        4.241188   -0.894168    0.990130
 ---------------------------------------------------------------------
                    Distance matrix (angstroms):
                    1          2          3          4          5
     1  C    0.000000
     2  C    1.491637   0.000000
     3  C    2.599200   1.491637   0.000000
     4  H    1.104530   2.164765   3.521530   0.000000
     5  H    1.115433   2.172695   3.023481   1.781054   0.000000
     6  H    1.108439   2.161279   2.825536   1.791191   1.774836
     7  H    2.234133   1.096817   2.234133   2.480707   2.825323
     8  H    2.825536   2.161279   1.108439   3.793177   3.323602
     9  H    3.023481   2.172695   1.115433   4.030188   3.038338
    10  H    3.521530   2.164765   1.104530   4.301780   4.030188
                    6          7          8          9         10
     6  H    0.000000
     7  H    3.095421   0.000000
     8  H    2.598883   3.095421   0.000000
     9  H    3.323602   2.825323   1.774836   0.000000
    10  H    3.793177   2.480707   1.791191   1.781054   0.000000
 Stoichiometry    C3H7(2)
 Framework group  CS[SG(CH),X(C2H6)]
 Deg. of freedom    13
 Full point group                 CS      NOp   2
 Largest Abelian subgroup         CS      NOp   2
 Largest concise Abelian subgroup CS      NOp   2
                         Standard orientation:                         
 ---------------------------------------------------------------------
 Center     Atomic      Atomic             Coordinates (Angstroms)
 Number     Number       Type             X           Y           Z
 ---------------------------------------------------------------------
      1          6           0       -0.011834   -0.197046    1.299600
      2          6           0       -0.011834    0.535088   -0.000000
      3          6           0       -0.011834   -0.197046   -1.299600
      4          1           0       -0.246695    0.466379    2.150890
      5          1           0        0.978042   -0.661939    1.519169
      6          1           0       -0.744505   -1.028809    1.299442
      7          1           0        0.239323    1.602762   -0.000000
      8          1           0       -0.744505   -1.028809   -1.299442
      9          1           0        0.978042   -0.661939   -1.519169
     10          1           0       -0.246695    0.466379   -2.150890
 ---------------------------------------------------------------------
 Rotational constants (GHZ):          37.0918204           8.2679055           7.3960766
 Standard basis: def2SVPP (5D, 7F)
 There are    34 symmetry adapted cartesian basis functions of A'  symmetry.
 There are    25 symmetry adapted cartesian basis functions of A"  symmetry.
 There are    32 symmetry adapted basis functions of A'  symmetry.
 There are    24 symmetry adapted basis functions of A"  symmetry.
    56 basis functions,   103 primitive gaussians,    59 cartesian basis functions
    13 alpha electrons       12 beta electrons
       nuclear repulsion energy        75.0109286132 Hartrees.
 NAtoms=   10 NActive=   10 NUniq=    6 SFac= 2.78D+00 NAtFMM=   60 NAOKFM=F Big=F
 Integral buffers will be    131072 words long.
 Raffenetti 2 integral format.
 Two-electron integral symmetry is turned on.
 Nuclear repulsion after empirical dispersion term =       75.0021688311 Hartrees.
 One-electron integrals computed using PRISM.
   2 Symmetry operations used in ECPInt.
 ECPInt:  NShTT=     528 NPrTT=    2140 LenC2=     529 LenP2D=    1899.
 LDataN:  DoStor=T MaxTD1= 4 Len=   56
 NBasis=    56 RedAO= T EigKep=  4.28D-03  NBF=    32    24
 NBsUse=    56 1.00D-06 EigRej= -1.00D+00 NBFU=    32    24
 Initial guess from the checkpoint file:  "/home/software/g16tmp/Gau-167139.chk"
 B after Tr=    -0.000000   -0.000000    0.000000
         Rot=    1.000000   -0.000000    0.000000   -0.000000 Ang=   0.00 deg.
 Initial guess orbital symmetries:
 Alpha Orbitals:
       Occupied  (A') (A") (A') (A') (A") (A') (A') (A') (A") (A")
                 (A") (A') (A')
       Virtual   (A') (A') (A") (A') (A") (A') (A") (A') (A") (A')
                 (A") (A') (A") (A') (A') (A') (A") (A') (A") (A')
                 (A') (A") (A") (A') (A") (A') (A') (A") (A") (A')
                 (A") (A') (A') (A") (A') (A") (A') (A') (A") (A")
                 (A') (A") (A')
 Beta  Orbitals:
       Occupied  (A") (A') (A') (A') (A") (A') (A') (A') (A") (A")
                 (A") (A')
       Virtual   (A') (A') (A') (A") (A') (A") (A') (A") (A') (A")
                 (A') (A") (A") (A') (A') (A') (A') (A") (A') (A")
                 (A') (A') (A") (A") (A") (A') (A') (A') (A") (A")
                 (A') (A") (A') (A') (A") (A') (A") (A') (A") (A')
                 (A") (A') (A") (A')
 Initial guess <Sx>= 0.0000 <Sy>= 0.0000 <Sz>= 0.5000 <S**2>= 0.7540 S= 0.5020
 Keep R1 and R2 ints in memory in symmetry-blocked form, NReq=15381125.
 Requested convergence on RMS density matrix=1.00D-08 within 128 cycles.
 Requested convergence on MAX density matrix=1.00D-06.
 Requested convergence on             energy=1.00D-06.
 No special actions if energy rises.
 SCF Done:  E(UB3LYP) =  -118.385090222     A.U. after    1 cycles
            NFock=  1  Conv=0.35D-08     -V/T= 2.0120
 <Sx>= 0.0000 <Sy>= 0.0000 <Sz>= 0.5000 <S**2>= 0.7540 S= 0.5020
 <L.S>=  0.00000000000    
 Annihilation of the first spin contaminant:
 S**2 before annihilation     0.7540,   after     0.7500
 DoSCS=F DFT=T ScalE2(SS,OS)=  1.000000  1.000000
 Range of M.O.s used for correlation:     1    56
 NBasis=    56 NAE=    13 NBE=    12 NFC=     0 NFV=     0
 NROrb=     56 NOA=    13 NOB=    12 NVA=    43 NVB=    44
   2 Symmetry operations used in ECPInt.
 ECPInt:  NShTT=     528 NPrTT=    2140 LenC2=     529 LenP2D=    1899.
 LDataN:  DoStor=T MaxTD1= 5 Len=  102
 Symmetrizing basis deriv contribution to polar:
 IMax=3 JMax=2 DiffMx= 0.00D+00
 G2DrvN: will do    11 centers at a time, making    1 passes.
 Calling FoFCou, ICntrl=  3107 FMM=F I1Cent=   0 AccDes= 0.00D+00.
 End of G2Drv F.D. properties file   721 does not exist.
 End of G2Drv F.D. properties file   722 does not exist.
 End of G2Drv F.D. properties file   788 does not exist.
          IDoAtm=1111111111
          Differentiating once with respect to electric field.
                with respect to dipole field.
          Differentiating once with respect to nuclear coordinates.
 Keep R1 and R2 ints in memory in symmetry-blocked form, NReq=15334649.
          There are    21 degrees of freedom in the 1st order CPHF.  IDoFFX=4 NUNeed=    21.
     21 vectors produced by pass  0 Test12= 5.18D-15 4.76D-09 XBig12= 4.28D+01 2.43D+00.
 AX will form    21 AO Fock derivatives at one time.
     21 vectors produced by pass  1 Test12= 5.18D-15 4.76D-09 XBig12= 1.78D+00 3.66D-01.
     21 vectors produced by pass  2 Test12= 5.18D-15 4.76D-09 XBig12= 2.57D-02 4.04D-02.
     21 vectors produced by pass  3 Test12= 5.18D-15 4.76D-09 XBig12= 3.42D-04 3.57D-03.
     21 vectors produced by pass  4 Test12= 5.18D-15 4.76D-09 XBig12= 3.16D-06 3.46D-04.
     21 vectors produced by pass  5 Test12= 5.18D-15 4.76D-09 XBig12= 1.01D-08 1.41D-05.
      9 vectors produced by pass  6 Test12= 5.18D-15 4.76D-09 XBig12= 1.46D-11 6.79D-07.
      3 vectors produced by pass  7 Test12= 5.18D-15 4.76D-09 XBig12= 3.63D-14 3.94D-08.
 InvSVY:  IOpt=1 It=  1 EMax= 5.33D-15
 Solved reduced A of dimension   138 with    21 vectors.
 Isotropic polarizability for W=    0.000000       33.13 Bohr**3.
 End of Minotr F.D. properties file   721 does not exist.
 End of Minotr F.D. properties file   722 does not exist.
 End of Minotr F.D. properties file   788 does not exist.

 **********************************************************************

            Population analysis using the SCF Density.

 **********************************************************************

 Orbital symmetries:
 Alpha Orbitals:
       Occupied  (A') (A") (A') (A') (A") (A') (A') (A') (A") (A")
                 (A") (A') (A')
       Virtual   (A') (A') (A") (A') (A") (A') (A") (A') (A") (A')
                 (A") (A') (A") (A') (A') (A') (A") (A') (A") (A')
                 (A') (A") (A") (A') (A") (A') (A') (A") (A") (A')
                 (A") (A') (A') (A") (A') (A") (A') (A') (A") (A")
                 (A') (A") (A')
 Beta  Orbitals:
       Occupied  (A") (A') (A') (A') (A") (A') (A') (A') (A") (A")
                 (A") (A')
       Virtual   (A') (A') (A') (A") (A') (A") (A') (A") (A') (A")
                 (A') (A") (A") (A') (A') (A') (A') (A") (A') (A")
                 (A') (A') (A") (A") (A") (A') (A') (A') (A") (A")
                 (A') (A") (A') (A') (A") (A') (A") (A') (A") (A')
                 (A") (A') (A") (A')
 The electronic state is 2-A'.
 Alpha  occ. eigenvalues --  -10.18486 -10.17529 -10.17527  -0.77209  -0.68140
 Alpha  occ. eigenvalues --   -0.56294  -0.45153  -0.42840  -0.40936  -0.38521
 Alpha  occ. eigenvalues --   -0.35680  -0.34858  -0.18568
 Alpha virt. eigenvalues --    0.06382   0.09128   0.09951   0.12989   0.14750
 Alpha virt. eigenvalues --    0.14895   0.15669   0.23608   0.27914   0.38843
 Alpha virt. eigenvalues --    0.43243   0.46002   0.46784   0.48131   0.54665
 Alpha virt. eigenvalues --    0.62672   0.65126   0.65736   0.67041   0.67618
 Alpha virt. eigenvalues --    0.69081   0.70310   0.70541   0.71994   0.72135
 Alpha virt. eigenvalues --    0.77261   0.85862   0.97877   1.42975   1.49575
 Alpha virt. eigenvalues --    1.69389   1.75869   1.84836   1.94401   1.98713
 Alpha virt. eigenvalues --    2.01033   2.12022   2.13941   2.14527   2.35858
 Alpha virt. eigenvalues --    2.37415   2.62191   2.62765
  Beta  occ. eigenvalues --  -10.17632 -10.17631 -10.17054  -0.75500  -0.67888
  Beta  occ. eigenvalues --   -0.54269  -0.44661  -0.41073  -0.40351  -0.37873
  Beta  occ. eigenvalues --   -0.35311  -0.34362
  Beta virt. eigenvalues --   -0.03708   0.06518   0.09481   0.10113   0.13575
  Beta virt. eigenvalues --    0.14981   0.15514   0.15853   0.24883   0.28492
  Beta virt. eigenvalues --    0.39086   0.43492   0.47488   0.47772   0.50489
  Beta virt. eigenvalues --    0.59129   0.64727   0.65306   0.66339   0.67748
  Beta virt. eigenvalues --    0.68273   0.69338   0.70452   0.70808   0.72365
  Beta virt. eigenvalues --    0.72936   0.77751   0.86627   0.98196   1.45289
  Beta virt. eigenvalues --    1.52781   1.69421   1.76141   1.89912   1.94654
  Beta virt. eigenvalues --    1.99431   2.02309   2.12750   2.14497   2.16675
  Beta virt. eigenvalues --    2.38542   2.39414   2.62931   2.63895
          Condensed to atoms (all electrons):
               1          2          3          4          5          6
     1  C    4.796340   0.433157  -0.059719   0.372476   0.364075   0.375619
     2  C    0.433157   5.106250   0.433157  -0.016985  -0.033462  -0.030315
     3  C   -0.059719   0.433157   4.796340   0.007589  -0.002475  -0.007472
     4  H    0.372476  -0.016985   0.007589   0.597261  -0.027272  -0.022533
     5  H    0.364075  -0.033462  -0.002475  -0.027272   0.629866  -0.033727
     6  H    0.375619  -0.030315  -0.007472  -0.022533  -0.033727   0.608542
     7  H   -0.044575   0.387446  -0.044575  -0.007625   0.000654   0.006833
     8  H   -0.007472  -0.030315   0.375619   0.000047  -0.001396   0.009134
     9  H   -0.002475  -0.033462   0.364075  -0.000330   0.005252  -0.001396
    10  H    0.007589  -0.016985   0.372476  -0.000327  -0.000330   0.000047
               7          8          9         10
     1  C   -0.044575  -0.007472  -0.002475   0.007589
     2  C    0.387446  -0.030315  -0.033462  -0.016985
     3  C   -0.044575   0.375619   0.364075   0.372476
     4  H   -0.007625   0.000047  -0.000330  -0.000327
     5  H    0.000654  -0.001396   0.005252  -0.000330
     6  H    0.006833   0.009134  -0.001396   0.000047
     7  H    0.617020   0.006833   0.000654  -0.007625
     8  H    0.006833   0.608542  -0.033727  -0.022533
     9  H    0.000654  -0.033727   0.629866  -0.027272
    10  H   -0.007625  -0.022533  -0.027272   0.597261
          Atomic-Atomic Spin Densities.
               1          2          3          4          5          6
     1  C   -0.079422  -0.033778  -0.002404   0.006470   0.006705   0.008801
     2  C   -0.033778   1.221135  -0.033778  -0.006656  -0.033773  -0.016541
     3  C   -0.002404  -0.033778  -0.079422   0.000169  -0.000035   0.001476
     4  H    0.006470  -0.006656   0.000169   0.011914  -0.009253   0.004433
     5  H    0.006705  -0.033773  -0.000035  -0.009253   0.120514  -0.019219
     6  H    0.008801  -0.016541   0.001476   0.004433  -0.019219   0.042613
     7  H    0.000132  -0.002118   0.000132   0.001319  -0.001622   0.000419
     8  H    0.001476  -0.016541   0.008801   0.000245  -0.002185   0.003708
     9  H   -0.000035  -0.033773   0.006705  -0.000269   0.005827  -0.002185
    10  H    0.000169  -0.006656   0.006470   0.000037  -0.000269   0.000245
               7          8          9         10
     1  C    0.000132   0.001476  -0.000035   0.000169
     2  C   -0.002118  -0.016541  -0.033773  -0.006656
     3  C    0.000132   0.008801   0.006705   0.006470
     4  H    0.001319   0.000245  -0.000269   0.000037
     5  H   -0.001622  -0.002185   0.005827  -0.000269
     6  H    0.000419   0.003708  -0.002185   0.000245
     7  H   -0.049826   0.000419  -0.001622   0.001319
     8  H    0.000419   0.042613  -0.019219   0.004433
     9  H   -0.001622  -0.019219   0.120514  -0.009253
    10  H    0.001319   0.004433  -0.009253   0.011914
 Mulliken charges and spin densities:
               1          2
     1  C   -0.235015  -0.091885
     2  C   -0.198487   1.037523
     3  C   -0.235015  -0.091885
     4  H    0.097698   0.008409
     5  H    0.098814   0.066690
     6  H    0.095267   0.023749
     7  H    0.084959  -0.051448
     8  H    0.095267   0.023749
     9  H    0.098814   0.066690
    10  H    0.097698   0.008409
 Sum of Mulliken charges =   0.00000   1.00000
 Mulliken charges and spin densities with hydrogens summed into heavy atoms:
               1          2
     1  C    0.056764   0.006963
     2  C   -0.113528   0.986075
     3  C    0.056764   0.006963
 APT charges:
               1
     1  C    0.061078
     2  C    0.031453
     3  C    0.061078
     4  H   -0.014529
     5  H   -0.035893
     6  H   -0.020713
     7  H   -0.011339
     8  H   -0.020713
     9  H   -0.035893
    10  H   -0.014529
 Sum of APT charges =   0.00000
 APT charges with hydrogens summed into heavy atoms:
               1
     1  C   -0.010057
     2  C    0.020114
     3  C   -0.010057
 Electronic spatial extent (au):  <R**2>=            221.5408
 Charge=             -0.0000 electrons
 Dipole moment (field-independent basis, Debye):
    X=              0.1956    Y=             -0.1335    Z=             -0.0000  Tot=              0.2368
 Quadrupole moment (field-independent basis, Debye-Ang):
   XX=            -21.5844   YY=            -20.7347   ZZ=            -20.7978
   XY=              0.3065   XZ=             -0.0000   YZ=             -0.0000
 Traceless Quadrupole moment (field-independent basis, Debye-Ang):
   XX=             -0.5454   YY=              0.3042   ZZ=              0.2412
   XY=              0.3065   XZ=             -0.0000   YZ=             -0.0000
 Octapole moment (field-independent basis, Debye-Ang**2):
  XXX=              0.6486  YYY=              0.6536  ZZZ=             -0.0000  XYY=              0.0722
  XXY=             -1.1541  XXZ=             -0.0000  XZZ=             -0.1748  YZZ=              1.2014
  YYZ=             -0.0000  XYZ=              0.0000
 Hexadecapole moment (field-independent basis, Debye-Ang**3):
 XXXX=            -37.5098 YYYY=            -59.8851 ZZZZ=           -209.4366 XXXY=             -0.8219
 XXXZ=              0.0000 YYYX=              0.5517 YYYZ=              0.0000 ZZZX=              0.0000
 ZZZY=              0.0000 XXYY=            -16.3396 XXZZ=            -41.2681 YYZZ=            -44.6016
 XXYZ=              0.0000 YYXZ=              0.0000 ZZXY=             -0.9180
 N-N= 7.500216883109D+01 E-N=-4.228468323683D+02  KE= 1.169761050500D+02
 Symmetry A'   KE= 7.592670318979D+01
 Symmetry A"   KE= 4.104940186022D+01
 Symmetry A'   SP= 1.000000000000D+00
 Symmetry A"   SP=-5.614669699224D-15
  Exact polarizability:      27.704       0.278      33.080      -0.000      -0.000      38.610
 Approx polarizability:      36.649       0.196      43.012      -0.000      -0.000      44.289
                          Isotropic Fermi Contact Couplings
        Atom                 a.u.       MegaHertz       Gauss      10(-4) cm-1
     1  C(13)             -0.04304     -48.38535     -17.26510     -16.13962
     2  C(13)              0.20569     231.23905      82.51184      77.13304
     3  C(13)             -0.04304     -48.38535     -17.26510     -16.13962
     4  H(1)               0.00390      17.42448       6.21749       5.81218
     5  H(1)               0.02741     122.51520      43.71647      40.86667
     6  H(1)               0.01013      45.29063      16.16082      15.10733
     7  H(1)              -0.01297     -57.96730     -20.68417     -19.33581
     8  H(1)               0.01013      45.29063      16.16082      15.10733
     9  H(1)               0.02741     122.51520      43.71647      40.86667
    10  H(1)               0.00390      17.42448       6.21749       5.81218
 --------------------------------------------------------
       Center         ----  Spin Dipole Couplings  ----
                      3XX-RR        3YY-RR        3ZZ-RR
 --------------------------------------------------------
     1   Atom       -0.006720     -0.004120      0.010841
     2   Atom        1.044793     -0.498458     -0.546335
     3   Atom       -0.006720     -0.004120      0.010841
     4   Atom       -0.007511     -0.009457      0.016968
     5   Atom       -0.003211     -0.001579      0.004789
     6   Atom       -0.006956      0.005577      0.001379
     7   Atom       -0.000979      0.067960     -0.066982
     8   Atom       -0.006956      0.005577      0.001379
     9   Atom       -0.003211     -0.001579      0.004789
    10   Atom       -0.007511     -0.009457      0.016968
 --------------------------------------------------------
                        XY            XZ            YZ
 --------------------------------------------------------
     1   Atom       -0.002870      0.002026     -0.014362
     2   Atom       -0.255537     -0.000000      0.000000
     3   Atom       -0.002870     -0.002026      0.014362
     4   Atom       -0.000022     -0.000848     -0.002039
     5   Atom       -0.005483      0.005863     -0.010109
     6   Atom        0.004207     -0.004067     -0.012164
     7   Atom        0.021237     -0.000000     -0.000000
     8   Atom        0.004207      0.004067      0.012164
     9   Atom       -0.005483     -0.005863      0.010109
    10   Atom       -0.000022      0.000848      0.002039
 --------------------------------------------------------


 ---------------------------------------------------------------------------------
              Anisotropic Spin Dipole Couplings in Principal Axis System
 ---------------------------------------------------------------------------------

       Atom             a.u.   MegaHertz   Gauss  10(-4) cm-1        Axes

              Baa    -0.0132    -1.765    -0.630    -0.589  0.2235  0.8446  0.4866
     1 C(13)  Bbb    -0.0068    -0.911    -0.325    -0.304  0.9673 -0.1306 -0.2175
              Bcc     0.0199     2.676     0.955     0.893  0.1202 -0.5193  0.8461
 
              Baa    -0.5463   -73.313   -26.160   -24.455 -0.0000 -0.0000  1.0000
     2 C(13)  Bbb    -0.5397   -72.419   -25.841   -24.156  0.1592  0.9872  0.0000
              Bcc     1.0860   145.732    52.001    48.611  0.9872 -0.1592 -0.0000
 
              Baa    -0.0132    -1.765    -0.630    -0.589  0.2235  0.8446 -0.4866
     3 C(13)  Bbb    -0.0068    -0.911    -0.325    -0.304  0.9673 -0.1306  0.2175
              Bcc     0.0199     2.676     0.955     0.893 -0.1202  0.5193  0.8461
 
              Baa    -0.0096    -5.131    -1.831    -1.712  0.0418  0.9961  0.0777
     4 H(1)   Bbb    -0.0075    -4.021    -1.435    -1.341  0.9985 -0.0443  0.0309
              Bcc     0.0172     9.152     3.266     3.053 -0.0342 -0.0763  0.9965
 
              Baa    -0.0093    -4.954    -1.768    -1.652  0.2907  0.8304  0.4754
     5 H(1)   Bbb    -0.0063    -3.364    -1.200    -1.122  0.8733 -0.0273 -0.4864
              Bcc     0.0156     8.318     2.968     2.775  0.3909 -0.5565  0.7331
 
              Baa    -0.0091    -4.844    -1.728    -1.616  0.4661  0.4820  0.7419
     6 H(1)   Bbb    -0.0082    -4.350    -1.552    -1.451  0.8530 -0.4673 -0.2323
              Bcc     0.0172     9.194     3.281     3.067  0.2347  0.7412 -0.6289
 
              Baa    -0.0670   -35.738   -12.752   -11.921  0.0000  0.0000  1.0000
     7 H(1)   Bbb    -0.0070    -3.733    -1.332    -1.245  0.9621 -0.2726 -0.0000
              Bcc     0.0740    39.471    14.084    13.166  0.2726  0.9621 -0.0000
 
              Baa    -0.0091    -4.844    -1.728    -1.616 -0.4661 -0.4820  0.7419
     8 H(1)   Bbb    -0.0082    -4.350    -1.552    -1.451  0.8530 -0.4673  0.2323
              Bcc     0.0172     9.194     3.281     3.067  0.2347  0.7412  0.6289
 
              Baa    -0.0093    -4.954    -1.768    -1.652  0.2907  0.8304 -0.4754
     9 H(1)   Bbb    -0.0063    -3.364    -1.200    -1.122  0.8733 -0.0273  0.4864
              Bcc     0.0156     8.318     2.968     2.775 -0.3909  0.5565  0.7331
 
              Baa    -0.0096    -5.131    -1.831    -1.712  0.0418  0.9961 -0.0777
    10 H(1)   Bbb    -0.0075    -4.021    -1.435    -1.341  0.9985 -0.0443 -0.0309
              Bcc     0.0172     9.152     3.266     3.053  0.0342  0.0763  0.9965
 

 ---------------------------------------------------------------------------------

   2 Symmetry operations used in ECPInt.
 ECPInt:  NShTT=     528 NPrTT=    2140 LenC2=     529 LenP2D=    1899.
 LDataN:  DoStor=T MaxTD1= 6 Len=  172
 Calling FoFJK, ICntrl=    100127 FMM=F ISym2X=1 I1Cent= 0 IOpClX= 1 NMat=1 NMatS=1 NMatT=0.
 Full mass-weighted force constant matrix:
 Low frequencies ---   -9.0122   -4.5563    0.0002    0.0004    0.0004    1.8298
 Low frequencies ---  111.3643  126.1574  363.1700
 Diagonal vibrational polarizability:
        4.6625342       0.9803719       0.4943956
 Harmonic frequencies (cm**-1), IR intensities (KM/Mole), Raman scattering
 activities (A**4/AMU), depolarization ratios for plane and unpolarized
 incident light, reduced masses (AMU), force constants (mDyne/A),
 and normal coordinates:
                      1                      2                      3
                     A"                     A'                     A'
 Frequencies --    111.3640               126.1574               363.1700
 Red. masses --      1.0224                 1.1734                 1.7271
 Frc consts  --      0.0075                 0.0110                 0.1342
 IR Inten    --      0.0470                 0.2124                 8.8038
  Atom  AN      X      Y      Z        X      Y      Z        X      Y      Z
     1   6     0.03  -0.00  -0.00     0.05  -0.01  -0.02     0.00  -0.04  -0.12
     2   6     0.00  -0.00  -0.00    -0.10   0.02   0.00    -0.08   0.15  -0.00
     3   6    -0.03   0.00  -0.00     0.05  -0.01   0.02     0.00  -0.04   0.12
     4   1    -0.35  -0.08  -0.04     0.42   0.02   0.06     0.01  -0.27   0.05
     5   1     0.15   0.36   0.18    -0.02  -0.27  -0.30     0.06  -0.02  -0.31
     6   1     0.32  -0.26  -0.13    -0.15   0.16   0.15     0.07  -0.10  -0.29
     7   1     0.00  -0.00   0.01    -0.40   0.09   0.00     0.62  -0.01  -0.00
     8   1    -0.32   0.26  -0.13    -0.15   0.16  -0.15     0.07  -0.10   0.29
     9   1    -0.15  -0.36   0.18    -0.02  -0.27   0.30     0.06  -0.02   0.31
    10   1     0.35   0.08  -0.04     0.42   0.02  -0.06     0.01  -0.27  -0.05
                      4                      5                      6
                     A'                     A'                     A"
 Frequencies --    409.5934               895.4015               940.5274
 Red. masses --      1.4389                 2.5191                 1.2251
 Frc consts  --      0.1422                 1.1900                 0.6385
 IR Inten    --     16.4943                 1.8283                 0.1642
  Atom  AN      X      Y      Z        X      Y      Z        X      Y      Z
     1   6     0.02   0.03   0.07     0.01  -0.05   0.22     0.07  -0.06  -0.01
     2   6    -0.15  -0.07  -0.00    -0.01   0.18   0.00    -0.00   0.00  -0.02
     3   6     0.02   0.03  -0.07     0.01  -0.05  -0.22    -0.07   0.06  -0.01
     4   1     0.15   0.15   0.01    -0.04  -0.38   0.47    -0.13   0.24  -0.31
     5   1     0.09   0.12  -0.03    -0.03  -0.17   0.09    -0.08  -0.14   0.49
     6   1     0.05   0.01   0.32     0.01  -0.05  -0.06    -0.15   0.13   0.07
     7   1     0.73  -0.27  -0.00     0.05   0.18  -0.00     0.00  -0.00   0.10
     8   1     0.05   0.01  -0.32     0.01  -0.05   0.06     0.15  -0.13   0.07
     9   1     0.09   0.12   0.03    -0.03  -0.17  -0.09     0.08   0.14   0.49
    10   1     0.15   0.15  -0.01    -0.04  -0.38  -0.47     0.13  -0.24  -0.31
                      7                      8                      9
                     A"                     A'                     A"
 Frequencies --    942.5950              1034.8032              1157.4417
 Red. masses --      1.1676                 1.4566                 1.8434
 Frc consts  --      0.6112                 0.9190                 1.4550
 IR Inten    --      1.7279                 0.3000                 0.1268
  Atom  AN      X      Y      Z        X      Y      Z        X      Y      Z
     1   6    -0.06  -0.05  -0.02    -0.11   0.01   0.01     0.02   0.09  -0.10
     2   6    -0.00   0.00  -0.01     0.13  -0.01  -0.00     0.00   0.00   0.20
     3   6     0.06   0.05  -0.02    -0.11   0.01  -0.01    -0.02  -0.09  -0.10
     4   1     0.16   0.21  -0.17     0.22  -0.08   0.16    -0.02   0.10  -0.12
     5   1     0.10   0.24  -0.11     0.12   0.26  -0.41    -0.01   0.02  -0.08
     6   1     0.06  -0.16   0.47     0.17  -0.23   0.25    -0.01   0.12  -0.24
     7   1     0.00  -0.00   0.34    -0.09   0.04  -0.00     0.00   0.00   0.85
     8   1    -0.06   0.16   0.47     0.17  -0.23  -0.25     0.01  -0.12  -0.24
     9   1    -0.10  -0.24  -0.11     0.12   0.26   0.41     0.01  -0.02  -0.08
    10   1    -0.16  -0.21  -0.17     0.22  -0.08  -0.16     0.02  -0.10  -0.12
                     10                     11                     12
                     A'                     A"                     A'
 Frequencies --   1179.1051              1362.8008              1408.1374
 Red. masses --      1.8910                 1.2979                 1.2112
 Frc consts  --      1.5490                 1.4203                 1.4149
 IR Inten    --      3.3366                 2.8038                 3.8555
  Atom  AN      X      Y      Z        X      Y      Z        X      Y      Z
     1   6    -0.01  -0.14  -0.02     0.01   0.05  -0.01    -0.01   0.05  -0.08
     2   6     0.01   0.20  -0.00     0.00  -0.00  -0.14    -0.01  -0.00   0.00
     3   6    -0.01  -0.14   0.02    -0.01  -0.05  -0.01    -0.01   0.05   0.08
     4   1     0.06   0.22  -0.27    -0.02  -0.27   0.24     0.14  -0.25   0.20
     5   1     0.05   0.15   0.27    -0.16  -0.23   0.20    -0.20  -0.19   0.37
     6   1    -0.10  -0.05   0.45     0.16  -0.10   0.21     0.22  -0.16   0.28
     7   1     0.01   0.22  -0.00    -0.00   0.00   0.57     0.02  -0.02  -0.00
     8   1    -0.10  -0.05  -0.45    -0.16   0.10   0.21     0.22  -0.16  -0.28
     9   1     0.05   0.15  -0.27     0.16   0.23   0.20    -0.20  -0.19  -0.37
    10   1     0.06   0.22   0.27     0.02   0.27   0.24     0.14  -0.25  -0.20
                     13                     14                     15
                     A"                     A"                     A'
 Frequencies --   1412.5587              1453.3321              1461.6975
 Red. masses --      1.5092                 1.0861                 1.0522
 Frc consts  --      1.7742                 1.3516                 1.3245
 IR Inten    --      5.9671                 2.9944                16.2809
  Atom  AN      X      Y      Z        X      Y      Z        X      Y      Z
     1   6    -0.03   0.02  -0.11     0.03  -0.00  -0.05    -0.04  -0.02   0.02
     2   6     0.00   0.00   0.14    -0.00   0.00   0.03    -0.02   0.00  -0.00
     3   6     0.03  -0.02  -0.11    -0.03   0.00  -0.05    -0.04  -0.02  -0.02
     4   1     0.32  -0.14   0.12    -0.27  -0.31   0.12     0.48   0.17   0.01
     5   1    -0.12   0.02   0.41     0.11   0.20  -0.05    -0.01   0.13   0.25
     6   1     0.14  -0.12   0.16    -0.29   0.28   0.31     0.07  -0.10  -0.38
     7   1     0.00   0.00  -0.45     0.00  -0.00  -0.04    -0.01  -0.00   0.00
     8   1    -0.14   0.12   0.16     0.29  -0.28   0.31     0.07  -0.10   0.38
     9   1     0.12  -0.02   0.41    -0.11  -0.20  -0.05    -0.01   0.13  -0.25
    10   1    -0.32   0.14   0.12     0.27   0.31   0.12     0.48   0.17  -0.01
                     16                     17                     18
                     A"                     A'                     A"
 Frequencies --   1461.7579              1472.2594              2917.0872
 Red. masses --      1.0972                 1.0541                 1.0582
 Frc consts  --      1.3813                 1.3462                 5.3054
 IR Inten    --      0.1576                 4.4668                27.9556
  Atom  AN      X      Y      Z        X      Y      Z        X      Y      Z
     1   6     0.02   0.03  -0.02     0.01  -0.01  -0.03    -0.04   0.02  -0.02
     2   6    -0.00   0.00   0.07     0.00  -0.04   0.00    -0.00   0.00  -0.00
     3   6    -0.02  -0.03  -0.02     0.01  -0.01   0.03     0.04  -0.02  -0.02
     4   1    -0.34   0.07  -0.16     0.07  -0.29   0.21    -0.04   0.08   0.10
     5   1    -0.12  -0.36  -0.23     0.14   0.38   0.15     0.60  -0.27   0.12
     6   1     0.19  -0.14   0.27    -0.32   0.28   0.03    -0.12  -0.11  -0.00
     7   1    -0.00  -0.00  -0.24    -0.02  -0.04  -0.00     0.00  -0.00  -0.00
     8   1    -0.19   0.14   0.27    -0.32   0.28  -0.03     0.12   0.11  -0.00
     9   1     0.12   0.36  -0.23     0.14   0.38  -0.15    -0.60   0.27   0.12
    10   1     0.34  -0.07  -0.16     0.07  -0.29  -0.21     0.04  -0.08   0.10
                     19                     20                     21
                     A'                     A"                     A'
 Frequencies --   2922.1756              3012.3360              3013.3489
 Red. masses --      1.0600                 1.0799                 1.0776
 Frc consts  --      5.3331                 5.7736                 5.7653
 IR Inten    --     46.1605                 7.2172                44.7107
  Atom  AN      X      Y      Z        X      Y      Z        X      Y      Z
     1   6    -0.04   0.02  -0.02    -0.05  -0.02   0.01    -0.05  -0.02   0.01
     2   6    -0.00   0.00  -0.00    -0.00  -0.00  -0.00     0.00   0.00  -0.00
     3   6    -0.04   0.02   0.02     0.05   0.02   0.01    -0.05  -0.02  -0.01
     4   1    -0.04   0.08   0.09     0.05  -0.16  -0.20     0.05  -0.16  -0.21
     5   1     0.61  -0.28   0.13     0.16  -0.08   0.04     0.14  -0.07   0.03
     6   1    -0.10  -0.10  -0.00     0.41   0.48   0.01     0.41   0.48   0.00
     7   1    -0.00   0.01  -0.00     0.00   0.00   0.00    -0.01  -0.02   0.00
     8   1    -0.10  -0.10   0.00    -0.41  -0.48   0.01     0.41   0.48  -0.00
     9   1     0.61  -0.28  -0.13    -0.16   0.08   0.04     0.14  -0.07  -0.03
    10   1    -0.04   0.08  -0.09    -0.05   0.16  -0.20     0.05  -0.16   0.21
                     22                     23                     24
                     A'                     A"                     A'
 Frequencies --   3081.3018              3082.3161              3155.9723
 Red. masses --      1.0995                 1.1004                 1.0888
 Frc consts  --      6.1508                 6.1595                 6.3897
 IR Inten    --     17.1134                21.6650                25.4798
  Atom  AN      X      Y      Z        X      Y      Z        X      Y      Z
     1   6     0.00  -0.05  -0.04     0.00  -0.05  -0.04    -0.00  -0.01  -0.01
     2   6     0.00   0.01  -0.00     0.00   0.00   0.00    -0.02  -0.08  -0.00
     3   6     0.00  -0.05   0.04    -0.00   0.05  -0.04    -0.00  -0.01   0.01
     4   1    -0.14   0.39   0.49    -0.14   0.39   0.50    -0.02   0.05   0.07
     5   1    -0.05   0.01  -0.02    -0.05   0.01  -0.02    -0.01   0.00  -0.00
     6   1     0.18   0.20  -0.00     0.18   0.20   0.00     0.04   0.04  -0.00
     7   1    -0.04  -0.14   0.00    -0.00  -0.00  -0.00     0.22   0.96  -0.00
     8   1     0.18   0.20   0.00    -0.18  -0.20   0.00     0.04   0.04   0.00
     9   1    -0.05   0.01   0.02     0.05  -0.01  -0.02    -0.01   0.00   0.00
    10   1    -0.14   0.39  -0.49     0.14  -0.39   0.50    -0.02   0.05  -0.07

 -------------------
 - Thermochemistry -
 -------------------
 Temperature   298.150 Kelvin.  Pressure   0.98700 Atm.
 Thermochemistry will use frequencies scaled by 0.9610.
 Atom     1 has atomic number  6 and mass  12.00000
 Atom     2 has atomic number  6 and mass  12.00000
 Atom     3 has atomic number  6 and mass  12.00000
 Atom     4 has atomic number  1 and mass   1.00783
 Atom     5 has atomic number  1 and mass   1.00783
 Atom     6 has atomic number  1 and mass   1.00783
 Atom     7 has atomic number  1 and mass   1.00783
 Atom     8 has atomic number  1 and mass   1.00783
 Atom     9 has atomic number  1 and mass   1.00783
 Atom    10 has atomic number  1 and mass   1.00783
 Molecular mass:    43.05478 amu.
 Principal axes and moments of inertia in atomic units:
                           1         2         3
     Eigenvalues --    48.65604 218.28276 244.01332
           X           -0.00000   0.05250   0.99862
           Y           -0.00000   0.99862  -0.05250
           Z            1.00000   0.00000   0.00000
 This molecule is an asymmetric top.
 Rotational symmetry number  1.
 Rotational temperatures (Kelvin)      1.78013     0.39680     0.35496
 Rotational constants (GHZ):          37.09182     8.26791     7.39608
 Zero-point vibrational energy     220594.5 (Joules/Mol)
                                   52.72336 (Kcal/Mol)
 Warning -- explicit consideration of   4 degrees of freedom as
           vibrations may cause significant error
 Vibrational temperatures:    153.98   174.43   502.14   566.33  1238.04
          (Kelvin)           1300.43  1303.29  1430.79  1600.35  1630.31
                             1884.30  1946.98  1953.09  2009.47  2021.04
                             2021.12  2035.64  4033.35  4040.39  4165.05
                             4166.45  4260.41  4261.81  4363.65
 
 Zero-point correction=                           0.084020 (Hartree/Particle)
 Thermal correction to Energy=                    0.089256
 Thermal correction to Enthalpy=                  0.090201
 Thermal correction to Gibbs Free Energy=         0.056736
 Sum of electronic and zero-point Energies=           -118.301070
 Sum of electronic and thermal Energies=              -118.295834
 Sum of electronic and thermal Enthalpies=            -118.294890
 Sum of electronic and thermal Free Energies=         -118.328354
 
                     E (Thermal)             CV                S
                      KCal/Mol        Cal/Mol-Kelvin    Cal/Mol-Kelvin
 Total                   56.009             16.155             70.432
 Electronic               0.000              0.000              1.377
 Translational            0.889              2.981             37.232
 Rotational               0.889              2.981             22.476
 Vibrational             54.232             10.193              9.347
 Vibration     1          0.606              1.944              3.322
 Vibration     2          0.609              1.931              3.081
 Vibration     3          0.726              1.577              1.171
 Vibration     4          0.761              1.484              0.986
                       Q            Log10(Q)             Ln(Q)
 Total Bot       0.800432D-26        -26.096675        -60.089816
 Total V=0       0.354666D+13         12.549819         28.897026
 Vib (Bot)       0.195207D-37        -37.709505        -86.829343
 Vib (Bot)    1  0.191495D+01          0.282157          0.649691
 Vib (Bot)    2  0.168511D+01          0.226629          0.521832
 Vib (Bot)    3  0.528982D+00         -0.276559         -0.636800
 Vib (Bot)    4  0.454918D+00         -0.342067         -0.787638
 Vib (V=0)       0.864948D+01          0.936990          2.157499
 Vib (V=0)    1  0.247915D+01          0.394303          0.907916
 Vib (V=0)    2  0.225773D+01          0.353671          0.814358
 Vib (V=0)    3  0.122789D+01          0.089159          0.205296
 Vib (V=0)    4  0.117598D+01          0.070400          0.162103
 Electronic      0.200000D+01          0.301030          0.693147
 Translational   0.112504D+08          7.051169         16.235916
 Rotational      0.182234D+05          4.260630          9.810464
 ***** Axes restored to original set *****
 -------------------------------------------------------------------
 Center     Atomic                   Forces (Hartrees/Bohr)
 Number     Number              X              Y              Z
 -------------------------------------------------------------------
      1        6          -0.000001088    0.000003694   -0.000004073
      2        6          -0.000000726   -0.000002944   -0.000000986
      3        6           0.000005532    0.000000821   -0.000000371
      4        1           0.000007317   -0.000003456    0.000001685
      5        1           0.000001609   -0.000002499    0.000004626
      6        1          -0.000002490   -0.000000732    0.000001216
      7        1           0.000001461    0.000003973    0.000000470
      8        1          -0.000000502   -0.000001595    0.000002328
      9        1          -0.000005427    0.000000553    0.000000692
     10        1          -0.000005686    0.000002186   -0.000005586
 -------------------------------------------------------------------
 Cartesian Forces:  Max     0.000007317 RMS     0.000003187
 FormGI is forming the generalized inverse of G from B-inverse, IUseBI=4.

 GradGradGradGradGradGradGradGradGradGradGradGradGradGradGradGradGradGrad
 Berny optimization.
 Internal  Forces:  Max     0.000007524 RMS     0.000003500
 Search for a local minimum.
 Step number   1 out of a maximum of    2
 All quantities printed in internal units (Hartrees-Bohrs-Radians)
 Second derivative matrix not updated -- analytic derivatives used.
 ITU=  0
     Eigenvalues ---    0.00062   0.00088   0.00574   0.05601   0.05626
     Eigenvalues ---    0.05710   0.05778   0.10797   0.11877   0.12094
     Eigenvalues ---    0.12319   0.13636   0.13857   0.15069   0.18320
     Eigenvalues ---    0.29800   0.30012   0.31813   0.32177   0.32968
     Eigenvalues ---    0.33243   0.33920   0.34626   0.35430
 Angle between quadratic step and forces=  71.02 degrees.
 Linear search not attempted -- first point.
 Iteration  1 RMS(Cart)=  0.00006039 RMS(Int)=  0.00000001
 Iteration  2 RMS(Cart)=  0.00000001 RMS(Int)=  0.00000000
 ClnCor:  largest displacement from symmetrization is 2.16D-11 for atom     8.
 Variable       Old X    -DE/DX   Delta X   Delta X   Delta X     New X
                                 (Linear)    (Quad)   (Total)
    R1        2.81879  -0.00001   0.00000  -0.00001  -0.00001   2.81877
    R2        2.08726  -0.00001   0.00000  -0.00002  -0.00002   2.08724
    R3        2.10786   0.00000   0.00000   0.00001   0.00001   2.10787
    R4        2.09465   0.00000   0.00000   0.00000   0.00000   2.09465
    R5        2.81879  -0.00001   0.00000  -0.00001  -0.00001   2.81877
    R6        2.07268   0.00000   0.00000   0.00001   0.00001   2.07270
    R7        2.09465   0.00000   0.00000   0.00000   0.00000   2.09465
    R8        2.10786   0.00000   0.00000   0.00001   0.00001   2.10787
    R9        2.08726  -0.00001   0.00000  -0.00002  -0.00002   2.08724
    A1        1.95702  -0.00001   0.00000  -0.00004  -0.00004   1.95697
    A2        1.95635  -0.00000   0.00000  -0.00003  -0.00003   1.95632
    A3        1.94785   0.00000   0.00000   0.00002   0.00002   1.94788
    A4        1.86223   0.00001   0.00000   0.00006   0.00006   1.86229
    A5        1.88628   0.00000   0.00000   0.00001   0.00001   1.88629
    A6        1.84821  -0.00000   0.00000  -0.00002  -0.00002   1.84819
    A7        2.11552  -0.00000   0.00000  -0.00001  -0.00001   2.11551
    A8        2.06893   0.00000   0.00000  -0.00002  -0.00002   2.06890
    A9        2.06893   0.00000   0.00000  -0.00002  -0.00002   2.06890
   A10        1.94785   0.00000   0.00000   0.00002   0.00002   1.94788
   A11        1.95635  -0.00000   0.00000  -0.00003  -0.00003   1.95632
   A12        1.95702  -0.00001   0.00000  -0.00004  -0.00004   1.95697
   A13        1.84821  -0.00000   0.00000  -0.00002  -0.00002   1.84819
   A14        1.88628   0.00000   0.00000   0.00001   0.00001   1.88629
   A15        1.86223   0.00001   0.00000   0.00006   0.00006   1.86229
    D1       -2.90998  -0.00000   0.00000  -0.00006  -0.00006  -2.91005
    D2        0.49532   0.00000   0.00000   0.00019   0.00019   0.49551
    D3        1.27905  -0.00000   0.00000  -0.00009  -0.00009   1.27896
    D4       -1.59883  -0.00000   0.00000   0.00017   0.00017  -1.59866
    D5       -0.79083  -0.00000   0.00000  -0.00006  -0.00006  -0.79089
    D6        2.61447   0.00000   0.00000   0.00019   0.00019   2.61467
    D7        0.79083   0.00000   0.00000   0.00006   0.00006   0.79089
    D8       -1.27905   0.00000   0.00000   0.00009   0.00009  -1.27896
    D9        2.90998   0.00000   0.00000   0.00006   0.00006   2.91005
   D10       -2.61447  -0.00000   0.00000  -0.00019  -0.00019  -2.61467
   D11        1.59883   0.00000   0.00000  -0.00017  -0.00017   1.59866
   D12       -0.49532  -0.00000   0.00000  -0.00019  -0.00019  -0.49551
         Item               Value     Threshold  Converged?
 Maximum Force            0.000008     0.000450     YES
 RMS     Force            0.000003     0.000300     YES
 Maximum Displacement     0.000144     0.001800     YES
 RMS     Displacement     0.000060     0.001200     YES
 Predicted change in Energy=-1.724208D-09
 Optimization completed.
    -- Stationary point found.
                           ----------------------------
                           !   Optimized Parameters   !
                           ! (Angstroms and Degrees)  !
 --------------------------                            --------------------------
 ! Name  Definition              Value          Derivative Info.                !
 --------------------------------------------------------------------------------
 ! R1    R(1,2)                  1.4916         -DE/DX =    0.0                 !
 ! R2    R(1,4)                  1.1045         -DE/DX =    0.0                 !
 ! R3    R(1,5)                  1.1154         -DE/DX =    0.0                 !
 ! R4    R(1,6)                  1.1084         -DE/DX =    0.0                 !
 ! R5    R(2,3)                  1.4916         -DE/DX =    0.0                 !
 ! R6    R(2,7)                  1.0968         -DE/DX =    0.0                 !
 ! R7    R(3,8)                  1.1084         -DE/DX =    0.0                 !
 ! R8    R(3,9)                  1.1154         -DE/DX =    0.0                 !
 ! R9    R(3,10)                 1.1045         -DE/DX =    0.0                 !
 ! A1    A(2,1,4)              112.1289         -DE/DX =    0.0                 !
 ! A2    A(2,1,5)              112.0906         -DE/DX =    0.0                 !
 ! A3    A(2,1,6)              111.6038         -DE/DX =    0.0                 !
 ! A4    A(4,1,5)              106.6977         -DE/DX =    0.0                 !
 ! A5    A(4,1,6)              108.0758         -DE/DX =    0.0                 !
 ! A6    A(5,1,6)              105.8946         -DE/DX =    0.0                 !
 ! A7    A(1,2,3)              121.2103         -DE/DX =    0.0                 !
 ! A8    A(1,2,7)              118.5408         -DE/DX =    0.0                 !
 ! A9    A(3,2,7)              118.5408         -DE/DX =    0.0                 !
 ! A10   A(2,3,8)              111.6038         -DE/DX =    0.0                 !
 ! A11   A(2,3,9)              112.0906         -DE/DX =    0.0                 !
 ! A12   A(2,3,10)             112.1289         -DE/DX =    0.0                 !
 ! A13   A(8,3,9)              105.8946         -DE/DX =    0.0                 !
 ! A14   A(8,3,10)             108.0758         -DE/DX =    0.0                 !
 ! A15   A(9,3,10)             106.6977         -DE/DX =    0.0                 !
 ! D1    D(4,1,2,3)           -166.7298         -DE/DX =    0.0                 !
 ! D2    D(4,1,2,7)             28.3796         -DE/DX =    0.0                 !
 ! D3    D(5,1,2,3)             73.2843         -DE/DX =    0.0                 !
 ! D4    D(5,1,2,7)            -91.6062         -DE/DX =    0.0                 !
 ! D5    D(6,1,2,3)            -45.3111         -DE/DX =    0.0                 !
 ! D6    D(6,1,2,7)            149.7983         -DE/DX =    0.0                 !
 ! D7    D(1,2,3,8)             45.3111         -DE/DX =    0.0                 !
 ! D8    D(1,2,3,9)            -73.2843         -DE/DX =    0.0                 !
 ! D9    D(1,2,3,10)           166.7298         -DE/DX =    0.0                 !
 ! D10   D(7,2,3,8)           -149.7983         -DE/DX =    0.0                 !
 ! D11   D(7,2,3,9)             91.6062         -DE/DX =    0.0                 !
 ! D12   D(7,2,3,10)           -28.3796         -DE/DX =    0.0                 !
 --------------------------------------------------------------------------------
 GradGradGradGradGradGradGradGradGradGradGradGradGradGradGradGradGradGrad


 ----------------------------------------------------------------------

 Electric dipole moment (input orientation):
 (Debye = 10**-18 statcoulomb cm , SI units = C m)
                  (au)            (Debye)         (10**-30 SI)
   Tot        0.931772D-01      0.236833D+00      0.789989D+00
   x         -0.408176D-01     -0.103748D+00     -0.346066D+00
   y          0.126407D-01      0.321294D-01      0.107172D+00
   z          0.828017D-01      0.210461D+00      0.702022D+00

 Dipole polarizability, Alpha (input orientation).
 (esu units = cm**3 , SI units = C**2 m**2 J**-1)
 Alpha(0;0):
               (au)            (10**-24 esu)      (10**-40 SI)
   iso        0.331313D+02      0.490955D+01      0.546261D+01
   aniso      0.945752D+01      0.140146D+01      0.155933D+01
   xx         0.365976D+02      0.542321D+01      0.603413D+01
   yx        -0.101957D+01     -0.151084D+00     -0.168104D+00
   yy         0.318576D+02      0.472081D+01      0.525261D+01
   zx         0.280742D+01      0.416017D+00      0.462881D+00
   zy        -0.341628D+01     -0.506240D+00     -0.563268D+00
   zz         0.309386D+02      0.458463D+01      0.510109D+01

 ----------------------------------------------------------------------

 Dipole orientation:
     6          1.65040933          0.12410801         -1.00415233
     6          4.35717689          0.22751278         -1.78406672
     6          6.17954327         -1.77654907         -1.00415233
     1          0.47091650          1.47075577         -2.07745962
     1          1.39505714          0.58789284          1.03613720
     1          0.84629343         -1.79281841         -1.26170458
     1          5.10557034          2.01088244         -2.52939895
     1          5.37487500         -3.69324369         -1.26170458
     1          6.68939360         -1.63388249          1.03613720
     1          7.96681282         -1.67490709         -2.07745962

 Electric dipole moment (dipole orientation):
 (Debye = 10**-18 statcoulomb cm , SI units = C m)
                  (au)            (Debye)         (10**-30 SI)
   Tot        0.931772D-01      0.236833D+00      0.789989D+00
   x          0.000000D+00      0.000000D+00      0.000000D+00
   y          0.000000D+00      0.000000D+00      0.000000D+00
   z          0.931772D-01      0.236833D+00      0.789989D+00

 Dipole polarizability, Alpha (dipole orientation).
 (esu units = cm**3 , SI units = C**2 m**2 J**-1)
 Alpha(0;0):
               (au)            (10**-24 esu)      (10**-40 SI)
   iso        0.331313D+02      0.490955D+01      0.546261D+01
   aniso      0.945752D+01      0.140146D+01      0.155933D+01
   xx         0.375649D+02      0.556654D+01      0.619361D+01
   yx        -0.249029D+01     -0.369023D+00     -0.410594D+00
   yy         0.326757D+02      0.484205D+01      0.538750D+01
   zx        -0.929396D+00     -0.137722D+00     -0.153237D+00
   zy        -0.221469D+01     -0.328183D+00     -0.365152D+00
   zz         0.291532D+02      0.432006D+01      0.480671D+01

 ----------------------------------------------------------------------
 Unable to Open any file for archive entry.
 1\1\GINC-NODE01\Freq\UB3LYP\def2SVPP\C3H7(2)\XUHJ\19-Dec-2023\0\\#N Ge
 om=AllCheck Guess=TCheck SCRF=Check GenChk UB3LYP/def2SVPP Freq\\C[CH]
 C_1\\0,2\C,1.0194622375,0.02042885,-0.0985265316\C,2.4888002726,0.0636
 965918,0.1547601525\C,3.1410039049,-0.9001381105,1.0878376368\H,0.7299
 520797,0.6294072105,-0.9733499743\H,0.4328206391,0.4056815786,0.768434
 7033\H,0.664963192,-1.0159591332,-0.2684305771\H,3.0470670804,0.957173
 3861,-0.1502735693\H,2.7862461184,-1.9364138222,0.9177889036\H,2.91279
 92754,-0.6704162565,2.1552364984\H,4.2411876892,-0.8941676229,0.990129
 781\\Version=ES64L-G16RevC.01\State=2-A'\HF=-118.3850902\S2=0.754047\S
 2-1=0.\S2A=0.750012\RMSD=3.503e-09\RMSF=3.187e-06\ZeroPoint=0.08402\Th
 ermal=0.0892564\ETot=-118.2958339\HTot=-118.2948897\GTot=-118.3283543\
 Dipole=-0.0408176,0.0126407,0.0828017\DipoleDeriv=0.0210903,0.0028647,
 -0.057782,0.0186942,0.0495282,0.0603999,-0.0169148,0.0425724,0.1126168
 ,0.160919,0.0326975,0.1148091,0.0436874,0.0720574,-0.1858857,0.1233368
 ,-0.1662329,-0.1386169,0.0144027,-0.0031708,-0.0308972,-0.0124753,0.06
 69312,0.0296816,-0.0667012,0.0591776,0.1019015,0.0034729,0.0275368,-0.
 0452417,0.0371216,0.0140675,0.0987583,-0.0752734,0.0961732,-0.0611264,
 -0.0754138,0.0509628,0.0446243,0.0418286,0.0475273,-0.057817,0.1165831
 ,-0.0722153,-0.0797931,0.0027057,-0.0367453,-0.0179916,-0.0877833,-0.1
 282117,-0.0415248,-0.0221054,-0.0179016,0.0633657,-0.0456602,-0.054169
 5,-0.0235584,-0.0677793,-0.0689602,0.0951114,-0.0341189,0.0707735,0.08
 0602,0.0322248,-0.0778225,-0.0275473,-0.0317785,-0.1402469,0.0011021,-
 0.0273086,-0.0314516,0.0458818,0.0413679,0.0300741,0.0553556,0.0479394
 ,0.0319518,-0.0307199,-0.0098282,-0.0007081,-0.1809993,-0.1551093,0.02
 77721,-0.0117709,0.0105451,0.0553554,0.0308941,0.0123308,0.0198129,0.0
 561679\Polar=36.5976302,-1.0195656,31.8575791,2.8074207,-3.4162786,30.
 9386264\Quadrupole=0.1428063,0.1653262,-0.3081325,0.1305505,0.1665658,
 -0.2443044\PG=CS [SG(C1H1),X(C2H6)]\NImag=0\\0.48254129,0.00470336,0.5
 4618220,0.02263051,-0.03664142,0.51926830,-0.23274594,-0.00988166,-0.0
 3429919,0.52386422,-0.01157670,-0.07844266,0.01700680,0.08727780,0.460
 75805,-0.03269001,0.01641882,-0.06773200,0.06613159,-0.20435322,0.2461
 4340,-0.01207955,0.02003970,-0.02422305,-0.11642068,0.03852589,-0.0486
 3988,0.56517999,0.00239896,0.00131755,-0.00031174,0.03745495,-0.142624
 80,0.07803596,0.02053873,0.51688048,-0.00315782,0.00041245,-0.00008216
 ,-0.04654642,0.07856404,-0.11987512,-0.00195425,0.00293320,0.46593133,
 -0.06256142,0.03319171,-0.05269090,-0.00852417,0.02152677,-0.02554802,
 -0.00533763,-0.00208754,-0.00002922,0.06952448,0.03405382,-0.13002249,
 0.11652737,0.00060347,0.00045837,-0.00241446,0.00012079,0.00094221,0.0
 0041218,-0.03948125,0.13305213,-0.05460528,0.11654212,-0.21284276,0.00
 011240,0.00153162,-0.00185971,-0.00080680,-0.00099651,0.00093312,0.057
 82145,-0.12715722,0.22561677,-0.10009653,0.04509420,0.09857749,-0.0261
 4090,0.00795918,0.02040795,0.00174623,-0.00119901,0.00014889,0.0044425
 7,-0.00341422,-0.00563920,0.11609599,0.04022479,-0.07200548,-0.0640231
 1,0.00074910,0.00230133,0.00318745,-0.00016640,0.00045396,0.00046408,-
 0.00977667,0.00695341,0.01375932,-0.04642848,0.07368518,0.08657035,-0.
 06374240,-0.18978395,0.00242115,0.00418563,0.00930080,0.00046440,0.000
 09068,0.00013843,0.01193700,-0.00960968,-0.01876951,-0.10403293,0.0719
 5727,0.20335945,-0.06723166,-0.07282604,-0.01570558,-0.01454458,-0.030
 47095,-0.00133533,0.00152665,-0.00119254,0.00079787,0.00176289,0.00770
 751,0.00282063,0.00543161,0.01497848,0.00184609,0.07746518,-0.07059628
 ,-0.27031645,-0.03410735,-0.00403950,0.00149019,0.00163018,0.00066809,
 0.00116491,0.00079174,-0.00405599,-0.01254841,-0.00368381,-0.00254395,
 -0.01039366,-0.00177619,0.08043966,0.28971018,-0.01631392,-0.03497821,
 -0.05309329,0.00057701,-0.00301199,0.00077723,0.00027276,-0.00087868,-
 0.00008858,0.00885718,0.02287773,0.00636292,-0.00701111,-0.02430521,-0
 .00394908,0.01383990,0.03971900,0.04996903,-0.01000138,-0.02415348,0.0
 0518155,-0.12370382,-0.12020421,0.03223647,0.00770837,0.01131970,-0.00
 466803,0.00126036,0.00041071,0.00000672,-0.00084124,0.00019190,0.00041
 251,-0.00485373,0.00052164,0.00005926,0.12939335,0.00282744,0.00397765
 ,0.00017042,-0.12344353,-0.22975244,0.08400105,-0.00840403,-0.00987559
 ,0.00246083,-0.00019829,0.00047024,-0.00026096,-0.00011820,-0.00081095
 ,-0.00042205,-0.00025582,0.00029900,0.00011890,0.12868932,0.23831569,-
 0.00335579,-0.00147306,0.00427142,0.02972290,0.07820826,-0.04598533,0.
 00950057,0.01708213,0.00041491,0.00063380,-0.00101574,0.00054849,-0.00
 069343,-0.00101606,-0.00030133,-0.00226865,-0.00175801,0.00016859,-0.0
 3140446,-0.08865615,0.04335829,0.00091245,0.00118797,0.00095021,0.0063
 6304,0.01137336,0.00320801,-0.07787132,-0.07496362,-0.01495550,0.00012
 553,-0.00013520,0.00006764,-0.00020947,0.00002586,-0.00015410,0.000099
 90,-0.00050599,-0.00017580,-0.00023520,0.00108328,-0.00156566,0.074860
 44,-0.00131182,0.00110673,-0.00053057,-0.00688568,-0.01936817,0.003140
 30,-0.07710988,-0.26455932,-0.04065688,-0.00003237,0.00051656,0.000053
 95,0.00024604,-0.00006378,-0.00013190,0.00120223,0.00040657,0.00028654
 ,0.00278091,-0.00213196,0.00032100,0.08321248,0.28779427,0.00097936,-0
 .00000313,0.00058380,0.00763710,0.02239695,0.00072797,-0.01428238,-0.0
 3963671,-0.04821075,0.00031235,-0.00012245,-0.00000792,0.00000052,-0.0
 0028544,-0.00007072,-0.00027511,-0.00062561,0.00009439,-0.00197301,0.0
 0287022,-0.00201898,0.01715368,0.03919963,0.05448967,0.00059700,-0.000
 10933,0.00102146,0.00384862,-0.00292807,-0.01381311,-0.05599338,0.0117
 0974,0.04476566,0.00002813,0.00009885,0.00022272,-0.00036798,0.0001947
 5,0.00034488,0.00000574,0.00006364,-0.00022081,0.00000443,-0.00008089,
 -0.00017649,0.00249974,-0.00254745,-0.01044510,0.05467493,-0.00088791,
 0.00051058,-0.00059686,-0.00379379,0.00335022,0.02277286,0.01087732,-0
 .05308902,-0.04638309,-0.00004061,-0.00011758,-0.00011576,0.00058843,-
 0.00012130,-0.00041659,0.00025649,-0.00012523,-0.00000821,0.00053839,-
 0.00113670,-0.00084142,0.00688133,-0.00632666,-0.02805447,-0.01406240,
 0.05716143,0.00090307,0.00023083,0.00123104,-0.00209279,0.00733294,-0.
 02173761,0.05234843,-0.05686020,-0.25280356,-0.00029624,0.00025611,0.0
 0011848,-0.00139014,0.00011612,-0.00001212,-0.00008740,-0.00021062,-0.
 00022449,-0.00056127,0.00022655,-0.00082124,0.00161066,-0.00238739,-0.
 00508422,-0.05151298,0.05236373,0.28130426,0.00066574,0.00275357,-0.00
 144251,-0.01199579,-0.00148308,0.00004232,-0.30845869,-0.00397937,0.02
 559882,-0.00072074,0.00003552,-0.00000029,-0.00006028,0.00000667,0.000
 19064,0.00033800,0.00004867,0.00011550,0.00126886,-0.00009929,-0.00039
 280,-0.00654512,0.00044554,0.00089258,-0.00529723,-0.00035725,0.001078
 66,0.33080525,0.00016433,-0.00230763,0.00250646,0.02195885,0.00182991,
 -0.00241893,-0.00509022,-0.05061037,0.00100145,0.00095424,0.00029556,0
 .00032725,-0.00018399,0.00000128,-0.00013477,0.00016097,0.00031289,0.0
 0018014,-0.00009488,0.00064506,-0.00085095,-0.02815947,0.00262575,0.00
 426100,0.00766115,-0.00010574,-0.00106807,0.00262902,0.04731331,-0.000
 96049,0.00323400,-0.00182041,-0.02366376,-0.00186103,0.00024037,0.0273
 2018,0.00054187,-0.04635761,-0.00099741,0.00024616,-0.00009988,-0.0003
 6804,0.00014556,0.00008804,0.00036757,0.00002068,-0.00001672,0.0007102
 5,-0.00050880,0.00036517,-0.00613915,0.00070532,-0.00050323,0.02981376
 ,0.00127981,-0.00197055,-0.02608293,-0.00380358,0.05007482\\0.00000109
 ,-0.00000369,0.00000407,0.00000073,0.00000294,0.00000099,-0.00000553,-
 0.00000082,0.00000037,-0.00000732,0.00000346,-0.00000168,-0.00000161,0
 .00000250,-0.00000463,0.00000249,0.00000073,-0.00000122,-0.00000146,-0
 .00000397,-0.00000047,0.00000050,0.00000159,-0.00000233,0.00000543,-0.
 00000055,-0.00000069,0.00000569,-0.00000219,0.00000559\\\@
 The archive entry for this job was punched.


 WHAT, THEN, IS TIME?  IF NO ONE ASKS ME, I KNOW WHAT IT IS.
 IF I WISH TO EXPLAIN WHAT IT IS TO HIM WHO ASKS ME, I DO NOT KNOW.
                                   -- ST. AUGUSTINE (FIFTH CENTURY)
 Job cpu time:       0 days  0 hours  1 minutes 54.6 seconds.
 Elapsed time:       0 days  0 hours  0 minutes  7.8 seconds.
 File lengths (MBytes):  RWF=      9 Int=      0 D2E=      0 Chk=      2 Scr=      1
 Normal termination of Gaussian 16 at Tue Dec 19 13:03:36 2023.
