 Entering Gaussian System, Link 0=g16
 Initial command:
 /home/software/g16/l1.exe "/home/software/g16tmp/Gau-176302.inp" -scrdir="/home/software/g16tmp/"
 Default is to use a total of   8 processors:
                                8 via shared-memory
                                1 via Linda
 Entering Link 1 = /home/software/g16/l1.exe PID=    176303.
  
 Copyright (c) 1988-2019, Gaussian, Inc.  All Rights Reserved.
  
 This is part of the Gaussian(R) 16 program.  It is based on
 the Gaussian(R) 09 system (copyright 2009, Gaussian, Inc.),
 the Gaussian(R) 03 system (copyright 2003, Gaussian, Inc.),
 the Gaussian(R) 98 system (copyright 1998, Gaussian, Inc.),
 the Gaussian(R) 94 system (copyright 1995, Gaussian, Inc.),
 the Gaussian 92(TM) system (copyright 1992, Gaussian, Inc.),
 the Gaussian 90(TM) system (copyright 1990, Gaussian, Inc.),
 the Gaussian 88(TM) system (copyright 1988, Gaussian, Inc.),
 the Gaussian 86(TM) system (copyright 1986, Carnegie Mellon
 University), and the Gaussian 82(TM) system (copyright 1983,
 Carnegie Mellon University). Gaussian is a federally registered
 trademark of Gaussian, Inc.
  
 This software contains proprietary and confidential information,
 including trade secrets, belonging to Gaussian, Inc.
  
 This software is provided under written license and may be
 used, copied, transmitted, or stored only in accord with that
 written license.
  
 The following legend is applicable only to US Government
 contracts under FAR:
  
                    RESTRICTED RIGHTS LEGEND
  
 Use, reproduction and disclosure by the US Government is
 subject to restrictions as set forth in subparagraphs (a)
 and (c) of the Commercial Computer Software - Restricted
 Rights clause in FAR 52.227-19.
  
 Gaussian, Inc.
 340 Quinnipiac St., Bldg. 40, Wallingford CT 06492
  
  
 ---------------------------------------------------------------
 Warning -- This program may not be used in any manner that
 competes with the business of Gaussian, Inc. or will provide
 assistance to any competitor of Gaussian, Inc.  The licensee
 of this program is prohibited from giving any competitor of
 Gaussian, Inc. access to this program.  By using this program,
 the user acknowledges that Gaussian, Inc. is engaged in the
 business of creating and licensing software in the field of
 computational chemistry and represents and warrants to the
 licensee that it is not a competitor of Gaussian, Inc. and that
 it will not use this program in any manner prohibited above.
 ---------------------------------------------------------------
  

 Cite this work as:
 Gaussian 16, Revision C.01,
 M. J. Frisch, G. W. Trucks, H. B. Schlegel, G. E. Scuseria, 
 M. A. Robb, J. R. Cheeseman, G. Scalmani, V. Barone, 
 G. A. Petersson, H. Nakatsuji, X. Li, M. Caricato, A. V. Marenich, 
 J. Bloino, B. G. Janesko, R. Gomperts, B. Mennucci, H. P. Hratchian, 
 J. V. Ortiz, A. F. Izmaylov, J. L. Sonnenberg, D. Williams-Young, 
 F. Ding, F. Lipparini, F. Egidi, J. Goings, B. Peng, A. Petrone, 
 T. Henderson, D. Ranasinghe, V. G. Zakrzewski, J. Gao, N. Rega, 
 G. Zheng, W. Liang, M. Hada, M. Ehara, K. Toyota, R. Fukuda, 
 J. Hasegawa, M. Ishida, T. Nakajima, Y. Honda, O. Kitao, H. Nakai, 
 T. Vreven, K. Throssell, J. A. Montgomery, Jr., J. E. Peralta, 
 F. Ogliaro, M. J. Bearpark, J. J. Heyd, E. N. Brothers, K. N. Kudin, 
 V. N. Staroverov, T. A. Keith, R. Kobayashi, J. Normand, 
 K. Raghavachari, A. P. Rendell, J. C. Burant, S. S. Iyengar, 
 J. Tomasi, M. Cossi, J. M. Millam, M. Klene, C. Adamo, R. Cammi, 
 J. W. Ochterski, R. L. Martin, K. Morokuma, O. Farkas, 
 J. B. Foresman, and D. J. Fox, Gaussian, Inc., Wallingford CT, 2019.
 
 ******************************************
 Gaussian 16:  ES64L-G16RevC.01  3-Jul-2019
                19-Dec-2023 
 ******************************************
 %nprocshared=16
 Will use up to   16 processors via shared memory.
 %mem=640MB
 ----------------------------------------------------------------------
 #N opt freq B3LYP/def2SVPP symm=veryloose em=gd3bj scale=0.961 press=0
 .987
 ----------------------------------------------------------------------
 1/18=20,19=15,26=3,38=1,113=-987000,114=961000/1,3;
 2/9=110,12=2,17=2,18=2,40=1/2;
 3/5=43,7=202,11=2,25=1,30=1,71=1,74=-5,124=41/1,2,3;
 4//1;
 5/5=2,38=5/2;
 6/7=2,8=2,9=2,10=2,28=1/1;
 7//1,2,3,16;
 1/18=20,19=15,26=3/3(2);
 2/9=110/2;
 99//99;
 2/9=110/2;
 3/5=43,7=202,11=2,25=1,30=1,71=1,74=-5,124=41/1,2,3;
 4/5=5,16=3,69=1/1;
 5/5=2,38=5/2;
 7//1,2,3,16;
 1/18=20,19=15,26=3/3(-5);
 2/9=110/2;
 6/7=2,8=2,9=2,10=2,19=2,28=1/1;
 99/9=1/99;
 -----
 C#C_1
 -----
 Symbolic Z-matrix:
 Charge =  0 Multiplicity = 1
 C                     1.09931  -0.02946  -0.0814 
 C                     2.30466  -0.02946  -0.0814 
 H                     0.04093  -0.02946  -0.0814 
 H                     3.36305  -0.02946  -0.0814 
 

 GradGradGradGradGradGradGradGradGradGradGradGradGradGradGradGradGradGrad
 Berny optimization.
 Initialization pass.
                           ----------------------------
                           !    Initial Parameters    !
                           ! (Angstroms and Degrees)  !
 --------------------------                            --------------------------
 ! Name  Definition              Value          Derivative Info.                !
 --------------------------------------------------------------------------------
 ! R1    R(1,2)                  1.2054         estimate D2E/DX2                !
 ! R2    R(1,3)                  1.0584         estimate D2E/DX2                !
 ! R3    R(2,4)                  1.0584         estimate D2E/DX2                !
 ! A1    L(2,1,3,-2,-1)        180.0            estimate D2E/DX2                !
 ! A2    L(1,2,4,-2,-1)        180.0            estimate D2E/DX2                !
 ! A3    L(2,1,3,-3,-2)        180.0            estimate D2E/DX2                !
 ! A4    L(1,2,4,-3,-2)        180.0            estimate D2E/DX2                !
 --------------------------------------------------------------------------------
 Trust Radius=3.00D-01 FncErr=1.00D-07 GrdErr=1.00D-06 EigMax=2.50D+02 EigMin=1.00D-04
 Number of steps in this run=     20 maximum allowed number of steps=    100.
 GradGradGradGradGradGradGradGradGradGradGradGradGradGradGradGradGradGrad

                          Input orientation:                          
 ---------------------------------------------------------------------
 Center     Atomic      Atomic             Coordinates (Angstroms)
 Number     Number       Type             X           Y           Z
 ---------------------------------------------------------------------
      1          6           0        1.099310   -0.029460   -0.081400
      2          6           0        2.304660   -0.029460   -0.081400
      3          1           0        0.040930   -0.029460   -0.081400
      4          1           0        3.363050   -0.029460   -0.081400
 ---------------------------------------------------------------------
                    Distance matrix (angstroms):
                    1          2          3          4
     1  C    0.000000
     2  C    1.205350   0.000000
     3  H    1.058380   2.263730   0.000000
     4  H    2.263740   1.058390   3.322120   0.000000
 Stoichiometry    C2H2
 Framework group  D*H[C*(HC.CH)]
 Deg. of freedom     2
 Full point group                 D*H     NOp   8
 Largest Abelian subgroup         D2H     NOp   8
 Largest concise Abelian subgroup C2      NOp   2
                         Standard orientation:                         
 ---------------------------------------------------------------------
 Center     Atomic      Atomic             Coordinates (Angstroms)
 Number     Number       Type             X           Y           Z
 ---------------------------------------------------------------------
      1          6           0        0.000000    0.000000    0.602676
      2          6           0        0.000000    0.000000   -0.602676
      3          1           0        0.000000    0.000000    1.661056
      4          1           0        0.000000    0.000000   -1.661056
 ---------------------------------------------------------------------
 Rotational constants (GHZ):           0.0000000          35.3940955          35.3940955
 Standard basis: def2SVPP (5D, 7F)
 There are    10 symmetry adapted cartesian basis functions of AG  symmetry.
 There are     1 symmetry adapted cartesian basis functions of B1G symmetry.
 There are     3 symmetry adapted cartesian basis functions of B2G symmetry.
 There are     3 symmetry adapted cartesian basis functions of B3G symmetry.
 There are     1 symmetry adapted cartesian basis functions of AU  symmetry.
 There are    10 symmetry adapted cartesian basis functions of B1U symmetry.
 There are     3 symmetry adapted cartesian basis functions of B2U symmetry.
 There are     3 symmetry adapted cartesian basis functions of B3U symmetry.
 There are     9 symmetry adapted basis functions of AG  symmetry.
 There are     1 symmetry adapted basis functions of B1G symmetry.
 There are     3 symmetry adapted basis functions of B2G symmetry.
 There are     3 symmetry adapted basis functions of B3G symmetry.
 There are     1 symmetry adapted basis functions of AU  symmetry.
 There are     9 symmetry adapted basis functions of B1U symmetry.
 There are     3 symmetry adapted basis functions of B2U symmetry.
 There are     3 symmetry adapted basis functions of B3U symmetry.
    32 basis functions,    58 primitive gaussians,    34 cartesian basis functions
     7 alpha electrons        7 beta electrons
       nuclear repulsion energy        24.7691376854 Hartrees.
 NAtoms=    4 NActive=    4 NUniq=    2 SFac= 4.00D+00 NAtFMM=   60 NAOKFM=F Big=F
 Integral buffers will be    131072 words long.
 Raffenetti 2 integral format.
 Two-electron integral symmetry is turned on.
 Nuclear repulsion after empirical dispersion term =       24.7668687934 Hartrees.
 One-electron integrals computed using PRISM.
   8 Symmetry operations used in ECPInt.
 ECPInt:  NShTT=     136 NPrTT=     560 LenC2=     137 LenP2D=     532.
 LDataN:  DoStor=T MaxTD1= 4 Len=   56
 NBasis=    32 RedAO= T EigKep=  1.33D-03  NBF=     9     1     3     3     1     9     3     3
 NBsUse=    32 1.00D-06 EigRej= -1.00D+00 NBFU=     9     1     3     3     1     9     3     3
 ExpMin= 1.22D-01 ExpMax= 1.24D+03 ExpMxC= 1.86D+02 IAcc=3 IRadAn=         5 AccDes= 0.00D+00
 Harris functional with IExCor=  402 and IRadAn=       5 diagonalized for initial guess.
 HarFok:  IExCor=  402 AccDes= 0.00D+00 IRadAn=         5 IDoV= 1 UseB2=F ITyADJ=14
 ICtDFT=  3500011 ScaDFX=  1.000000  1.000000  1.000000  1.000000
 FoFCou: FMM=F IPFlag=           0 FMFlag=      100000 FMFlg1=           0
         NFxFlg=           0 DoJE=T BraDBF=F KetDBF=T FulRan=T
         wScrn=  0.000000 ICntrl=       500 IOpCl=  0 I1Cent=   200000004 NGrid=           0
         NMat0=    1 NMatS0=      1 NMatT0=    0 NMatD0=    1 NMtDS0=    0 NMtDT0=    0
 Petite list used in FoFCou.
 Initial guess orbital symmetries:
       Occupied  (SGG) (SGU) (SGG) (SGU) (SGG) (PIU) (PIU)
       Virtual   (PIG) (PIG) (SGU) (SGG) (SGG) (SGU) (PIU) (PIU)
                 (PIG) (PIG) (SGG) (SGU) (SGU) (SGG) (SGU) (PIU)
                 (PIU) (DLTG) (DLTG) (DLTU) (DLTU) (SGG) (PIG)
                 (PIG) (SGU)
 The electronic state of the initial guess is 1-SGG.
 Keep R1 ints in memory in symmetry-blocked form, NReq=13966262.
 Requested convergence on RMS density matrix=1.00D-08 within 128 cycles.
 Requested convergence on MAX density matrix=1.00D-06.
 Requested convergence on             energy=1.00D-06.
 No special actions if energy rises.
 Integral accuracy reduced to 1.0D-05 until final iterations.
 Initial convergence to 1.0D-05 achieved.  Increase integral accuracy.
 SCF Done:  E(RB3LYP) =  -77.2683905806     A.U. after    8 cycles
            NFock=  8  Conv=0.50D-08     -V/T= 2.0100

 **********************************************************************

            Population analysis using the SCF Density.

 **********************************************************************

 Orbital symmetries:
       Occupied  (SGG) (SGU) (SGG) (SGU) (SGG) (PIU) (PIU)
       Virtual   (PIG) (PIG) (SGU) (SGG) (SGU) (SGG) (PIU) (PIU)
                 (PIG) (PIG) (SGG) (SGU) (SGG) (SGU) (SGU) (PIU)
                 (PIU) (DLTG) (DLTG) (DLTU) (DLTU) (SGG) (PIG)
                 (PIG) (SGU)
 The electronic state is 1-SGG.
 Alpha  occ. eigenvalues --  -10.19261 -10.19025  -0.74247  -0.56924  -0.50187
 Alpha  occ. eigenvalues --   -0.29324  -0.29324
 Alpha virt. eigenvalues --    0.03782   0.03782   0.08290   0.10784   0.26671
 Alpha virt. eigenvalues --    0.28119   0.47181   0.47181   0.59046   0.59046
 Alpha virt. eigenvalues --    0.63352   0.66155   0.90083   0.94482   1.29700
 Alpha virt. eigenvalues --    1.49264   1.49264   1.53823   1.53823   1.93278
 Alpha virt. eigenvalues --    1.93278   2.29371   2.46430   2.46430   3.17833
          Condensed to atoms (all electrons):
               1          2          3          4
     1  C    5.343340   0.403596   0.445553  -0.107897
     2  C    0.403596   5.343340  -0.107897   0.445553
     3  H    0.445553  -0.107897   0.576565   0.001188
     4  H   -0.107897   0.445553   0.001188   0.576565
 Mulliken charges:
               1
     1  C   -0.084592
     2  C   -0.084592
     3  H    0.084592
     4  H    0.084592
 Sum of Mulliken charges =  -0.00000
 Mulliken charges with hydrogens summed into heavy atoms:
               1
     1  C   -0.000000
     2  C   -0.000000
 Electronic spatial extent (au):  <R**2>=             60.3701
 Charge=             -0.0000 electrons
 Dipole moment (field-independent basis, Debye):
    X=              0.0000    Y=             -0.0000    Z=             -0.0000  Tot=              0.0000
 Quadrupole moment (field-independent basis, Debye-Ang):
   XX=            -13.3136   YY=            -13.3136   ZZ=             -7.1321
   XY=             -0.0000   XZ=             -0.0000   YZ=              0.0000
 Traceless Quadrupole moment (field-independent basis, Debye-Ang):
   XX=             -2.0605   YY=             -2.0605   ZZ=              4.1210
   XY=             -0.0000   XZ=             -0.0000   YZ=              0.0000
 Octapole moment (field-independent basis, Debye-Ang**2):
  XXX=             -0.0000  YYY=             -0.0000  ZZZ=             -0.0000  XYY=             -0.0000
  XXY=             -0.0000  XXZ=             -0.0000  XZZ=             -0.0000  YZZ=              0.0000
  YYZ=             -0.0000  XYZ=              0.0000
 Hexadecapole moment (field-independent basis, Debye-Ang**3):
 XXXX=            -14.6231 YYYY=            -14.6231 ZZZZ=            -39.9406 XXXY=             -0.0000
 XXXZ=              0.0000 YYYX=             -0.0000 YYYZ=              0.0000 ZZZX=              0.0000
 ZZZY=              0.0000 XXYY=             -4.8744 XXZZ=            -11.8466 YYZZ=            -11.8466
 XXYZ=              0.0000 YYXZ=              0.0000 ZZXY=             -0.0000
 N-N= 2.476686879344D+01 E-N=-2.283130034407D+02  KE= 7.650052701480D+01
 Symmetry AG   KE= 3.790760291141D+01
 Symmetry B1G  KE= 9.843284928939D-35
 Symmetry B2G  KE= 3.839253723684D-33
 Symmetry B3G  KE= 3.839253723684D-33
 Symmetry AU   KE= 2.081411165674D-34
 Symmetry B1U  KE= 3.414716978735D+01
 Symmetry B2U  KE= 2.222877158023D+00
 Symmetry B3U  KE= 2.222877158023D+00
   8 Symmetry operations used in ECPInt.
 ECPInt:  NShTT=     136 NPrTT=     560 LenC2=     137 LenP2D=     532.
 LDataN:  DoStor=T MaxTD1= 5 Len=  102
 Calling FoFJK, ICntrl=      2127 FMM=F ISym2X=1 I1Cent= 0 IOpClX= 0 NMat=1 NMatS=1 NMatT=0.
 ***** Axes restored to original set *****
 -------------------------------------------------------------------
 Center     Atomic                   Forces (Hartrees/Bohr)
 Number     Number              X              Y              Z
 -------------------------------------------------------------------
      1        6           0.006334946    0.000000000    0.000000000
      2        6          -0.006334946    0.000000000   -0.000000000
      3        1          -0.013833784   -0.000000000   -0.000000000
      4        1           0.013833784    0.000000000   -0.000000000
 -------------------------------------------------------------------
 Cartesian Forces:  Max     0.013833784 RMS     0.006211617

 GradGradGradGradGradGradGradGradGradGradGradGradGradGradGradGradGradGrad
 Berny optimization.
 FormGI is forming the generalized inverse of G from B-inverse, IUseBI=4.
 Internal  Forces:  Max     0.013833784 RMS     0.007919052
 Search for a local minimum.
 Step number   1 out of a maximum of   20
 All quantities printed in internal units (Hartrees-Bohrs-Radians)
 Mixed Optimization -- RFO/linear search
 Second derivative matrix not updated -- first step.
 The second derivative matrix:
                          R1        R2        R3        A1        A2
           R1           1.02179
           R2           0.00000   0.38738
           R3           0.00000   0.00000   0.38738
           A1           0.00000   0.00000   0.00000   0.00653
           A2           0.00000   0.00000   0.00000   0.00000   0.00653
           A3           0.00000   0.00000   0.00000   0.00000   0.00000
           A4           0.00000   0.00000   0.00000   0.00000   0.00000
                          A3        A4
           A3           0.00653
           A4           0.00000   0.00653
 ITU=  0
     Eigenvalues ---    0.00653   0.00653   0.00653   0.00653   0.38738
     Eigenvalues ---    0.38738   1.02179
 RFO step:  Lambda=-1.04035969D-03 EMin= 6.53102104D-03
 Linear search not attempted -- first point.
 Iteration  1 RMS(Cart)=  0.02108783 RMS(Int)=  0.00000001
 Iteration  2 RMS(Cart)=  0.00000001 RMS(Int)=  0.00000001
 ClnCor:  largest displacement from symmetrization is 2.48D-08 for atom     1.
 Variable       Old X    -DE/DX   Delta X   Delta X   Delta X     New X
                                 (Linear)    (Quad)   (Total)
    R1        2.27778   0.00750   0.00000   0.00733   0.00733   2.28512
    R2        2.00005   0.01383   0.00000   0.03562   0.03562   2.03566
    R3        2.00005   0.01383   0.00000   0.03562   0.03562   2.03566
    A1        3.14159   0.00000   0.00000   0.00000   0.00000   3.14159
    A2        3.14159  -0.00000   0.00000  -0.00000   0.00000   3.14159
    A3        3.14159  -0.00000   0.00000  -0.00000   0.00000   3.14159
    A4        3.14159   0.00000   0.00000   0.00000   0.00000   3.14159
         Item               Value     Threshold  Converged?
 Maximum Force            0.013834     0.000450     NO 
 RMS     Force            0.007919     0.000300     NO 
 Maximum Displacement     0.039281     0.001800     NO 
 RMS     Displacement     0.021088     0.001200     NO 
 Predicted change in Energy=-5.215310D-04
 GradGradGradGradGradGradGradGradGradGradGradGradGradGradGradGradGradGrad

                          Input orientation:                          
 ---------------------------------------------------------------------
 Center     Atomic      Atomic             Coordinates (Angstroms)
 Number     Number       Type             X           Y           Z
 ---------------------------------------------------------------------
      1          6           0        1.097370   -0.029460   -0.081400
      2          6           0        2.306601   -0.029460   -0.081400
      3          1           0        0.020143   -0.029460   -0.081400
      4          1           0        3.383828   -0.029460   -0.081400
 ---------------------------------------------------------------------
                    Distance matrix (angstroms):
                    1          2          3          4
     1  C    0.000000
     2  C    1.209231   0.000000
     3  H    1.077227   2.286458   0.000000
     4  H    2.286458   1.077227   3.363685   0.000000
 Stoichiometry    C2H2
 Framework group  D*H[C*(HC.CH)]
 Deg. of freedom     2
 Full point group                 D*H     NOp   8
 Largest Abelian subgroup         D2H     NOp   8
 Largest concise Abelian subgroup C2      NOp   2
                         Standard orientation:                         
 ---------------------------------------------------------------------
 Center     Atomic      Atomic             Coordinates (Angstroms)
 Number     Number       Type             X           Y           Z
 ---------------------------------------------------------------------
      1          6           0        0.000000    0.000000    0.604616
      2          6           0        0.000000    0.000000   -0.604616
      3          1           0        0.000000    0.000000    1.681842
      4          1           0        0.000000    0.000000   -1.681842
 ---------------------------------------------------------------------
 Rotational constants (GHZ):           0.0000000          34.9141781          34.9141781
 Standard basis: def2SVPP (5D, 7F)
 There are    10 symmetry adapted cartesian basis functions of AG  symmetry.
 There are     1 symmetry adapted cartesian basis functions of B1G symmetry.
 There are     3 symmetry adapted cartesian basis functions of B2G symmetry.
 There are     3 symmetry adapted cartesian basis functions of B3G symmetry.
 There are     1 symmetry adapted cartesian basis functions of AU  symmetry.
 There are    10 symmetry adapted cartesian basis functions of B1U symmetry.
 There are     3 symmetry adapted cartesian basis functions of B2U symmetry.
 There are     3 symmetry adapted cartesian basis functions of B3U symmetry.
 There are     9 symmetry adapted basis functions of AG  symmetry.
 There are     1 symmetry adapted basis functions of B1G symmetry.
 There are     3 symmetry adapted basis functions of B2G symmetry.
 There are     3 symmetry adapted basis functions of B3G symmetry.
 There are     1 symmetry adapted basis functions of AU  symmetry.
 There are     9 symmetry adapted basis functions of B1U symmetry.
 There are     3 symmetry adapted basis functions of B2U symmetry.
 There are     3 symmetry adapted basis functions of B3U symmetry.
    32 basis functions,    58 primitive gaussians,    34 cartesian basis functions
     7 alpha electrons        7 beta electrons
       nuclear repulsion energy        24.5836080031 Hartrees.
 NAtoms=    4 NActive=    4 NUniq=    2 SFac= 4.00D+00 NAtFMM=   60 NAOKFM=F Big=F
 Integral buffers will be    131072 words long.
 Raffenetti 2 integral format.
 Two-electron integral symmetry is turned on.
 Nuclear repulsion after empirical dispersion term =       24.5813448793 Hartrees.
 One-electron integrals computed using PRISM.
   8 Symmetry operations used in ECPInt.
 ECPInt:  NShTT=     136 NPrTT=     560 LenC2=     137 LenP2D=     532.
 LDataN:  DoStor=T MaxTD1= 4 Len=   56
 NBasis=    32 RedAO= T EigKep=  1.35D-03  NBF=     9     1     3     3     1     9     3     3
 NBsUse=    32 1.00D-06 EigRej= -1.00D+00 NBFU=     9     1     3     3     1     9     3     3
 Initial guess from the checkpoint file:  "/home/software/g16tmp/Gau-176303.chk"
 B after Tr=     0.000000    0.000000    0.000000
         Rot=    1.000000    0.000000    0.000000    0.000000 Ang=   0.00 deg.
 Initial guess orbital symmetries:
       Occupied  (SGG) (SGU) (SGG) (SGU) (SGG) (PIU) (PIU)
       Virtual   (PIG) (PIG) (SGU) (SGG) (SGU) (SGG) (PIU) (PIU)
                 (PIG) (PIG) (SGG) (SGU) (SGG) (SGU) (SGU) (PIU)
                 (PIU) (DLTG) (DLTG) (DLTU) (DLTU) (SGG) (PIG)
                 (PIG) (SGU)
 ExpMin= 1.22D-01 ExpMax= 1.24D+03 ExpMxC= 1.86D+02 IAcc=3 IRadAn=         5 AccDes= 0.00D+00
 Harris functional with IExCor=  402 and IRadAn=       5 diagonalized for initial guess.
 HarFok:  IExCor=  402 AccDes= 0.00D+00 IRadAn=         5 IDoV= 1 UseB2=F ITyADJ=14
 ICtDFT=  3500011 ScaDFX=  1.000000  1.000000  1.000000  1.000000
 FoFCou: FMM=F IPFlag=           0 FMFlag=      100000 FMFlg1=           0
         NFxFlg=           0 DoJE=T BraDBF=F KetDBF=T FulRan=T
         wScrn=  0.000000 ICntrl=       500 IOpCl=  0 I1Cent=   200000004 NGrid=           0
         NMat0=    1 NMatS0=      1 NMatT0=    0 NMatD0=    1 NMtDS0=    0 NMtDT0=    0
 Petite list used in FoFCou.
 Keep R1 ints in memory in symmetry-blocked form, NReq=13966262.
 Requested convergence on RMS density matrix=1.00D-08 within 128 cycles.
 Requested convergence on MAX density matrix=1.00D-06.
 Requested convergence on             energy=1.00D-06.
 No special actions if energy rises.
 Integral accuracy reduced to 1.0D-05 until final iterations.
 Initial convergence to 1.0D-05 achieved.  Increase integral accuracy.
 SCF Done:  E(RB3LYP) =  -77.2688516619     A.U. after    8 cycles
            NFock=  8  Conv=0.20D-08     -V/T= 2.0110
   8 Symmetry operations used in ECPInt.
 ECPInt:  NShTT=     136 NPrTT=     560 LenC2=     137 LenP2D=     532.
 LDataN:  DoStor=T MaxTD1= 5 Len=  102
 Calling FoFJK, ICntrl=      2127 FMM=F ISym2X=1 I1Cent= 0 IOpClX= 0 NMat=1 NMatS=1 NMatT=0.
 ***** Axes restored to original set *****
 -------------------------------------------------------------------
 Center     Atomic                   Forces (Hartrees/Bohr)
 Number     Number              X              Y              Z
 -------------------------------------------------------------------
      1        6          -0.000959648    0.000000000    0.000000000
      2        6           0.000959648    0.000000000   -0.000000000
      3        1           0.001347133   -0.000000000   -0.000000000
      4        1          -0.001347133    0.000000000   -0.000000000
 -------------------------------------------------------------------
 Cartesian Forces:  Max     0.001347133 RMS     0.000675240

 GradGradGradGradGradGradGradGradGradGradGradGradGradGradGradGradGradGrad
 Berny optimization.
 Using GEDIIS/GDIIS optimizer.
 Internal  Forces:  Max     0.001347133 RMS     0.000734816
 Search for a local minimum.
 Step number   2 out of a maximum of   20
 All quantities printed in internal units (Hartrees-Bohrs-Radians)
 Mixed Optimization -- En-DIIS/RFO-DIIS
 Update second derivatives using D2CorX and points    1    2
 DE= -4.61D-04 DEPred=-5.22D-04 R= 8.84D-01
 TightC=F SS=  1.41D+00  RLast= 5.09D-02 DXNew= 5.0454D-01 1.5270D-01
 Trust test= 8.84D-01 RLast= 5.09D-02 DXMaxT set to 3.00D-01
 The second derivative matrix:
                          R1        R2        R3        A1        A2
           R1           1.02231
           R2           0.00549   0.40625
           R3           0.00549   0.01887   0.40625
           A1          -0.00000  -0.00000  -0.00000   0.00653
           A2          -0.00000  -0.00000  -0.00000   0.00000   0.00653
           A3          -0.00000  -0.00000  -0.00000  -0.00000   0.00000
           A4           0.00000   0.00000   0.00000  -0.00000  -0.00000
                          A3        A4
           A3           0.00653
           A4          -0.00000   0.00653
 ITU=  1  0
 Use linear search instead of GDIIS.
     Eigenvalues ---    0.00653   0.00653   0.00653   0.00653   0.38738
     Eigenvalues ---    0.42501   1.02241
 RFO step:  Lambda=-1.03214759D-07 EMin= 6.53102104D-03
 Quartic linear search produced a step of -0.09092.
 Iteration  1 RMS(Cart)=  0.00187169 RMS(Int)=  0.00000000
 Iteration  2 RMS(Cart)=  0.00000000 RMS(Int)=  0.00000000
 ClnCor:  largest displacement from symmetrization is 1.77D-08 for atom     1.
 Variable       Old X    -DE/DX   Delta X   Delta X   Delta X     New X
                                 (Linear)    (Quad)   (Total)
    R1        2.28512  -0.00039  -0.00067   0.00031  -0.00036   2.28476
    R2        2.03566  -0.00135  -0.00324  -0.00008  -0.00332   2.03234
    R3        2.03566  -0.00135  -0.00324  -0.00008  -0.00332   2.03234
    A1        3.14159   0.00000  -0.00000  -0.00000   0.00000   3.14159
    A2        3.14159   0.00000   0.00000   0.00000   0.00000   3.14159
    A3        3.14159  -0.00000  -0.00000  -0.00000   0.00000   3.14159
    A4        3.14159   0.00000   0.00000   0.00000   0.00000   3.14159
         Item               Value     Threshold  Converged?
 Maximum Force            0.001347     0.000450     NO 
 RMS     Force            0.000735     0.000300     NO 
 Maximum Displacement     0.003497     0.001800     NO 
 RMS     Displacement     0.001872     0.001200     NO 
 Predicted change in Energy=-4.319498D-06
 GradGradGradGradGradGradGradGradGradGradGradGradGradGradGradGradGradGrad

                          Input orientation:                          
 ---------------------------------------------------------------------
 Center     Atomic      Atomic             Coordinates (Angstroms)
 Number     Number       Type             X           Y           Z
 ---------------------------------------------------------------------
      1          6           0        1.097465   -0.029460   -0.081400
      2          6           0        2.306507   -0.029460   -0.081400
      3          1           0        0.021994   -0.029460   -0.081400
      4          1           0        3.381977   -0.029460   -0.081400
 ---------------------------------------------------------------------
                    Distance matrix (angstroms):
                    1          2          3          4
     1  C    0.000000
     2  C    1.209042   0.000000
     3  H    1.075471   2.284513   0.000000
     4  H    2.284513   1.075471   3.359984   0.000000
 Stoichiometry    C2H2
 Framework group  D*H[C*(HC.CH)]
 Deg. of freedom     2
 Full point group                 D*H     NOp   8
 Largest Abelian subgroup         D2H     NOp   8
 Largest concise Abelian subgroup C2      NOp   2
                         Standard orientation:                         
 ---------------------------------------------------------------------
 Center     Atomic      Atomic             Coordinates (Angstroms)
 Number     Number       Type             X           Y           Z
 ---------------------------------------------------------------------
      1          6           0        0.000000    0.000000    0.604521
      2          6           0        0.000000    0.000000   -0.604521
      3          1           0        0.000000    0.000000    1.679992
      4          1           0        0.000000    0.000000   -1.679992
 ---------------------------------------------------------------------
 Rotational constants (GHZ):           0.0000000          34.9510683          34.9510683
 Standard basis: def2SVPP (5D, 7F)
 There are    10 symmetry adapted cartesian basis functions of AG  symmetry.
 There are     1 symmetry adapted cartesian basis functions of B1G symmetry.
 There are     3 symmetry adapted cartesian basis functions of B2G symmetry.
 There are     3 symmetry adapted cartesian basis functions of B3G symmetry.
 There are     1 symmetry adapted cartesian basis functions of AU  symmetry.
 There are    10 symmetry adapted cartesian basis functions of B1U symmetry.
 There are     3 symmetry adapted cartesian basis functions of B2U symmetry.
 There are     3 symmetry adapted cartesian basis functions of B3U symmetry.
 There are     9 symmetry adapted basis functions of AG  symmetry.
 There are     1 symmetry adapted basis functions of B1G symmetry.
 There are     3 symmetry adapted basis functions of B2G symmetry.
 There are     3 symmetry adapted basis functions of B3G symmetry.
 There are     1 symmetry adapted basis functions of AU  symmetry.
 There are     9 symmetry adapted basis functions of B1U symmetry.
 There are     3 symmetry adapted basis functions of B2U symmetry.
 There are     3 symmetry adapted basis functions of B3U symmetry.
    32 basis functions,    58 primitive gaussians,    34 cartesian basis functions
     7 alpha electrons        7 beta electrons
       nuclear repulsion energy        24.5982307604 Hartrees.
 NAtoms=    4 NActive=    4 NUniq=    2 SFac= 4.00D+00 NAtFMM=   60 NAOKFM=F Big=F
 Integral buffers will be    131072 words long.
 Raffenetti 2 integral format.
 Two-electron integral symmetry is turned on.
 Nuclear repulsion after empirical dispersion term =       24.5959671398 Hartrees.
 One-electron integrals computed using PRISM.
   8 Symmetry operations used in ECPInt.
 ECPInt:  NShTT=     136 NPrTT=     560 LenC2=     137 LenP2D=     532.
 LDataN:  DoStor=T MaxTD1= 4 Len=   56
 NBasis=    32 RedAO= T EigKep=  1.35D-03  NBF=     9     1     3     3     1     9     3     3
 NBsUse=    32 1.00D-06 EigRej= -1.00D+00 NBFU=     9     1     3     3     1     9     3     3
 Initial guess from the checkpoint file:  "/home/software/g16tmp/Gau-176303.chk"
 B after Tr=    -0.000000    0.000000   -0.000000
         Rot=    1.000000    0.000000    0.000000    0.000000 Ang=   0.00 deg.
 Initial guess orbital symmetries:
       Occupied  (SGG) (SGU) (SGG) (SGU) (SGG) (PIU) (PIU)
       Virtual   (PIG) (PIG) (SGU) (SGG) (SGU) (SGG) (PIU) (PIU)
                 (PIG) (PIG) (SGG) (SGU) (SGG) (SGU) (SGU) (PIU)
                 (PIU) (DLTG) (DLTG) (DLTU) (DLTU) (SGG) (PIG)
                 (PIG) (SGU)
 Keep R1 ints in memory in symmetry-blocked form, NReq=13966262.
 Requested convergence on RMS density matrix=1.00D-08 within 128 cycles.
 Requested convergence on MAX density matrix=1.00D-06.
 Requested convergence on             energy=1.00D-06.
 No special actions if energy rises.
 SCF Done:  E(RB3LYP) =  -77.2688562077     A.U. after    6 cycles
            NFock=  6  Conv=0.28D-08     -V/T= 2.0109
   8 Symmetry operations used in ECPInt.
 ECPInt:  NShTT=     136 NPrTT=     560 LenC2=     137 LenP2D=     532.
 LDataN:  DoStor=T MaxTD1= 5 Len=  102
 Calling FoFJK, ICntrl=      2127 FMM=F ISym2X=1 I1Cent= 0 IOpClX= 0 NMat=1 NMatS=1 NMatT=0.
 ***** Axes restored to original set *****
 -------------------------------------------------------------------
 Center     Atomic                   Forces (Hartrees/Bohr)
 Number     Number              X              Y              Z
 -------------------------------------------------------------------
      1        6           0.000026800    0.000000000    0.000000000
      2        6          -0.000026800    0.000000000   -0.000000000
      3        1          -0.000001810   -0.000000000   -0.000000000
      4        1           0.000001810    0.000000000   -0.000000000
 -------------------------------------------------------------------
 Cartesian Forces:  Max     0.000026800 RMS     0.000010966

 GradGradGradGradGradGradGradGradGradGradGradGradGradGradGradGradGradGrad
 Berny optimization.
 Using GEDIIS/GDIIS optimizer.
 Internal  Forces:  Max     0.000024991 RMS     0.000009495
 Search for a local minimum.
 Step number   3 out of a maximum of   20
 All quantities printed in internal units (Hartrees-Bohrs-Radians)
 Mixed Optimization -- En-DIIS/RFO-DIIS
 Swapping is turned off.
 Update second derivatives using D2CorX and points    1    2    3
 DE= -4.55D-06 DEPred=-4.32D-06 R= 1.05D+00
 TightC=F SS=  1.41D+00  RLast= 4.71D-03 DXNew= 5.0454D-01 1.4121D-02
 Trust test= 1.05D+00 RLast= 4.71D-03 DXMaxT set to 3.00D-01
 The second derivative matrix:
                          R1        R2        R3        A1        A2
           R1           1.01997
           R2          -0.00018   0.39693
           R3          -0.00018   0.00955   0.39693
           A1          -0.00000   0.00000   0.00000   0.00653
           A2          -0.00000  -0.00000  -0.00000   0.00000   0.00653
           A3          -0.00000   0.00000   0.00000  -0.00000   0.00000
           A4           0.00000   0.00000   0.00000   0.00000  -0.00000
                          A3        A4
           A3           0.00653
           A4           0.00000   0.00653
 ITU=  1  1  0
     Eigenvalues ---    0.00653   0.00653   0.00653   0.00653   0.38738
     Eigenvalues ---    0.40648   1.01997
 En-DIIS/RFO-DIIS/Sim-DIIS IScMMF=       -3 using points:     3    2
 RFO step:  Lambda=-6.01768016D-10.
 DidBck=F Rises=F RFO-DIIS coefs:    0.99906    0.00094
 Iteration  1 RMS(Cart)=  0.00000777 RMS(Int)=  0.00000000
 Iteration  2 RMS(Cart)=  0.00000000 RMS(Int)=  0.00000000
 ClnCor:  largest displacement from symmetrization is 7.06D-12 for atom     1.
 Variable       Old X    -DE/DX   Delta X   Delta X   Delta X     New X
                                 (Linear)    (Quad)   (Total)
    R1        2.28476  -0.00002   0.00000  -0.00002  -0.00002   2.28473
    R2        2.03234   0.00000   0.00000   0.00000   0.00000   2.03235
    R3        2.03234   0.00000   0.00000   0.00000   0.00000   2.03235
    A1        3.14159   0.00000   0.00000  -0.00000   0.00000   3.14159
    A2        3.14159  -0.00000   0.00000  -0.00000   0.00000   3.14159
    A3        3.14159  -0.00000   0.00000  -0.00000   0.00000   3.14159
    A4        3.14159   0.00000   0.00000   0.00000   0.00000   3.14159
         Item               Value     Threshold  Converged?
 Maximum Force            0.000025     0.000450     YES
 RMS     Force            0.000009     0.000300     YES
 Maximum Displacement     0.000012     0.001800     YES
 RMS     Displacement     0.000008     0.001200     YES
 Predicted change in Energy=-3.141712D-10
 Optimization completed.
    -- Stationary point found.
                           ----------------------------
                           !   Optimized Parameters   !
                           ! (Angstroms and Degrees)  !
 --------------------------                            --------------------------
 ! Name  Definition              Value          Derivative Info.                !
 --------------------------------------------------------------------------------
 ! R1    R(1,2)                  1.209          -DE/DX =    0.0                 !
 ! R2    R(1,3)                  1.0755         -DE/DX =    0.0                 !
 ! R3    R(2,4)                  1.0755         -DE/DX =    0.0                 !
 ! A1    L(2,1,3,-2,-1)        180.0            -DE/DX =    0.0                 !
 ! A2    L(1,2,4,-2,-1)        180.0            -DE/DX =    0.0                 !
 ! A3    L(2,1,3,-3,-2)        180.0            -DE/DX =    0.0                 !
 ! A4    L(1,2,4,-3,-2)        180.0            -DE/DX =    0.0                 !
 --------------------------------------------------------------------------------
 GradGradGradGradGradGradGradGradGradGradGradGradGradGradGradGradGradGrad

                          Input orientation:                          
 ---------------------------------------------------------------------
 Center     Atomic      Atomic             Coordinates (Angstroms)
 Number     Number       Type             X           Y           Z
 ---------------------------------------------------------------------
      1          6           0        1.097465   -0.029460   -0.081400
      2          6           0        2.306507   -0.029460   -0.081400
      3          1           0        0.021994   -0.029460   -0.081400
      4          1           0        3.381977   -0.029460   -0.081400
 ---------------------------------------------------------------------
                    Distance matrix (angstroms):
                    1          2          3          4
     1  C    0.000000
     2  C    1.209042   0.000000
     3  H    1.075471   2.284513   0.000000
     4  H    2.284513   1.075471   3.359984   0.000000
 Stoichiometry    C2H2
 Framework group  D*H[C*(HC.CH)]
 Deg. of freedom     2
 Full point group                 D*H     NOp   8
 Largest Abelian subgroup         D2H     NOp   8
 Largest concise Abelian subgroup C2      NOp   2
                         Standard orientation:                         
 ---------------------------------------------------------------------
 Center     Atomic      Atomic             Coordinates (Angstroms)
 Number     Number       Type             X           Y           Z
 ---------------------------------------------------------------------
      1          6           0        0.000000    0.000000    0.604521
      2          6           0        0.000000    0.000000   -0.604521
      3          1           0        0.000000    0.000000    1.679992
      4          1           0        0.000000    0.000000   -1.679992
 ---------------------------------------------------------------------
 Rotational constants (GHZ):           0.0000000          34.9510683          34.9510683

 **********************************************************************

            Population analysis using the SCF Density.

 **********************************************************************

 Orbital symmetries:
       Occupied  (SGG) (SGU) (SGG) (SGU) (SGG) (PIU) (PIU)
       Virtual   (PIG) (PIG) (SGU) (SGG) (SGU) (SGG) (PIU) (PIU)
                 (PIG) (PIG) (SGG) (SGU) (SGG) (SGU) (SGU) (PIU)
                 (PIU) (DLTG) (DLTG) (DLTU) (DLTU) (SGG) (PIG)
                 (PIG) (SGU)
 The electronic state is 1-SGG.
 Alpha  occ. eigenvalues --  -10.19458 -10.19230  -0.74095  -0.56470  -0.49778
 Alpha  occ. eigenvalues --   -0.29237  -0.29237
 Alpha virt. eigenvalues --    0.03729   0.03729   0.07819   0.10432   0.26443
 Alpha virt. eigenvalues --    0.28152   0.47238   0.47238   0.58953   0.58953
 Alpha virt. eigenvalues --    0.62480   0.65629   0.89084   0.94708   1.27695
 Alpha virt. eigenvalues --    1.49217   1.49217   1.53959   1.53959   1.93110
 Alpha virt. eigenvalues --    1.93110   2.28111   2.46293   2.46293   3.14489
          Condensed to atoms (all electrons):
               1          2          3          4
     1  C    5.305705   0.452706   0.436243  -0.098181
     2  C    0.452706   5.305705  -0.098181   0.436243
     3  H    0.436243  -0.098181   0.564333   0.001132
     4  H   -0.098181   0.436243   0.001132   0.564333
 Mulliken charges:
               1
     1  C   -0.096473
     2  C   -0.096473
     3  H    0.096473
     4  H    0.096473
 Sum of Mulliken charges =   0.00000
 Mulliken charges with hydrogens summed into heavy atoms:
               1
     1  C    0.000000
     2  C    0.000000
 Electronic spatial extent (au):  <R**2>=             60.9201
 Charge=              0.0000 electrons
 Dipole moment (field-independent basis, Debye):
    X=              0.0000    Y=             -0.0000    Z=              0.0000  Tot=              0.0000
 Quadrupole moment (field-independent basis, Debye-Ang):
   XX=            -13.3653   YY=            -13.3653   ZZ=             -7.0325
   XY=             -0.0000   XZ=             -0.0000   YZ=              0.0000
 Traceless Quadrupole moment (field-independent basis, Debye-Ang):
   XX=             -2.1109   YY=             -2.1109   ZZ=              4.2218
   XY=             -0.0000   XZ=             -0.0000   YZ=              0.0000
 Octapole moment (field-independent basis, Debye-Ang**2):
  XXX=             -0.0000  YYY=              0.0000  ZZZ=             -0.0000  XYY=             -0.0000
  XXY=              0.0000  XXZ=              0.0000  XZZ=              0.0000  YZZ=             -0.0000
  YYZ=              0.0000  XYZ=              0.0000
 Hexadecapole moment (field-independent basis, Debye-Ang**3):
 XXXX=            -14.7061 YYYY=            -14.7061 ZZZZ=            -39.9424 XXXY=             -0.0000
 XXXZ=              0.0000 YYYX=             -0.0000 YYYZ=              0.0000 ZZZX=              0.0000
 ZZZY=              0.0000 XXYY=             -4.9020 XXZZ=            -12.0454 YYZZ=            -12.0454
 XXYZ=              0.0000 YYXZ=              0.0000 ZZXY=             -0.0000
 N-N= 2.459596713983D+01 E-N=-2.279312061066D+02  KE= 7.643493601693D+01
 Symmetry AG   KE= 3.786928742428D+01
 Symmetry B1G  KE= 9.738201814022D-35
 Symmetry B2G  KE= 5.066899902284D-33
 Symmetry B3G  KE= 7.817336569670D-33
 Symmetry AU   KE= 2.062459971127D-34
 Symmetry B1U  KE= 3.412431222043D+01
 Symmetry B2U  KE= 2.220668186112D+00
 Symmetry B3U  KE= 2.220668186112D+00
 Unable to Open any file for archive entry.
 1\1\GINC-NODE01\FOpt\RB3LYP\def2SVPP\C2H2\XUHJ\19-Dec-2023\0\\#N opt f
 req B3LYP/def2SVPP symm=veryloose em=gd3bj scale=0.961 press=0.987\\C#
 C_1\\0,1\C,1.0974645372,-0.02946,-0.0814\C,2.3065068914,-0.02946,-0.08
 14\H,0.0219939425,-0.02946,-0.0814\H,3.3819774861,-0.02946,-0.0814\\Ve
 rsion=ES64L-G16RevC.01\State=1-SGG\HF=-77.2688562\RMSD=2.813e-09\RMSF=
 1.097e-05\Dipole=0.,0.,0.\Quadrupole=3.1388305,-1.5694153,-1.5694153,0
 .,0.,0.\PG=D*H [C*(H1C1.C1H1)]\\@
 The archive entry for this job was punched.


 "WOULD YOU TELL ME PLEASE, WHICH WAY I OUGHT TO WALK FROM HERE?"
 "THAT DEPENDS A GREAT DEAL ON WHERE YOU WANT TO GO," SAID THE CAT.
 "I DON'T MUCH CARE WHERE -- ", SAID ALICE.
 "THEN IT DOESN'T MATTER WHICH WAY YOU WALK," SAID THE CAT.

                                      -- LEWIS CARROLL
 Job cpu time:       0 days  0 hours  0 minutes 52.2 seconds.
 Elapsed time:       0 days  0 hours  0 minutes  4.3 seconds.
 File lengths (MBytes):  RWF=      6 Int=      0 D2E=      0 Chk=      1 Scr=      1
 Normal termination of Gaussian 16 at Tue Dec 19 13:04:17 2023.
 Link1:  Proceeding to internal job step number  2.
 --------------------------------------------------------------------
 #N Geom=AllCheck Guess=TCheck SCRF=Check GenChk RB3LYP/def2SVPP Freq
 --------------------------------------------------------------------
 1/10=4,29=7,30=1,38=1,40=1,113=-987000,114=961000/1,3;
 2/12=2,17=2,18=2,40=1/2;
 3/5=43,7=202,11=2,14=-4,25=1,30=1,70=2,71=2,74=-5,116=1,124=41,140=1/1,2,3;
 4/5=101/1;
 5/5=2,38=6,98=1/2;
 8/6=4,10=90,11=11/1;
 11/6=1,8=1,9=11,15=111,16=1/1,2,10;
 10/6=1/2;
 6/7=2,8=2,9=2,10=2,28=1/1;
 7/8=1,10=1,25=1/1,2,3,16;
 1/10=4,30=1/3;
 99//99;
 Structure from the checkpoint file:  "/home/software/g16tmp/Gau-176303.chk"
 -----
 C#C_1
 -----
 Charge =  0 Multiplicity = 1
 Redundant internal coordinates found in file.  (old form).
 C,0,1.0974645372,-0.02946,-0.0814
 C,0,2.3065068914,-0.02946,-0.0814
 H,0,0.0219939425,-0.02946,-0.0814
 H,0,3.3819774861,-0.02946,-0.0814
 Recover connectivity data from disk.

 GradGradGradGradGradGradGradGradGradGradGradGradGradGradGradGradGradGrad
 Berny optimization.
 Initialization pass.
                           ----------------------------
                           !    Initial Parameters    !
                           ! (Angstroms and Degrees)  !
 --------------------------                            --------------------------
 ! Name  Definition              Value          Derivative Info.                !
 --------------------------------------------------------------------------------
 ! R1    R(1,2)                  1.209          calculate D2E/DX2 analytically  !
 ! R2    R(1,3)                  1.0755         calculate D2E/DX2 analytically  !
 ! R3    R(2,4)                  1.0755         calculate D2E/DX2 analytically  !
 ! A1    L(2,1,3,-2,-1)        180.0            calculate D2E/DX2 analytically  !
 ! A2    L(1,2,4,-2,-1)        180.0            calculate D2E/DX2 analytically  !
 ! A3    L(2,1,3,-3,-2)        180.0            calculate D2E/DX2 analytically  !
 ! A4    L(1,2,4,-3,-2)        180.0            calculate D2E/DX2 analytically  !
 --------------------------------------------------------------------------------
 Trust Radius=3.00D-01 FncErr=1.00D-07 GrdErr=1.00D-07 EigMax=2.50D+02 EigMin=1.00D-04
 Number of steps in this run=      2 maximum allowed number of steps=      2.
 GradGradGradGradGradGradGradGradGradGradGradGradGradGradGradGradGradGrad

                          Input orientation:                          
 ---------------------------------------------------------------------
 Center     Atomic      Atomic             Coordinates (Angstroms)
 Number     Number       Type             X           Y           Z
 ---------------------------------------------------------------------
      1          6           0        1.097465   -0.029460   -0.081400
      2          6           0        2.306507   -0.029460   -0.081400
      3          1           0        0.021994   -0.029460   -0.081400
      4          1           0        3.381977   -0.029460   -0.081400
 ---------------------------------------------------------------------
                    Distance matrix (angstroms):
                    1          2          3          4
     1  C    0.000000
     2  C    1.209042   0.000000
     3  H    1.075471   2.284513   0.000000
     4  H    2.284513   1.075471   3.359984   0.000000
 Stoichiometry    C2H2
 Framework group  D*H[C*(HC.CH)]
 Deg. of freedom     2
 Full point group                 D*H     NOp   8
 Largest Abelian subgroup         D2H     NOp   8
 Largest concise Abelian subgroup C2      NOp   2
                         Standard orientation:                         
 ---------------------------------------------------------------------
 Center     Atomic      Atomic             Coordinates (Angstroms)
 Number     Number       Type             X           Y           Z
 ---------------------------------------------------------------------
      1          6           0        0.000000    0.000000    0.604521
      2          6           0        0.000000    0.000000   -0.604521
      3          1           0        0.000000    0.000000    1.679992
      4          1           0        0.000000    0.000000   -1.679992
 ---------------------------------------------------------------------
 Rotational constants (GHZ):           0.0000000          34.9510683          34.9510683
 Standard basis: def2SVPP (5D, 7F)
 There are    10 symmetry adapted cartesian basis functions of AG  symmetry.
 There are     1 symmetry adapted cartesian basis functions of B1G symmetry.
 There are     3 symmetry adapted cartesian basis functions of B2G symmetry.
 There are     3 symmetry adapted cartesian basis functions of B3G symmetry.
 There are     1 symmetry adapted cartesian basis functions of AU  symmetry.
 There are    10 symmetry adapted cartesian basis functions of B1U symmetry.
 There are     3 symmetry adapted cartesian basis functions of B2U symmetry.
 There are     3 symmetry adapted cartesian basis functions of B3U symmetry.
 There are     9 symmetry adapted basis functions of AG  symmetry.
 There are     1 symmetry adapted basis functions of B1G symmetry.
 There are     3 symmetry adapted basis functions of B2G symmetry.
 There are     3 symmetry adapted basis functions of B3G symmetry.
 There are     1 symmetry adapted basis functions of AU  symmetry.
 There are     9 symmetry adapted basis functions of B1U symmetry.
 There are     3 symmetry adapted basis functions of B2U symmetry.
 There are     3 symmetry adapted basis functions of B3U symmetry.
    32 basis functions,    58 primitive gaussians,    34 cartesian basis functions
     7 alpha electrons        7 beta electrons
       nuclear repulsion energy        24.5982307604 Hartrees.
 NAtoms=    4 NActive=    4 NUniq=    2 SFac= 4.00D+00 NAtFMM=   60 NAOKFM=F Big=F
 Integral buffers will be    131072 words long.
 Raffenetti 2 integral format.
 Two-electron integral symmetry is turned on.
 Nuclear repulsion after empirical dispersion term =       24.5959671398 Hartrees.
 One-electron integrals computed using PRISM.
   8 Symmetry operations used in ECPInt.
 ECPInt:  NShTT=     136 NPrTT=     560 LenC2=     137 LenP2D=     532.
 LDataN:  DoStor=T MaxTD1= 4 Len=   56
 NBasis=    32 RedAO= T EigKep=  1.35D-03  NBF=     9     1     3     3     1     9     3     3
 NBsUse=    32 1.00D-06 EigRej= -1.00D+00 NBFU=     9     1     3     3     1     9     3     3
 Initial guess from the checkpoint file:  "/home/software/g16tmp/Gau-176303.chk"
 B after Tr=    -0.000000    0.000000    0.000000
         Rot=    1.000000    0.000000    0.000000    0.000000 Ang=   0.00 deg.
 Initial guess orbital symmetries:
       Occupied  (SGG) (SGU) (SGG) (SGU) (SGG) (PIU) (PIU)
       Virtual   (PIG) (PIG) (SGU) (SGG) (SGU) (SGG) (PIU) (PIU)
                 (PIG) (PIG) (SGG) (SGU) (SGG) (SGU) (SGU) (PIU)
                 (PIU) (DLTG) (DLTG) (DLTU) (DLTU) (SGG) (PIG)
                 (PIG) (SGU)
 Keep R1 ints in memory in symmetry-blocked form, NReq=13966262.
 Requested convergence on RMS density matrix=1.00D-08 within 128 cycles.
 Requested convergence on MAX density matrix=1.00D-06.
 Requested convergence on             energy=1.00D-06.
 No special actions if energy rises.
 Skip diagonalization as Alpha Fock matrix is already diagonal.
 SCF Done:  E(RB3LYP) =  -77.2688562077     A.U. after    1 cycles
            NFock=  1  Conv=0.00D+00     -V/T= 2.0109
 DoSCS=F DFT=T ScalE2(SS,OS)=  1.000000  1.000000
 Range of M.O.s used for correlation:     1    32
 NBasis=    32 NAE=     7 NBE=     7 NFC=     0 NFV=     0
 NROrb=     32 NOA=     7 NOB=     7 NVA=    25 NVB=    25

 **** Warning!!: The largest alpha MO coefficient is  0.11244882D+02

   8 Symmetry operations used in ECPInt.
 ECPInt:  NShTT=     136 NPrTT=     560 LenC2=     137 LenP2D=     532.
 LDataN:  DoStor=T MaxTD1= 5 Len=  102
 Symmetrizing basis deriv contribution to polar:
 IMax=3 JMax=2 DiffMx= 0.00D+00
 G2DrvN: will do     5 centers at a time, making    1 passes.
 Calling FoFCou, ICntrl=  3107 FMM=F I1Cent=   0 AccDes= 0.00D+00.
 End of G2Drv F.D. properties file   721 does not exist.
 End of G2Drv F.D. properties file   722 does not exist.
 End of G2Drv F.D. properties file   788 does not exist.
          IDoAtm=1111
          Differentiating once with respect to electric field.
                with respect to dipole field.
          Differentiating once with respect to nuclear coordinates.
 Keep R1 ints in memory in symmetry-blocked form, NReq=13913863.
          There are     9 degrees of freedom in the 1st order CPHF.  IDoFFX=4 NUNeed=     9.
      9 vectors produced by pass  0 Test12= 1.94D-15 1.11D-08 XBig12= 3.49D+01 3.88D+00.
 AX will form     9 AO Fock derivatives at one time.
      9 vectors produced by pass  1 Test12= 1.94D-15 1.11D-08 XBig12= 1.84D+01 2.19D+00.
      9 vectors produced by pass  2 Test12= 1.94D-15 1.11D-08 XBig12= 5.76D-01 3.97D-01.
      9 vectors produced by pass  3 Test12= 1.94D-15 1.11D-08 XBig12= 2.46D-04 6.36D-03.
      9 vectors produced by pass  4 Test12= 1.94D-15 1.11D-08 XBig12= 3.02D-07 3.02D-04.
      5 vectors produced by pass  5 Test12= 1.94D-15 1.11D-08 XBig12= 1.05D-10 2.98D-06.
      1 vectors produced by pass  6 Test12= 1.94D-15 1.11D-08 XBig12= 6.19D-14 9.70D-08.
 InvSVY:  IOpt=1 It=  1 EMax= 8.88D-16
 Solved reduced A of dimension    51 with     9 vectors.
 Isotropic polarizability for W=    0.000000       15.91 Bohr**3.
 End of Minotr F.D. properties file   721 does not exist.
 End of Minotr F.D. properties file   722 does not exist.
 End of Minotr F.D. properties file   788 does not exist.

 **********************************************************************

            Population analysis using the SCF Density.

 **********************************************************************

 Orbital symmetries:
       Occupied  (SGG) (SGU) (SGG) (SGU) (SGG) (PIU) (PIU)
       Virtual   (PIG) (PIG) (SGU) (SGG) (SGU) (SGG) (PIU) (PIU)
                 (PIG) (PIG) (SGG) (SGU) (SGG) (SGU) (SGU) (PIU)
                 (PIU) (DLTG) (DLTG) (DLTU) (DLTU) (SGG) (PIG)
                 (PIG) (SGU)
 The electronic state is 1-SGG.
 Alpha  occ. eigenvalues --  -10.19458 -10.19230  -0.74095  -0.56470  -0.49778
 Alpha  occ. eigenvalues --   -0.29237  -0.29237
 Alpha virt. eigenvalues --    0.03729   0.03729   0.07819   0.10432   0.26443
 Alpha virt. eigenvalues --    0.28152   0.47238   0.47238   0.58953   0.58953
 Alpha virt. eigenvalues --    0.62480   0.65629   0.89084   0.94708   1.27695
 Alpha virt. eigenvalues --    1.49217   1.49217   1.53959   1.53959   1.93110
 Alpha virt. eigenvalues --    1.93110   2.28111   2.46293   2.46293   3.14489
          Condensed to atoms (all electrons):
               1          2          3          4
     1  C    5.305705   0.452706   0.436243  -0.098181
     2  C    0.452706   5.305705  -0.098181   0.436243
     3  H    0.436243  -0.098181   0.564333   0.001132
     4  H   -0.098181   0.436243   0.001132   0.564333
 Mulliken charges:
               1
     1  C   -0.096473
     2  C   -0.096473
     3  H    0.096473
     4  H    0.096473
 Sum of Mulliken charges =  -0.00000
 Mulliken charges with hydrogens summed into heavy atoms:
               1
     1  C   -0.000000
     2  C   -0.000000
 APT charges:
               1
     1  C   -0.197704
     2  C   -0.197704
     3  H    0.197704
     4  H    0.197704
 Sum of APT charges =   0.00000
 APT charges with hydrogens summed into heavy atoms:
               1
     1  C    0.000000
     2  C    0.000000
 Electronic spatial extent (au):  <R**2>=             60.9201
 Charge=              0.0000 electrons
 Dipole moment (field-independent basis, Debye):
    X=              0.0000    Y=             -0.0000    Z=              0.0000  Tot=              0.0000
 Quadrupole moment (field-independent basis, Debye-Ang):
   XX=            -13.3653   YY=            -13.3653   ZZ=             -7.0325
   XY=             -0.0000   XZ=             -0.0000   YZ=              0.0000
 Traceless Quadrupole moment (field-independent basis, Debye-Ang):
   XX=             -2.1109   YY=             -2.1109   ZZ=              4.2218
   XY=             -0.0000   XZ=             -0.0000   YZ=              0.0000
 Octapole moment (field-independent basis, Debye-Ang**2):
  XXX=             -0.0000  YYY=             -0.0000  ZZZ=             -0.0000  XYY=             -0.0000
  XXY=              0.0000  XXZ=              0.0000  XZZ=             -0.0000  YZZ=             -0.0000
  YYZ=              0.0000  XYZ=              0.0000
 Hexadecapole moment (field-independent basis, Debye-Ang**3):
 XXXX=            -14.7061 YYYY=            -14.7061 ZZZZ=            -39.9424 XXXY=             -0.0000
 XXXZ=              0.0000 YYYX=             -0.0000 YYYZ=              0.0000 ZZZX=              0.0000
 ZZZY=              0.0000 XXYY=             -4.9020 XXZZ=            -12.0454 YYZZ=            -12.0454
 XXYZ=              0.0000 YYXZ=              0.0000 ZZXY=             -0.0000
 N-N= 2.459596713983D+01 E-N=-2.279312061066D+02  KE= 7.643493601693D+01
 Symmetry AG   KE= 3.786928742428D+01
 Symmetry B1G  KE= 9.738201814022D-35
 Symmetry B2G  KE= 5.066899902284D-33
 Symmetry B3G  KE= 7.817336569671D-33
 Symmetry AU   KE= 2.062459971127D-34
 Symmetry B1U  KE= 3.412431222043D+01
 Symmetry B2U  KE= 2.220668186112D+00
 Symmetry B3U  KE= 2.220668186112D+00
  Exact polarizability:       9.410      -0.000       9.410      -0.000       0.000      28.918
 Approx polarizability:      11.328      -0.000      11.328      -0.000      -0.000      52.310
   8 Symmetry operations used in ECPInt.
 ECPInt:  NShTT=     136 NPrTT=     560 LenC2=     137 LenP2D=     532.
 LDataN:  DoStor=T MaxTD1= 6 Len=  172
 Calling FoFJK, ICntrl=    100127 FMM=F ISym2X=1 I1Cent= 0 IOpClX= 0 NMat=1 NMatS=1 NMatT=0.
 Full mass-weighted force constant matrix:
 Low frequencies ---    0.0005    0.0008    0.0008    4.0678    4.0678  668.4613
 Low frequencies ---  668.4613  778.7856  778.7856
 Diagonal vibrational polarizability:
        3.5807507       3.5807507       0.1959127
 Harmonic frequencies (cm**-1), IR intensities (KM/Mole), Raman scattering
 activities (A**4/AMU), depolarization ratios for plane and unpolarized
 incident light, reduced masses (AMU), force constants (mDyne/A),
 and normal coordinates:
                      1                      2                      3
                     PIG                    PIG                    PIU
 Frequencies --    668.4613               668.4613               778.7856
 Red. masses --      1.5757                 1.5757                 1.0848
 Frc consts  --      0.4148                 0.4148                 0.3877
 IR Inten    --      0.0000                 0.0000                80.7006
  Atom  AN      X      Y      Z        X      Y      Z        X      Y      Z
     1   6    -0.16  -0.00  -0.00     0.00  -0.16   0.00    -0.00  -0.06   0.00
     2   6     0.16   0.00   0.00    -0.00   0.16  -0.00    -0.00  -0.06   0.00
     3   1     0.69   0.00  -0.00    -0.00   0.69  -0.00     0.00   0.70  -0.00
     4   1    -0.69  -0.00   0.00     0.00  -0.69  -0.00     0.00   0.70  -0.00
                      4                      5                      6
                     PIU                    SGG                    SGU
 Frequencies --    778.7856              2071.4478              3407.6784
 Red. masses --      1.0848                 3.8062                 1.0848
 Frc consts  --      0.3877                 9.6226                 7.4220
 IR Inten    --     80.7006                 0.0000                84.5370
  Atom  AN      X      Y      Z        X      Y      Z        X      Y      Z
     1   6    -0.06   0.00   0.00    -0.00   0.00   0.36    -0.00  -0.00  -0.06
     2   6    -0.06   0.00   0.00     0.00  -0.00  -0.36    -0.00  -0.00  -0.06
     3   1     0.70  -0.00  -0.00     0.00  -0.00   0.61     0.00   0.00   0.70
     4   1     0.70  -0.00  -0.00    -0.00   0.00  -0.61     0.00   0.00   0.70
                      7
                     SGG
 Frequencies --   3508.2775
 Red. masses --      1.2303
 Frc consts  --      8.9214
 IR Inten    --      0.0000
  Atom  AN      X      Y      Z
     1   6    -0.00  -0.00  -0.10
     2   6     0.00   0.00   0.10
     3   1     0.00   0.00   0.70
     4   1    -0.00   0.00  -0.70

 -------------------
 - Thermochemistry -
 -------------------
 Temperature   298.150 Kelvin.  Pressure   0.98700 Atm.
 Thermochemistry will use frequencies scaled by 0.9610.
 Atom     1 has atomic number  6 and mass  12.00000
 Atom     2 has atomic number  6 and mass  12.00000
 Atom     3 has atomic number  1 and mass   1.00783
 Atom     4 has atomic number  1 and mass   1.00783
 Molecular mass:    26.01565 amu.
 Principal axes and moments of inertia in atomic units:
                           1         2         3
     Eigenvalues --     0.00000  51.63622  51.63622
           X           -0.00000   1.00000  -0.00000
           Y            0.00000   0.00000   1.00000
           Z            1.00000   0.00000  -0.00000
 This molecule is a prolate symmetric top.
 Rotational symmetry number  2.
 Rotational temperature (Kelvin)      1.67739
 Rotational constant (GHZ):          34.951068
 Zero-point vibrational energy      68297.8 (Joules/Mol)
                                   16.32357 (Kcal/Mol)
 Vibrational temperatures:    924.26   924.26  1076.80  1076.80  2864.12
          (Kelvin)           4711.68  4850.77
 
 Zero-point correction=                           0.026013 (Hartree/Particle)
 Thermal correction to Energy=                    0.028840
 Thermal correction to Enthalpy=                  0.029784
 Thermal correction to Gibbs Free Energy=         0.007021
 Sum of electronic and zero-point Energies=            -77.242843
 Sum of electronic and thermal Energies=               -77.240016
 Sum of electronic and thermal Enthalpies=             -77.239072
 Sum of electronic and thermal Free Energies=          -77.261835
 
                     E (Thermal)             CV                S
                      KCal/Mol        Cal/Mol-Kelvin    Cal/Mol-Kelvin
 Total                   18.097              8.346             47.908
 Electronic               0.000              0.000              0.000
 Translational            0.889              2.981             35.730
 Rotational               0.592              1.987             10.904
 Vibrational             16.616              3.378              1.273
                       Q            Log10(Q)             Ln(Q)
 Total Bot       0.589318D-03         -3.229650         -7.436544
 Total V=0       0.544015D+09          8.735611         20.114487
 Vib (Bot)       0.125484D-11        -11.901411        -27.404010
 Vib (V=0)       0.115838D+01          0.063850          0.147021
 Electronic      0.100000D+01          0.000000          0.000000
 Translational   0.528432D+07          6.722989         15.480254
 Rotational      0.888734D+02          1.948772          4.487212
 ***** Axes restored to original set *****
 -------------------------------------------------------------------
 Center     Atomic                   Forces (Hartrees/Bohr)
 Number     Number              X              Y              Z
 -------------------------------------------------------------------
      1        6           0.000026802   -0.000000000   -0.000000000
      2        6          -0.000026802    0.000000000    0.000000000
      3        1          -0.000001809   -0.000000000   -0.000000000
      4        1           0.000001809    0.000000000    0.000000000
 -------------------------------------------------------------------
 Cartesian Forces:  Max     0.000026802 RMS     0.000010967
 FormGI is forming the generalized inverse of G from B-inverse, IUseBI=4.

 GradGradGradGradGradGradGradGradGradGradGradGradGradGradGradGradGradGrad
 Berny optimization.
 Internal  Forces:  Max     0.000024992 RMS     0.000009496
 Search for a local minimum.
 Step number   1 out of a maximum of    2
 All quantities printed in internal units (Hartrees-Bohrs-Radians)
 Second derivative matrix not updated -- analytic derivatives used.
 The second derivative matrix:
                          R1        R2        R3        A1        A2
           R1           1.11818
           R2          -0.00544   0.40882
           R3          -0.00544   0.00025   0.40882
           A1           0.00000  -0.00000  -0.00000   0.06542
           A2           0.00000  -0.00000  -0.00000  -0.02272   0.06542
           A3          -0.00000   0.00000  -0.00000   0.00000   0.00000
           A4          -0.00000  -0.00000   0.00000  -0.00000  -0.00000
                          A3        A4
           A3           0.06542
           A4          -0.02272   0.06542
 ITU=  0
     Eigenvalues ---    0.04270   0.04270   0.08815   0.08815   0.40857
     Eigenvalues ---    0.40899   1.11826
 Angle between quadratic step and forces=   8.81 degrees.
 Linear search not attempted -- first point.
 Iteration  1 RMS(Cart)=  0.00000705 RMS(Int)=  0.00000000
 Iteration  2 RMS(Cart)=  0.00000000 RMS(Int)=  0.00000001
 ClnCor:  largest displacement from symmetrization is 3.40D-14 for atom     1.
 Variable       Old X    -DE/DX   Delta X   Delta X   Delta X     New X
                                 (Linear)    (Quad)   (Total)
    R1        2.28476  -0.00002   0.00000  -0.00002  -0.00002   2.28474
    R2        2.03234   0.00000   0.00000   0.00000   0.00000   2.03235
    R3        2.03234   0.00000   0.00000   0.00000   0.00000   2.03235
    A1        3.14159  -0.00000   0.00000  -0.00000   0.00000   3.14159
    A2        3.14159  -0.00000   0.00000  -0.00000   0.00000   3.14159
    A3        3.14159   0.00000   0.00000   0.00000   0.00000   3.14159
    A4        3.14159   0.00000   0.00000   0.00000   0.00000   3.14159
         Item               Value     Threshold  Converged?
 Maximum Force            0.000025     0.000450     YES
 RMS     Force            0.000009     0.000300     YES
 Maximum Displacement     0.000011     0.001800     YES
 RMS     Displacement     0.000007     0.001200     YES
 Predicted change in Energy=-2.862688D-10
 Optimization completed.
    -- Stationary point found.
                           ----------------------------
                           !   Optimized Parameters   !
                           ! (Angstroms and Degrees)  !
 --------------------------                            --------------------------
 ! Name  Definition              Value          Derivative Info.                !
 --------------------------------------------------------------------------------
 ! R1    R(1,2)                  1.209          -DE/DX =    0.0                 !
 ! R2    R(1,3)                  1.0755         -DE/DX =    0.0                 !
 ! R3    R(2,4)                  1.0755         -DE/DX =    0.0                 !
 ! A1    L(2,1,3,-2,-1)        180.0            -DE/DX =    0.0                 !
 ! A2    L(1,2,4,-2,-1)        180.0            -DE/DX =    0.0                 !
 ! A3    L(2,1,3,-3,-2)        180.0            -DE/DX =    0.0                 !
 ! A4    L(1,2,4,-3,-2)        180.0            -DE/DX =    0.0                 !
 --------------------------------------------------------------------------------
 GradGradGradGradGradGradGradGradGradGradGradGradGradGradGradGradGradGrad

 Dipole is zero, so no output in dipole orientation.

 ----------------------------------------------------------------------

 Electric dipole moment (input orientation):
 (Debye = 10**-18 statcoulomb cm , SI units = C m)
                  (au)            (Debye)         (10**-30 SI)
   Tot        0.000000D+00      0.000000D+00      0.000000D+00
   x          0.000000D+00      0.000000D+00      0.000000D+00
   y          0.000000D+00      0.000000D+00      0.000000D+00
   z          0.000000D+00      0.000000D+00      0.000000D+00

 Dipole polarizability, Alpha (input orientation).
 (esu units = cm**3 , SI units = C**2 m**2 J**-1)
 Alpha(0;0):
               (au)            (10**-24 esu)      (10**-40 SI)
   iso        0.159125D+02      0.235798D+01      0.262361D+01
   aniso      0.195077D+02      0.289075D+01      0.321639D+01
   xx         0.289176D+02      0.428515D+01      0.476787D+01
   yx         0.000000D+00      0.000000D+00      0.000000D+00
   yy         0.940988D+01      0.139440D+01      0.155148D+01
   zx         0.000000D+00      0.000000D+00      0.000000D+00
   zy         0.000000D+00      0.000000D+00      0.000000D+00
   zz         0.940988D+01      0.139440D+01      0.155148D+01

 ----------------------------------------------------------------------
 Unable to Open any file for archive entry.
 1\1\GINC-NODE01\Freq\RB3LYP\def2SVPP\C2H2\XUHJ\19-Dec-2023\0\\#N Geom=
 AllCheck Guess=TCheck SCRF=Check GenChk RB3LYP/def2SVPP Freq\\C#C_1\\0
 ,1\C,1.0974645372,-0.02946,-0.0814\C,2.3065068914,-0.02946,-0.0814\H,0
 .0219939425,-0.02946,-0.0814\H,3.3819774861,-0.02946,-0.0814\\Version=
 ES64L-G16RevC.01\State=1-SGG\HF=-77.2688562\RMSD=0.000e+00\RMSF=1.097e
 -05\ZeroPoint=0.0260133\Thermal=0.0288398\ETot=-77.2400164\HTot=-77.23
 90722\GTot=-77.2618347\Dipole=0.,0.,0.\DipoleDeriv=-0.2007768,0.,0.,0.
 ,-0.1961682,0.,0.,0.,-0.1961682,-0.2007768,0.,0.,0.,-0.1961682,0.,0.,0
 .,-0.1961682,0.2007768,0.,0.,0.,0.1961682,0.,0.,0.,0.1961682,0.2007768
 ,0.,0.,0.,0.1961682,0.,0.,0.,0.1961682\Polar=28.9176053,0.,9.4098773,0
 .,0.,9.4098773\Quadrupole=3.1388305,-1.5694153,-1.5694153,0.,0.,0.\PG=
 D*H [C*(H1C1.C1H1)]\NImag=0\\1.53787905,0.,0.05059658,0.,0.,0.05059658
 ,-1.12930540,0.,0.,1.53787905,0.,-0.02925685,0.,0.,0.05059658,0.,0.,-0
 .02925685,0.,0.,0.05059658,-0.41426071,0.,0.,0.00568706,0.,0.,0.408822
 70,0.,-0.02503364,0.,0.,0.00369391,0.,0.,0.01583809,0.,0.,-0.02503364,
 0.,0.,0.00369391,0.,0.,0.01583809,0.00568706,0.,0.,-0.41426071,0.,0.,-
 0.00024905,0.,0.,0.40882270,0.,0.00369391,0.,0.,-0.02503364,0.,0.,0.00
 550165,0.,0.,0.01583809,0.,0.,0.00369391,0.,0.,-0.02503364,0.,0.,0.005
 50165,0.,0.,0.01583809\\-0.00002680,0.,0.,0.00002680,0.,0.,0.00000181,
 0.,0.,-0.00000181,0.,0.\\\@
 The archive entry for this job was punched.


 I take a simple view of life: keep your eyes open and get on with it.
 -- Laurence Olivier
 Job cpu time:       0 days  0 hours  0 minutes 31.1 seconds.
 Elapsed time:       0 days  0 hours  0 minutes  2.5 seconds.
 File lengths (MBytes):  RWF=      6 Int=      0 D2E=      0 Chk=      1 Scr=      1
 Normal termination of Gaussian 16 at Tue Dec 19 13:04:19 2023.
