%nprocshared=16
%mem=3840MB
#N opt freq B3LYP/def2SVPP symm=veryloose em=gd3bj scale=0.961 press=0.987

C1=Cc2cccc3cccc1c23_1

0 1
C          0.72898        2.32141        0.00629
C         -0.62713        2.34908        0.00236
C         -1.11602        0.92032        0.00006
C         -2.38685        0.35919       -0.00103
C         -2.45315       -1.04941        0.00069
C         -1.29603       -1.85781       -0.00040
C         -0.02096       -1.26441       -0.00185
C          1.23017       -1.90684       -0.00475
C          2.41789       -1.14394       -0.00114
C          2.40606        0.26530        0.00475
C          1.15875        0.87495        0.00397
C          0.00570        0.10072        0.00018
H          1.39996        3.16585        0.01018
H         -1.26052        3.22212        0.00142
H         -3.27780        0.97539       -0.00087
H         -3.42975       -1.53063        0.00354
H         -1.39589       -2.93979        0.00138
H          1.28808       -2.99171       -0.00960
H          3.37545       -1.66224       -0.00345
H          3.31957        0.84769        0.00896

