 Entering Gaussian System, Link 0=g16
 Initial command:
 /home/software/g16/l1.exe "/home/software/g16tmp/Gau-183308.inp" -scrdir="/home/software/g16tmp/"
 Default is to use a total of   8 processors:
                                8 via shared-memory
                                1 via Linda
 Entering Link 1 = /home/software/g16/l1.exe PID=    183309.
  
 Copyright (c) 1988-2019, Gaussian, Inc.  All Rights Reserved.
  
 This is part of the Gaussian(R) 16 program.  It is based on
 the Gaussian(R) 09 system (copyright 2009, Gaussian, Inc.),
 the Gaussian(R) 03 system (copyright 2003, Gaussian, Inc.),
 the Gaussian(R) 98 system (copyright 1998, Gaussian, Inc.),
 the Gaussian(R) 94 system (copyright 1995, Gaussian, Inc.),
 the Gaussian 92(TM) system (copyright 1992, Gaussian, Inc.),
 the Gaussian 90(TM) system (copyright 1990, Gaussian, Inc.),
 the Gaussian 88(TM) system (copyright 1988, Gaussian, Inc.),
 the Gaussian 86(TM) system (copyright 1986, Carnegie Mellon
 University), and the Gaussian 82(TM) system (copyright 1983,
 Carnegie Mellon University). Gaussian is a federally registered
 trademark of Gaussian, Inc.
  
 This software contains proprietary and confidential information,
 including trade secrets, belonging to Gaussian, Inc.
  
 This software is provided under written license and may be
 used, copied, transmitted, or stored only in accord with that
 written license.
  
 The following legend is applicable only to US Government
 contracts under FAR:
  
                    RESTRICTED RIGHTS LEGEND
  
 Use, reproduction and disclosure by the US Government is
 subject to restrictions as set forth in subparagraphs (a)
 and (c) of the Commercial Computer Software - Restricted
 Rights clause in FAR 52.227-19.
  
 Gaussian, Inc.
 340 Quinnipiac St., Bldg. 40, Wallingford CT 06492
  
  
 ---------------------------------------------------------------
 Warning -- This program may not be used in any manner that
 competes with the business of Gaussian, Inc. or will provide
 assistance to any competitor of Gaussian, Inc.  The licensee
 of this program is prohibited from giving any competitor of
 Gaussian, Inc. access to this program.  By using this program,
 the user acknowledges that Gaussian, Inc. is engaged in the
 business of creating and licensing software in the field of
 computational chemistry and represents and warrants to the
 licensee that it is not a competitor of Gaussian, Inc. and that
 it will not use this program in any manner prohibited above.
 ---------------------------------------------------------------
  

 Cite this work as:
 Gaussian 16, Revision C.01,
 M. J. Frisch, G. W. Trucks, H. B. Schlegel, G. E. Scuseria, 
 M. A. Robb, J. R. Cheeseman, G. Scalmani, V. Barone, 
 G. A. Petersson, H. Nakatsuji, X. Li, M. Caricato, A. V. Marenich, 
 J. Bloino, B. G. Janesko, R. Gomperts, B. Mennucci, H. P. Hratchian, 
 J. V. Ortiz, A. F. Izmaylov, J. L. Sonnenberg, D. Williams-Young, 
 F. Ding, F. Lipparini, F. Egidi, J. Goings, B. Peng, A. Petrone, 
 T. Henderson, D. Ranasinghe, V. G. Zakrzewski, J. Gao, N. Rega, 
 G. Zheng, W. Liang, M. Hada, M. Ehara, K. Toyota, R. Fukuda, 
 J. Hasegawa, M. Ishida, T. Nakajima, Y. Honda, O. Kitao, H. Nakai, 
 T. Vreven, K. Throssell, J. A. Montgomery, Jr., J. E. Peralta, 
 F. Ogliaro, M. J. Bearpark, J. J. Heyd, E. N. Brothers, K. N. Kudin, 
 V. N. Staroverov, T. A. Keith, R. Kobayashi, J. Normand, 
 K. Raghavachari, A. P. Rendell, J. C. Burant, S. S. Iyengar, 
 J. Tomasi, M. Cossi, J. M. Millam, M. Klene, C. Adamo, R. Cammi, 
 J. W. Ochterski, R. L. Martin, K. Morokuma, O. Farkas, 
 J. B. Foresman, and D. J. Fox, Gaussian, Inc., Wallingford CT, 2019.
 
 ******************************************
 Gaussian 16:  ES64L-G16RevC.01  3-Jul-2019
                19-Dec-2023 
 ******************************************
 %nprocshared=16
 Will use up to   16 processors via shared memory.
 %mem=320MB
 ----------------------------------------------------------------------
 #N opt freq B3LYP/def2SVPP symm=veryloose em=gd3bj scale=0.961 press=0
 .987
 ----------------------------------------------------------------------
 1/18=20,19=15,26=3,38=1,113=-987000,114=961000/1,3;
 2/9=110,12=2,17=2,18=2,40=1/2;
 3/5=43,7=202,11=2,25=1,30=1,71=1,74=-5,124=41/1,2,3;
 4//1;
 5/5=2,38=5/2;
 6/7=2,8=2,9=2,10=2,28=1/1;
 7//1,2,3,16;
 1/18=20,19=15,26=3/3(2);
 2/9=110/2;
 99//99;
 2/9=110/2;
 3/5=43,7=202,11=2,25=1,30=1,71=1,74=-5,124=41/1,2,3;
 4/5=5,16=3,69=1/1;
 5/5=2,38=5/2;
 7//1,2,3,16;
 1/18=20,19=15,26=3/3(-5);
 2/9=110/2;
 6/7=2,8=2,9=2,10=2,19=2,28=1/1;
 99/9=1/99;
 -------
 [CH2]_1
 -------
 Symbolic Z-matrix:
 Charge =  0 Multiplicity = 3
 C                     0.92604   0.14809  -0.10831 
 H                     2.03546   0.149    -0.1084 
 H                     0.55705  -0.89218   0.00318 
 

 GradGradGradGradGradGradGradGradGradGradGradGradGradGradGradGradGradGrad
 Berny optimization.
 Initialization pass.
                           ----------------------------
                           !    Initial Parameters    !
                           ! (Angstroms and Degrees)  !
 --------------------------                            --------------------------
 ! Name  Definition              Value          Derivative Info.                !
 --------------------------------------------------------------------------------
 ! R1    R(1,2)                  1.1094         estimate D2E/DX2                !
 ! R2    R(1,3)                  1.1094         estimate D2E/DX2                !
 ! A1    A(2,1,3)              109.4743         estimate D2E/DX2                !
 --------------------------------------------------------------------------------
 Trust Radius=3.00D-01 FncErr=1.00D-07 GrdErr=1.00D-06 EigMax=2.50D+02 EigMin=1.00D-04
 Number of steps in this run=     20 maximum allowed number of steps=    100.
 GradGradGradGradGradGradGradGradGradGradGradGradGradGradGradGradGradGrad

                          Input orientation:                          
 ---------------------------------------------------------------------
 Center     Atomic      Atomic             Coordinates (Angstroms)
 Number     Number       Type             X           Y           Z
 ---------------------------------------------------------------------
      1          6           0        0.926040    0.148090   -0.108310
      2          1           0        2.035460    0.149000   -0.108400
      3          1           0        0.557050   -0.892180    0.003180
 ---------------------------------------------------------------------
                    Distance matrix (angstroms):
                    1          2          3
     1  C    0.000000
     2  H    1.109420   0.000000
     3  H    1.109390   1.811685   0.000000
 Stoichiometry    CH2(3)
 Framework group  C2V[C2(C),SGV(H2)]
 Deg. of freedom     2
 Full point group                 C2V     NOp   4
 Largest Abelian subgroup         C2V     NOp   4
 Largest concise Abelian subgroup C2      NOp   2
                         Standard orientation:                         
 ---------------------------------------------------------------------
 Center     Atomic      Atomic             Coordinates (Angstroms)
 Number     Number       Type             X           Y           Z
 ---------------------------------------------------------------------
      1          6           0        0.000000   -0.000000    0.160123
      2          1           0       -0.000000   -0.905865   -0.480352
      3          1           0        0.000000    0.905865   -0.480352
 ---------------------------------------------------------------------
 Rotational constants (GHZ):         713.8869514         305.5449213         213.9667576
 Standard basis: def2SVPP (5D, 7F)
 There are    10 symmetry adapted cartesian basis functions of A1  symmetry.
 There are     1 symmetry adapted cartesian basis functions of A2  symmetry.
 There are     3 symmetry adapted cartesian basis functions of B1  symmetry.
 There are     5 symmetry adapted cartesian basis functions of B2  symmetry.
 There are     9 symmetry adapted basis functions of A1  symmetry.
 There are     1 symmetry adapted basis functions of A2  symmetry.
 There are     3 symmetry adapted basis functions of B1  symmetry.
 There are     5 symmetry adapted basis functions of B2  symmetry.
    18 basis functions,    33 primitive gaussians,    19 cartesian basis functions
     5 alpha electrons        3 beta electrons
       nuclear repulsion energy         6.0159392540 Hartrees.
 NAtoms=    3 NActive=    3 NUniq=    2 SFac= 2.25D+00 NAtFMM=   60 NAOKFM=F Big=F
 Integral buffers will be    131072 words long.
 Raffenetti 2 integral format.
 Two-electron integral symmetry is turned on.
 Nuclear repulsion after empirical dispersion term =        6.0150989746 Hartrees.
 One-electron integrals computed using PRISM.
 PrsmSu:  requested number of processors reduced to:  12 ShMem   1 Linda.
   4 Symmetry operations used in ECPInt.
 ECPInt:  NShTT=      55 NPrTT=     229 LenC2=      56 LenP2D=     224.
 LDataN:  DoStor=T MaxTD1= 4 Len=   56
 NBasis=    18 RedAO= T EigKep=  2.83D-02  NBF=     9     1     3     5
 NBsUse=    18 1.00D-06 EigRej= -1.00D+00 NBFU=     9     1     3     5
 ExpMin= 1.22D-01 ExpMax= 1.24D+03 ExpMxC= 1.86D+02 IAcc=3 IRadAn=         5 AccDes= 0.00D+00
 Harris functional with IExCor=  402 and IRadAn=       5 diagonalized for initial guess.
 HarFok:  IExCor=  402 AccDes= 0.00D+00 IRadAn=         5 IDoV= 1 UseB2=F ITyADJ=14
 ICtDFT=  3500011 ScaDFX=  1.000000  1.000000  1.000000  1.000000
 FoFCou: FMM=F IPFlag=           0 FMFlag=      100000 FMFlg1=           0
         NFxFlg=           0 DoJE=T BraDBF=F KetDBF=T FulRan=T
         wScrn=  0.000000 ICntrl=       500 IOpCl=  0 I1Cent=   200000004 NGrid=           0
         NMat0=    1 NMatS0=      1 NMatT0=    0 NMatD0=    1 NMtDS0=    0 NMtDT0=    0
 Petite list used in FoFCou.
 Initial guess orbital symmetries:
 Alpha Orbitals:
       Occupied  (A1) (A1) (B2) (A1) (B1)
       Virtual   (A1) (B2) (B2) (A1) (B1) (A1) (A1) (B2) (A1) (A2)
                 (B1) (A1) (B2)
 Beta  Orbitals:
       Occupied  (A1) (A1) (B2)
       Virtual   (A1) (B1) (A1) (B2) (B2) (A1) (B1) (A1) (A1) (B2)
                 (A1) (A2) (B1) (A1) (B2)
 The electronic state of the initial guess is 3-B1.
 Initial guess <Sx>= 0.0000 <Sy>= 0.0000 <Sz>= 1.0000 <S**2>= 2.0000 S= 1.0000
 Keep R1 and R2 ints in memory in symmetry-blocked form, NReq=13823677.
 Requested convergence on RMS density matrix=1.00D-08 within 128 cycles.
 Requested convergence on MAX density matrix=1.00D-06.
 Requested convergence on             energy=1.00D-06.
 No special actions if energy rises.
 Integral accuracy reduced to 1.0D-05 until final iterations.
 Initial convergence to 1.0D-05 achieved.  Increase integral accuracy.
 SCF Done:  E(UB3LYP) =  -39.1088772529     A.U. after   12 cycles
            NFock= 12  Conv=0.27D-08     -V/T= 2.0099
 <Sx>= 0.0000 <Sy>= 0.0000 <Sz>= 1.0000 <S**2>= 2.0039 S= 1.0013
 <L.S>=  0.00000000000    
 Annihilation of the first spin contaminant:
 S**2 before annihilation     2.0039,   after     2.0000

 **********************************************************************

            Population analysis using the SCF Density.

 **********************************************************************

 Orbital symmetries:
 Alpha Orbitals:
       Occupied  (A1) (A1) (B2) (A1) (B1)
       Virtual   (A1) (B2) (A1) (B2) (B1) (A1) (A1) (B2) (A1) (B1)
                 (A2) (A1) (B2)
 Beta  Orbitals:
       Occupied  (A1) (A1) (B2)
       Virtual   (A1) (B1) (A1) (B2) (B2) (A1) (A1) (B1) (A1) (B2)
                 (A2) (A1) (B1) (A1) (B2)
 The electronic state is 3-B1.
 Alpha  occ. eigenvalues --  -10.23247  -0.67124  -0.42090  -0.31601  -0.24871
 Alpha virt. eigenvalues --    0.08235   0.12554   0.42174   0.42440   0.46487
 Alpha virt. eigenvalues --    0.49543   0.65046   0.67345   1.61782   1.62705
 Alpha virt. eigenvalues --    1.63083   1.92009   2.08178
  Beta  occ. eigenvalues --  -10.20171  -0.60172  -0.39776
  Beta virt. eigenvalues --   -0.11035  -0.05127   0.09767   0.14446   0.44170
  Beta virt. eigenvalues --    0.50402   0.52771   0.55483   0.68727   0.70238
  Beta virt. eigenvalues --    1.71662   1.73412   1.77258   2.01421   2.14702
          Condensed to atoms (all electrons):
               1          2          3
     1  C    5.576036   0.347008   0.347008
     2  H    0.347008   0.560414  -0.042447
     3  H    0.347008  -0.042447   0.560414
          Atomic-Atomic Spin Densities.
               1          2          3
     1  C    2.123156  -0.034842  -0.034842
     2  H   -0.034842  -0.008666   0.016771
     3  H   -0.034842   0.016771  -0.008666
 Mulliken charges and spin densities:
               1          2
     1  C   -0.270052   2.053473
     2  H    0.135026  -0.026736
     3  H    0.135026  -0.026736
 Sum of Mulliken charges =   0.00000   2.00000
 Mulliken charges and spin densities with hydrogens summed into heavy atoms:
               1          2
     1  C    0.000000   2.000000
 Electronic spatial extent (au):  <R**2>=             24.2629
 Charge=              0.0000 electrons
 Dipole moment (field-independent basis, Debye):
    X=              0.0000    Y=             -0.0000    Z=             -0.7495  Tot=              0.7495
 Quadrupole moment (field-independent basis, Debye-Ang):
   XX=             -8.0325   YY=             -6.6544   ZZ=             -7.1092
   XY=              0.0000   XZ=             -0.0000   YZ=              0.0000
 Traceless Quadrupole moment (field-independent basis, Debye-Ang):
   XX=             -0.7672   YY=              0.6110   ZZ=              0.1562
   XY=              0.0000   XZ=             -0.0000   YZ=              0.0000
 Octapole moment (field-independent basis, Debye-Ang**2):
  XXX=             -0.0000  YYY=             -0.0000  ZZZ=             -1.3308  XYY=             -0.0000
  XXY=              0.0000  XXZ=             -0.4443  XZZ=             -0.0000  YZZ=             -0.0000
  YYZ=             -0.9967  XYZ=             -0.0000
 Hexadecapole moment (field-independent basis, Debye-Ang**3):
 XXXX=             -8.9945 YYYY=            -14.1014 ZZZZ=            -10.7590 XXXY=             -0.0000
 XXXZ=              0.0000 YYYX=             -0.0000 YYYZ=              0.0000 ZZZX=              0.0000
 ZZZY=              0.0000 XXYY=             -4.0929 XXZZ=             -3.3408 YYZZ=             -3.8834
 XXYZ=              0.0000 YYXZ=             -0.0000 ZZXY=             -0.0000
 N-N= 6.015098974606D+00 E-N=-1.023541284234D+02  KE= 3.872615460671D+01
 Symmetry A1   KE= 3.559387255087D+01
 Symmetry A2   KE= 6.715866101425D-34
 Symmetry B1   KE= 1.193731399234D+00
 Symmetry B2   KE= 1.938550656606D+00
 Symmetry A1   SP= 1.000000000000D+00
 Symmetry A2   SP= 8.841507657402D-36
 Symmetry B1   SP= 1.000000000000D+00
 Symmetry B2   SP= 1.733639273804D-16
                          Isotropic Fermi Contact Couplings
        Atom                 a.u.       MegaHertz       Gauss      10(-4) cm-1
     1  C(13)              0.97173     546.20608     194.89991     182.19474
     2  H(1)               0.00344       7.69196       2.74468       2.56576
     3  H(1)               0.00344       7.69196       2.74468       2.56576
 --------------------------------------------------------
       Center         ----  Spin Dipole Couplings  ----
                      3XX-RR        3YY-RR        3ZZ-RR
 --------------------------------------------------------
     1   Atom        0.744313     -1.003956      0.259644
     2   Atom       -0.057397      0.072594     -0.015196
     3   Atom       -0.057397      0.072594     -0.015196
 --------------------------------------------------------
                        XY            XZ            YZ
 --------------------------------------------------------
     1   Atom        0.000000     -0.000000     -0.000000
     2   Atom        0.000000      0.000000      0.108332
     3   Atom       -0.000000      0.000000     -0.108332
 --------------------------------------------------------


 ---------------------------------------------------------------------------------
              Anisotropic Spin Dipole Couplings in Principal Axis System
 ---------------------------------------------------------------------------------

       Atom             a.u.   MegaHertz   Gauss  10(-4) cm-1        Axes

              Baa    -1.0040  -134.721   -48.072   -44.938 -0.0000  1.0000  0.0000
     1 C(13)  Bbb     0.2596    34.842    12.432    11.622  0.0000 -0.0000  1.0000
              Bcc     0.7443    99.880    35.640    33.316  1.0000  0.0000 -0.0000
 
              Baa    -0.0882   -47.053   -16.790   -15.695 -0.0000 -0.5588  0.8293
     2 H(1)   Bbb    -0.0574   -30.624   -10.928   -10.215  1.0000 -0.0000  0.0000
              Bcc     0.1456    77.678    27.717    25.911  0.0000  0.8293  0.5588
 
              Baa    -0.0882   -47.053   -16.790   -15.695 -0.0000  0.5588  0.8293
     3 H(1)   Bbb    -0.0574   -30.624   -10.928   -10.215  1.0000  0.0000  0.0000
              Bcc     0.1456    77.678    27.717    25.911 -0.0000  0.8293 -0.5588
 

 ---------------------------------------------------------------------------------

 PrsmSu:  requested number of processors reduced to:  12 ShMem   1 Linda.
   4 Symmetry operations used in ECPInt.
 ECPInt:  NShTT=      55 NPrTT=     229 LenC2=      56 LenP2D=     224.
 LDataN:  DoStor=T MaxTD1= 5 Len=  102
 Calling FoFJK, ICntrl=      2127 FMM=F ISym2X=1 I1Cent= 0 IOpClX= 1 NMat=1 NMatS=1 NMatT=0.
 ***** Axes restored to original set *****
 -------------------------------------------------------------------
 Center     Atomic                   Forces (Hartrees/Bohr)
 Number     Number              X              Y              Z
 -------------------------------------------------------------------
      1        6           0.024254915   -0.034050625    0.003649592
      2        1          -0.004295000    0.022541166   -0.002415913
      3        1          -0.019959915    0.011509459   -0.001233679
 -------------------------------------------------------------------
 Cartesian Forces:  Max     0.034050625 RMS     0.017719547

 GradGradGradGradGradGradGradGradGradGradGradGradGradGradGradGradGradGrad
 Berny optimization.
 FormGI is forming the generalized inverse of G from B-inverse, IUseBI=4.
 Internal  Forces:  Max     0.047535327 RMS     0.027665758
 Search for a local minimum.
 Step number   1 out of a maximum of   20
 All quantities printed in internal units (Hartrees-Bohrs-Radians)
 Mixed Optimization -- RFO/linear search
 Second derivative matrix not updated -- first step.
 The second derivative matrix:
                          R1        R2        A1
           R1           0.32662
           R2           0.00000   0.32662
           A1           0.00000   0.00000   0.16000
 ITU=  0
     Eigenvalues ---    0.16000   0.32662   0.32662
 RFO step:  Lambda=-1.31571049D-02 EMin= 1.60000000D-01
 Linear search not attempted -- first point.
 Iteration  1 RMS(Cart)=  0.12331378 RMS(Int)=  0.04374880
 Iteration  2 RMS(Cart)=  0.04182220 RMS(Int)=  0.00120186
 Iteration  3 RMS(Cart)=  0.00119759 RMS(Int)=  0.00000014
 Iteration  4 RMS(Cart)=  0.00000013 RMS(Int)=  0.00000000
 ClnCor:  largest displacement from symmetrization is 2.46D-15 for atom     2.
 Variable       Old X    -DE/DX   Delta X   Delta X   Delta X     New X
                                 (Linear)    (Quad)   (Total)
    R1        2.09649  -0.00428   0.00000  -0.01259  -0.01259   2.08390
    R2        2.09649  -0.00428   0.00000  -0.01259  -0.01259   2.08390
    A1        1.91073   0.04754   0.00000   0.27452   0.27452   2.18525
         Item               Value     Threshold  Converged?
 Maximum Force            0.047535     0.000450     NO 
 RMS     Force            0.027666     0.000300     NO 
 Maximum Displacement     0.161323     0.001800     NO 
 RMS     Displacement     0.163716     0.001200     NO 
 Predicted change in Energy=-7.076411D-03
 GradGradGradGradGradGradGradGradGradGradGradGradGradGradGradGradGradGrad

                          Input orientation:                          
 ---------------------------------------------------------------------
 Center     Atomic      Atomic             Coordinates (Angstroms)
 Number     Number       Type             X           Y           Z
 ---------------------------------------------------------------------
      1          6           0        0.977308    0.076129   -0.100597
      2          1           0        2.069566    0.227052   -0.116765
      3          1           0        0.471626   -0.898266    0.003832
 ---------------------------------------------------------------------
                    Distance matrix (angstroms):
                    1          2          3
     1  C    0.000000
     2  H    1.102754   0.000000
     3  H    1.102754   1.958136   0.000000
 Stoichiometry    CH2(3)
 Framework group  C2V[C2(C),SGV(H2)]
 Deg. of freedom     2
 Full point group                 C2V     NOp   4
 Largest Abelian subgroup         C2V     NOp   4
 Largest concise Abelian subgroup C2      NOp   2
                         Standard orientation:                         
 ---------------------------------------------------------------------
 Center     Atomic      Atomic             Coordinates (Angstroms)
 Number     Number       Type             X           Y           Z
 ---------------------------------------------------------------------
      1          6           0        0.000000   -0.000000    0.126859
      2          1           0       -0.000000   -0.979068   -0.380578
      3          1           0        0.000000    0.979068   -0.380578
 ---------------------------------------------------------------------
 Rotational constants (GHZ):        1137.2865801         261.5629800         212.6547954
 Standard basis: def2SVPP (5D, 7F)
 There are    10 symmetry adapted cartesian basis functions of A1  symmetry.
 There are     1 symmetry adapted cartesian basis functions of A2  symmetry.
 There are     3 symmetry adapted cartesian basis functions of B1  symmetry.
 There are     5 symmetry adapted cartesian basis functions of B2  symmetry.
 There are     9 symmetry adapted basis functions of A1  symmetry.
 There are     1 symmetry adapted basis functions of A2  symmetry.
 There are     3 symmetry adapted basis functions of B1  symmetry.
 There are     5 symmetry adapted basis functions of B2  symmetry.
    18 basis functions,    33 primitive gaussians,    19 cartesian basis functions
     5 alpha electrons        3 beta electrons
       nuclear repulsion energy         6.0286702721 Hartrees.
 NAtoms=    3 NActive=    3 NUniq=    2 SFac= 2.25D+00 NAtFMM=   60 NAOKFM=F Big=F
 Integral buffers will be    131072 words long.
 Raffenetti 2 integral format.
 Two-electron integral symmetry is turned on.
 Nuclear repulsion after empirical dispersion term =        6.0278326353 Hartrees.
 One-electron integrals computed using PRISM.
 PrsmSu:  requested number of processors reduced to:  12 ShMem   1 Linda.
   4 Symmetry operations used in ECPInt.
 ECPInt:  NShTT=      55 NPrTT=     229 LenC2=      56 LenP2D=     224.
 LDataN:  DoStor=T MaxTD1= 4 Len=   56
 NBasis=    18 RedAO= T EigKep=  3.14D-02  NBF=     9     1     3     5
 NBsUse=    18 1.00D-06 EigRej= -1.00D+00 NBFU=     9     1     3     5
 Initial guess from the checkpoint file:  "/home/software/g16tmp/Gau-183309.chk"
 B after Tr=     0.000000   -0.000000   -0.000008
         Rot=    1.000000   -0.000000   -0.000000    0.000000 Ang=   0.00 deg.
 Initial guess orbital symmetries:
 Alpha Orbitals:
       Occupied  (A1) (A1) (B2) (A1) (B1)
       Virtual   (A1) (B2) (A1) (B2) (B1) (A1) (A1) (B2) (A1) (B1)
                 (A2) (A1) (B2)
 Beta  Orbitals:
       Occupied  (A1) (A1) (B2)
       Virtual   (A1) (B1) (A1) (B2) (B2) (A1) (A1) (B1) (A1) (B2)
                 (A2) (A1) (B1) (A1) (B2)
 Initial guess <Sx>= 0.0000 <Sy>= 0.0000 <Sz>= 1.0000 <S**2>= 2.0041 S= 1.0014
 ExpMin= 1.22D-01 ExpMax= 1.24D+03 ExpMxC= 1.86D+02 IAcc=3 IRadAn=         5 AccDes= 0.00D+00
 Harris functional with IExCor=  402 and IRadAn=       5 diagonalized for initial guess.
 HarFok:  IExCor=  402 AccDes= 0.00D+00 IRadAn=         5 IDoV= 1 UseB2=F ITyADJ=14
 ICtDFT=  3500011 ScaDFX=  1.000000  1.000000  1.000000  1.000000
 FoFCou: FMM=F IPFlag=           0 FMFlag=      100000 FMFlg1=           0
         NFxFlg=           0 DoJE=T BraDBF=F KetDBF=T FulRan=T
         wScrn=  0.000000 ICntrl=       500 IOpCl=  0 I1Cent=   200000004 NGrid=           0
         NMat0=    1 NMatS0=      1 NMatT0=    0 NMatD0=    1 NMtDS0=    0 NMtDT0=    0
 Petite list used in FoFCou.
 Keep R1 and R2 ints in memory in symmetry-blocked form, NReq=13823677.
 Requested convergence on RMS density matrix=1.00D-08 within 128 cycles.
 Requested convergence on MAX density matrix=1.00D-06.
 Requested convergence on             energy=1.00D-06.
 No special actions if energy rises.
 Integral accuracy reduced to 1.0D-05 until final iterations.
 Initial convergence to 1.0D-05 achieved.  Increase integral accuracy.
 SCF Done:  E(UB3LYP) =  -39.1172092327     A.U. after   11 cycles
            NFock= 11  Conv=0.25D-08     -V/T= 2.0100
 <Sx>= 0.0000 <Sy>= 0.0000 <Sz>= 1.0000 <S**2>= 2.0047 S= 1.0016
 <L.S>=  0.00000000000    
 Annihilation of the first spin contaminant:
 S**2 before annihilation     2.0047,   after     2.0000
 PrsmSu:  requested number of processors reduced to:  12 ShMem   1 Linda.
   4 Symmetry operations used in ECPInt.
 ECPInt:  NShTT=      55 NPrTT=     229 LenC2=      56 LenP2D=     224.
 LDataN:  DoStor=T MaxTD1= 5 Len=  102
 Calling FoFJK, ICntrl=      2127 FMM=F ISym2X=1 I1Cent= 0 IOpClX= 1 NMat=1 NMatS=1 NMatT=0.
 ***** Axes restored to original set *****
 -------------------------------------------------------------------
 Center     Atomic                   Forces (Hartrees/Bohr)
 Number     Number              X              Y              Z
 -------------------------------------------------------------------
      1        6           0.009116108   -0.012797784    0.001371684
      2        1          -0.005119293    0.006003650   -0.000643485
      3        1          -0.003996814    0.006794134   -0.000728199
 -------------------------------------------------------------------
 Cartesian Forces:  Max     0.012797784 RMS     0.006447207

 GradGradGradGradGradGradGradGradGradGradGradGradGradGradGradGradGradGrad
 Berny optimization.
 Using GEDIIS/GDIIS optimizer.
 FormGI is forming the generalized inverse of G from B-inverse, IUseBI=4.
 Internal  Forces:  Max     0.013931308 RMS     0.008756477
 Search for a local minimum.
 Step number   2 out of a maximum of   20
 All quantities printed in internal units (Hartrees-Bohrs-Radians)
 Mixed Optimization -- RFO/linear search
 Update second derivatives using D2CorX and points    1    2
 DE= -8.33D-03 DEPred=-7.08D-03 R= 1.18D+00
 TightC=F SS=  1.41D+00  RLast= 2.75D-01 DXNew= 5.0454D-01 8.2529D-01
 Trust test= 1.18D+00 RLast= 2.75D-01 DXMaxT set to 5.05D-01
 The second derivative matrix:
                          R1        R2        A1
           R1           0.32523
           R2          -0.00139   0.32523
           A1           0.01471   0.01471   0.12376
 ITU=  1  0
 Use linear search instead of GDIIS.
     Eigenvalues ---    0.12162   0.32598   0.32662
 RFO step:  Lambda=-1.18694879D-04 EMin= 1.21617740D-01
 Quartic linear search produced a step of  0.53364.
 Iteration  1 RMS(Cart)=  0.08046813 RMS(Int)=  0.00464847
 Iteration  2 RMS(Cart)=  0.00463550 RMS(Int)=  0.00000178
 Iteration  3 RMS(Cart)=  0.00000162 RMS(Int)=  0.00000000
 Iteration  4 RMS(Cart)=  0.00000000 RMS(Int)=  0.00000000
 ClnCor:  largest displacement from symmetrization is 1.42D-14 for atom     3.
 Variable       Old X    -DE/DX   Delta X   Delta X   Delta X     New X
                                 (Linear)    (Quad)   (Total)
    R1        2.08390  -0.00424  -0.00672  -0.01353  -0.02025   2.06365
    R2        2.08390  -0.00424  -0.00672  -0.01353  -0.02025   2.06365
    A1        2.18525   0.01393   0.14650  -0.00003   0.14646   2.33172
         Item               Value     Threshold  Converged?
 Maximum Force            0.013931     0.000450     NO 
 RMS     Force            0.008756     0.000300     NO 
 Maximum Displacement     0.078933     0.001800     NO 
 RMS     Displacement     0.078604     0.001200     NO 
 Predicted change in Energy=-8.391941D-04
 GradGradGradGradGradGradGradGradGradGradGradGradGradGradGradGradGradGrad

                          Input orientation:                          
 ---------------------------------------------------------------------
 Center     Atomic      Atomic             Coordinates (Angstroms)
 Number     Number       Type             X           Y           Z
 ---------------------------------------------------------------------
      1          6           0        1.007061    0.034360   -0.096120
      2          1           0        2.074809    0.262105   -0.120522
      3          1           0        0.436630   -0.891550    0.003112
 ---------------------------------------------------------------------
                    Distance matrix (angstroms):
                    1          2          3
     1  C    0.000000
     2  H    1.092038   0.000000
     3  H    1.092038   2.007445   0.000000
 Stoichiometry    CH2(3)
 Framework group  C2V[C2(C),SGV(H2)]
 Deg. of freedom     2
 Full point group                 C2V     NOp   4
 Largest Abelian subgroup         C2V     NOp   4
 Largest concise Abelian subgroup C2      NOp   2
                         Standard orientation:                         
 ---------------------------------------------------------------------
 Center     Atomic      Atomic             Coordinates (Angstroms)
 Number     Number       Type             X           Y           Z
 ---------------------------------------------------------------------
      1          6           0        0.000000   -0.000000    0.107555
      2          1           0       -0.000000   -1.003722   -0.322665
      3          1           0        0.000000    1.003722   -0.322665
 ---------------------------------------------------------------------
 Rotational constants (GHZ):        1582.1676868         248.8713768         215.0452485
 Standard basis: def2SVPP (5D, 7F)
 There are    10 symmetry adapted cartesian basis functions of A1  symmetry.
 There are     1 symmetry adapted cartesian basis functions of A2  symmetry.
 There are     3 symmetry adapted cartesian basis functions of B1  symmetry.
 There are     5 symmetry adapted cartesian basis functions of B2  symmetry.
 There are     9 symmetry adapted basis functions of A1  symmetry.
 There are     1 symmetry adapted basis functions of A2  symmetry.
 There are     3 symmetry adapted basis functions of B1  symmetry.
 There are     5 symmetry adapted basis functions of B2  symmetry.
    18 basis functions,    33 primitive gaussians,    19 cartesian basis functions
     5 alpha electrons        3 beta electrons
       nuclear repulsion energy         6.0785373231 Hartrees.
 NAtoms=    3 NActive=    3 NUniq=    2 SFac= 2.25D+00 NAtFMM=   60 NAOKFM=F Big=F
 Integral buffers will be    131072 words long.
 Raffenetti 2 integral format.
 Two-electron integral symmetry is turned on.
 Nuclear repulsion after empirical dispersion term =        6.0777009495 Hartrees.
 One-electron integrals computed using PRISM.
 PrsmSu:  requested number of processors reduced to:  12 ShMem   1 Linda.
   4 Symmetry operations used in ECPInt.
 ECPInt:  NShTT=      55 NPrTT=     229 LenC2=      56 LenP2D=     224.
 LDataN:  DoStor=T MaxTD1= 4 Len=   56
 NBasis=    18 RedAO= T EigKep=  3.25D-02  NBF=     9     1     3     5
 NBsUse=    18 1.00D-06 EigRej= -1.00D+00 NBFU=     9     1     3     5
 Initial guess from the checkpoint file:  "/home/software/g16tmp/Gau-183309.chk"
 B after Tr=     0.000000    0.000000    0.000000
         Rot=    1.000000    0.000000    0.000000    0.000000 Ang=   0.00 deg.
 Initial guess orbital symmetries:
 Alpha Orbitals:
       Occupied  (A1) (A1) (B2) (A1) (B1)
       Virtual   (A1) (B2) (A1) (A1) (B1) (B2) (A1) (B2) (A2) (A1)
                 (B1) (A1) (B2)
 Beta  Orbitals:
       Occupied  (A1) (A1) (B2)
       Virtual   (A1) (B1) (A1) (B2) (A1) (B2) (A1) (B1) (A1) (B2)
                 (A2) (A1) (B1) (A1) (B2)
 Initial guess <Sx>= 0.0000 <Sy>= 0.0000 <Sz>= 1.0000 <S**2>= 2.0048 S= 1.0016
 ExpMin= 1.22D-01 ExpMax= 1.24D+03 ExpMxC= 1.86D+02 IAcc=3 IRadAn=         5 AccDes= 0.00D+00
 Harris functional with IExCor=  402 and IRadAn=       5 diagonalized for initial guess.
 HarFok:  IExCor=  402 AccDes= 0.00D+00 IRadAn=         5 IDoV= 1 UseB2=F ITyADJ=14
 ICtDFT=  3500011 ScaDFX=  1.000000  1.000000  1.000000  1.000000
 FoFCou: FMM=F IPFlag=           0 FMFlag=      100000 FMFlg1=           0
         NFxFlg=           0 DoJE=T BraDBF=F KetDBF=T FulRan=T
         wScrn=  0.000000 ICntrl=       500 IOpCl=  0 I1Cent=   200000004 NGrid=           0
         NMat0=    1 NMatS0=      1 NMatT0=    0 NMatD0=    1 NMtDS0=    0 NMtDT0=    0
 Petite list used in FoFCou.
 Keep R1 and R2 ints in memory in symmetry-blocked form, NReq=13823677.
 Requested convergence on RMS density matrix=1.00D-08 within 128 cycles.
 Requested convergence on MAX density matrix=1.00D-06.
 Requested convergence on             energy=1.00D-06.
 No special actions if energy rises.
 Integral accuracy reduced to 1.0D-05 until final iterations.
 Initial convergence to 1.0D-05 achieved.  Increase integral accuracy.
 SCF Done:  E(UB3LYP) =  -39.1183048796     A.U. after   11 cycles
            NFock= 11  Conv=0.32D-08     -V/T= 2.0095
 <Sx>= 0.0000 <Sy>= 0.0000 <Sz>= 1.0000 <S**2>= 2.0054 S= 1.0018
 <L.S>=  0.00000000000    
 Annihilation of the first spin contaminant:
 S**2 before annihilation     2.0054,   after     2.0000
 PrsmSu:  requested number of processors reduced to:  12 ShMem   1 Linda.
   4 Symmetry operations used in ECPInt.
 ECPInt:  NShTT=      55 NPrTT=     229 LenC2=      56 LenP2D=     224.
 LDataN:  DoStor=T MaxTD1= 5 Len=  102
 Calling FoFJK, ICntrl=      2127 FMM=F ISym2X=1 I1Cent= 0 IOpClX= 1 NMat=1 NMatS=1 NMatT=0.
 ***** Axes restored to original set *****
 -------------------------------------------------------------------
 Center     Atomic                   Forces (Hartrees/Bohr)
 Number     Number              X              Y              Z
 -------------------------------------------------------------------
      1        6          -0.000049343    0.000069271   -0.000007425
      2        1           0.000724192    0.000457988   -0.000049081
      3        1          -0.000674848   -0.000527259    0.000056505
 -------------------------------------------------------------------
 Cartesian Forces:  Max     0.000724192 RMS     0.000405589

 GradGradGradGradGradGradGradGradGradGradGradGradGradGradGradGradGradGrad
 Berny optimization.
 Using GEDIIS/GDIIS optimizer.
 FormGI is forming the generalized inverse of G from B-inverse, IUseBI=4.
 Internal  Forces:  Max     0.000804693 RMS     0.000747092
 Search for a local minimum.
 Step number   3 out of a maximum of   20
 All quantities printed in internal units (Hartrees-Bohrs-Radians)
 Mixed Optimization -- En-DIIS/RFO-DIIS
 Update second derivatives using D2CorX and points    1    2    3
 DE= -1.10D-03 DEPred=-8.39D-04 R= 1.31D+00
 TightC=F SS=  1.41D+00  RLast= 1.49D-01 DXNew= 8.4853D-01 4.4771D-01
 Trust test= 1.31D+00 RLast= 1.49D-01 DXMaxT set to 5.05D-01
 The second derivative matrix:
                          R1        R2        A1
           R1           0.32899
           R2           0.00237   0.32899
           A1           0.01137   0.01137   0.09406
 ITU=  1  1  0
 Use linear search instead of GDIIS.
     Eigenvalues ---    0.09297   0.32662   0.33244
 RFO step:  Lambda=-5.86343724D-06 EMin= 9.29717214D-02
 Quartic linear search produced a step of  0.03006.
 Iteration  1 RMS(Cart)=  0.00455649 RMS(Int)=  0.00000979
 Iteration  2 RMS(Cart)=  0.00000778 RMS(Int)=  0.00000000
 Iteration  3 RMS(Cart)=  0.00000000 RMS(Int)=  0.00000000
 ClnCor:  largest displacement from symmetrization is 5.67D-15 for atom     3.
 Variable       Old X    -DE/DX   Delta X   Delta X   Delta X     New X
                                 (Linear)    (Quad)   (Total)
    R1        2.06365   0.00080  -0.00061   0.00279   0.00219   2.06584
    R2        2.06365   0.00080  -0.00061   0.00279   0.00219   2.06584
    A1        2.33172   0.00062   0.00440   0.00212   0.00652   2.33824
         Item               Value     Threshold  Converged?
 Maximum Force            0.000805     0.000450     NO 
 RMS     Force            0.000747     0.000300     NO 
 Maximum Displacement     0.004823     0.001800     NO 
 RMS     Displacement     0.004555     0.001200     NO 
 Predicted change in Energy=-3.627247D-06
 GradGradGradGradGradGradGradGradGradGradGradGradGradGradGradGradGradGrad

                          Input orientation:                          
 ---------------------------------------------------------------------
 Center     Atomic      Atomic             Coordinates (Angstroms)
 Number     Number       Type             X           Y           Z
 ---------------------------------------------------------------------
      1          6           0        1.008149    0.032833   -0.095957
      2          1           0        2.076274    0.264283   -0.120755
      3          1           0        0.434078   -0.892201    0.003181
 ---------------------------------------------------------------------
                    Distance matrix (angstroms):
                    1          2          3
     1  C    0.000000
     2  H    1.093195   0.000000
     3  H    1.093195   2.012367   0.000000
 Stoichiometry    CH2(3)
 Framework group  C2V[C2(C),SGV(H2)]
 Deg. of freedom     2
 Full point group                 C2V     NOp   4
 Largest Abelian subgroup         C2V     NOp   4
 Largest concise Abelian subgroup C2      NOp   2
                         Standard orientation:                         
 ---------------------------------------------------------------------
 Center     Atomic      Atomic             Coordinates (Angstroms)
 Number     Number       Type             X           Y           Z
 ---------------------------------------------------------------------
      1          6           0       -0.000000   -0.000000    0.106849
      2          1           0       -0.000000   -1.006184   -0.320548
      3          1           0        0.000000    1.006184   -0.320548
 ---------------------------------------------------------------------
 Rotational constants (GHZ):        1603.1319825         247.6552498         214.5163121
 Standard basis: def2SVPP (5D, 7F)
 There are    10 symmetry adapted cartesian basis functions of A1  symmetry.
 There are     1 symmetry adapted cartesian basis functions of A2  symmetry.
 There are     3 symmetry adapted cartesian basis functions of B1  symmetry.
 There are     5 symmetry adapted cartesian basis functions of B2  symmetry.
 There are     9 symmetry adapted basis functions of A1  symmetry.
 There are     1 symmetry adapted basis functions of A2  symmetry.
 There are     3 symmetry adapted basis functions of B1  symmetry.
 There are     5 symmetry adapted basis functions of B2  symmetry.
    18 basis functions,    33 primitive gaussians,    19 cartesian basis functions
     5 alpha electrons        3 beta electrons
       nuclear repulsion energy         6.0717419296 Hartrees.
 NAtoms=    3 NActive=    3 NUniq=    2 SFac= 2.25D+00 NAtFMM=   60 NAOKFM=F Big=F
 Integral buffers will be    131072 words long.
 Raffenetti 2 integral format.
 Two-electron integral symmetry is turned on.
 Nuclear repulsion after empirical dispersion term =        6.0709056540 Hartrees.
 One-electron integrals computed using PRISM.
 PrsmSu:  requested number of processors reduced to:  12 ShMem   1 Linda.
   4 Symmetry operations used in ECPInt.
 ECPInt:  NShTT=      55 NPrTT=     229 LenC2=      56 LenP2D=     224.
 LDataN:  DoStor=T MaxTD1= 4 Len=   56
 NBasis=    18 RedAO= T EigKep=  3.27D-02  NBF=     9     1     3     5
 NBsUse=    18 1.00D-06 EigRej= -1.00D+00 NBFU=     9     1     3     5
 Initial guess from the checkpoint file:  "/home/software/g16tmp/Gau-183309.chk"
 B after Tr=    -0.000000    0.000000   -0.000000
         Rot=    1.000000    0.000000    0.000000   -0.000000 Ang=   0.00 deg.
 Initial guess orbital symmetries:
 Alpha Orbitals:
       Occupied  (A1) (A1) (B2) (A1) (B1)
       Virtual   (A1) (B2) (A1) (A1) (B1) (B2) (A1) (B2) (A2) (A1)
                 (B1) (B2) (A1)
 Beta  Orbitals:
       Occupied  (A1) (A1) (B2)
       Virtual   (A1) (B1) (A1) (B2) (A1) (A1) (B2) (B1) (A1) (B2)
                 (A2) (A1) (B1) (B2) (A1)
 Initial guess <Sx>= 0.0000 <Sy>= 0.0000 <Sz>= 1.0000 <S**2>= 2.0055 S= 1.0018
 Keep R1 and R2 ints in memory in symmetry-blocked form, NReq=13823677.
 Requested convergence on RMS density matrix=1.00D-08 within 128 cycles.
 Requested convergence on MAX density matrix=1.00D-06.
 Requested convergence on             energy=1.00D-06.
 No special actions if energy rises.
 SCF Done:  E(UB3LYP) =  -39.1183084830     A.U. after    8 cycles
            NFock=  8  Conv=0.28D-08     -V/T= 2.0096
 <Sx>= 0.0000 <Sy>= 0.0000 <Sz>= 1.0000 <S**2>= 2.0055 S= 1.0018
 <L.S>=  0.00000000000    
 Annihilation of the first spin contaminant:
 S**2 before annihilation     2.0055,   after     2.0000
 PrsmSu:  requested number of processors reduced to:  12 ShMem   1 Linda.
   4 Symmetry operations used in ECPInt.
 ECPInt:  NShTT=      55 NPrTT=     229 LenC2=      56 LenP2D=     224.
 LDataN:  DoStor=T MaxTD1= 5 Len=  102
 Calling FoFJK, ICntrl=      2127 FMM=F ISym2X=1 I1Cent= 0 IOpClX= 1 NMat=1 NMatS=1 NMatT=0.
 ***** Axes restored to original set *****
 -------------------------------------------------------------------
 Center     Atomic                   Forces (Hartrees/Bohr)
 Number     Number              X              Y              Z
 -------------------------------------------------------------------
      1        6           0.000047344   -0.000066465    0.000007124
      2        1          -0.000089690   -0.000013259    0.000001420
      3        1           0.000042345    0.000079724   -0.000008544
 -------------------------------------------------------------------
 Cartesian Forces:  Max     0.000089690 RMS     0.000050721

 GradGradGradGradGradGradGradGradGradGradGradGradGradGradGradGradGradGrad
 Berny optimization.
 Using GEDIIS/GDIIS optimizer.
 FormGI is forming the generalized inverse of G from B-inverse, IUseBI=4.
 Internal  Forces:  Max     0.000090472 RMS     0.000074224
 Search for a local minimum.
 Step number   4 out of a maximum of   20
 All quantities printed in internal units (Hartrees-Bohrs-Radians)
 Mixed Optimization -- En-DIIS/RFO-DIIS
 Swapping is turned off.
 Update second derivatives using D2CorX and points    1    2    3    4
 DE= -3.60D-06 DEPred=-3.63D-06 R= 9.93D-01
 TightC=F SS=  1.41D+00  RLast= 7.22D-03 DXNew= 8.4853D-01 2.1645D-02
 Trust test= 9.93D-01 RLast= 7.22D-03 DXMaxT set to 5.05D-01
 The second derivative matrix:
                          R1        R2        A1
           R1           0.34918
           R2           0.02256   0.34918
           A1           0.01271   0.01271   0.08403
 ITU=  1  1  1  0
     Eigenvalues ---    0.08291   0.32662   0.37286
 En-DIIS/RFO-DIIS/Sim-DIIS IScMMF=       -3 using points:     4    3
 RFO step:  Lambda=-4.82529890D-08.
 DidBck=F Rises=F RFO-DIIS coefs:    1.00712   -0.00712
 Iteration  1 RMS(Cart)=  0.00018644 RMS(Int)=  0.00000002
 Iteration  2 RMS(Cart)=  0.00000002 RMS(Int)=  0.00000000
 ClnCor:  largest displacement from symmetrization is 3.20D-15 for atom     3.
 Variable       Old X    -DE/DX   Delta X   Delta X   Delta X     New X
                                 (Linear)    (Quad)   (Total)
    R1        2.06584  -0.00009   0.00002  -0.00027  -0.00025   2.06559
    R2        2.06584  -0.00009   0.00002  -0.00027  -0.00025   2.06559
    A1        2.33824   0.00001   0.00005   0.00018   0.00023   2.33846
         Item               Value     Threshold  Converged?
 Maximum Force            0.000090     0.000450     YES
 RMS     Force            0.000074     0.000300     YES
 Maximum Displacement     0.000175     0.001800     YES
 RMS     Displacement     0.000186     0.001200     YES
 Predicted change in Energy=-2.412649D-08
 Optimization completed.
    -- Stationary point found.
                           ----------------------------
                           !   Optimized Parameters   !
                           ! (Angstroms and Degrees)  !
 --------------------------                            --------------------------
 ! Name  Definition              Value          Derivative Info.                !
 --------------------------------------------------------------------------------
 ! R1    R(1,2)                  1.0932         -DE/DX =   -0.0001              !
 ! R2    R(1,3)                  1.0932         -DE/DX =   -0.0001              !
 ! A1    A(2,1,3)              133.9712         -DE/DX =    0.0                 !
 --------------------------------------------------------------------------------
 GradGradGradGradGradGradGradGradGradGradGradGradGradGradGradGradGradGrad

                          Input orientation:                          
 ---------------------------------------------------------------------
 Center     Atomic      Atomic             Coordinates (Angstroms)
 Number     Number       Type             X           Y           Z
 ---------------------------------------------------------------------
      1          6           0        1.008149    0.032833   -0.095957
      2          1           0        2.076274    0.264283   -0.120755
      3          1           0        0.434078   -0.892201    0.003181
 ---------------------------------------------------------------------
                    Distance matrix (angstroms):
                    1          2          3
     1  C    0.000000
     2  H    1.093195   0.000000
     3  H    1.093195   2.012367   0.000000
 Stoichiometry    CH2(3)
 Framework group  C2V[C2(C),SGV(H2)]
 Deg. of freedom     2
 Full point group                 C2V     NOp   4
 Largest Abelian subgroup         C2V     NOp   4
 Largest concise Abelian subgroup C2      NOp   2
                         Standard orientation:                         
 ---------------------------------------------------------------------
 Center     Atomic      Atomic             Coordinates (Angstroms)
 Number     Number       Type             X           Y           Z
 ---------------------------------------------------------------------
      1          6           0        0.000000   -0.000000    0.106849
      2          1           0       -0.000000   -1.006184   -0.320548
      3          1           0        0.000000    1.006184   -0.320548
 ---------------------------------------------------------------------
 Rotational constants (GHZ):        1603.1319825         247.6552498         214.5163121

 **********************************************************************

            Population analysis using the SCF Density.

 **********************************************************************

 Orbital symmetries:
 Alpha Orbitals:
       Occupied  (A1) (A1) (B2) (A1) (B1)
       Virtual   (A1) (B2) (A1) (A1) (B1) (B2) (A1) (B2) (A2) (A1)
                 (B1) (B2) (A1)
 Beta  Orbitals:
       Occupied  (A1) (A1) (B2)
       Virtual   (A1) (B1) (A1) (B2) (A1) (A1) (B2) (B1) (A1) (B2)
                 (A2) (A1) (B1) (B2) (A1)
 The electronic state is 3-B1.
 Alpha  occ. eigenvalues --  -10.22299  -0.66771  -0.45348  -0.27936  -0.24482
 Alpha virt. eigenvalues --    0.07498   0.13411   0.37933   0.44881   0.46804
 Alpha virt. eigenvalues --    0.51833   0.63178   0.70866   1.62118   1.63830
 Alpha virt. eigenvalues --    1.64069   1.98409   2.03506
  Beta  occ. eigenvalues --  -10.19316  -0.59394  -0.43341
  Beta virt. eigenvalues --   -0.07929  -0.05046   0.09290   0.14589   0.40413
  Beta virt. eigenvalues --    0.53618   0.53864   0.55666   0.66925   0.73524
  Beta virt. eigenvalues --    1.70206   1.77977   1.78729   2.04734   2.10233
          Condensed to atoms (all electrons):
               1          2          3
     1  C    5.596819   0.349862   0.349862
     2  H    0.349862   0.532494  -0.030627
     3  H    0.349862  -0.030627   0.532494
          Atomic-Atomic Spin Densities.
               1          2          3
     1  C    2.171803  -0.034506  -0.034506
     2  H   -0.034506  -0.026951   0.010062
     3  H   -0.034506   0.010062  -0.026951
 Mulliken charges and spin densities:
               1          2
     1  C   -0.296542   2.102790
     2  H    0.148271  -0.051395
     3  H    0.148271  -0.051395
 Sum of Mulliken charges =   0.00000   2.00000
 Mulliken charges and spin densities with hydrogens summed into heavy atoms:
               1          2
     1  C    0.000000   2.000000
 Electronic spatial extent (au):  <R**2>=             24.1858
 Charge=              0.0000 electrons
 Dipole moment (field-independent basis, Debye):
    X=              0.0000    Y=             -0.0000    Z=             -0.6559  Tot=              0.6559
 Quadrupole moment (field-independent basis, Debye-Ang):
   XX=             -8.0231   YY=             -5.8788   ZZ=             -7.5872
   XY=              0.0000   XZ=              0.0000   YZ=              0.0000
 Traceless Quadrupole moment (field-independent basis, Debye-Ang):
   XX=             -0.8601   YY=              1.2842   ZZ=             -0.4241
   XY=              0.0000   XZ=              0.0000   YZ=              0.0000
 Octapole moment (field-independent basis, Debye-Ang**2):
  XXX=             -0.0000  YYY=             -0.0000  ZZZ=             -1.0400  XYY=              0.0000
  XXY=              0.0000  XXZ=             -0.3621  XZZ=             -0.0000  YZZ=             -0.0000
  YYZ=             -0.8701  XYZ=             -0.0000
 Hexadecapole moment (field-independent basis, Debye-Ang**3):
 XXXX=             -9.0051 YYYY=            -13.5017 ZZZZ=             -9.7909 XXXY=             -0.0000
 XXXZ=              0.0000 YYYX=              0.0000 YYYZ=              0.0000 ZZZX=              0.0000
 ZZZY=              0.0000 XXYY=             -4.2016 XXZZ=             -3.1436 YYZZ=             -4.0318
 XXYZ=              0.0000 YYXZ=              0.0000 ZZXY=             -0.0000
 N-N= 6.070905653965D+00 E-N=-1.025032541234D+02  KE= 3.874713594291D+01
 Symmetry A1   KE= 3.561536168370D+01
 Symmetry A2   KE= 3.093619475396D-33
 Symmetry B1   KE= 1.185054699672D+00
 Symmetry B2   KE= 1.946719559534D+00
 Symmetry A1   SP= 1.000000000000D+00
 Symmetry A2   SP= 2.045599937977D-35
 Symmetry B1   SP= 1.000000000000D+00
 Symmetry B2   SP=-8.289809810824D-16
                          Isotropic Fermi Contact Couplings
        Atom                 a.u.       MegaHertz       Gauss      10(-4) cm-1
     1  C(13)              0.72391     406.90857     145.19510     135.73009
     2  H(1)              -0.00688     -15.38056      -5.48817      -5.13040
     3  H(1)              -0.00688     -15.38056      -5.48817      -5.13040
 --------------------------------------------------------
       Center         ----  Spin Dipole Couplings  ----
                      3XX-RR        3YY-RR        3ZZ-RR
 --------------------------------------------------------
     1   Atom        0.679698     -1.067459      0.387761
     2   Atom       -0.064449      0.116328     -0.051879
     3   Atom       -0.064449      0.116328     -0.051879
 --------------------------------------------------------
                        XY            XZ            YZ
 --------------------------------------------------------
     1   Atom        0.000000      0.000000      0.000000
     2   Atom        0.000000     -0.000000      0.081596
     3   Atom        0.000000      0.000000     -0.081596
 --------------------------------------------------------


 ---------------------------------------------------------------------------------
              Anisotropic Spin Dipole Couplings in Principal Axis System
 ---------------------------------------------------------------------------------

       Atom             a.u.   MegaHertz   Gauss  10(-4) cm-1        Axes

              Baa    -1.0675  -143.243   -51.113   -47.781 -0.0000  1.0000 -0.0000
     1 C(13)  Bbb     0.3878    52.034    18.567    17.357 -0.0000  0.0000  1.0000
              Bcc     0.6797    91.209    32.546    30.424  1.0000 -0.0000  0.0000
 
              Baa    -0.0850   -45.329   -16.174   -15.120  0.0000 -0.3757  0.9267
     2 H(1)   Bbb    -0.0644   -34.387   -12.270   -11.470  1.0000  0.0000  0.0000
              Bcc     0.1494    79.716    28.445    26.590 -0.0000  0.9267  0.3757
 
              Baa    -0.0850   -45.329   -16.174   -15.120 -0.0000  0.3757  0.9267
     3 H(1)   Bbb    -0.0644   -34.387   -12.270   -11.470  1.0000  0.0000  0.0000
              Bcc     0.1494    79.716    28.445    26.590 -0.0000  0.9267 -0.3757
 

 ---------------------------------------------------------------------------------

 Unable to Open any file for archive entry.
 1\1\GINC-NODE01\FOpt\UB3LYP\def2SVPP\C1H2(3)\XUHJ\19-Dec-2023\0\\#N op
 t freq B3LYP/def2SVPP symm=veryloose em=gd3bj scale=0.961 press=0.987\
 \[CH2]_1\\0,3\C,1.0081489348,0.0328331096,-0.0959566118\H,2.0762737933
 ,0.2642825513,-0.1207553041\H,0.4340780514,-0.8922013746,0.0031814561\
 \Version=ES64L-G16RevC.01\State=3-B1\HF=-39.1183085\S2=2.005498\S2-1=0
 .\S2A=2.000008\RMSD=2.792e-09\RMSF=5.072e-05\Dipole=0.1491564,-0.20939
 54,0.0224433\Quadrupole=0.5304935,0.1004689,-0.6309624,0.5956519,-0.06
 3832,-0.0792991\PG=C02V [C2(C1),SGV(H2)]\\@
 The archive entry for this job was punched.


 YOU ARE IN A MAZE OF TWISTY LITTLE PASSAGES.
 Job cpu time:       0 days  0 hours  1 minutes  9.7 seconds.
 Elapsed time:       0 days  0 hours  0 minutes  5.7 seconds.
 File lengths (MBytes):  RWF=      6 Int=      0 D2E=      0 Chk=      1 Scr=      1
 Normal termination of Gaussian 16 at Tue Dec 19 13:05:17 2023.
 Link1:  Proceeding to internal job step number  2.
 --------------------------------------------------------------------
 #N Geom=AllCheck Guess=TCheck SCRF=Check GenChk UB3LYP/def2SVPP Freq
 --------------------------------------------------------------------
 1/10=4,29=7,30=1,38=1,40=1,113=-987000,114=961000/1,3;
 2/12=2,17=2,18=2,40=1/2;
 3/5=43,7=202,11=2,14=-4,25=1,30=1,70=2,71=2,74=-5,116=2,124=41,140=1/1,2,3;
 4/5=101/1;
 5/5=2,38=6,98=1/2;
 8/6=4,10=90,11=11/1;
 11/6=1,8=1,9=11,15=111,16=1/1,2,10;
 10/6=1/2;
 6/7=2,8=2,9=2,10=2,28=1/1;
 7/8=1,10=1,25=1/1,2,3,16;
 1/10=4,30=1/3;
 99//99;
 Structure from the checkpoint file:  "/home/software/g16tmp/Gau-183309.chk"
 -------
 [CH2]_1
 -------
 Charge =  0 Multiplicity = 3
 Redundant internal coordinates found in file.  (old form).
 C,0,1.0081489348,0.0328331096,-0.0959566118
 H,0,2.0762737933,0.2642825513,-0.1207553041
 H,0,0.4340780514,-0.8922013746,0.0031814561
 Recover connectivity data from disk.

 GradGradGradGradGradGradGradGradGradGradGradGradGradGradGradGradGradGrad
 Berny optimization.
 Initialization pass.
                           ----------------------------
                           !    Initial Parameters    !
                           ! (Angstroms and Degrees)  !
 --------------------------                            --------------------------
 ! Name  Definition              Value          Derivative Info.                !
 --------------------------------------------------------------------------------
 ! R1    R(1,2)                  1.0932         calculate D2E/DX2 analytically  !
 ! R2    R(1,3)                  1.0932         calculate D2E/DX2 analytically  !
 ! A1    A(2,1,3)              133.9712         calculate D2E/DX2 analytically  !
 --------------------------------------------------------------------------------
 Trust Radius=3.00D-01 FncErr=1.00D-07 GrdErr=1.00D-07 EigMax=2.50D+02 EigMin=1.00D-04
 Number of steps in this run=      2 maximum allowed number of steps=      2.
 GradGradGradGradGradGradGradGradGradGradGradGradGradGradGradGradGradGrad

                          Input orientation:                          
 ---------------------------------------------------------------------
 Center     Atomic      Atomic             Coordinates (Angstroms)
 Number     Number       Type             X           Y           Z
 ---------------------------------------------------------------------
      1          6           0        1.008149    0.032833   -0.095957
      2          1           0        2.076274    0.264283   -0.120755
      3          1           0        0.434078   -0.892201    0.003181
 ---------------------------------------------------------------------
                    Distance matrix (angstroms):
                    1          2          3
     1  C    0.000000
     2  H    1.093195   0.000000
     3  H    1.093195   2.012367   0.000000
 Stoichiometry    CH2(3)
 Framework group  C2V[C2(C),SGV(H2)]
 Deg. of freedom     2
 Full point group                 C2V     NOp   4
 Largest Abelian subgroup         C2V     NOp   4
 Largest concise Abelian subgroup C2      NOp   2
                         Standard orientation:                         
 ---------------------------------------------------------------------
 Center     Atomic      Atomic             Coordinates (Angstroms)
 Number     Number       Type             X           Y           Z
 ---------------------------------------------------------------------
      1          6           0        0.000000   -0.000000    0.106849
      2          1           0       -0.000000   -1.006184   -0.320548
      3          1           0        0.000000    1.006184   -0.320548
 ---------------------------------------------------------------------
 Rotational constants (GHZ):        1603.1319825         247.6552498         214.5163121
 Standard basis: def2SVPP (5D, 7F)
 There are    10 symmetry adapted cartesian basis functions of A1  symmetry.
 There are     1 symmetry adapted cartesian basis functions of A2  symmetry.
 There are     3 symmetry adapted cartesian basis functions of B1  symmetry.
 There are     5 symmetry adapted cartesian basis functions of B2  symmetry.
 There are     9 symmetry adapted basis functions of A1  symmetry.
 There are     1 symmetry adapted basis functions of A2  symmetry.
 There are     3 symmetry adapted basis functions of B1  symmetry.
 There are     5 symmetry adapted basis functions of B2  symmetry.
    18 basis functions,    33 primitive gaussians,    19 cartesian basis functions
     5 alpha electrons        3 beta electrons
       nuclear repulsion energy         6.0717419296 Hartrees.
 NAtoms=    3 NActive=    3 NUniq=    2 SFac= 2.25D+00 NAtFMM=   60 NAOKFM=F Big=F
 Integral buffers will be    131072 words long.
 Raffenetti 2 integral format.
 Two-electron integral symmetry is turned on.
 Nuclear repulsion after empirical dispersion term =        6.0709056540 Hartrees.
 One-electron integrals computed using PRISM.
 PrsmSu:  requested number of processors reduced to:  12 ShMem   1 Linda.
   4 Symmetry operations used in ECPInt.
 ECPInt:  NShTT=      55 NPrTT=     229 LenC2=      56 LenP2D=     224.
 LDataN:  DoStor=T MaxTD1= 4 Len=   56
 NBasis=    18 RedAO= T EigKep=  3.27D-02  NBF=     9     1     3     5
 NBsUse=    18 1.00D-06 EigRej= -1.00D+00 NBFU=     9     1     3     5
 Initial guess from the checkpoint file:  "/home/software/g16tmp/Gau-183309.chk"
 B after Tr=     0.000000   -0.000000   -0.000000
         Rot=    1.000000   -0.000000   -0.000000    0.000000 Ang=   0.00 deg.
 Initial guess orbital symmetries:
 Alpha Orbitals:
       Occupied  (A1) (A1) (B2) (A1) (B1)
       Virtual   (A1) (B2) (A1) (A1) (B1) (B2) (A1) (B2) (A2) (A1)
                 (B1) (B2) (A1)
 Beta  Orbitals:
       Occupied  (A1) (A1) (B2)
       Virtual   (A1) (B1) (A1) (B2) (A1) (A1) (B2) (B1) (A1) (B2)
                 (A2) (A1) (B1) (B2) (A1)
 Initial guess <Sx>= 0.0000 <Sy>= 0.0000 <Sz>= 1.0000 <S**2>= 2.0055 S= 1.0018
 Keep R1 and R2 ints in memory in symmetry-blocked form, NReq=13823677.
 Requested convergence on RMS density matrix=1.00D-08 within 128 cycles.
 Requested convergence on MAX density matrix=1.00D-06.
 Requested convergence on             energy=1.00D-06.
 No special actions if energy rises.
 Skip diagonalization as Alpha Fock matrix is already diagonal.
 Skip diagonalization as Beta Fock matrix is already diagonal.
 SCF Done:  E(UB3LYP) =  -39.1183084830     A.U. after    1 cycles
            NFock=  1  Conv=0.00D+00     -V/T= 2.0096
 <Sx>= 0.0000 <Sy>= 0.0000 <Sz>= 1.0000 <S**2>= 2.0055 S= 1.0018
 <L.S>=  0.00000000000    
 Annihilation of the first spin contaminant:
 S**2 before annihilation     2.0055,   after     2.0000
 DoSCS=F DFT=T ScalE2(SS,OS)=  1.000000  1.000000
 Range of M.O.s used for correlation:     1    18
 NBasis=    18 NAE=     5 NBE=     3 NFC=     0 NFV=     0
 NROrb=     18 NOA=     5 NOB=     3 NVA=    13 NVB=    15
 PrsmSu:  requested number of processors reduced to:  12 ShMem   1 Linda.
   4 Symmetry operations used in ECPInt.
 ECPInt:  NShTT=      55 NPrTT=     229 LenC2=      56 LenP2D=     224.
 LDataN:  DoStor=T MaxTD1= 5 Len=  102
 Symmetrizing basis deriv contribution to polar:
 IMax=3 JMax=2 DiffMx= 0.00D+00
 G2DrvN: will do     4 centers at a time, making    1 passes.
 Calling FoFCou, ICntrl=  3107 FMM=F I1Cent=   0 AccDes= 0.00D+00.
 End of G2Drv F.D. properties file   721 does not exist.
 End of G2Drv F.D. properties file   722 does not exist.
 End of G2Drv F.D. properties file   788 does not exist.
          IDoAtm=111
          Differentiating once with respect to electric field.
                with respect to dipole field.
          Differentiating once with respect to nuclear coordinates.
 Keep R1 and R2 ints in memory in symmetry-blocked form, NReq=13770377.
          There are     9 degrees of freedom in the 1st order CPHF.  IDoFFX=4 NUNeed=     9.
      9 vectors produced by pass  0 Test12= 1.22D-15 1.11D-08 XBig12= 1.19D+01 1.99D+00.
 AX will form     9 AO Fock derivatives at one time.
      9 vectors produced by pass  1 Test12= 1.22D-15 1.11D-08 XBig12= 4.06D-01 3.18D-01.
      9 vectors produced by pass  2 Test12= 1.22D-15 1.11D-08 XBig12= 4.46D-03 3.87D-02.
      9 vectors produced by pass  3 Test12= 1.22D-15 1.11D-08 XBig12= 1.48D-05 2.21D-03.
      9 vectors produced by pass  4 Test12= 1.22D-15 1.11D-08 XBig12= 3.97D-08 8.07D-05.
      7 vectors produced by pass  5 Test12= 1.22D-15 1.11D-08 XBig12= 7.74D-11 3.94D-06.
      1 vectors produced by pass  6 Test12= 1.22D-15 1.11D-08 XBig12= 4.52D-14 7.85D-08.
 InvSVY:  IOpt=1 It=  1 EMax= 3.01D-16
 Solved reduced A of dimension    53 with     9 vectors.
 Isotropic polarizability for W=    0.000000        8.29 Bohr**3.
 End of Minotr F.D. properties file   721 does not exist.
 End of Minotr F.D. properties file   722 does not exist.
 End of Minotr F.D. properties file   788 does not exist.

 **********************************************************************

            Population analysis using the SCF Density.

 **********************************************************************

 Orbital symmetries:
 Alpha Orbitals:
       Occupied  (A1) (A1) (B2) (A1) (B1)
       Virtual   (A1) (B2) (A1) (A1) (B1) (B2) (A1) (B2) (A2) (A1)
                 (B1) (B2) (A1)
 Beta  Orbitals:
       Occupied  (A1) (A1) (B2)
       Virtual   (A1) (B1) (A1) (B2) (A1) (A1) (B2) (B1) (A1) (B2)
                 (A2) (A1) (B1) (B2) (A1)
 The electronic state is 3-B1.
 Alpha  occ. eigenvalues --  -10.22299  -0.66771  -0.45348  -0.27936  -0.24482
 Alpha virt. eigenvalues --    0.07498   0.13411   0.37933   0.44881   0.46804
 Alpha virt. eigenvalues --    0.51833   0.63178   0.70866   1.62118   1.63830
 Alpha virt. eigenvalues --    1.64069   1.98409   2.03506
  Beta  occ. eigenvalues --  -10.19316  -0.59394  -0.43341
  Beta virt. eigenvalues --   -0.07929  -0.05046   0.09290   0.14589   0.40413
  Beta virt. eigenvalues --    0.53618   0.53864   0.55666   0.66925   0.73524
  Beta virt. eigenvalues --    1.70206   1.77977   1.78729   2.04734   2.10233
          Condensed to atoms (all electrons):
               1          2          3
     1  C    5.596819   0.349862   0.349862
     2  H    0.349862   0.532494  -0.030627
     3  H    0.349862  -0.030627   0.532494
          Atomic-Atomic Spin Densities.
               1          2          3
     1  C    2.171803  -0.034506  -0.034506
     2  H   -0.034506  -0.026951   0.010062
     3  H   -0.034506   0.010062  -0.026951
 Mulliken charges and spin densities:
               1          2
     1  C   -0.296542   2.102790
     2  H    0.148271  -0.051395
     3  H    0.148271  -0.051395
 Sum of Mulliken charges =  -0.00000   2.00000
 Mulliken charges and spin densities with hydrogens summed into heavy atoms:
               1          2
     1  C   -0.000000   2.000000
 APT charges:
               1
     1  C   -0.174640
     2  H    0.087320
     3  H    0.087320
 Sum of APT charges =   0.00000
 APT charges with hydrogens summed into heavy atoms:
               1
     1  C    0.000000
 Electronic spatial extent (au):  <R**2>=             24.1858
 Charge=             -0.0000 electrons
 Dipole moment (field-independent basis, Debye):
    X=              0.0000    Y=             -0.0000    Z=             -0.6559  Tot=              0.6559
 Quadrupole moment (field-independent basis, Debye-Ang):
   XX=             -8.0231   YY=             -5.8788   ZZ=             -7.5872
   XY=              0.0000   XZ=             -0.0000   YZ=              0.0000
 Traceless Quadrupole moment (field-independent basis, Debye-Ang):
   XX=             -0.8601   YY=              1.2842   ZZ=             -0.4241
   XY=              0.0000   XZ=             -0.0000   YZ=              0.0000
 Octapole moment (field-independent basis, Debye-Ang**2):
  XXX=             -0.0000  YYY=             -0.0000  ZZZ=             -1.0400  XYY=             -0.0000
  XXY=              0.0000  XXZ=             -0.3621  XZZ=             -0.0000  YZZ=             -0.0000
  YYZ=             -0.8701  XYZ=             -0.0000
 Hexadecapole moment (field-independent basis, Debye-Ang**3):
 XXXX=             -9.0051 YYYY=            -13.5017 ZZZZ=             -9.7909 XXXY=             -0.0000
 XXXZ=             -0.0000 YYYX=             -0.0000 YYYZ=              0.0000 ZZZX=             -0.0000
 ZZZY=             -0.0000 XXYY=             -4.2016 XXZZ=             -3.1436 YYZZ=             -4.0318
 XXYZ=             -0.0000 YYXZ=             -0.0000 ZZXY=             -0.0000
 N-N= 6.070905653965D+00 E-N=-1.025032541234D+02  KE= 3.874713594291D+01
 Symmetry A1   KE= 3.561536168370D+01
 Symmetry A2   KE= 7.542636989792D-33
 Symmetry B1   KE= 1.185054699672D+00
 Symmetry B2   KE= 1.946719559534D+00
 Symmetry A1   SP= 1.000000000000D+00
 Symmetry A2   SP= 1.775638003455D-35
 Symmetry B1   SP= 1.000000000000D+00
 Symmetry B2   SP= 2.666053142142D-16
  Exact polarizability:       5.899      -0.000      12.038       0.000      -0.000       6.930
 Approx polarizability:       6.321       0.000      13.611      -0.000       0.000       7.514
                          Isotropic Fermi Contact Couplings
        Atom                 a.u.       MegaHertz       Gauss      10(-4) cm-1
     1  C(13)              0.72391     406.90857     145.19510     135.73009
     2  H(1)              -0.00688     -15.38056      -5.48817      -5.13040
     3  H(1)              -0.00688     -15.38056      -5.48817      -5.13040
 --------------------------------------------------------
       Center         ----  Spin Dipole Couplings  ----
                      3XX-RR        3YY-RR        3ZZ-RR
 --------------------------------------------------------
     1   Atom        0.679698     -1.067459      0.387761
     2   Atom       -0.064449      0.116328     -0.051879
     3   Atom       -0.064449      0.116328     -0.051879
 --------------------------------------------------------
                        XY            XZ            YZ
 --------------------------------------------------------
     1   Atom        0.000000     -0.000000      0.000000
     2   Atom        0.000000     -0.000000      0.081596
     3   Atom        0.000000     -0.000000     -0.081596
 --------------------------------------------------------


 ---------------------------------------------------------------------------------
              Anisotropic Spin Dipole Couplings in Principal Axis System
 ---------------------------------------------------------------------------------

       Atom             a.u.   MegaHertz   Gauss  10(-4) cm-1        Axes

              Baa    -1.0675  -143.243   -51.113   -47.781 -0.0000  1.0000 -0.0000
     1 C(13)  Bbb     0.3878    52.034    18.567    17.357  0.0000  0.0000  1.0000
              Bcc     0.6797    91.209    32.546    30.424  1.0000  0.0000 -0.0000
 
              Baa    -0.0850   -45.329   -16.174   -15.120  0.0000 -0.3757  0.9267
     2 H(1)   Bbb    -0.0644   -34.387   -12.270   -11.470  1.0000  0.0000  0.0000
              Bcc     0.1494    79.716    28.445    26.590 -0.0000  0.9267  0.3757
 
              Baa    -0.0850   -45.329   -16.174   -15.120  0.0000  0.3757  0.9267
     3 H(1)   Bbb    -0.0644   -34.387   -12.270   -11.470  1.0000 -0.0000  0.0000
              Bcc     0.1494    79.716    28.445    26.590  0.0000  0.9267 -0.3757
 

 ---------------------------------------------------------------------------------

 PrsmSu:  requested number of processors reduced to:  12 ShMem   1 Linda.
 PrsmSu:  requested number of processors reduced to:  12 ShMem   1 Linda.
   4 Symmetry operations used in ECPInt.
 ECPInt:  NShTT=      55 NPrTT=     229 LenC2=      56 LenP2D=     224.
 LDataN:  DoStor=T MaxTD1= 6 Len=  172
 Calling FoFJK, ICntrl=    100127 FMM=F ISym2X=1 I1Cent= 0 IOpClX= 1 NMat=1 NMatS=1 NMatT=0.
 CoulSu:  requested number of processors reduced to:  12 ShMem   1 Linda.
 Full mass-weighted force constant matrix:
 Low frequencies ---   -0.0005   -0.0003    0.0005   11.4437   19.9012   38.4896
 Low frequencies --- 1066.0942 3125.8778 3348.3923
 Diagonal vibrational polarizability:
        0.0000000       0.0004148       0.2287770
 Harmonic frequencies (cm**-1), IR intensities (KM/Mole), Raman scattering
 activities (A**4/AMU), depolarization ratios for plane and unpolarized
 incident light, reduced masses (AMU), force constants (mDyne/A),
 and normal coordinates:
                      1                      2                      3
                     A1                     A1                     B2
 Frequencies --   1066.0942              3125.8778              3348.3923
 Red. masses --      1.1357                 1.0275                 1.1376
 Frc consts  --      0.7605                 5.9151                 7.5150
 IR Inten    --      9.3474                 2.7056                 0.1728
  Atom  AN      X      Y      Z        X      Y      Z        X      Y      Z
     1   6     0.00   0.00  -0.11     0.00   0.00  -0.04    -0.00  -0.11  -0.00
     2   1    -0.00  -0.29   0.64     0.00   0.66   0.25     0.00   0.65   0.27
     3   1    -0.00   0.29   0.64    -0.00  -0.66   0.25     0.00   0.65  -0.27

 -------------------
 - Thermochemistry -
 -------------------
 Temperature   298.150 Kelvin.  Pressure   0.98700 Atm.
 Thermochemistry will use frequencies scaled by 0.9610.
 Atom     1 has atomic number  6 and mass  12.00000
 Atom     2 has atomic number  1 and mass   1.00783
 Atom     3 has atomic number  1 and mass   1.00783
 Molecular mass:    14.01565 amu.
 Principal axes and moments of inertia in atomic units:
                           1         2         3
     Eigenvalues --     1.12576   7.28731   8.41307
           X            0.00000  -0.00000   1.00000
           Y            1.00000  -0.00000  -0.00000
           Z            0.00000   1.00000   0.00000
 This molecule is an asymmetric top.
 Rotational symmetry number  2.
 Rotational temperatures (Kelvin)     76.93821    11.88558    10.29516
 Rotational constants (GHZ):        1603.13198   247.65525   214.51631
 Zero-point vibrational energy      43342.4 (Joules/Mol)
                                   10.35909 (Kcal/Mol)
 Vibrational temperatures:   1474.05  4322.04  4629.70
          (Kelvin)
 
 Zero-point correction=                           0.016508 (Hartree/Particle)
 Thermal correction to Energy=                    0.019374
 Thermal correction to Enthalpy=                  0.020319
 Thermal correction to Gibbs Free Energy=        -0.001912
 Sum of electronic and zero-point Energies=            -39.101800
 Sum of electronic and thermal Energies=               -39.098934
 Sum of electronic and thermal Enthalpies=             -39.097990
 Sum of electronic and thermal Free Energies=          -39.120220
 
                     E (Thermal)             CV                S
                      KCal/Mol        Cal/Mol-Kelvin    Cal/Mol-Kelvin
 Total                   12.158              6.313             46.787
 Electronic               0.000              0.000              2.183
 Translational            0.889              2.981             33.887
 Rotational               0.889              2.981             10.633
 Vibrational             10.380              0.351              0.085
                       Q            Log10(Q)             Ln(Q)
 Total Bot       0.757384D+01          0.879316          2.024700
 Total V=0       0.296882D+09          8.472583         19.508844
 Vib (Bot)       0.256944D-07         -7.590161        -17.476992
 Vib (V=0)       0.100718D+01          0.003106          0.007152
 Electronic      0.300000D+01          0.477121          1.098612
 Translational   0.208957D+07          6.320057         14.552468
 Rotational      0.470218D+02          1.672299          3.850612
 ***** Axes restored to original set *****
 -------------------------------------------------------------------
 Center     Atomic                   Forces (Hartrees/Bohr)
 Number     Number              X              Y              Z
 -------------------------------------------------------------------
      1        6           0.000047344   -0.000066465    0.000007124
      2        1          -0.000089690   -0.000013259    0.000001420
      3        1           0.000042345    0.000079724   -0.000008544
 -------------------------------------------------------------------
 Cartesian Forces:  Max     0.000089690 RMS     0.000050721
 FormGI is forming the generalized inverse of G from B-inverse, IUseBI=4.

 GradGradGradGradGradGradGradGradGradGradGradGradGradGradGradGradGradGrad
 Berny optimization.
 Internal  Forces:  Max     0.000090472 RMS     0.000074224
 Search for a local minimum.
 Step number   1 out of a maximum of    2
 All quantities printed in internal units (Hartrees-Bohrs-Radians)
 Second derivative matrix not updated -- analytic derivatives used.
 The second derivative matrix:
                          R1        R2        A1
           R1           0.36936
           R2          -0.00497   0.36936
           A1           0.01476   0.01476   0.08210
 ITU=  0
     Eigenvalues ---    0.08056   0.36592   0.37433
 Angle between quadratic step and forces=  28.32 degrees.
 Linear search not attempted -- first point.
 Iteration  1 RMS(Cart)=  0.00019401 RMS(Int)=  0.00000002
 Iteration  2 RMS(Cart)=  0.00000002 RMS(Int)=  0.00000000
 ClnCor:  largest displacement from symmetrization is 7.37D-15 for atom     3.
 Variable       Old X    -DE/DX   Delta X   Delta X   Delta X     New X
                                 (Linear)    (Quad)   (Total)
    R1        2.06584  -0.00009   0.00000  -0.00026  -0.00026   2.06558
    R2        2.06584  -0.00009   0.00000  -0.00026  -0.00026   2.06558
    A1        2.33824   0.00001   0.00000   0.00025   0.00025   2.33848
         Item               Value     Threshold  Converged?
 Maximum Force            0.000090     0.000450     YES
 RMS     Force            0.000074     0.000300     YES
 Maximum Displacement     0.000181     0.001800     YES
 RMS     Displacement     0.000194     0.001200     YES
 Predicted change in Energy=-2.490160D-08
 Optimization completed.
    -- Stationary point found.
                           ----------------------------
                           !   Optimized Parameters   !
                           ! (Angstroms and Degrees)  !
 --------------------------                            --------------------------
 ! Name  Definition              Value          Derivative Info.                !
 --------------------------------------------------------------------------------
 ! R1    R(1,2)                  1.0932         -DE/DX =   -0.0001              !
 ! R2    R(1,3)                  1.0932         -DE/DX =   -0.0001              !
 ! A1    A(2,1,3)              133.9712         -DE/DX =    0.0                 !
 --------------------------------------------------------------------------------
 GradGradGradGradGradGradGradGradGradGradGradGradGradGradGradGradGradGrad


 ----------------------------------------------------------------------

 Electric dipole moment (input orientation):
 (Debye = 10**-18 statcoulomb cm , SI units = C m)
                  (au)            (Debye)         (10**-30 SI)
   Tot        0.258065D+00      0.655937D+00      0.218797D+01
   x          0.149156D+00      0.379118D+00      0.126460D+01
   y         -0.209395D+00     -0.532230D+00     -0.177533D+01
   z          0.224433D-01      0.570451D-01      0.190282D+00

 Dipole polarizability, Alpha (input orientation).
 (esu units = cm**3 , SI units = C**2 m**2 J**-1)
 Alpha(0;0):
               (au)            (10**-24 esu)      (10**-40 SI)
   iso        0.828881D+01      0.122828D+01      0.136664D+01
   aniso      0.569470D+01      0.843868D+00      0.938929D+00
   xx         0.103317D+02      0.153100D+01      0.170347D+01
   yx         0.239589D+01      0.355035D+00      0.395029D+00
   yy         0.860510D+01      0.127514D+01      0.141879D+01
   zx        -0.256753D+00     -0.380469D-01     -0.423329D-01
   zy        -0.290060D+00     -0.429825D-01     -0.478245D-01
   zz         0.592965D+01      0.878684D+00      0.977668D+00

 ----------------------------------------------------------------------

 Dipole orientation:
     6          1.45119539          0.69930197          1.03500833
     1          3.06511343          1.70460514          1.84267332
     1         -0.16272265         -0.30600120          1.84267332

 Electric dipole moment (dipole orientation):
 (Debye = 10**-18 statcoulomb cm , SI units = C m)
                  (au)            (Debye)         (10**-30 SI)
   Tot        0.258065D+00      0.655937D+00      0.218797D+01
   x          0.000000D+00      0.000000D+00      0.000000D+00
   y          0.000000D+00      0.000000D+00      0.000000D+00
   z          0.258065D+00      0.655937D+00      0.218797D+01

 Dipole polarizability, Alpha (dipole orientation).
 (esu units = cm**3 , SI units = C**2 m**2 J**-1)
 Alpha(0;0):
               (au)            (10**-24 esu)      (10**-40 SI)
   iso        0.828881D+01      0.122828D+01      0.136664D+01
   aniso      0.569470D+01      0.843868D+00      0.938929D+00
   xx         0.103220D+02      0.152957D+01      0.170187D+01
   yx         0.275536D+01      0.408302D+00      0.454297D+00
   yy         0.761487D+01      0.112841D+01      0.125552D+01
   zx         0.000000D+00      0.000000D+00      0.000000D+00
   zy         0.000000D+00      0.000000D+00      0.000000D+00
   zz         0.692955D+01      0.102685D+01      0.114253D+01

 ----------------------------------------------------------------------
 Unable to Open any file for archive entry.
 1\1\GINC-NODE01\Freq\UB3LYP\def2SVPP\C1H2(3)\XUHJ\19-Dec-2023\0\\#N Ge
 om=AllCheck Guess=TCheck SCRF=Check GenChk UB3LYP/def2SVPP Freq\\[CH2]
 _1\\0,3\C,1.0081489348,0.0328331096,-0.0959566118\H,2.0762737933,0.264
 2825513,-0.1207553041\H,0.4340780514,-0.8922013746,0.0031814561\\Versi
 on=ES64L-G16RevC.01\State=3-B1\HF=-39.1183085\S2=2.005498\S2-1=0.\S2A=
 2.000008\RMSD=0.000e+00\RMSF=5.072e-05\ZeroPoint=0.0165083\Thermal=0.0
 193743\ETot=-39.0989342\HTot=-39.09799\GTot=-39.1202202\Dipole=0.14915
 64,-0.2093954,0.0224433\DipoleDeriv=-0.0878822,0.0404361,-0.0043322,0.
 0404361,-0.1188034,-0.0215138,-0.0043322,-0.0215138,-0.3172329,0.02163
 53,-0.0439733,0.004712,0.019143,0.0814542,0.0083937,-0.0020526,0.00839
 32,0.1588698,0.0662469,0.0035371,-0.0003797,-0.0595792,0.0373492,0.013
 1202,0.0063849,0.0131206,0.1583632\Polar=10.3316902,2.3958931,8.605098
 5,-0.2567534,-0.2900603,5.9296532\Quadrupole=0.5304935,0.1004689,-0.63
 09624,0.5956519,-0.063832,-0.0792991\PG=C02V [C2(C1),SGV(H2)]\NImag=0\
 \0.47450435,0.22423938,0.31223141,-0.02402997,-0.03345198,0.00368186,-
 0.35142012,-0.08578966,0.00919225,0.35052305,-0.05857386,-0.04324424,0
 .00462918,0.07887769,0.03767246,0.00627536,0.00462900,-0.00054445,-0.0
 0845146,-0.00403367,0.00046400,-0.12308423,-0.13844971,0.01483772,0.00
 089707,-0.02030382,0.00217610,0.12218716,-0.16566551,-0.26898717,0.028
 82280,0.00691198,0.00557177,-0.00059533,0.15875354,0.26341540,0.017754
 62,0.02882298,-0.00313740,-0.00074080,-0.00059552,0.00008046,-0.017013
 82,-0.02822746,0.00305695\\-0.00004734,0.00006646,-0.00000712,0.000089
 69,0.00001326,-0.00000142,-0.00004235,-0.00007972,0.00000854\\\@
 The archive entry for this job was punched.


 The chemist is a guest at the physicist's table and
 frequently dines well.
                   -- Richard Bersohn
 Job cpu time:       0 days  0 hours  0 minutes 28.9 seconds.
 Elapsed time:       0 days  0 hours  0 minutes  2.4 seconds.
 File lengths (MBytes):  RWF=      6 Int=      0 D2E=      0 Chk=      1 Scr=      1
 Normal termination of Gaussian 16 at Tue Dec 19 13:05:20 2023.
