 Entering Gaussian System, Link 0=g16
 Initial command:
 /home/software/g16/l1.exe "/home/software/g16tmp/Gau-91364.inp" -scrdir="/home/software/g16tmp/"
 Default is to use a total of   8 processors:
                                8 via shared-memory
                                1 via Linda
 Entering Link 1 = /home/software/g16/l1.exe PID=     91365.
  
 Copyright (c) 1988-2019, Gaussian, Inc.  All Rights Reserved.
  
 This is part of the Gaussian(R) 16 program.  It is based on
 the Gaussian(R) 09 system (copyright 2009, Gaussian, Inc.),
 the Gaussian(R) 03 system (copyright 2003, Gaussian, Inc.),
 the Gaussian(R) 98 system (copyright 1998, Gaussian, Inc.),
 the Gaussian(R) 94 system (copyright 1995, Gaussian, Inc.),
 the Gaussian 92(TM) system (copyright 1992, Gaussian, Inc.),
 the Gaussian 90(TM) system (copyright 1990, Gaussian, Inc.),
 the Gaussian 88(TM) system (copyright 1988, Gaussian, Inc.),
 the Gaussian 86(TM) system (copyright 1986, Carnegie Mellon
 University), and the Gaussian 82(TM) system (copyright 1983,
 Carnegie Mellon University). Gaussian is a federally registered
 trademark of Gaussian, Inc.
  
 This software contains proprietary and confidential information,
 including trade secrets, belonging to Gaussian, Inc.
  
 This software is provided under written license and may be
 used, copied, transmitted, or stored only in accord with that
 written license.
  
 The following legend is applicable only to US Government
 contracts under FAR:
  
                    RESTRICTED RIGHTS LEGEND
  
 Use, reproduction and disclosure by the US Government is
 subject to restrictions as set forth in subparagraphs (a)
 and (c) of the Commercial Computer Software - Restricted
 Rights clause in FAR 52.227-19.
  
 Gaussian, Inc.
 340 Quinnipiac St., Bldg. 40, Wallingford CT 06492
  
  
 ---------------------------------------------------------------
 Warning -- This program may not be used in any manner that
 competes with the business of Gaussian, Inc. or will provide
 assistance to any competitor of Gaussian, Inc.  The licensee
 of this program is prohibited from giving any competitor of
 Gaussian, Inc. access to this program.  By using this program,
 the user acknowledges that Gaussian, Inc. is engaged in the
 business of creating and licensing software in the field of
 computational chemistry and represents and warrants to the
 licensee that it is not a competitor of Gaussian, Inc. and that
 it will not use this program in any manner prohibited above.
 ---------------------------------------------------------------
  

 Cite this work as:
 Gaussian 16, Revision C.01,
 M. J. Frisch, G. W. Trucks, H. B. Schlegel, G. E. Scuseria, 
 M. A. Robb, J. R. Cheeseman, G. Scalmani, V. Barone, 
 G. A. Petersson, H. Nakatsuji, X. Li, M. Caricato, A. V. Marenich, 
 J. Bloino, B. G. Janesko, R. Gomperts, B. Mennucci, H. P. Hratchian, 
 J. V. Ortiz, A. F. Izmaylov, J. L. Sonnenberg, D. Williams-Young, 
 F. Ding, F. Lipparini, F. Egidi, J. Goings, B. Peng, A. Petrone, 
 T. Henderson, D. Ranasinghe, V. G. Zakrzewski, J. Gao, N. Rega, 
 G. Zheng, W. Liang, M. Hada, M. Ehara, K. Toyota, R. Fukuda, 
 J. Hasegawa, M. Ishida, T. Nakajima, Y. Honda, O. Kitao, H. Nakai, 
 T. Vreven, K. Throssell, J. A. Montgomery, Jr., J. E. Peralta, 
 F. Ogliaro, M. J. Bearpark, J. J. Heyd, E. N. Brothers, K. N. Kudin, 
 V. N. Staroverov, T. A. Keith, R. Kobayashi, J. Normand, 
 K. Raghavachari, A. P. Rendell, J. C. Burant, S. S. Iyengar, 
 J. Tomasi, M. Cossi, J. M. Millam, M. Klene, C. Adamo, R. Cammi, 
 J. W. Ochterski, R. L. Martin, K. Morokuma, O. Farkas, 
 J. B. Foresman, and D. J. Fox, Gaussian, Inc., Wallingford CT, 2019.
 
 ******************************************
 Gaussian 16:  ES64L-G16RevC.01  3-Jul-2019
                19-Dec-2023 
 ******************************************
 %nprocshared=16
 Will use up to   16 processors via shared memory.
 %mem=1280MB
 ----------------------------------------------------------------------
 #N opt freq B3LYP/def2SVPP symm=veryloose em=gd3bj scale=0.961 press=0
 .987 int=superfine
 ----------------------------------------------------------------------
 1/18=20,19=15,26=5,38=1,113=-987000,114=961000/1,3;
 2/9=110,12=2,17=2,18=2,40=1/2;
 3/5=43,7=202,11=2,25=1,30=1,71=1,74=-5,75=-7,124=41/1,2,3;
 4//1;
 5/5=2,38=5/2;
 6/7=2,8=2,9=2,10=2,28=1/1;
 7//1,2,3,16;
 1/18=20,19=15,26=5/3(2);
 2/9=110/2;
 99//99;
 2/9=110/2;
 3/5=43,7=202,11=2,25=1,30=1,71=1,74=-5,75=-7,124=41/1,2,3;
 4/5=5,16=3,69=1/1;
 5/5=2,38=5/2;
 7//1,2,3,16;
 1/18=20,19=15,26=5/3(-5);
 2/9=110/2;
 6/7=2,8=2,9=2,10=2,19=2,28=1/1;
 99/9=1/99;
 -------
 CC=CC_1
 -------
 Symbolic Z-matrix:
 Charge =  0 Multiplicity = 1
 C                    -1.24512   1.52748   0. 
 C                     0.        0.67125  -0.015 
 C                     0.00972  -0.66755   0.021 
 C                     1.24061  -1.52673  -0.003 
 H                    -0.9965    2.60203   0.156 
 H                    -1.94933   1.21525   0.80833 
 H                    -1.79933   1.45525  -0.97033 
 H                     0.96597   1.19663  -0.072 
 H                    -0.95324  -1.20174   0.075 
 H                     2.16039  -0.91559  -0.03 
 H                     1.24936  -2.19824  -0.88397 
 H                     1.29136  -2.18024   0.88997 
 

 GradGradGradGradGradGradGradGradGradGradGradGradGradGradGradGradGradGrad
 Berny optimization.
 Initialization pass.
                           ----------------------------
                           !    Initial Parameters    !
                           ! (Angstroms and Degrees)  !
 --------------------------                            --------------------------
 ! Name  Definition              Value          Derivative Info.                !
 --------------------------------------------------------------------------------
 ! R1    R(1,2)                  1.5112         estimate D2E/DX2                !
 ! R2    R(1,5)                  1.1139         estimate D2E/DX2                !
 ! R3    R(1,6)                  1.1166         estimate D2E/DX2                !
 ! R4    R(1,7)                  1.1198         estimate D2E/DX2                !
 ! R5    R(2,3)                  1.3393         estimate D2E/DX2                !
 ! R6    R(2,8)                  1.1011         estimate D2E/DX2                !
 ! R7    R(3,4)                  1.5013         estimate D2E/DX2                !
 ! R8    R(3,9)                  1.1025         estimate D2E/DX2                !
 ! R9    R(4,10)                 1.1046         estimate D2E/DX2                !
 ! R10   R(4,11)                 1.1077         estimate D2E/DX2                !
 ! R11   R(4,12)                 1.1077         estimate D2E/DX2                !
 ! A1    A(2,1,5)              111.35           estimate D2E/DX2                !
 ! A2    A(2,1,6)              111.6165         estimate D2E/DX2                !
 ! A3    A(2,1,7)              111.2628         estimate D2E/DX2                !
 ! A4    A(5,1,6)              108.0064         estimate D2E/DX2                !
 ! A5    A(5,1,7)              107.1001         estimate D2E/DX2                !
 ! A6    A(6,1,7)              107.2847         estimate D2E/DX2                !
 ! A7    A(1,2,3)              124.8961         estimate D2E/DX2                !
 ! A8    A(1,2,8)              116.9359         estimate D2E/DX2                !
 ! A9    A(3,2,8)              118.1637         estimate D2E/DX2                !
 ! A10   A(2,3,4)              125.2816         estimate D2E/DX2                !
 ! A11   A(2,3,9)              118.6395         estimate D2E/DX2                !
 ! A12   A(4,3,9)              116.0788         estimate D2E/DX2                !
 ! A13   A(3,4,10)             111.4972         estimate D2E/DX2                !
 ! A14   A(3,4,11)             111.476          estimate D2E/DX2                !
 ! A15   A(3,4,12)             111.242          estimate D2E/DX2                !
 ! A16   A(10,4,11)            108.021          estimate D2E/DX2                !
 ! A17   A(10,4,12)            107.9361         estimate D2E/DX2                !
 ! A18   A(11,4,12)            106.4452         estimate D2E/DX2                !
 ! D1    D(5,1,2,3)            169.3012         estimate D2E/DX2                !
 ! D2    D(5,1,2,8)            -11.4633         estimate D2E/DX2                !
 ! D3    D(6,1,2,3)             48.5106         estimate D2E/DX2                !
 ! D4    D(6,1,2,8)           -132.2539         estimate D2E/DX2                !
 ! D5    D(7,1,2,3)            -71.3005         estimate D2E/DX2                !
 ! D6    D(7,1,2,8)            107.935          estimate D2E/DX2                !
 ! D7    D(1,2,3,4)            179.5555         estimate D2E/DX2                !
 ! D8    D(1,2,3,9)             -0.5894         estimate D2E/DX2                !
 ! D9    D(8,2,3,4)              0.3285         estimate D2E/DX2                !
 ! D10   D(8,2,3,9)           -179.8163         estimate D2E/DX2                !
 ! D11   D(2,3,4,10)             1.3912         estimate D2E/DX2                !
 ! D12   D(2,3,4,11)          -119.423          estimate D2E/DX2                !
 ! D13   D(2,3,4,12)           121.9355         estimate D2E/DX2                !
 ! D14   D(9,3,4,10)          -178.4673         estimate D2E/DX2                !
 ! D15   D(9,3,4,11)            60.7186         estimate D2E/DX2                !
 ! D16   D(9,3,4,12)           -57.9229         estimate D2E/DX2                !
 --------------------------------------------------------------------------------
 Trust Radius=3.00D-01 FncErr=1.00D-07 GrdErr=1.00D-07 EigMax=2.50D+02 EigMin=1.00D-04
 Number of steps in this run=     55 maximum allowed number of steps=    100.
 GradGradGradGradGradGradGradGradGradGradGradGradGradGradGradGradGradGrad

                          Input orientation:                          
 ---------------------------------------------------------------------
 Center     Atomic      Atomic             Coordinates (Angstroms)
 Number     Number       Type             X           Y           Z
 ---------------------------------------------------------------------
      1          6           0       -1.245118    1.527476    0.000000
      2          6           0        0.000000    0.671248   -0.015000
      3          6           0        0.009724   -0.667554    0.021000
      4          6           0        1.240614   -1.526729   -0.003000
      5          1           0       -0.996497    2.602030    0.156000
      6          1           0       -1.949333    1.215250    0.808326
      7          1           0       -1.799333    1.455250   -0.970326
      8          1           0        0.965969    1.196634   -0.072000
      9          1           0       -0.953236   -1.201737    0.075000
     10          1           0        2.160389   -0.915590   -0.030000
     11          1           0        1.249362   -2.198243   -0.883965
     12          1           0        1.291362   -2.180243    0.889965
 ---------------------------------------------------------------------
                    Distance matrix (angstroms):
                    1          2          3          4          5
     1  C    0.000000
     2  C    1.511182   0.000000
     3  C    2.528483   1.339321   0.000000
     4  C    3.937898   2.523959   1.501282   0.000000
     5  H    1.113919   2.179488   3.423578   4.698574   0.000000
     6  H    1.116600   2.184881   2.828911   4.283977   1.804601
     7  H    1.119778   2.182866   2.960019   4.366829   1.796736
     8  H    2.236861   1.101079   2.097201   2.738046   2.424540
     9  H    2.745801   2.103528   1.102524   2.219162   3.804875
    10  H    4.191294   2.680590   2.165521   1.104629   4.730135
    11  H    4.569990   3.248074   2.167642   1.107749   5.400744
    12  H    4.579623   3.258463   2.164700   1.107719   5.351928
                    6          7          8          9         10
     6  H    0.000000
     7  H    1.801028   0.000000
     8  H    3.045375   2.919035   0.000000
     9  H    2.715106   2.977947   3.075246   0.000000
    10  H    4.704581   4.710042   2.426910   3.128509   0.000000
    11  H    4.974679   4.759203   3.502112   2.600784   1.790091
    12  H    4.694480   5.121512   3.526267   2.580671   1.789103
                   11         12
    11  H    0.000000
    12  H    1.774518   0.000000
 Stoichiometry    C4H8
 Framework group  C1[X(C4H8)]
 Deg. of freedom    30
 Full point group                 C1      NOp   1
 Largest Abelian subgroup         C1      NOp   1
 Largest concise Abelian subgroup C1      NOp   1
                         Standard orientation:                         
 ---------------------------------------------------------------------
 Center     Atomic      Atomic             Coordinates (Angstroms)
 Number     Number       Type             X           Y           Z
 ---------------------------------------------------------------------
      1          6           0        1.969081   -0.078874    0.000355
      2          6           0        0.536856    0.403170   -0.005513
      3          6           0       -0.539750   -0.393502   -0.001517
      4          6           0       -1.965776    0.075841    0.002226
      5          1           0        2.678955    0.756525   -0.197137
      6          1           0        2.140843   -0.867485   -0.771258
      7          1           0        2.245582   -0.518320    0.992493
      8          1           0        0.377228    1.492606   -0.000581
      9          1           0       -0.388959   -1.485664   -0.003300
     10          1           0       -2.029139    1.178348   -0.023660
     11          1           0       -2.506662   -0.277477    0.902068
     12          1           0       -2.520320   -0.318340   -0.871928
 ---------------------------------------------------------------------
 Rotational constants (GHZ):          34.0978948           3.6837814           3.4716230
 Standard basis: def2SVPP (5D, 7F)
 There are    76 symmetry adapted cartesian basis functions of A   symmetry.
 There are    72 symmetry adapted basis functions of A   symmetry.
    72 basis functions,   132 primitive gaussians,    76 cartesian basis functions
    16 alpha electrons       16 beta electrons
       nuclear repulsion energy       114.9313929899 Hartrees.
 NAtoms=   12 NActive=   12 NUniq=   12 SFac= 1.00D+00 NAtFMM=   60 NAOKFM=F Big=F
 Integral buffers will be    131072 words long.
 Raffenetti 2 integral format.
 Two-electron integral symmetry is turned on.
 Nuclear repulsion after empirical dispersion term =      114.9191513969 Hartrees.
 One-electron integrals computed using PRISM.
   1 Symmetry operations used in ECPInt.
 ECPInt:  NShTT=     820 NPrTT=    3316 LenC2=     820 LenP2D=    2835.
 LDataN:  DoStor=T MaxTD1= 4 Len=   56
 NBasis=    72 RedAO= T EigKep=  2.25D-03  NBF=    72
 NBsUse=    72 1.00D-06 EigRej= -1.00D+00 NBFU=    72
 ExpMin= 1.22D-01 ExpMax= 1.24D+03 ExpMxC= 1.86D+02 IAcc=3 IRadAn=         7 AccDes= 0.00D+00
 Harris functional with IExCor=  402 and IRadAn=       7 diagonalized for initial guess.
 HarFok:  IExCor=  402 AccDes= 0.00D+00 IRadAn=         7 IDoV= 1 UseB2=F ITyADJ=14
 ICtDFT=  3500011 ScaDFX=  1.000000  1.000000  1.000000  1.000000
 FoFCou: FMM=F IPFlag=           0 FMFlag=      100000 FMFlg1=           0
         NFxFlg=           0 DoJE=T BraDBF=F KetDBF=T FulRan=T
         wScrn=  0.000000 ICntrl=       500 IOpCl=  0 I1Cent=   200000004 NGrid=           0
         NMat0=    1 NMatS0=      1 NMatT0=    0 NMatD0=    1 NMtDS0=    0 NMtDT0=    0
 Petite list used in FoFCou.
 Keep R1 ints in memory in canonical form, NReq=17947838.
 Requested convergence on RMS density matrix=1.00D-08 within 128 cycles.
 Requested convergence on MAX density matrix=1.00D-06.
 Requested convergence on             energy=1.00D-06.
 No special actions if energy rises.
 Integral accuracy reduced to 1.0D-05 until final iterations.
 Initial convergence to 1.0D-05 achieved.  Increase integral accuracy.
 SCF Done:  E(RB3LYP) =  -157.103707414     A.U. after   11 cycles
            NFock= 11  Conv=0.85D-08     -V/T= 2.0123

 **********************************************************************

            Population analysis using the SCF Density.

 **********************************************************************

 Orbital symmetries:
       Occupied  (A) (A) (A) (A) (A) (A) (A) (A) (A) (A) (A) (A)
                 (A) (A) (A) (A)
       Virtual   (A) (A) (A) (A) (A) (A) (A) (A) (A) (A) (A) (A)
                 (A) (A) (A) (A) (A) (A) (A) (A) (A) (A) (A) (A)
                 (A) (A) (A) (A) (A) (A) (A) (A) (A) (A) (A) (A)
                 (A) (A) (A) (A) (A) (A) (A) (A) (A) (A) (A) (A)
                 (A) (A) (A) (A) (A) (A) (A) (A)
 The electronic state is 1-A.
 Alpha  occ. eigenvalues --  -10.17907 -10.17874 -10.17798 -10.17652  -0.78417
 Alpha  occ. eigenvalues --   -0.71547  -0.63154  -0.53783  -0.44081  -0.43867
 Alpha  occ. eigenvalues --   -0.41369  -0.39922  -0.37297  -0.36023  -0.33876
 Alpha  occ. eigenvalues --   -0.24110
 Alpha virt. eigenvalues --    0.01677   0.07487   0.07924   0.08649   0.12455
 Alpha virt. eigenvalues --    0.13506   0.14473   0.15430   0.17094   0.23428
 Alpha virt. eigenvalues --    0.27534   0.35311   0.41344   0.42544   0.43871
 Alpha virt. eigenvalues --    0.45657   0.47528   0.49769   0.58445   0.60927
 Alpha virt. eigenvalues --    0.62292   0.64510   0.66771   0.67052   0.67363
 Alpha virt. eigenvalues --    0.69004   0.69343   0.69503   0.71499   0.72210
 Alpha virt. eigenvalues --    0.73396   0.74513   0.84232   0.87870   0.99711
 Alpha virt. eigenvalues --    1.13822   1.38331   1.44239   1.61848   1.72069
 Alpha virt. eigenvalues --    1.76319   1.82182   1.85833   1.93003   2.01333
 Alpha virt. eigenvalues --    2.03268   2.06849   2.12673   2.18522   2.22725
 Alpha virt. eigenvalues --    2.29534   2.33288   2.47677   2.57762   2.79928
 Alpha virt. eigenvalues --    2.88990
          Condensed to atoms (all electrons):
               1          2          3          4          5          6
     1  C    4.841083   0.393766  -0.045567   0.009632   0.369647   0.372899
     2  C    0.393766   4.796759   0.715476  -0.027260  -0.015763  -0.018762
     3  C   -0.045567   0.715476   4.774122   0.402311   0.007691  -0.011034
     4  C    0.009632  -0.027260   0.402311   4.810548  -0.000353  -0.000029
     5  H    0.369647  -0.015763   0.007691  -0.000353   0.601558  -0.024128
     6  H    0.372899  -0.018762  -0.011034  -0.000029  -0.024128   0.586514
     7  H    0.370294  -0.017072  -0.010779  -0.000189  -0.025055  -0.022335
     8  H   -0.060995   0.374155  -0.028829  -0.021095  -0.008273   0.005533
     9  H   -0.015840  -0.047263   0.382208  -0.060925   0.000078   0.005144
    10  H    0.000076  -0.012130  -0.018239   0.369598   0.000002   0.000029
    11  H   -0.000321   0.000056  -0.017371   0.366032   0.000002  -0.000039
    12  H   -0.000292  -0.000014  -0.017720   0.367767   0.000016   0.000083
               7          8          9         10         11         12
     1  C    0.370294  -0.060995  -0.015840   0.000076  -0.000321  -0.000292
     2  C   -0.017072   0.374155  -0.047263  -0.012130   0.000056  -0.000014
     3  C   -0.010779  -0.028829   0.382208  -0.018239  -0.017371  -0.017720
     4  C   -0.000189  -0.021095  -0.060925   0.369598   0.366032   0.367767
     5  H   -0.025055  -0.008273   0.000078   0.000002   0.000002   0.000016
     6  H   -0.022335   0.005533   0.005144   0.000029  -0.000039   0.000083
     7  H    0.589575   0.003902   0.002181   0.000011   0.000116  -0.000038
     8  H    0.003902   0.648724   0.010763   0.011763   0.000207   0.000185
     9  H    0.002181   0.010763   0.661776   0.007505  -0.002123  -0.002558
    10  H    0.000011   0.011763   0.007505   0.595266  -0.022867  -0.023156
    11  H    0.000116   0.000207  -0.002123  -0.022867   0.605408  -0.029159
    12  H   -0.000038   0.000185  -0.002558  -0.023156  -0.029159   0.605551
 Mulliken charges:
               1
     1  C   -0.234382
     2  C   -0.141950
     3  C   -0.132269
     4  C   -0.216036
     5  H    0.094576
     6  H    0.106124
     7  H    0.109389
     8  H    0.063960
     9  H    0.059055
    10  H    0.092141
    11  H    0.100059
    12  H    0.099333
 Sum of Mulliken charges =  -0.00000
 Mulliken charges with hydrogens summed into heavy atoms:
               1
     1  C    0.075707
     2  C   -0.077991
     3  C   -0.073214
     4  C    0.075497
 Electronic spatial extent (au):  <R**2>=            403.8721
 Charge=             -0.0000 electrons
 Dipole moment (field-independent basis, Debye):
    X=             -0.0179    Y=             -0.0888    Z=              0.0329  Tot=              0.0964
 Quadrupole moment (field-independent basis, Debye-Ang):
   XX=            -25.7192   YY=            -25.8345   ZZ=            -27.9632
   XY=              0.3129   XZ=              0.0337   YZ=              0.0079
 Traceless Quadrupole moment (field-independent basis, Debye-Ang):
   XX=              0.7865   YY=              0.6711   ZZ=             -1.4576
   XY=              0.3129   XZ=              0.0337   YZ=              0.0079
 Octapole moment (field-independent basis, Debye-Ang**2):
  XXX=             -0.3984  YYY=              0.5502  ZZZ=              0.3574  XYY=              0.2086
  XXY=             -0.1366  XXZ=              0.0657  XZZ=             -0.1905  YZZ=             -0.8373
  YYZ=             -0.2433  XYZ=             -0.0470
 Hexadecapole moment (field-independent basis, Debye-Ang**3):
 XXXX=           -450.3244 YYYY=            -70.0643 ZZZZ=            -43.7892 XXXY=              4.1893
 XXXZ=             -0.0167 YYYX=              0.0021 YYYZ=              0.1831 ZZZX=              0.6038
 ZZZY=             -0.0668 XXYY=            -84.8094 XXZZ=            -79.0335 YYZZ=            -19.7363
 XXYZ=             -0.2557 YYXZ=             -0.4568 ZZXY=             -0.2440
 N-N= 1.149191513969D+02 E-N=-5.921520732077D+02  KE= 1.551921639425D+02
   1 Symmetry operations used in ECPInt.
 ECPInt:  NShTT=     820 NPrTT=    3316 LenC2=     820 LenP2D=    2835.
 LDataN:  DoStor=T MaxTD1= 5 Len=  102
 Calling FoFJK, ICntrl=      2127 FMM=F ISym2X=0 I1Cent= 0 IOpClX= 0 NMat=1 NMatS=1 NMatT=0.
 ***** Axes restored to original set *****
 -------------------------------------------------------------------
 Center     Atomic                   Forces (Hartrees/Bohr)
 Number     Number              X              Y              Z
 -------------------------------------------------------------------
      1        6          -0.004525654    0.002770163   -0.001312742
      2        6          -0.000013110    0.000122409   -0.000093770
      3        6          -0.000288168    0.000042982    0.000594802
      4        6           0.000012450   -0.000025856    0.000240658
      5        1          -0.002170887   -0.006507246   -0.000235000
      6        1           0.003819022    0.002236372   -0.005482336
      7        1           0.003392402    0.001271193    0.006745954
      8        1          -0.000860802   -0.000439917   -0.000292571
      9        1           0.000789828    0.000537303    0.000156905
     10        1          -0.000205267   -0.000144787   -0.000204743
     11        1          -0.000039244    0.000080634    0.000087022
     12        1           0.000089430    0.000056750   -0.000204179
 -------------------------------------------------------------------
 Cartesian Forces:  Max     0.006745954 RMS     0.002284717

 GradGradGradGradGradGradGradGradGradGradGradGradGradGradGradGradGradGrad
 Berny optimization.
 FormGI is forming the generalized inverse of G from B-inverse, IUseBI=4.
 Internal  Forces:  Max     0.007606617 RMS     0.001891539
 Search for a local minimum.
 Step number   1 out of a maximum of   55
 All quantities printed in internal units (Hartrees-Bohrs-Radians)
 Mixed Optimization -- RFO/linear search
 Second derivative matrix not updated -- first step.
 ITU=  0
     Eigenvalues ---    0.00618   0.00749   0.01540   0.01630   0.02891
     Eigenvalues ---    0.07028   0.07093   0.07111   0.07200   0.15999
     Eigenvalues ---    0.16000   0.16000   0.16000   0.16000   0.16000
     Eigenvalues ---    0.16000   0.16000   0.22000   0.22000   0.31232
     Eigenvalues ---    0.31586   0.31911   0.32189   0.32243   0.32840
     Eigenvalues ---    0.32843   0.33175   0.33405   0.33563   0.57357
 RFO step:  Lambda=-7.23015635D-04 EMin= 6.18034671D-03
 Linear search not attempted -- first point.
 Iteration  1 RMS(Cart)=  0.03416094 RMS(Int)=  0.00082868
 Iteration  2 RMS(Cart)=  0.00086031 RMS(Int)=  0.00000467
 Iteration  3 RMS(Cart)=  0.00000045 RMS(Int)=  0.00000466
 Variable       Old X    -DE/DX   Delta X   Delta X   Delta X     New X
                                 (Linear)    (Quad)   (Total)
    R1        2.85572  -0.00056   0.00000  -0.00178  -0.00178   2.85394
    R2        2.10500  -0.00679   0.00000  -0.02106  -0.02106   2.08394
    R3        2.11007  -0.00700   0.00000  -0.02189  -0.02189   2.08817
    R4        2.11607  -0.00761   0.00000  -0.02403  -0.02403   2.09205
    R5        2.53095  -0.00053   0.00000  -0.00092  -0.00092   2.53003
    R6        2.08074  -0.00095   0.00000  -0.00282  -0.00282   2.07791
    R7        2.83701  -0.00010   0.00000  -0.00030  -0.00030   2.83671
    R8        2.08347  -0.00094   0.00000  -0.00282  -0.00282   2.08065
    R9        2.08745  -0.00025   0.00000  -0.00074  -0.00074   2.08671
   R10        2.09334  -0.00012   0.00000  -0.00036  -0.00036   2.09298
   R11        2.09329  -0.00019   0.00000  -0.00059  -0.00059   2.09270
    A1        1.94342   0.00052   0.00000   0.00310   0.00309   1.94652
    A2        1.94808   0.00060   0.00000   0.00312   0.00311   1.95119
    A3        1.94190   0.00096   0.00000   0.00674   0.00673   1.94863
    A4        1.88507  -0.00083   0.00000  -0.00656  -0.00656   1.87850
    A5        1.86925  -0.00060   0.00000  -0.00264  -0.00265   1.86659
    A6        1.87247  -0.00079   0.00000  -0.00461  -0.00462   1.86785
    A7        2.17985   0.00032   0.00000   0.00148   0.00148   2.18133
    A8        2.04092  -0.00020   0.00000  -0.00094  -0.00094   2.03997
    A9        2.06235  -0.00013   0.00000  -0.00049  -0.00049   2.06185
   A10        2.18658   0.00021   0.00000   0.00097   0.00097   2.18755
   A11        2.07065  -0.00020   0.00000  -0.00104  -0.00104   2.06961
   A12        2.02596  -0.00002   0.00000   0.00007   0.00007   2.02603
   A13        1.94599  -0.00001   0.00000  -0.00004  -0.00005   1.94595
   A14        1.94562  -0.00014   0.00000  -0.00129  -0.00129   1.94433
   A15        1.94154   0.00024   0.00000   0.00190   0.00190   1.94344
   A16        1.88532  -0.00005   0.00000  -0.00114  -0.00114   1.88418
   A17        1.88384   0.00001   0.00000   0.00086   0.00086   1.88470
   A18        1.85782  -0.00005   0.00000  -0.00031  -0.00031   1.85751
    D1        2.95486  -0.00069   0.00000  -0.07376  -0.07376   2.88110
    D2       -0.20007  -0.00061   0.00000  -0.06885  -0.06886  -0.26893
    D3        0.84667  -0.00040   0.00000  -0.06968  -0.06967   0.77700
    D4       -2.30827  -0.00032   0.00000  -0.06477  -0.06477  -2.37303
    D5       -1.24443  -0.00046   0.00000  -0.07052  -0.07051  -1.31494
    D6        1.88382  -0.00038   0.00000  -0.06561  -0.06561   1.81821
    D7        3.13383  -0.00026   0.00000  -0.00769  -0.00769   3.12615
    D8       -0.01029  -0.00025   0.00000  -0.00717  -0.00717  -0.01746
    D9        0.00573  -0.00034   0.00000  -0.01264  -0.01264  -0.00691
   D10       -3.13839  -0.00033   0.00000  -0.01213  -0.01213   3.13267
   D11        0.02428  -0.00018   0.00000  -0.00938  -0.00938   0.01490
   D12       -2.08432  -0.00001   0.00000  -0.00700  -0.00700  -2.09133
   D13        2.12818  -0.00001   0.00000  -0.00701  -0.00701   2.12116
   D14       -3.11484  -0.00018   0.00000  -0.00988  -0.00988  -3.12472
   D15        1.05974  -0.00001   0.00000  -0.00750  -0.00750   1.05224
   D16       -1.01095  -0.00001   0.00000  -0.00751  -0.00751  -1.01846
         Item               Value     Threshold  Converged?
 Maximum Force            0.007607     0.000450     NO 
 RMS     Force            0.001892     0.000300     NO 
 Maximum Displacement     0.097807     0.001800     NO 
 RMS     Displacement     0.034106     0.001200     NO 
 Predicted change in Energy=-3.727205D-04
 GradGradGradGradGradGradGradGradGradGradGradGradGradGradGradGradGradGrad

                          Input orientation:                          
 ---------------------------------------------------------------------
 Center     Atomic      Atomic             Coordinates (Angstroms)
 Number     Number       Type             X           Y           Z
 ---------------------------------------------------------------------
      1          6           0       -1.245175    1.526873   -0.005421
      2          6           0       -0.001252    0.670578   -0.020919
      3          6           0        0.010414   -0.667168    0.031817
      4          6           0        1.240626   -1.526709   -0.001947
      5          1           0       -1.007232    2.582357    0.207757
      6          1           0       -1.968336    1.186142    0.757465
      7          1           0       -1.768463    1.504657   -0.980750
      8          1           0        0.962713    1.195264   -0.088474
      9          1           0       -0.950252   -1.199678    0.108169
     10          1           0        2.159020   -0.916532   -0.061761
     11          1           0        1.229950   -2.213703   -0.870631
     12          1           0        1.311891   -2.164290    0.900695
 ---------------------------------------------------------------------
                    Distance matrix (angstroms):
                    1          2          3          4          5
     1  C    0.000000
     2  C    1.510240   0.000000
     3  C    2.528182   1.338836   0.000000
     4  C    3.937459   2.524023   1.501124   0.000000
     5  H    1.102773   2.172369   3.409688   4.688419   0.000000
     6  H    1.105013   2.177409   2.806560   4.270095   1.781942
     7  H    1.107064   2.177154   2.984379   4.381992   1.775798
     8  H    2.234196   1.099585   2.095232   2.737491   2.427440
     9  H    2.744807   2.101220   1.101034   2.217887   3.783775
    10  H    4.190697   2.680925   2.165051   1.104238   4.726523
    11  H    4.568012   3.249145   2.166437   1.107558   5.400935
    12  H    4.580864   3.257330   2.165679   1.107408   5.328148
                    6          7          8          9         10
     6  H    0.000000
     7  H    1.778424   0.000000
     8  H    3.050696   2.889845   0.000000
     9  H    2.673989   3.027977   3.071458   0.000000
    10  H    4.703981   4.704446   2.427250   3.126759   0.000000
    11  H    4.943549   4.777950   3.507740   2.596070   1.788880
    12  H    4.691034   5.146804   3.519514   2.583770   1.789092
                   11         12
    11  H    0.000000
    12  H    1.773909   0.000000
 Stoichiometry    C4H8
 Framework group  C1[X(C4H8)]
 Deg. of freedom    30
 Full point group                 C1      NOp   1
 Largest Abelian subgroup         C1      NOp   1
 Largest concise Abelian subgroup C1      NOp   1
                         Standard orientation:                         
 ---------------------------------------------------------------------
 Center     Atomic      Atomic             Coordinates (Angstroms)
 Number     Number       Type             X           Y           Z
 ---------------------------------------------------------------------
      1          6           0        1.968716   -0.078463    0.002990
      2          6           0        0.537060    0.402247   -0.007238
      3          6           0       -0.539774   -0.393307   -0.004649
      4          6           0       -1.965724    0.075694    0.004164
      5          1           0        2.668970    0.730031   -0.265508
      6          1           0        2.127741   -0.908944   -0.708393
      7          1           0        2.268831   -0.446464    1.003038
      8          1           0        0.377927    1.490254   -0.009291
      9          1           0       -0.388911   -1.483937   -0.011211
     10          1           0       -2.029160    1.178052   -0.006930
     11          1           0       -2.505396   -0.288369    0.900210
     12          1           0       -2.521665   -0.307650   -0.873520
 ---------------------------------------------------------------------
 Rotational constants (GHZ):          34.3329067           3.6854174           3.4735505
 Standard basis: def2SVPP (5D, 7F)
 There are    76 symmetry adapted cartesian basis functions of A   symmetry.
 There are    72 symmetry adapted basis functions of A   symmetry.
    72 basis functions,   132 primitive gaussians,    76 cartesian basis functions
    16 alpha electrons       16 beta electrons
       nuclear repulsion energy       115.0882815901 Hartrees.
 NAtoms=   12 NActive=   12 NUniq=   12 SFac= 1.00D+00 NAtFMM=   60 NAOKFM=F Big=F
 Integral buffers will be    131072 words long.
 Raffenetti 2 integral format.
 Two-electron integral symmetry is turned on.
 Nuclear repulsion after empirical dispersion term =      115.0760344915 Hartrees.
 One-electron integrals computed using PRISM.
   1 Symmetry operations used in ECPInt.
 ECPInt:  NShTT=     820 NPrTT=    3316 LenC2=     820 LenP2D=    2838.
 LDataN:  DoStor=T MaxTD1= 4 Len=   56
 NBasis=    72 RedAO= T EigKep=  2.24D-03  NBF=    72
 NBsUse=    72 1.00D-06 EigRej= -1.00D+00 NBFU=    72
 Initial guess from the checkpoint file:  "/home/software/g16tmp/Gau-91365.chk"
 B after Tr=    -0.000000    0.000000    0.000000
         Rot=    0.999975    0.007033   -0.000431   -0.000056 Ang=   0.81 deg.
 ExpMin= 1.22D-01 ExpMax= 1.24D+03 ExpMxC= 1.86D+02 IAcc=3 IRadAn=         7 AccDes= 0.00D+00
 Harris functional with IExCor=  402 and IRadAn=       7 diagonalized for initial guess.
 HarFok:  IExCor=  402 AccDes= 0.00D+00 IRadAn=         7 IDoV= 1 UseB2=F ITyADJ=14
 ICtDFT=  3500011 ScaDFX=  1.000000  1.000000  1.000000  1.000000
 FoFCou: FMM=F IPFlag=           0 FMFlag=      100000 FMFlg1=           0
         NFxFlg=           0 DoJE=T BraDBF=F KetDBF=T FulRan=T
         wScrn=  0.000000 ICntrl=       500 IOpCl=  0 I1Cent=   200000004 NGrid=           0
         NMat0=    1 NMatS0=      1 NMatT0=    0 NMatD0=    1 NMtDS0=    0 NMtDT0=    0
 Petite list used in FoFCou.
 Keep R1 ints in memory in canonical form, NReq=17947838.
 Requested convergence on RMS density matrix=1.00D-08 within 128 cycles.
 Requested convergence on MAX density matrix=1.00D-06.
 Requested convergence on             energy=1.00D-06.
 No special actions if energy rises.
 Integral accuracy reduced to 1.0D-05 until final iterations.
 Initial convergence to 1.0D-05 achieved.  Increase integral accuracy.
 SCF Done:  E(RB3LYP) =  -157.104186788     A.U. after   11 cycles
            NFock= 11  Conv=0.25D-08     -V/T= 2.0120
   1 Symmetry operations used in ECPInt.
 ECPInt:  NShTT=     820 NPrTT=    3316 LenC2=     820 LenP2D=    2838.
 LDataN:  DoStor=T MaxTD1= 5 Len=  102
 Calling FoFJK, ICntrl=      2127 FMM=F ISym2X=0 I1Cent= 0 IOpClX= 0 NMat=1 NMatS=1 NMatT=0.
 ***** Axes restored to original set *****
 -------------------------------------------------------------------
 Center     Atomic                   Forces (Hartrees/Bohr)
 Number     Number              X              Y              Z
 -------------------------------------------------------------------
      1        6           0.000341267   -0.000409707    0.000197229
      2        6          -0.000529051    0.000162190    0.000212997
      3        6           0.000075453   -0.000069627    0.000711478
      4        6          -0.000019245    0.000034845    0.000117364
      5        1           0.000095326    0.000261012    0.000584311
      6        1          -0.000293293   -0.000518412   -0.000285804
      7        1           0.000349257    0.000453968   -0.000447901
      8        1          -0.000013651    0.000091834   -0.001000366
      9        1          -0.000019316   -0.000001042   -0.000008263
     10        1           0.000023936   -0.000010326   -0.000076997
     11        1          -0.000051764    0.000016918    0.000000154
     12        1           0.000041083   -0.000011653   -0.000004204
 -------------------------------------------------------------------
 Cartesian Forces:  Max     0.001000366 RMS     0.000316749

 GradGradGradGradGradGradGradGradGradGradGradGradGradGradGradGradGradGrad
 Berny optimization.
 Using GEDIIS/GDIIS optimizer.
 FormGI is forming the generalized inverse of G from B-inverse, IUseBI=4.
 Internal  Forces:  Max     0.000654766 RMS     0.000249005
 Search for a local minimum.
 Step number   2 out of a maximum of   55
 All quantities printed in internal units (Hartrees-Bohrs-Radians)
 Mixed Optimization -- En-DIIS/RFO-DIIS
 Update second derivatives using D2CorX and points    1    2
 DE= -4.79D-04 DEPred=-3.73D-04 R= 1.29D+00
 TightC=F SS=  1.41D+00  RLast= 1.76D-01 DXNew= 5.0454D-01 5.2814D-01
 Trust test= 1.29D+00 RLast= 1.76D-01 DXMaxT set to 5.05D-01
 ITU=  1  0
 Use linear search instead of GDIIS.
     Eigenvalues ---    0.00312   0.00749   0.01545   0.01629   0.02895
     Eigenvalues ---    0.07003   0.07058   0.07090   0.07195   0.15987
     Eigenvalues ---    0.16000   0.16000   0.16000   0.16000   0.16000
     Eigenvalues ---    0.16000   0.16229   0.21994   0.22002   0.31121
     Eigenvalues ---    0.31733   0.32052   0.32243   0.32839   0.32842
     Eigenvalues ---    0.33175   0.33395   0.33548   0.43870   0.57420
 RFO step:  Lambda=-4.40322510D-04 EMin= 3.12123985D-03
 Quartic linear search produced a step of  0.43134.
 Iteration  1 RMS(Cart)=  0.07030970 RMS(Int)=  0.00355831
 Iteration  2 RMS(Cart)=  0.00370260 RMS(Int)=  0.00000764
 Iteration  3 RMS(Cart)=  0.00000866 RMS(Int)=  0.00000275
 Iteration  4 RMS(Cart)=  0.00000000 RMS(Int)=  0.00000275
 Variable       Old X    -DE/DX   Delta X   Delta X   Delta X     New X
                                 (Linear)    (Quad)   (Total)
    R1        2.85394  -0.00053  -0.00077  -0.00264  -0.00341   2.85053
    R2        2.08394   0.00038  -0.00908  -0.00203  -0.01112   2.07282
    R3        2.08817   0.00015  -0.00944  -0.00316  -0.01260   2.07557
    R4        2.09205   0.00022  -0.01036  -0.00323  -0.01360   2.07845
    R5        2.53003   0.00007  -0.00040   0.00001  -0.00039   2.52965
    R6        2.07791   0.00009  -0.00122  -0.00011  -0.00133   2.07659
    R7        2.83671  -0.00002  -0.00013  -0.00015  -0.00028   2.83643
    R8        2.08065   0.00002  -0.00121  -0.00042  -0.00164   2.07902
    R9        2.08671   0.00002  -0.00032  -0.00005  -0.00037   2.08633
   R10        2.09298  -0.00001  -0.00016  -0.00011  -0.00026   2.09272
   R11        2.09270   0.00001  -0.00025  -0.00008  -0.00033   2.09236
    A1        1.94652  -0.00005   0.00133   0.00010   0.00143   1.94795
    A2        1.95119  -0.00010   0.00134  -0.00001   0.00133   1.95252
    A3        1.94863  -0.00016   0.00290  -0.00051   0.00239   1.95102
    A4        1.87850   0.00014  -0.00283   0.00060  -0.00223   1.87627
    A5        1.86659   0.00004  -0.00115  -0.00067  -0.00182   1.86478
    A6        1.86785   0.00015  -0.00199   0.00051  -0.00149   1.86636
    A7        2.18133   0.00009   0.00064   0.00084   0.00148   2.18281
    A8        2.03997  -0.00016  -0.00041  -0.00143  -0.00184   2.03813
    A9        2.06185   0.00006  -0.00021   0.00056   0.00034   2.06220
   A10        2.18755   0.00001   0.00042   0.00022   0.00064   2.18818
   A11        2.06961  -0.00001  -0.00045  -0.00028  -0.00073   2.06887
   A12        2.02603   0.00001   0.00003   0.00007   0.00010   2.02613
   A13        1.94595   0.00004  -0.00002   0.00035   0.00033   1.94628
   A14        1.94433  -0.00011  -0.00056  -0.00141  -0.00197   1.94237
   A15        1.94344   0.00008   0.00082   0.00125   0.00206   1.94550
   A16        1.88418  -0.00001  -0.00049  -0.00063  -0.00112   1.88307
   A17        1.88470  -0.00001   0.00037   0.00051   0.00088   1.88558
   A18        1.85751   0.00000  -0.00013  -0.00009  -0.00022   1.85728
    D1        2.88110  -0.00051  -0.03182  -0.12415  -0.15597   2.72513
    D2       -0.26893  -0.00057  -0.02970  -0.12918  -0.15888  -0.42781
    D3        0.77700  -0.00058  -0.03005  -0.12497  -0.15502   0.62197
    D4       -2.37303  -0.00065  -0.02794  -0.13001  -0.15794  -2.53097
    D5       -1.31494  -0.00059  -0.03042  -0.12527  -0.15568  -1.47063
    D6        1.81821  -0.00065  -0.02830  -0.13030  -0.15860   1.65961
    D7        3.12615  -0.00008  -0.00331  -0.00653  -0.00984   3.11631
    D8       -0.01746  -0.00008  -0.00309  -0.00592  -0.00902  -0.02647
    D9       -0.00691  -0.00002  -0.00545  -0.00143  -0.00688  -0.01379
   D10        3.13267  -0.00001  -0.00523  -0.00082  -0.00605   3.12662
   D11        0.01490  -0.00007  -0.00405  -0.00701  -0.01105   0.00385
   D12       -2.09133  -0.00001  -0.00302  -0.00548  -0.00850  -2.09982
   D13        2.12116  -0.00000  -0.00302  -0.00525  -0.00828   2.11289
   D14       -3.12472  -0.00008  -0.00426  -0.00760  -0.01186  -3.13658
   D15        1.05224  -0.00002  -0.00324  -0.00607  -0.00931   1.04293
   D16       -1.01846  -0.00001  -0.00324  -0.00585  -0.00909  -1.02754
         Item               Value     Threshold  Converged?
 Maximum Force            0.000655     0.000450     NO 
 RMS     Force            0.000249     0.000300     YES
 Maximum Displacement     0.211609     0.001800     NO 
 RMS     Displacement     0.070228     0.001200     NO 
 Predicted change in Energy=-3.188415D-04
 GradGradGradGradGradGradGradGradGradGradGradGradGradGradGradGradGradGrad

                          Input orientation:                          
 ---------------------------------------------------------------------
 Center     Atomic      Atomic             Coordinates (Angstroms)
 Number     Number       Type             X           Y           Z
 ---------------------------------------------------------------------
      1          6           0       -1.245185    1.525796   -0.012103
      2          6           0       -0.003380    0.669756   -0.034466
      3          6           0        0.011687   -0.665871    0.053902
      4          6           0        1.240414   -1.526349    0.001597
      5          1           0       -1.025306    2.547903    0.319736
      6          1           0       -2.011403    1.117690    0.660745
      7          1           0       -1.703714    1.605947   -1.008616
      8          1           0        0.956825    1.193144   -0.142225
      9          1           0       -0.944894   -1.195335    0.176341
     10          1           0        2.154980   -0.919412   -0.117148
     11          1           0        1.194757   -2.241597   -0.842628
     12          1           0        1.349122   -2.133880    0.920864
 ---------------------------------------------------------------------
                    Distance matrix (angstroms):
                    1          2          3          4          5
     1  C    0.000000
     2  C    1.508437   0.000000
     3  C    2.527348   1.338632   0.000000
     4  C    3.936240   2.524124   1.500976   0.000000
     5  H    1.096890   2.167309   3.387384   4.672712   0.000000
     6  H    1.098346   2.171662   2.764460   4.242609   1.770363
     7  H    1.099869   2.171763   3.038536   4.415846   1.764097
     8  H    2.230793   1.098882   2.094681   2.738020   2.444919
     9  H    2.744129   2.099870   1.100168   2.217132   3.746847
    10  H    4.189415   2.681569   2.165006   1.104041   4.725184
    11  H    4.564684   3.250329   2.164794   1.107420   5.405468
    12  H    4.581930   3.256116   2.166889   1.107232   5.283782
                    6          7          8          9         10
     6  H    0.000000
     7  H    1.766305   0.000000
     8  H    3.075846   2.828340   0.000000
     9  H    2.592715   3.134823   3.069667   0.000000
    10  H    4.702515   4.696985   2.428805   3.125938   0.000000
    11  H    4.881024   4.819987   3.513492   2.590573   1.787883
    12  H    4.683320   5.198942   3.514704   2.587989   1.789361
                   11         12
    11  H    0.000000
    12  H    1.773510   0.000000
 Stoichiometry    C4H8
 Framework group  C1[X(C4H8)]
 Deg. of freedom    30
 Full point group                 C1      NOp   1
 Largest Abelian subgroup         C1      NOp   1
 Largest concise Abelian subgroup C1      NOp   1
                         Standard orientation:                         
 ---------------------------------------------------------------------
 Center     Atomic      Atomic             Coordinates (Angstroms)
 Number     Number       Type             X           Y           Z
 ---------------------------------------------------------------------
      1          6           0        1.967843   -0.078346    0.005678
      2          6           0        0.537695    0.401015   -0.010900
      3          6           0       -0.539759   -0.393353   -0.008132
      4          6           0       -1.965367    0.076074    0.006402
      5          1           0        2.650267    0.672039   -0.411919
      6          1           0        2.096669   -1.001600   -0.575157
      7          1           0        2.315099   -0.291479    1.027294
      8          1           0        0.380108    1.488530   -0.015246
      9          1           0       -0.389321   -1.483140   -0.018253
     10          1           0       -2.028660    1.178291    0.010827
     11          1           0       -2.503169   -0.299176    0.898778
     12          1           0       -2.523469   -0.295810   -0.874612
 ---------------------------------------------------------------------
 Rotational constants (GHZ):          34.4701820           3.6878976           3.4761449
 Standard basis: def2SVPP (5D, 7F)
 There are    76 symmetry adapted cartesian basis functions of A   symmetry.
 There are    72 symmetry adapted basis functions of A   symmetry.
    72 basis functions,   132 primitive gaussians,    76 cartesian basis functions
    16 alpha electrons       16 beta electrons
       nuclear repulsion energy       115.1984873293 Hartrees.
 NAtoms=   12 NActive=   12 NUniq=   12 SFac= 1.00D+00 NAtFMM=   60 NAOKFM=F Big=F
 Integral buffers will be    131072 words long.
 Raffenetti 2 integral format.
 Two-electron integral symmetry is turned on.
 Nuclear repulsion after empirical dispersion term =      115.1862368329 Hartrees.
 One-electron integrals computed using PRISM.
   1 Symmetry operations used in ECPInt.
 ECPInt:  NShTT=     820 NPrTT=    3316 LenC2=     820 LenP2D=    2837.
 LDataN:  DoStor=T MaxTD1= 4 Len=   56
 NBasis=    72 RedAO= T EigKep=  2.20D-03  NBF=    72
 NBsUse=    72 1.00D-06 EigRej= -1.00D+00 NBFU=    72
 Initial guess from the checkpoint file:  "/home/software/g16tmp/Gau-91365.chk"
 B after Tr=    -0.000000   -0.000000    0.000000
         Rot=    0.999852    0.017166   -0.000885    0.000063 Ang=   1.97 deg.
 ExpMin= 1.22D-01 ExpMax= 1.24D+03 ExpMxC= 1.86D+02 IAcc=3 IRadAn=         7 AccDes= 0.00D+00
 Harris functional with IExCor=  402 and IRadAn=       7 diagonalized for initial guess.
 HarFok:  IExCor=  402 AccDes= 0.00D+00 IRadAn=         7 IDoV= 1 UseB2=F ITyADJ=14
 ICtDFT=  3500011 ScaDFX=  1.000000  1.000000  1.000000  1.000000
 FoFCou: FMM=F IPFlag=           0 FMFlag=      100000 FMFlg1=           0
         NFxFlg=           0 DoJE=T BraDBF=F KetDBF=T FulRan=T
         wScrn=  0.000000 ICntrl=       500 IOpCl=  0 I1Cent=   200000004 NGrid=           0
         NMat0=    1 NMatS0=      1 NMatT0=    0 NMatD0=    1 NMtDS0=    0 NMtDT0=    0
 Petite list used in FoFCou.
 Keep R1 ints in memory in canonical form, NReq=17947838.
 Requested convergence on RMS density matrix=1.00D-08 within 128 cycles.
 Requested convergence on MAX density matrix=1.00D-06.
 Requested convergence on             energy=1.00D-06.
 No special actions if energy rises.
 Integral accuracy reduced to 1.0D-05 until final iterations.
 Initial convergence to 1.0D-05 achieved.  Increase integral accuracy.
 SCF Done:  E(RB3LYP) =  -157.104745223     A.U. after   11 cycles
            NFock= 11  Conv=0.19D-08     -V/T= 2.0118
   1 Symmetry operations used in ECPInt.
 ECPInt:  NShTT=     820 NPrTT=    3316 LenC2=     820 LenP2D=    2837.
 LDataN:  DoStor=T MaxTD1= 5 Len=  102
 Calling FoFJK, ICntrl=      2127 FMM=F ISym2X=0 I1Cent= 0 IOpClX= 0 NMat=1 NMatS=1 NMatT=0.
 ***** Axes restored to original set *****
 -------------------------------------------------------------------
 Center     Atomic                   Forces (Hartrees/Bohr)
 Number     Number              X              Y              Z
 -------------------------------------------------------------------
      1        6           0.003417054   -0.002684806    0.001526510
      2        6          -0.001036412    0.000126835    0.000180988
      3        6           0.000293442   -0.000077074    0.000983173
      4        6           0.000004284    0.000031730   -0.000104727
      5        1           0.001271665    0.004166198    0.001783915
      6        1          -0.002957012   -0.002612509    0.002109134
      7        1          -0.001037060    0.000892801   -0.005085601
      8        1           0.000388178    0.000414641   -0.001522835
      9        1          -0.000451074   -0.000254427   -0.000009257
     10        1           0.000142356    0.000064071    0.000052246
     11        1          -0.000020105   -0.000057579   -0.000042666
     12        1          -0.000015316   -0.000009881    0.000129122
 -------------------------------------------------------------------
 Cartesian Forces:  Max     0.005085601 RMS     0.001635357

 GradGradGradGradGradGradGradGradGradGradGradGradGradGradGradGradGradGrad
 Berny optimization.
 Using GEDIIS/GDIIS optimizer.
 FormGI is forming the generalized inverse of G from B-inverse, IUseBI=4.
 Internal  Forces:  Max     0.005105091 RMS     0.001284478
 Search for a local minimum.
 Step number   3 out of a maximum of   55
 All quantities printed in internal units (Hartrees-Bohrs-Radians)
 Mixed Optimization -- RFO/linear search
 Update second derivatives using D2CorX and points    1    2    3
 DE= -5.58D-04 DEPred=-3.19D-04 R= 1.75D+00
 TightC=F SS=  1.41D+00  RLast= 3.86D-01 DXNew= 8.4853D-01 1.1592D+00
 Trust test= 1.75D+00 RLast= 3.86D-01 DXMaxT set to 8.49D-01
 ITU=  1  1  0
 Use linear search instead of GDIIS.
     Eigenvalues ---    0.00002   0.00754   0.01544   0.01630   0.02922
     Eigenvalues ---    0.06989   0.07052   0.07129   0.07196   0.15982
     Eigenvalues ---    0.16000   0.16000   0.16000   0.16000   0.16000
     Eigenvalues ---    0.16014   0.16364   0.21991   0.22002   0.31097
     Eigenvalues ---    0.31755   0.32062   0.32244   0.32839   0.32843
     Eigenvalues ---    0.33175   0.33398   0.33553   0.57317   4.34219
 RFO step:  Lambda=-1.42679840D-03 EMin= 1.98681915D-05
 Skip linear search -- no minimum in search direction.
 Iteration  1 RMS(Cart)=  0.09352518 RMS(Int)=  0.07363489
 Iteration  2 RMS(Cart)=  0.08461772 RMS(Int)=  0.00534151
 Iteration  3 RMS(Cart)=  0.00555433 RMS(Int)=  0.00001835
 Iteration  4 RMS(Cart)=  0.00002056 RMS(Int)=  0.00000700
 Iteration  5 RMS(Cart)=  0.00000000 RMS(Int)=  0.00000700
 Variable       Old X    -DE/DX   Delta X   Delta X   Delta X     New X
                                 (Linear)    (Quad)   (Total)
    R1        2.85053  -0.00070   0.00000  -0.01034  -0.01034   2.84019
    R2        2.07282   0.00468   0.00000  -0.02480  -0.02480   2.04802
    R3        2.07557   0.00433   0.00000  -0.02929  -0.02929   2.04628
    R4        2.07845   0.00511   0.00000  -0.03100  -0.03100   2.04745
    R5        2.52965   0.00037   0.00000  -0.00080  -0.00080   2.52884
    R6        2.07659   0.00069   0.00000  -0.00283  -0.00283   2.07375
    R7        2.83643   0.00007   0.00000  -0.00068  -0.00068   2.83575
    R8        2.07902   0.00051   0.00000  -0.00389  -0.00389   2.07512
    R9        2.08633   0.00015   0.00000  -0.00084  -0.00084   2.08549
   R10        2.09272   0.00007   0.00000  -0.00063  -0.00063   2.09209
   R11        2.09236   0.00011   0.00000  -0.00078  -0.00078   2.09159
    A1        1.94795  -0.00028   0.00000   0.00321   0.00321   1.95116
    A2        1.95252  -0.00059   0.00000   0.00256   0.00255   1.95507
    A3        1.95102  -0.00080   0.00000   0.00413   0.00412   1.95514
    A4        1.87627   0.00076   0.00000  -0.00351  -0.00351   1.87276
    A5        1.86478   0.00028   0.00000  -0.00499  -0.00500   1.85978
    A6        1.86636   0.00076   0.00000  -0.00219  -0.00220   1.86417
    A7        2.18281   0.00005   0.00000   0.00417   0.00416   2.18697
    A8        2.03813  -0.00026   0.00000  -0.00573  -0.00574   2.03239
    A9        2.06220   0.00021   0.00000   0.00147   0.00146   2.06365
   A10        2.18818  -0.00008   0.00000   0.00160   0.00160   2.18978
   A11        2.06887   0.00005   0.00000  -0.00193  -0.00193   2.06695
   A12        2.02613   0.00004   0.00000   0.00033   0.00033   2.02646
   A13        1.94628   0.00005   0.00000   0.00106   0.00105   1.94733
   A14        1.94237   0.00002   0.00000  -0.00532  -0.00532   1.93704
   A15        1.94550  -0.00011   0.00000   0.00533   0.00532   1.95082
   A16        1.88307   0.00002   0.00000  -0.00285  -0.00285   1.88021
   A17        1.88558  -0.00002   0.00000   0.00221   0.00219   1.88776
   A18        1.85728   0.00004   0.00000  -0.00054  -0.00054   1.85675
    D1        2.72513  -0.00047   0.00000  -0.39607  -0.39607   2.32906
    D2       -0.42781  -0.00056   0.00000  -0.40566  -0.40565  -0.83346
    D3        0.62197  -0.00084   0.00000  -0.39559  -0.39559   0.22638
    D4       -2.53097  -0.00093   0.00000  -0.40518  -0.40517  -2.93614
    D5       -1.47063  -0.00085   0.00000  -0.39741  -0.39742  -1.86805
    D6        1.65961  -0.00094   0.00000  -0.40700  -0.40700   1.25261
    D7        3.11631   0.00006   0.00000  -0.02562  -0.02563   3.09067
    D8       -0.02647   0.00004   0.00000  -0.02398  -0.02399  -0.05047
    D9       -0.01379   0.00015   0.00000  -0.01587  -0.01586  -0.02965
   D10        3.12662   0.00013   0.00000  -0.01423  -0.01422   3.11240
   D11        0.00385   0.00004   0.00000  -0.02675  -0.02675  -0.02291
   D12       -2.09982  -0.00004   0.00000  -0.02019  -0.02020  -2.12002
   D13        2.11289  -0.00003   0.00000  -0.01950  -0.01949   2.09340
   D14       -3.13658   0.00006   0.00000  -0.02836  -0.02836   3.11824
   D15        1.04293  -0.00002   0.00000  -0.02180  -0.02180   1.02113
   D16       -1.02754  -0.00000   0.00000  -0.02110  -0.02109  -1.04864
         Item               Value     Threshold  Converged?
 Maximum Force            0.005105     0.000450     NO 
 RMS     Force            0.001284     0.000300     NO 
 Maximum Displacement     0.531384     0.001800     NO 
 RMS     Displacement     0.177038     0.001200     NO 
 Predicted change in Energy=-1.407788D-03
 GradGradGradGradGradGradGradGradGradGradGradGradGradGradGradGradGradGrad

                          Input orientation:                          
 ---------------------------------------------------------------------
 Center     Atomic      Atomic             Coordinates (Angstroms)
 Number     Number       Type             X           Y           Z
 ---------------------------------------------------------------------
      1          6           0       -1.245366    1.522272   -0.028594
      2          6           0       -0.010184    0.666863   -0.067355
      3          6           0        0.017951   -0.659333    0.109304
      4          6           0        1.239604   -1.525144    0.010392
      5          1           0       -1.100987    2.410310    0.575637
      6          1           0       -2.095300    0.989744    0.379549
      7          1           0       -1.534096    1.863855   -1.015434
      8          1           0        0.935322    1.182915   -0.277021
      9          1           0       -0.921934   -1.175111    0.346855
     10          1           0        2.134418   -0.935697   -0.253765
     11          1           0        1.110195   -2.306508   -0.763145
     12          1           0        1.444279   -2.056374    0.959577
 ---------------------------------------------------------------------
                    Distance matrix (angstroms):
                    1          2          3          4          5
     1  C    0.000000
     2  C    1.502964   0.000000
     3  C    2.524754   1.338207   0.000000
     4  C    3.932345   2.524462   1.500615   0.000000
     5  H    1.083768   2.154738   3.300333   4.613639   0.000000
     6  H    1.082846   2.156777   2.694127   4.193152   1.745027
     7  H    1.083465   2.157302   3.168653   4.497892   1.737154
     8  H    2.220873   1.097384   2.093967   2.740215   2.525882
     9  H    2.742525   2.096598   1.098107   2.215395   3.597171
    10  H    4.185123   2.683704   2.165094   1.103594   4.727740
    11  H    4.554974   3.252739   2.160405   1.107085   5.378665
    12  H    4.584471   3.253624   2.170046   1.106819   5.155294
                    6          7          8          9         10
     6  H    0.000000
     7  H    1.739252   0.000000
     8  H    3.106939   2.665888   0.000000
     9  H    2.462611   3.386131   3.065764   0.000000
    10  H    4.690302   4.677139   2.434521   3.123996   0.000000
    11  H    4.737745   4.944477   3.527460   2.577151   1.785392
    12  H    4.705729   5.304675   3.504455   2.598272   1.790086
                   11         12
    11  H    0.000000
    12  H    1.772554   0.000000
 Stoichiometry    C4H8
 Framework group  C1[X(C4H8)]
 Deg. of freedom    30
 Full point group                 C1      NOp   1
 Largest Abelian subgroup         C1      NOp   1
 Largest concise Abelian subgroup C1      NOp   1
                         Standard orientation:                         
 ---------------------------------------------------------------------
 Center     Atomic      Atomic             Coordinates (Angstroms)
 Number     Number       Type             X           Y           Z
 ---------------------------------------------------------------------
      1          6           0        1.965109   -0.077940    0.012673
      2          6           0        0.539708    0.397480   -0.020606
      3          6           0       -0.539664   -0.393557   -0.017014
      4          6           0       -1.964166    0.077394    0.012066
      5          1           0        2.576841    0.432761   -0.721848
      6          1           0        2.043625   -1.139690   -0.185008
      7          1           0        2.429170    0.096552    0.976051
      8          1           0        0.387020    1.484153   -0.029506
      9          1           0       -0.390635   -1.481334   -0.036303
     10          1           0       -2.026774    1.178404    0.054211
     11          1           0       -2.496679   -0.324607    0.895503
     12          1           0       -2.528488   -0.266499   -0.875812
 ---------------------------------------------------------------------
 Rotational constants (GHZ):          34.7835168           3.6951969           3.4839525
 Standard basis: def2SVPP (5D, 7F)
 There are    76 symmetry adapted cartesian basis functions of A   symmetry.
 There are    72 symmetry adapted basis functions of A   symmetry.
    72 basis functions,   132 primitive gaussians,    76 cartesian basis functions
    16 alpha electrons       16 beta electrons
       nuclear repulsion energy       115.4752115560 Hartrees.
 NAtoms=   12 NActive=   12 NUniq=   12 SFac= 1.00D+00 NAtFMM=   60 NAOKFM=F Big=F
 Integral buffers will be    131072 words long.
 Raffenetti 2 integral format.
 Two-electron integral symmetry is turned on.
 Nuclear repulsion after empirical dispersion term =      115.4629514709 Hartrees.
 One-electron integrals computed using PRISM.
   1 Symmetry operations used in ECPInt.
 ECPInt:  NShTT=     820 NPrTT=    3316 LenC2=     820 LenP2D=    2836.
 LDataN:  DoStor=T MaxTD1= 4 Len=   56
 NBasis=    72 RedAO= T EigKep=  2.06D-03  NBF=    72
 NBsUse=    72 1.00D-06 EigRej= -1.00D+00 NBFU=    72
 Initial guess from the checkpoint file:  "/home/software/g16tmp/Gau-91365.chk"
 B after Tr=    -0.000000   -0.000000    0.000000
         Rot=    0.999080    0.042832   -0.002161    0.000274 Ang=   4.92 deg.
 ExpMin= 1.22D-01 ExpMax= 1.24D+03 ExpMxC= 1.86D+02 IAcc=3 IRadAn=         7 AccDes= 0.00D+00
 Harris functional with IExCor=  402 and IRadAn=       7 diagonalized for initial guess.
 HarFok:  IExCor=  402 AccDes= 0.00D+00 IRadAn=         7 IDoV= 1 UseB2=F ITyADJ=14
 ICtDFT=  3500011 ScaDFX=  1.000000  1.000000  1.000000  1.000000
 FoFCou: FMM=F IPFlag=           0 FMFlag=      100000 FMFlg1=           0
         NFxFlg=           0 DoJE=T BraDBF=F KetDBF=T FulRan=T
         wScrn=  0.000000 ICntrl=       500 IOpCl=  0 I1Cent=   200000004 NGrid=           0
         NMat0=    1 NMatS0=      1 NMatT0=    0 NMatD0=    1 NMtDS0=    0 NMtDT0=    0
 Petite list used in FoFCou.
 Keep R1 ints in memory in canonical form, NReq=17947838.
 Requested convergence on RMS density matrix=1.00D-08 within 128 cycles.
 Requested convergence on MAX density matrix=1.00D-06.
 Requested convergence on             energy=1.00D-06.
 No special actions if energy rises.
 Integral accuracy reduced to 1.0D-05 until final iterations.
 Initial convergence to 1.0D-05 achieved.  Increase integral accuracy.
 SCF Done:  E(RB3LYP) =  -157.105477134     A.U. after   12 cycles
            NFock= 12  Conv=0.89D-08     -V/T= 2.0114
   1 Symmetry operations used in ECPInt.
 ECPInt:  NShTT=     820 NPrTT=    3316 LenC2=     820 LenP2D=    2836.
 LDataN:  DoStor=T MaxTD1= 5 Len=  102
 Calling FoFJK, ICntrl=      2127 FMM=F ISym2X=0 I1Cent= 0 IOpClX= 0 NMat=1 NMatS=1 NMatT=0.
 ***** Axes restored to original set *****
 -------------------------------------------------------------------
 Center     Atomic                   Forces (Hartrees/Bohr)
 Number     Number              X              Y              Z
 -------------------------------------------------------------------
      1        6           0.010443505   -0.008650046    0.003282117
      2        6          -0.001804674   -0.000251277   -0.000879141
      3        6           0.000869025    0.000032630    0.001099153
      4        6           0.000067272   -0.000025157   -0.000213323
      5        1           0.003086387    0.012343182    0.008434148
      6        1          -0.010726117   -0.008939899    0.005483616
      7        1          -0.002099124    0.005274186   -0.015552687
      8        1           0.001346037    0.001092829   -0.001877589
      9        1          -0.001586761   -0.000939790   -0.000458125
     10        1           0.000442801    0.000288023    0.000336119
     11        1           0.000001108   -0.000228071   -0.000115187
     12        1          -0.000039459    0.000003389    0.000460898
 -------------------------------------------------------------------
 Cartesian Forces:  Max     0.015552687 RMS     0.005120085

 GradGradGradGradGradGradGradGradGradGradGradGradGradGradGradGradGradGrad
 Berny optimization.
 Using GEDIIS/GDIIS optimizer.
 FormGI is forming the generalized inverse of G from B-inverse, IUseBI=4.
 Internal  Forces:  Max     0.016387840 RMS     0.004094582
 Search for a local minimum.
 Step number   4 out of a maximum of   55
 All quantities printed in internal units (Hartrees-Bohrs-Radians)
 Mixed Optimization -- RFO/linear search
 Update second derivatives using D2CorX and points    3    4
 DE= -7.32D-04 DEPred=-1.41D-03 R= 5.20D-01
 TightC=F SS=  1.41D+00  RLast= 9.87D-01 DXNew= 1.4270D+00 2.9598D+00
 Trust test= 5.20D-01 RLast= 9.87D-01 DXMaxT set to 1.43D+00
 ITU=  1  1  1  0
 Use linear search instead of GDIIS.
     Eigenvalues ---    0.00170   0.00754   0.01532   0.01629   0.02969
     Eigenvalues ---    0.06916   0.06955   0.07097   0.07219   0.15666
     Eigenvalues ---    0.15999   0.16000   0.16000   0.16000   0.16007
     Eigenvalues ---    0.16010   0.16209   0.21928   0.22002   0.29903
     Eigenvalues ---    0.31778   0.32027   0.32243   0.32839   0.32843
     Eigenvalues ---    0.33175   0.33398   0.33547   0.57316   2.65840
 RFO step:  Lambda=-2.87573873D-04 EMin= 1.70430873D-03
 Quartic linear search produced a step of -0.13252.
 Iteration  1 RMS(Cart)=  0.00974200 RMS(Int)=  0.00004629
 Iteration  2 RMS(Cart)=  0.00005953 RMS(Int)=  0.00000311
 Iteration  3 RMS(Cart)=  0.00000000 RMS(Int)=  0.00000311
 Variable       Old X    -DE/DX   Delta X   Delta X   Delta X     New X
                                 (Linear)    (Quad)   (Total)
    R1        2.84019  -0.00052   0.00137  -0.00490  -0.00353   2.83666
    R2        2.04802   0.01523   0.00329   0.00388   0.00716   2.05519
    R3        2.04628   0.01488   0.00388   0.00189   0.00577   2.05206
    R4        2.04745   0.01639   0.00411   0.00041   0.00452   2.05197
    R5        2.52884   0.00100   0.00011   0.00022   0.00033   2.52917
    R6        2.07375   0.00203   0.00038   0.00062   0.00100   2.07475
    R7        2.83575   0.00033   0.00009  -0.00012  -0.00003   2.83572
    R8        2.07512   0.00170   0.00052  -0.00010   0.00042   2.07554
    R9        2.08549   0.00043   0.00011   0.00005   0.00017   2.08566
   R10        2.09209   0.00024   0.00008  -0.00017  -0.00008   2.09200
   R11        2.09159   0.00039   0.00010   0.00007   0.00017   2.09176
    A1        1.95116  -0.00063  -0.00043  -0.00003  -0.00046   1.95070
    A2        1.95507  -0.00163  -0.00034  -0.00147  -0.00180   1.95326
    A3        1.95514  -0.00227  -0.00055  -0.00261  -0.00316   1.95199
    A4        1.87276   0.00170   0.00047  -0.00036   0.00011   1.87286
    A5        1.85978   0.00097   0.00066   0.00058   0.00124   1.86102
    A6        1.86417   0.00225   0.00029   0.00423   0.00452   1.86869
    A7        2.18697  -0.00005  -0.00055   0.00187   0.00131   2.18828
    A8        2.03239  -0.00039   0.00076  -0.00301  -0.00226   2.03012
    A9        2.06365   0.00044  -0.00019   0.00127   0.00107   2.06472
   A10        2.18978  -0.00029  -0.00021   0.00030   0.00009   2.18987
   A11        2.06695   0.00018   0.00026  -0.00049  -0.00023   2.06672
   A12        2.02646   0.00011  -0.00004   0.00018   0.00014   2.02660
   A13        1.94733   0.00006  -0.00014   0.00065   0.00051   1.94784
   A14        1.93704   0.00025   0.00071  -0.00300  -0.00229   1.93475
   A15        1.95082  -0.00046  -0.00071   0.00261   0.00190   1.95272
   A16        1.88021   0.00014   0.00038  -0.00071  -0.00033   1.87988
   A17        1.88776  -0.00009  -0.00029   0.00046   0.00017   1.88793
   A18        1.85675   0.00010   0.00007  -0.00008  -0.00001   1.85673
    D1        2.32906  -0.00008   0.05249  -0.04770   0.00480   2.33385
    D2       -0.83346   0.00012   0.05376  -0.04046   0.01329  -0.82017
    D3        0.22638  -0.00068   0.05242  -0.04619   0.00624   0.23262
    D4       -2.93614  -0.00048   0.05369  -0.03895   0.01474  -2.92141
    D5       -1.86805  -0.00084   0.05267  -0.04878   0.00389  -1.86415
    D6        1.25261  -0.00064   0.05394  -0.04154   0.01239   1.26500
    D7        3.09067   0.00109   0.00340   0.01386   0.01726   3.10793
    D8       -0.05047   0.00103   0.00318   0.01621   0.01939  -0.03107
    D9       -0.02965   0.00090   0.00210   0.00655   0.00865  -0.02100
   D10        3.11240   0.00084   0.00188   0.00890   0.01078   3.12318
   D11       -0.02291   0.00032   0.00355  -0.00533  -0.00178  -0.02469
   D12       -2.12002  -0.00007   0.00268  -0.00283  -0.00015  -2.12017
   D13        2.09340  -0.00007   0.00258  -0.00244   0.00015   2.09355
   D14        3.11824   0.00037   0.00376  -0.00763  -0.00387   3.11437
   D15        1.02113  -0.00002   0.00289  -0.00513  -0.00224   1.01889
   D16       -1.04864  -0.00002   0.00280  -0.00474  -0.00194  -1.05058
         Item               Value     Threshold  Converged?
 Maximum Force            0.016388     0.000450     NO 
 RMS     Force            0.004095     0.000300     NO 
 Maximum Displacement     0.032765     0.001800     NO 
 RMS     Displacement     0.009748     0.001200     NO 
 Predicted change in Energy=-1.659004D-04
 GradGradGradGradGradGradGradGradGradGradGradGradGradGradGradGradGradGrad

                          Input orientation:                          
 ---------------------------------------------------------------------
 Center     Atomic      Atomic             Coordinates (Angstroms)
 Number     Number       Type             X           Y           Z
 ---------------------------------------------------------------------
      1          6           0       -1.244555    1.522172   -0.026050
      2          6           0       -0.012772    0.665635   -0.074540
      3          6           0        0.016219   -0.660707    0.102212
      4          6           0        1.240159   -1.524398    0.013875
      5          1           0       -1.091152    2.415551    0.574886
      6          1           0       -2.091720    0.990191    0.396428
      7          1           0       -1.541012    1.859761   -1.014602
      8          1           0        0.932307    1.183574   -0.284246
      9          1           0       -0.925419   -1.178372    0.329516
     10          1           0        2.136294   -0.934087   -0.244173
     11          1           0        1.116471   -2.305071   -0.761232
     12          1           0        1.439082   -2.056456    0.963926
 ---------------------------------------------------------------------
                    Distance matrix (angstroms):
                    1          2          3          4          5
     1  C    0.000000
     2  C    1.501098   0.000000
     3  C    2.524076   1.338381   0.000000
     4  C    3.931536   2.524658   1.500598   0.000000
     5  H    1.087558   2.155658   3.303491   4.612259   0.000000
     6  H    1.085901   2.156194   2.693591   4.191768   1.750610
     7  H    1.085858   2.155265   3.166228   4.499467   1.742914
     8  H    2.218117   1.097912   2.095218   2.741670   2.519973
     9  H    2.742483   2.096795   1.098330   2.215647   3.606100
    10  H    4.184605   2.684468   2.165511   1.103682   4.723064
    11  H    4.556613   3.251435   2.158709   1.107041   5.379877
    12  H    4.581325   3.255161   2.171453   1.106912   5.152891
                    6          7          8          9         10
     6  H    0.000000
     7  H    1.746550   0.000000
     8  H    3.105714   2.666075   0.000000
     9  H    2.463210   3.378737   3.067025   0.000000
    10  H    4.689277   4.682064   2.436324   3.124561   0.000000
    11  H    4.742512   4.946942   3.525914   2.574587   1.785213
    12  H    4.697944   5.303988   3.508924   2.600841   1.790341
                   11         12
    11  H    0.000000
    12  H    1.772585   0.000000
 Stoichiometry    C4H8
 Framework group  C1[X(C4H8)]
 Deg. of freedom    30
 Full point group                 C1      NOp   1
 Largest Abelian subgroup         C1      NOp   1
 Largest concise Abelian subgroup C1      NOp   1
                         Standard orientation:                         
 ---------------------------------------------------------------------
 Center     Atomic      Atomic             Coordinates (Angstroms)
 Number     Number       Type             X           Y           Z
 ---------------------------------------------------------------------
      1          6           0        1.964429   -0.077911    0.008423
      2          6           0        0.540413    0.396418   -0.013644
      3          6           0       -0.539709   -0.393896   -0.011731
      4          6           0       -1.964010    0.078116    0.007373
      5          1           0        2.575090    0.445010   -0.723991
      6          1           0        2.041289   -1.139680   -0.205869
      7          1           0        2.430063    0.086567    0.975490
      8          1           0        0.389652    1.483908   -0.020561
      9          1           0       -0.391114   -1.482073   -0.022603
     10          1           0       -2.026664    1.179363    0.045377
     11          1           0       -2.499387   -0.320320    0.890640
     12          1           0       -2.525658   -0.269130   -0.881010
 ---------------------------------------------------------------------
 Rotational constants (GHZ):          34.7654397           3.6963101           3.4848438
 Standard basis: def2SVPP (5D, 7F)
 There are    76 symmetry adapted cartesian basis functions of A   symmetry.
 There are    72 symmetry adapted basis functions of A   symmetry.
    72 basis functions,   132 primitive gaussians,    76 cartesian basis functions
    16 alpha electrons       16 beta electrons
       nuclear repulsion energy       115.4625997307 Hartrees.
 NAtoms=   12 NActive=   12 NUniq=   12 SFac= 1.00D+00 NAtFMM=   60 NAOKFM=F Big=F
 Integral buffers will be    131072 words long.
 Raffenetti 2 integral format.
 Two-electron integral symmetry is turned on.
 Nuclear repulsion after empirical dispersion term =      115.4503394699 Hartrees.
 One-electron integrals computed using PRISM.
   1 Symmetry operations used in ECPInt.
 ECPInt:  NShTT=     820 NPrTT=    3316 LenC2=     820 LenP2D=    2836.
 LDataN:  DoStor=T MaxTD1= 4 Len=   56
 NBasis=    72 RedAO= T EigKep=  2.06D-03  NBF=    72
 NBsUse=    72 1.00D-06 EigRej= -1.00D+00 NBFU=    72
 Initial guess from the checkpoint file:  "/home/software/g16tmp/Gau-91365.chk"
 B after Tr=    -0.000000    0.000000   -0.000000
         Rot=    1.000000   -0.000976    0.000028    0.000097 Ang=  -0.11 deg.
 ExpMin= 1.22D-01 ExpMax= 1.24D+03 ExpMxC= 1.86D+02 IAcc=3 IRadAn=         7 AccDes= 0.00D+00
 Harris functional with IExCor=  402 and IRadAn=       7 diagonalized for initial guess.
 HarFok:  IExCor=  402 AccDes= 0.00D+00 IRadAn=         7 IDoV= 1 UseB2=F ITyADJ=14
 ICtDFT=  3500011 ScaDFX=  1.000000  1.000000  1.000000  1.000000
 FoFCou: FMM=F IPFlag=           0 FMFlag=      100000 FMFlg1=           0
         NFxFlg=           0 DoJE=T BraDBF=F KetDBF=T FulRan=T
         wScrn=  0.000000 ICntrl=       500 IOpCl=  0 I1Cent=   200000004 NGrid=           0
         NMat0=    1 NMatS0=      1 NMatT0=    0 NMatD0=    1 NMtDS0=    0 NMtDT0=    0
 Petite list used in FoFCou.
 Keep R1 ints in memory in canonical form, NReq=17947838.
 Requested convergence on RMS density matrix=1.00D-08 within 128 cycles.
 Requested convergence on MAX density matrix=1.00D-06.
 Requested convergence on             energy=1.00D-06.
 No special actions if energy rises.
 Integral accuracy reduced to 1.0D-05 until final iterations.
 Initial convergence to 1.0D-05 achieved.  Increase integral accuracy.
 SCF Done:  E(RB3LYP) =  -157.105760586     A.U. after    9 cycles
            NFock=  9  Conv=0.73D-08     -V/T= 2.0114
   1 Symmetry operations used in ECPInt.
 ECPInt:  NShTT=     820 NPrTT=    3316 LenC2=     820 LenP2D=    2836.
 LDataN:  DoStor=T MaxTD1= 5 Len=  102
 Calling FoFJK, ICntrl=      2127 FMM=F ISym2X=0 I1Cent= 0 IOpClX= 0 NMat=1 NMatS=1 NMatT=0.
 ***** Axes restored to original set *****
 -------------------------------------------------------------------
 Center     Atomic                   Forces (Hartrees/Bohr)
 Number     Number              X              Y              Z
 -------------------------------------------------------------------
      1        6           0.008201208   -0.007045341    0.003352909
      2        6          -0.000425218   -0.000536392   -0.000168551
      3        6           0.000829266    0.000276197    0.001081503
      4        6          -0.000054326   -0.000174457   -0.000990805
      5        1           0.002778974    0.010148152    0.006809723
      6        1          -0.009240161   -0.007579631    0.004505741
      7        1          -0.002324181    0.004899461   -0.013801474
      8        1           0.001241646    0.000741193   -0.001577275
      9        1          -0.001364812   -0.000806859    0.000027236
     10        1           0.000371687    0.000302333    0.000402412
     11        1           0.000199493   -0.000407439   -0.000102028
     12        1          -0.000213576    0.000182783    0.000460609
 -------------------------------------------------------------------
 Cartesian Forces:  Max     0.013801474 RMS     0.004345102

 GradGradGradGradGradGradGradGradGradGradGradGradGradGradGradGradGradGrad
 Berny optimization.
 Using GEDIIS/GDIIS optimizer.
 FormGI is forming the generalized inverse of G from B-inverse, IUseBI=4.
 Internal  Forces:  Max     0.014722451 RMS     0.003511551
 Search for a local minimum.
 Step number   5 out of a maximum of   55
 All quantities printed in internal units (Hartrees-Bohrs-Radians)
 Mixed Optimization -- RFO/linear search
 Update second derivatives using D2CorX and points    4    5
 DE= -2.83D-04 DEPred=-1.66D-04 R= 1.71D+00
 TightC=F SS=  1.41D+00  RLast= 4.11D-02 DXNew= 2.4000D+00 1.2325D-01
 Trust test= 1.71D+00 RLast= 4.11D-02 DXMaxT set to 1.43D+00
 ITU=  1  1  1  1  0
 Use linear search instead of GDIIS.
     Eigenvalues ---    0.00190   0.00753   0.01571   0.01628   0.03237
     Eigenvalues ---    0.06890   0.06942   0.07181   0.07312   0.15711
     Eigenvalues ---    0.15995   0.16000   0.16000   0.16000   0.16009
     Eigenvalues ---    0.16112   0.16853   0.21766   0.22002   0.30545
     Eigenvalues ---    0.31966   0.32237   0.32428   0.32841   0.32976
     Eigenvalues ---    0.33175   0.33409   0.33565   0.53218   0.57478
 RFO step:  Lambda=-1.25284038D-03 EMin= 1.89571506D-03
 Quartic linear search produced a step of  2.00000.
 Iteration  1 RMS(Cart)=  0.06827937 RMS(Int)=  0.00343840
 Iteration  2 RMS(Cart)=  0.00366070 RMS(Int)=  0.00001623
 Iteration  3 RMS(Cart)=  0.00000862 RMS(Int)=  0.00001469
 Iteration  4 RMS(Cart)=  0.00000000 RMS(Int)=  0.00001469
 Variable       Old X    -DE/DX   Delta X   Delta X   Delta X     New X
                                 (Linear)    (Quad)   (Total)
    R1        2.83666   0.00075  -0.00705  -0.00581  -0.01286   2.82380
    R2        2.05519   0.01249   0.01433   0.01052   0.02484   2.08003
    R3        2.05206   0.01267   0.01155   0.00799   0.01954   2.07159
    R4        2.05197   0.01472   0.00904   0.00930   0.01834   2.07032
    R5        2.52917   0.00073   0.00066   0.00015   0.00081   2.52998
    R6        2.07475   0.00172   0.00200   0.00220   0.00420   2.07895
    R7        2.83572   0.00032  -0.00007  -0.00007  -0.00013   2.83559
    R8        2.07554   0.00156   0.00084   0.00066   0.00150   2.07705
    R9        2.08566   0.00037   0.00033   0.00019   0.00052   2.08618
   R10        2.09200   0.00034  -0.00016   0.00062   0.00046   2.09246
   R11        2.09176   0.00027   0.00035  -0.00028   0.00007   2.09183
    A1        1.95070  -0.00079  -0.00091  -0.00442  -0.00537   1.94533
    A2        1.95326  -0.00123  -0.00361  -0.00166  -0.00528   1.94798
    A3        1.95199  -0.00149  -0.00631  -0.00113  -0.00746   1.94453
    A4        1.87286   0.00156   0.00022   0.00103   0.00122   1.87408
    A5        1.86102   0.00065   0.00247  -0.00205   0.00038   1.86139
    A6        1.86869   0.00158   0.00905   0.00879   0.01785   1.88654
    A7        2.18828  -0.00019   0.00262   0.00467   0.00727   2.19554
    A8        2.03012  -0.00003  -0.00452  -0.00566  -0.01020   2.01992
    A9        2.06472   0.00022   0.00213   0.00085   0.00296   2.06768
   A10        2.18987  -0.00028   0.00018   0.00065   0.00082   2.19069
   A11        2.06672   0.00018  -0.00046  -0.00136  -0.00183   2.06489
   A12        2.02660   0.00010   0.00027   0.00072   0.00099   2.02758
   A13        1.94784  -0.00002   0.00103   0.00065   0.00167   1.94951
   A14        1.93475   0.00072  -0.00459   0.00133  -0.00326   1.93149
   A15        1.95272  -0.00086   0.00381  -0.00170   0.00211   1.95483
   A16        1.87988   0.00008  -0.00066   0.00050  -0.00016   1.87972
   A17        1.88793   0.00002   0.00034  -0.00090  -0.00057   1.88736
   A18        1.85673   0.00009  -0.00003   0.00013   0.00011   1.85684
    D1        2.33385  -0.00004   0.00959  -0.17399  -0.16440   2.16946
    D2       -0.82017  -0.00003   0.02658  -0.18792  -0.16136  -0.98154
    D3        0.23262  -0.00064   0.01248  -0.17107  -0.15859   0.07403
    D4       -2.92141  -0.00063   0.02947  -0.18500  -0.15555  -3.07696
    D5       -1.86415  -0.00077   0.00779  -0.18041  -0.17259  -2.03675
    D6        1.26500  -0.00076   0.02478  -0.19434  -0.16956   1.09545
    D7        3.10793   0.00051   0.03452  -0.01269   0.02185   3.12978
    D8       -0.03107   0.00044   0.03878  -0.01191   0.02688  -0.00419
    D9       -0.02100   0.00049   0.01730   0.00154   0.01882  -0.00218
   D10        3.12318   0.00043   0.02156   0.00231   0.02385  -3.13616
   D11       -0.02469   0.00043  -0.00356  -0.00496  -0.00852  -0.03321
   D12       -2.12017  -0.00014  -0.00030  -0.00692  -0.00722  -2.12740
   D13        2.09355  -0.00016   0.00029  -0.00686  -0.00657   2.08698
   D14        3.11437   0.00050  -0.00774  -0.00572  -0.01346   3.10091
   D15        1.01889  -0.00007  -0.00448  -0.00768  -0.01216   1.00672
   D16       -1.05058  -0.00010  -0.00388  -0.00762  -0.01151  -1.06209
         Item               Value     Threshold  Converged?
 Maximum Force            0.014722     0.000450     NO 
 RMS     Force            0.003512     0.000300     NO 
 Maximum Displacement     0.205729     0.001800     NO 
 RMS     Displacement     0.068525     0.001200     NO 
 Predicted change in Energy=-6.799263D-04
 GradGradGradGradGradGradGradGradGradGradGradGradGradGradGradGradGradGrad

                          Input orientation:                          
 ---------------------------------------------------------------------
 Center     Atomic      Atomic             Coordinates (Angstroms)
 Number     Number       Type             X           Y           Z
 ---------------------------------------------------------------------
      1          6           0       -1.243831    1.519843   -0.028409
      2          6           0       -0.024384    0.659334   -0.101781
      3          6           0        0.015997   -0.661540    0.112856
      4          6           0        1.241943   -1.522153    0.023487
      5          1           0       -1.107332    2.352245    0.678716
      6          1           0       -2.120554    0.950414    0.301510
      7          1           0       -1.475766    1.968628   -1.000550
      8          1           0        0.910112    1.176636   -0.365243
      9          1           0       -0.920108   -1.176558    0.370810
     10          1           0        2.128941   -0.938833   -0.279331
     11          1           0        1.099449   -2.329171   -0.721156
     12          1           0        1.469437   -2.021055    0.985089
 ---------------------------------------------------------------------
                    Distance matrix (angstroms):
                    1          2          3          4          5
     1  C    0.000000
     2  C    1.494292   0.000000
     3  C    2.523005   1.338809   0.000000
     4  C    3.928804   2.525502   1.500528   0.000000
     5  H    1.100705   2.155899   3.265726   4.578141   0.000000
     6  H    1.096239   2.154368   2.683065   4.182974   1.770320
     7  H    1.095564   2.151405   3.222238   4.540941   1.761488
     8  H    2.206970   1.100134   2.099264   2.746759   2.557731
     9  H    2.744950   2.096703   1.099125   2.216874   3.547155
    10  H    4.181344   2.687465   2.166848   1.103959   4.714076
    11  H    4.559141   3.252352   2.156488   1.107283   5.361454
    12  H    4.574600   3.255346   2.172915   1.106949   5.085210
                    6          7          8          9         10
     6  H    0.000000
     7  H    1.774225   0.000000
     8  H    3.111378   2.592929   0.000000
     9  H    2.443335   3.475857   3.070667   0.000000
    10  H    4.686666   4.686939   2.442976   3.126642   0.000000
    11  H    4.708497   5.018055   3.528910   2.568952   1.785526
    12  H    4.710090   5.341775   3.515888   2.607765   1.790226
                   11         12
    11  H    0.000000
    12  H    1.772879   0.000000
 Stoichiometry    C4H8
 Framework group  C1[X(C4H8)]
 Deg. of freedom    30
 Full point group                 C1      NOp   1
 Largest Abelian subgroup         C1      NOp   1
 Largest concise Abelian subgroup C1      NOp   1
                         Standard orientation:                         
 ---------------------------------------------------------------------
 Center     Atomic      Atomic             Coordinates (Angstroms)
 Number     Number       Type             X           Y           Z
 ---------------------------------------------------------------------
      1          6           0        1.962158   -0.077581    0.003738
      2          6           0        0.543093    0.390479   -0.005435
      3          6           0       -0.540725   -0.395488   -0.004348
      4          6           0       -1.963425    0.081465    0.000828
      5          1           0        2.528904    0.338518   -0.843145
      6          1           0        2.027498   -1.169795   -0.063647
      7          1           0        2.481787    0.238740    0.914884
      8          1           0        0.399889    1.481253   -0.004431
      9          1           0       -0.394606   -1.484849   -0.000093
     10          1           0       -2.024459    1.183116    0.037792
     11          1           0       -2.505455   -0.315457    0.881016
     12          1           0       -2.520166   -0.264774   -0.891077
 ---------------------------------------------------------------------
 Rotational constants (GHZ):          34.6849744           3.6987930           3.4876222
 Standard basis: def2SVPP (5D, 7F)
 There are    76 symmetry adapted cartesian basis functions of A   symmetry.
 There are    72 symmetry adapted basis functions of A   symmetry.
    72 basis functions,   132 primitive gaussians,    76 cartesian basis functions
    16 alpha electrons       16 beta electrons
       nuclear repulsion energy       115.4140338152 Hartrees.
 NAtoms=   12 NActive=   12 NUniq=   12 SFac= 1.00D+00 NAtFMM=   60 NAOKFM=F Big=F
 Integral buffers will be    131072 words long.
 Raffenetti 2 integral format.
 Two-electron integral symmetry is turned on.
 Nuclear repulsion after empirical dispersion term =      115.4017763595 Hartrees.
 One-electron integrals computed using PRISM.
   1 Symmetry operations used in ECPInt.
 ECPInt:  NShTT=     820 NPrTT=    3316 LenC2=     820 LenP2D=    2836.
 LDataN:  DoStor=T MaxTD1= 4 Len=   56
 NBasis=    72 RedAO= T EigKep=  2.02D-03  NBF=    72
 NBsUse=    72 1.00D-06 EigRej= -1.00D+00 NBFU=    72
 Initial guess from the checkpoint file:  "/home/software/g16tmp/Gau-91365.chk"
 B after Tr=    -0.000000   -0.000000    0.000000
         Rot=    0.999827    0.018596   -0.000885    0.000428 Ang=   2.13 deg.
 ExpMin= 1.22D-01 ExpMax= 1.24D+03 ExpMxC= 1.86D+02 IAcc=3 IRadAn=         7 AccDes= 0.00D+00
 Harris functional with IExCor=  402 and IRadAn=       7 diagonalized for initial guess.
 HarFok:  IExCor=  402 AccDes= 0.00D+00 IRadAn=         7 IDoV= 1 UseB2=F ITyADJ=14
 ICtDFT=  3500011 ScaDFX=  1.000000  1.000000  1.000000  1.000000
 FoFCou: FMM=F IPFlag=           0 FMFlag=      100000 FMFlg1=           0
         NFxFlg=           0 DoJE=T BraDBF=F KetDBF=T FulRan=T
         wScrn=  0.000000 ICntrl=       500 IOpCl=  0 I1Cent=   200000004 NGrid=           0
         NMat0=    1 NMatS0=      1 NMatT0=    0 NMatD0=    1 NMtDS0=    0 NMtDT0=    0
 Petite list used in FoFCou.
 Keep R1 ints in memory in canonical form, NReq=17947838.
 Requested convergence on RMS density matrix=1.00D-08 within 128 cycles.
 Requested convergence on MAX density matrix=1.00D-06.
 Requested convergence on             energy=1.00D-06.
 No special actions if energy rises.
 Integral accuracy reduced to 1.0D-05 until final iterations.
 Initial convergence to 1.0D-05 achieved.  Increase integral accuracy.
 SCF Done:  E(RB3LYP) =  -157.106670027     A.U. after   11 cycles
            NFock= 11  Conv=0.46D-08     -V/T= 2.0117
   1 Symmetry operations used in ECPInt.
 ECPInt:  NShTT=     820 NPrTT=    3316 LenC2=     820 LenP2D=    2836.
 LDataN:  DoStor=T MaxTD1= 5 Len=  102
 Calling FoFJK, ICntrl=      2127 FMM=F ISym2X=0 I1Cent= 0 IOpClX= 0 NMat=1 NMatS=1 NMatT=0.
 ***** Axes restored to original set *****
 -------------------------------------------------------------------
 Center     Atomic                   Forces (Hartrees/Bohr)
 Number     Number              X              Y              Z
 -------------------------------------------------------------------
      1        6           0.000889248   -0.001923970    0.004150645
      2        6           0.003810113   -0.001357376   -0.000795222
      3        6           0.000250072    0.000799784    0.000719428
      4        6          -0.000202199   -0.000528809   -0.001962022
      5        1           0.001087886    0.003436567    0.002373551
      6        1          -0.004497248   -0.003125184    0.000798087
      7        1          -0.001598970    0.003383525   -0.006769077
      8        1           0.000780648   -0.000372876   -0.000166652
      9        1          -0.000749201   -0.000532078    0.000597960
     10        1           0.000147830    0.000350797    0.000485426
     11        1           0.000484447   -0.000467996    0.000064153
     12        1          -0.000402627    0.000337616    0.000503723
 -------------------------------------------------------------------
 Cartesian Forces:  Max     0.006769077 RMS     0.002085198

 GradGradGradGradGradGradGradGradGradGradGradGradGradGradGradGradGradGrad
 Berny optimization.
 Using GEDIIS/GDIIS optimizer.
 FormGI is forming the generalized inverse of G from B-inverse, IUseBI=4.
 Internal  Forces:  Max     0.007731051 RMS     0.001747246
 Search for a local minimum.
 Step number   6 out of a maximum of   55
 All quantities printed in internal units (Hartrees-Bohrs-Radians)
 Mixed Optimization -- RFO/linear search
 Update second derivatives using D2CorX and points    4    5    6
 DE= -9.09D-04 DEPred=-6.80D-04 R= 1.34D+00
 TightC=F SS=  1.41D+00  RLast= 4.07D-01 DXNew= 2.4000D+00 1.2217D+00
 Trust test= 1.34D+00 RLast= 4.07D-01 DXMaxT set to 1.43D+00
 ITU=  1  1  1  1  1  0
 Use linear search instead of GDIIS.
     Eigenvalues ---    0.00187   0.00753   0.01578   0.01630   0.03380
     Eigenvalues ---    0.06934   0.07017   0.07195   0.07349   0.15905
     Eigenvalues ---    0.15983   0.16000   0.16000   0.16001   0.16010
     Eigenvalues ---    0.16047   0.17425   0.21981   0.22056   0.30287
     Eigenvalues ---    0.31783   0.32187   0.32348   0.32840   0.32856
     Eigenvalues ---    0.33175   0.33382   0.33595   0.37043   0.57410
 RFO step:  Lambda=-3.23587601D-04 EMin= 1.86645912D-03
 Quartic linear search produced a step of  0.41018.
 Iteration  1 RMS(Cart)=  0.01390060 RMS(Int)=  0.00011097
 Iteration  2 RMS(Cart)=  0.00015456 RMS(Int)=  0.00001756
 Iteration  3 RMS(Cart)=  0.00000002 RMS(Int)=  0.00001756
 Variable       Old X    -DE/DX   Delta X   Delta X   Delta X     New X
                                 (Linear)    (Quad)   (Total)
    R1        2.82380   0.00441  -0.00528   0.01844   0.01316   2.83697
    R2        2.08003   0.00426   0.01019   0.00531   0.01550   2.09553
    R3        2.07159   0.00546   0.00801   0.01028   0.01830   2.08989
    R4        2.07032   0.00773   0.00752   0.01627   0.02380   2.09411
    R5        2.52998   0.00009   0.00033  -0.00024   0.00009   2.53007
    R6        2.07895   0.00053   0.00172   0.00049   0.00222   2.08117
    R7        2.83559   0.00025  -0.00005   0.00065   0.00059   2.83618
    R8        2.07705   0.00103   0.00062   0.00264   0.00325   2.08030
    R9        2.08618   0.00017   0.00021   0.00032   0.00054   2.08672
   R10        2.09246   0.00024   0.00019   0.00061   0.00079   2.09326
   R11        2.09183   0.00020   0.00003   0.00056   0.00059   2.09242
    A1        1.94533  -0.00045  -0.00220  -0.00143  -0.00365   1.94168
    A2        1.94798   0.00006  -0.00217   0.00410   0.00194   1.94992
    A3        1.94453   0.00002  -0.00306   0.00213  -0.00094   1.94358
    A4        1.87408   0.00076   0.00050   0.00407   0.00456   1.87864
    A5        1.86139  -0.00014   0.00015  -0.00325  -0.00313   1.85826
    A6        1.88654  -0.00023   0.00732  -0.00602   0.00131   1.88784
    A7        2.19554  -0.00097   0.00298  -0.00519  -0.00224   2.19330
    A8        2.01992   0.00121  -0.00418   0.00912   0.00490   2.02483
    A9        2.06768  -0.00024   0.00122  -0.00383  -0.00264   2.06504
   A10        2.19069  -0.00033   0.00034  -0.00150  -0.00117   2.18952
   A11        2.06489   0.00029  -0.00075   0.00174   0.00098   2.06587
   A12        2.02758   0.00004   0.00040  -0.00018   0.00021   2.02780
   A13        1.94951  -0.00026   0.00069  -0.00248  -0.00184   1.94767
   A14        1.93149   0.00132  -0.00134   0.01155   0.01022   1.94171
   A15        1.95483  -0.00129   0.00086  -0.01059  -0.00974   1.94509
   A16        1.87972   0.00003  -0.00007   0.00403   0.00394   1.88366
   A17        1.88736   0.00020  -0.00023  -0.00276  -0.00304   1.88432
   A18        1.85684   0.00003   0.00004   0.00066   0.00073   1.85757
    D1        2.16946   0.00017  -0.06743   0.04589  -0.02155   2.14790
    D2       -0.98154   0.00027  -0.06619   0.05878  -0.00740  -0.98894
    D3        0.07403  -0.00052  -0.06505   0.03888  -0.02618   0.04785
    D4       -3.07696  -0.00043  -0.06380   0.05177  -0.01203  -3.08899
    D5       -2.03675  -0.00029  -0.07079   0.04225  -0.02854  -2.06529
    D6        1.09545  -0.00019  -0.06955   0.05513  -0.01439   1.08105
    D7        3.12978   0.00007   0.00896   0.00934   0.01829  -3.13511
    D8       -0.00419  -0.00006   0.01103   0.00085   0.01186   0.00767
    D9       -0.00218  -0.00003   0.00772  -0.00392   0.00381   0.00163
   D10       -3.13616  -0.00017   0.00978  -0.01241  -0.00262  -3.13877
   D11       -0.03321   0.00055  -0.00350   0.01395   0.01044  -0.02277
   D12       -2.12740  -0.00021  -0.00296   0.00267  -0.00031  -2.12770
   D13        2.08698  -0.00030  -0.00269   0.00104  -0.00163   2.08535
   D14        3.10091   0.00068  -0.00552   0.02228   0.01675   3.11766
   D15        1.00672  -0.00008  -0.00499   0.01101   0.00600   1.01272
   D16       -1.06209  -0.00016  -0.00472   0.00937   0.00468  -1.05740
         Item               Value     Threshold  Converged?
 Maximum Force            0.007731     0.000450     NO 
 RMS     Force            0.001747     0.000300     NO 
 Maximum Displacement     0.046187     0.001800     NO 
 RMS     Displacement     0.013937     0.001200     NO 
 Predicted change in Energy=-2.484910D-04
 GradGradGradGradGradGradGradGradGradGradGradGradGradGradGradGradGradGrad

                          Input orientation:                          
 ---------------------------------------------------------------------
 Center     Atomic      Atomic             Coordinates (Angstroms)
 Number     Number       Type             X           Y           Z
 ---------------------------------------------------------------------
      1          6           0       -1.246910    1.521482   -0.025214
      2          6           0       -0.023937    0.655469   -0.115400
      3          6           0        0.016122   -0.664320    0.106166
      4          6           0        1.243343   -1.524213    0.022272
      5          1           0       -1.100493    2.349705    0.697475
      6          1           0       -2.133185    0.945555    0.300190
      7          1           0       -1.480332    1.993069   -1.000473
      8          1           0        0.912648    1.168755   -0.384146
      9          1           0       -0.920126   -1.178638    0.372207
     10          1           0        2.131231   -0.937575   -0.272459
     11          1           0        1.112725   -2.339347   -0.716309
     12          1           0        1.462817   -2.012152    0.991693
 ---------------------------------------------------------------------
                    Distance matrix (angstroms):
                    1          2          3          4          5
     1  C    0.000000
     2  C    1.501258   0.000000
     3  C    2.527892   1.338857   0.000000
     4  C    3.934446   2.525067   1.500841   0.000000
     5  H    1.108905   2.165681   3.268153   4.577849   0.000000
     6  H    1.105921   2.169284   2.692371   4.192604   1.787715
     7  H    1.108157   2.166475   3.244340   4.564612   1.776089
     8  H    2.217417   1.101307   2.098649   2.743467   2.572408
     9  H    2.748705   2.098777   1.100846   2.218664   3.547892
    10  H    4.185681   2.684624   2.166035   1.104244   4.710735
    11  H    4.577280   3.259144   2.164421   1.107703   5.374414
    12  H    4.567635   3.248430   2.166503   1.107263   5.067832
                    6          7          8          9         10
     6  H    0.000000
     7  H    1.793105   0.000000
     8  H    3.129733   2.604939   0.000000
     9  H    2.447222   3.501116   3.072683   0.000000
    10  H    4.696738   4.707661   2.435990   3.128015   0.000000
    11  H    4.728613   5.057127   3.529468   2.581588   1.788664
    12  H    4.707169   5.354685   3.509101   2.599408   1.788735
                   11         12
    11  H    0.000000
    12  H    1.773948   0.000000
 Stoichiometry    C4H8
 Framework group  C1[X(C4H8)]
 Deg. of freedom    30
 Full point group                 C1      NOp   1
 Largest Abelian subgroup         C1      NOp   1
 Largest concise Abelian subgroup C1      NOp   1
                         Standard orientation:                         
 ---------------------------------------------------------------------
 Center     Atomic      Atomic             Coordinates (Angstroms)
 Number     Number       Type             X           Y           Z
 ---------------------------------------------------------------------
      1          6           0        1.966006   -0.078629   -0.001050
      2          6           0        0.540534    0.392317    0.002637
      3          6           0       -0.541934   -0.395594    0.002304
      4          6           0       -1.965217    0.080611   -0.001923
      5          1           0        2.523059    0.333078   -0.866995
      6          1           0        2.032640   -1.181302   -0.053320
      7          1           0        2.504416    0.257345    0.907381
      8          1           0        0.392366    1.483610    0.001167
      9          1           0       -0.394734   -1.486546    0.006502
     10          1           0       -2.024948    1.183049    0.018560
     11          1           0       -2.520983   -0.307277    0.874247
     12          1           0       -2.508154   -0.274186   -0.899346
 ---------------------------------------------------------------------
 Rotational constants (GHZ):          34.4699517           3.6881423           3.4772904
 Standard basis: def2SVPP (5D, 7F)
 There are    76 symmetry adapted cartesian basis functions of A   symmetry.
 There are    72 symmetry adapted basis functions of A   symmetry.
    72 basis functions,   132 primitive gaussians,    76 cartesian basis functions
    16 alpha electrons       16 beta electrons
       nuclear repulsion energy       115.1715902523 Hartrees.
 NAtoms=   12 NActive=   12 NUniq=   12 SFac= 1.00D+00 NAtFMM=   60 NAOKFM=F Big=F
 Integral buffers will be    131072 words long.
 Raffenetti 2 integral format.
 Two-electron integral symmetry is turned on.
 Nuclear repulsion after empirical dispersion term =      115.1593491708 Hartrees.
 One-electron integrals computed using PRISM.
   1 Symmetry operations used in ECPInt.
 ECPInt:  NShTT=     820 NPrTT=    3316 LenC2=     820 LenP2D=    2836.
 LDataN:  DoStor=T MaxTD1= 4 Len=   56
 NBasis=    72 RedAO= T EigKep=  2.04D-03  NBF=    72
 NBsUse=    72 1.00D-06 EigRej= -1.00D+00 NBFU=    72
 Initial guess from the checkpoint file:  "/home/software/g16tmp/Gau-91365.chk"
 B after Tr=     0.000000   -0.000000   -0.000000
         Rot=    0.999995    0.003004   -0.000012   -0.000195 Ang=   0.34 deg.
 ExpMin= 1.22D-01 ExpMax= 1.24D+03 ExpMxC= 1.86D+02 IAcc=3 IRadAn=         7 AccDes= 0.00D+00
 Harris functional with IExCor=  402 and IRadAn=       7 diagonalized for initial guess.
 HarFok:  IExCor=  402 AccDes= 0.00D+00 IRadAn=         7 IDoV= 1 UseB2=F ITyADJ=14
 ICtDFT=  3500011 ScaDFX=  1.000000  1.000000  1.000000  1.000000
 FoFCou: FMM=F IPFlag=           0 FMFlag=      100000 FMFlg1=           0
         NFxFlg=           0 DoJE=T BraDBF=F KetDBF=T FulRan=T
         wScrn=  0.000000 ICntrl=       500 IOpCl=  0 I1Cent=   200000004 NGrid=           0
         NMat0=    1 NMatS0=      1 NMatT0=    0 NMatD0=    1 NMtDS0=    0 NMtDT0=    0
 Petite list used in FoFCou.
 Keep R1 ints in memory in canonical form, NReq=17947838.
 Requested convergence on RMS density matrix=1.00D-08 within 128 cycles.
 Requested convergence on MAX density matrix=1.00D-06.
 Requested convergence on             energy=1.00D-06.
 No special actions if energy rises.
 Integral accuracy reduced to 1.0D-05 until final iterations.
 Initial convergence to 1.0D-05 achieved.  Increase integral accuracy.
 SCF Done:  E(RB3LYP) =  -157.106899750     A.U. after   10 cycles
            NFock= 10  Conv=0.94D-08     -V/T= 2.0120
   1 Symmetry operations used in ECPInt.
 ECPInt:  NShTT=     820 NPrTT=    3316 LenC2=     820 LenP2D=    2836.
 LDataN:  DoStor=T MaxTD1= 5 Len=  102
 Calling FoFJK, ICntrl=      2127 FMM=F ISym2X=0 I1Cent= 0 IOpClX= 0 NMat=1 NMatS=1 NMatT=0.
 ***** Axes restored to original set *****
 -------------------------------------------------------------------
 Center     Atomic                   Forces (Hartrees/Bohr)
 Number     Number              X              Y              Z
 -------------------------------------------------------------------
      1        6          -0.000775958    0.000197644    0.001110502
      2        6           0.000915396    0.000609545    0.000128081
      3        6          -0.000819665    0.000027735    0.000203469
      4        6           0.000040338   -0.000234215   -0.000783282
      5        1           0.000075730   -0.000664236   -0.000780739
      6        1           0.000793805    0.000235764   -0.000950179
      7        1          -0.000087198   -0.000166216    0.000418726
      8        1          -0.000358619   -0.000199450   -0.000082710
      9        1           0.000206584    0.000033210    0.000304803
     10        1           0.000005940    0.000052291    0.000125065
     11        1           0.000121453    0.000106689    0.000145642
     12        1          -0.000117804    0.000001238    0.000160621
 -------------------------------------------------------------------
 Cartesian Forces:  Max     0.001110502 RMS     0.000464198

 GradGradGradGradGradGradGradGradGradGradGradGradGradGradGradGradGradGrad
 Berny optimization.
 Using GEDIIS/GDIIS optimizer.
 FormGI is forming the generalized inverse of G from B-inverse, IUseBI=4.
 Internal  Forces:  Max     0.001038505 RMS     0.000316597
 Search for a local minimum.
 Step number   7 out of a maximum of   55
 All quantities printed in internal units (Hartrees-Bohrs-Radians)
 Mixed Optimization -- En-DIIS/RFO-DIIS
 Update second derivatives using D2CorX and points    4    5    6    7
 DE= -2.30D-04 DEPred=-2.48D-04 R= 9.24D-01
 TightC=F SS=  1.41D+00  RLast= 7.05D-02 DXNew= 2.4000D+00 2.1143D-01
 Trust test= 9.24D-01 RLast= 7.05D-02 DXMaxT set to 1.43D+00
 ITU=  1  1  1  1  1  1  0
 Use linear search instead of GDIIS.
     Eigenvalues ---    0.00167   0.00748   0.01589   0.01629   0.03466
     Eigenvalues ---    0.07025   0.07063   0.07191   0.07200   0.15704
     Eigenvalues ---    0.15992   0.16000   0.16000   0.16002   0.16009
     Eigenvalues ---    0.16052   0.17321   0.21976   0.22015   0.31449
     Eigenvalues ---    0.31990   0.32239   0.32758   0.32841   0.33174
     Eigenvalues ---    0.33373   0.33494   0.35092   0.37826   0.57407
 RFO step:  Lambda=-5.59822555D-05 EMin= 1.67455573D-03
 Quartic linear search produced a step of -0.06110.
 Iteration  1 RMS(Cart)=  0.02384871 RMS(Int)=  0.00040609
 Iteration  2 RMS(Cart)=  0.00042887 RMS(Int)=  0.00000150
 Iteration  3 RMS(Cart)=  0.00000014 RMS(Int)=  0.00000149
 Variable       Old X    -DE/DX   Delta X   Delta X   Delta X     New X
                                 (Linear)    (Quad)   (Total)
    R1        2.83697  -0.00025  -0.00080  -0.00222  -0.00303   2.83394
    R2        2.09553  -0.00099  -0.00095  -0.00016  -0.00111   2.09442
    R3        2.08989  -0.00104  -0.00112  -0.00129  -0.00241   2.08748
    R4        2.09411  -0.00042  -0.00145   0.00012  -0.00133   2.09278
    R5        2.53007   0.00002  -0.00001   0.00014   0.00013   2.53021
    R6        2.08117  -0.00038  -0.00014  -0.00068  -0.00082   2.08035
    R7        2.83618   0.00010  -0.00004   0.00030   0.00026   2.83644
    R8        2.08030  -0.00012  -0.00020  -0.00021  -0.00041   2.07989
    R9        2.08672  -0.00000  -0.00003   0.00004   0.00001   2.08673
   R10        2.09326  -0.00019  -0.00005  -0.00064  -0.00069   2.09257
   R11        2.09242   0.00012  -0.00004   0.00046   0.00043   2.09285
    A1        1.94168  -0.00006   0.00022   0.00080   0.00102   1.94270
    A2        1.94992  -0.00029  -0.00012  -0.00219  -0.00231   1.94761
    A3        1.94358   0.00018   0.00006  -0.00150  -0.00145   1.94214
    A4        1.87864   0.00048  -0.00028   0.00473   0.00445   1.88309
    A5        1.85826  -0.00006   0.00019  -0.00052  -0.00033   1.85794
    A6        1.88784  -0.00024  -0.00008  -0.00108  -0.00117   1.88667
    A7        2.19330  -0.00074   0.00014  -0.00245  -0.00231   2.19099
    A8        2.02483   0.00036  -0.00030   0.00037   0.00007   2.02490
    A9        2.06504   0.00038   0.00016   0.00209   0.00225   2.06730
   A10        2.18952  -0.00017   0.00007  -0.00067  -0.00060   2.18892
   A11        2.06587   0.00018  -0.00006   0.00074   0.00068   2.06655
   A12        2.02780  -0.00001  -0.00001  -0.00007  -0.00008   2.02772
   A13        1.94767  -0.00003   0.00011  -0.00003   0.00008   1.94776
   A14        1.94171   0.00024  -0.00062   0.00088   0.00026   1.94196
   A15        1.94509  -0.00029   0.00060  -0.00135  -0.00075   1.94434
   A16        1.88366   0.00001  -0.00024   0.00070   0.00046   1.88413
   A17        1.88432   0.00006   0.00019  -0.00028  -0.00009   1.88423
   A18        1.85757   0.00002  -0.00004   0.00011   0.00006   1.85763
    D1        2.14790   0.00007   0.00132  -0.05513  -0.05381   2.09409
    D2       -0.98894  -0.00007   0.00045  -0.05686  -0.05641  -1.04534
    D3        0.04785  -0.00031   0.00160  -0.06021  -0.05861  -0.01076
    D4       -3.08899  -0.00045   0.00074  -0.06194  -0.06120   3.13299
    D5       -2.06529   0.00007   0.00174  -0.05624  -0.05450  -2.11979
    D6        1.08105  -0.00007   0.00088  -0.05797  -0.05710   1.02396
    D7       -3.13511  -0.00025  -0.00112   0.00094  -0.00018  -3.13529
    D8        0.00767  -0.00028  -0.00072  -0.00104  -0.00177   0.00590
    D9        0.00163  -0.00011  -0.00023   0.00270   0.00246   0.00409
   D10       -3.13877  -0.00014   0.00016   0.00072   0.00088  -3.13790
   D11       -0.02277   0.00013  -0.00064   0.00472   0.00409  -0.01868
   D12       -2.12770  -0.00002   0.00002   0.00324   0.00326  -2.12444
   D13        2.08535  -0.00001   0.00010   0.00341   0.00351   2.08887
   D14        3.11766   0.00017  -0.00102   0.00667   0.00564   3.12331
   D15        1.01272   0.00001  -0.00037   0.00518   0.00482   1.01754
   D16       -1.05740   0.00002  -0.00029   0.00536   0.00507  -1.05234
         Item               Value     Threshold  Converged?
 Maximum Force            0.001039     0.000450     NO 
 RMS     Force            0.000317     0.000300     NO 
 Maximum Displacement     0.079153     0.001800     NO 
 RMS     Displacement     0.023845     0.001200     NO 
 Predicted change in Energy=-3.048418D-05
 GradGradGradGradGradGradGradGradGradGradGradGradGradGradGradGradGradGrad

                          Input orientation:                          
 ---------------------------------------------------------------------
 Center     Atomic      Atomic             Coordinates (Angstroms)
 Number     Number       Type             X           Y           Z
 ---------------------------------------------------------------------
      1          6           0       -1.246146    1.520147   -0.025863
      2          6           0       -0.024588    0.655557   -0.122036
      3          6           0        0.016794   -0.661904    0.113150
      4          6           0        1.242649   -1.523407    0.023506
      5          1           0       -1.112963    2.323232    0.726262
      6          1           0       -2.137978    0.933522    0.258304
      7          1           0       -1.458461    2.024313   -0.988769
      8          1           0        0.907160    1.166400   -0.409803
      9          1           0       -0.915860   -1.172556    0.397357
     10          1           0        2.128083   -0.939676   -0.284110
     11          1           0        1.104260   -2.344083   -0.706932
     12          1           0        1.470954   -2.003754    0.994935
 ---------------------------------------------------------------------
                    Distance matrix (angstroms):
                    1          2          3          4          5
     1  C    0.000000
     2  C    1.499656   0.000000
     3  C    2.525013   1.338928   0.000000
     4  C    3.931890   2.524868   1.500981   0.000000
     5  H    1.108320   2.164557   3.250122   4.565020   0.000000
     6  H    1.104646   2.165257   2.685051   4.185722   1.789115
     7  H    1.107451   2.163495   3.256741   4.572418   1.774839
     8  H    2.215689   1.100875   2.099745   2.745064   2.590328
     9  H    2.745697   2.099078   1.100628   2.218563   3.516754
    10  H    4.183640   2.684218   2.166221   1.104248   4.708694
    11  H    4.573898   3.257950   2.164450   1.107339   5.362271
    12  H    4.565363   3.249031   2.166261   1.107488   5.046941
                    6          7          8          9         10
     6  H    0.000000
     7  H    1.790742   0.000000
     8  H    3.126254   2.582127   0.000000
     9  H    2.438949   3.526433   3.073374   0.000000
    10  H    4.690667   4.705855   2.437623   3.127974   0.000000
    11  H    4.710253   5.072460   3.528545   2.583179   1.788673
    12  H    4.711115   5.361145   3.512980   2.597089   1.788864
                   11         12
    11  H    0.000000
    12  H    1.773877   0.000000
 Stoichiometry    C4H8
 Framework group  C1[X(C4H8)]
 Deg. of freedom    30
 Full point group                 C1      NOp   1
 Largest Abelian subgroup         C1      NOp   1
 Largest concise Abelian subgroup C1      NOp   1
                         Standard orientation:                         
 ---------------------------------------------------------------------
 Center     Atomic      Atomic             Coordinates (Angstroms)
 Number     Number       Type             X           Y           Z
 ---------------------------------------------------------------------
      1          6           0        1.964241   -0.079281   -0.001344
      2          6           0        0.541009    0.393336    0.002377
      3          6           0       -0.540895   -0.395469    0.002228
      4          6           0       -1.964401    0.080510   -0.001748
      5          1           0        2.507516    0.285820   -0.895730
      6          1           0        2.026323   -1.182152    0.006735
      7          1           0        2.516877    0.302861    0.879002
      8          1           0        0.394496    1.484418    0.003329
      9          1           0       -0.393600   -1.486193    0.004852
     10          1           0       -2.024395    1.183007    0.014559
     11          1           0       -2.519088   -0.304510    0.875909
     12          1           0       -2.507851   -0.277825   -0.897732
 ---------------------------------------------------------------------
 Rotational constants (GHZ):          34.4551461           3.6931630           3.4814573
 Standard basis: def2SVPP (5D, 7F)
 There are    76 symmetry adapted cartesian basis functions of A   symmetry.
 There are    72 symmetry adapted basis functions of A   symmetry.
    72 basis functions,   132 primitive gaussians,    76 cartesian basis functions
    16 alpha electrons       16 beta electrons
       nuclear repulsion energy       115.2214338042 Hartrees.
 NAtoms=   12 NActive=   12 NUniq=   12 SFac= 1.00D+00 NAtFMM=   60 NAOKFM=F Big=F
 Integral buffers will be    131072 words long.
 Raffenetti 2 integral format.
 Two-electron integral symmetry is turned on.
 Nuclear repulsion after empirical dispersion term =      115.2091869701 Hartrees.
 One-electron integrals computed using PRISM.
   1 Symmetry operations used in ECPInt.
 ECPInt:  NShTT=     820 NPrTT=    3316 LenC2=     820 LenP2D=    2836.
 LDataN:  DoStor=T MaxTD1= 4 Len=   56
 NBasis=    72 RedAO= T EigKep=  2.03D-03  NBF=    72
 NBsUse=    72 1.00D-06 EigRej= -1.00D+00 NBFU=    72
 Initial guess from the checkpoint file:  "/home/software/g16tmp/Gau-91365.chk"
 B after Tr=    -0.000000   -0.000000    0.000000
         Rot=    0.999976    0.006966   -0.000304    0.000080 Ang=   0.80 deg.
 ExpMin= 1.22D-01 ExpMax= 1.24D+03 ExpMxC= 1.86D+02 IAcc=3 IRadAn=         7 AccDes= 0.00D+00
 Harris functional with IExCor=  402 and IRadAn=       7 diagonalized for initial guess.
 HarFok:  IExCor=  402 AccDes= 0.00D+00 IRadAn=         7 IDoV= 1 UseB2=F ITyADJ=14
 ICtDFT=  3500011 ScaDFX=  1.000000  1.000000  1.000000  1.000000
 FoFCou: FMM=F IPFlag=           0 FMFlag=      100000 FMFlg1=           0
         NFxFlg=           0 DoJE=T BraDBF=F KetDBF=T FulRan=T
         wScrn=  0.000000 ICntrl=       500 IOpCl=  0 I1Cent=   200000004 NGrid=           0
         NMat0=    1 NMatS0=      1 NMatT0=    0 NMatD0=    1 NMtDS0=    0 NMtDT0=    0
 Petite list used in FoFCou.
 Keep R1 ints in memory in canonical form, NReq=17947838.
 Requested convergence on RMS density matrix=1.00D-08 within 128 cycles.
 Requested convergence on MAX density matrix=1.00D-06.
 Requested convergence on             energy=1.00D-06.
 No special actions if energy rises.
 Integral accuracy reduced to 1.0D-05 until final iterations.
 Initial convergence to 1.0D-05 achieved.  Increase integral accuracy.
 SCF Done:  E(RB3LYP) =  -157.106926459     A.U. after   10 cycles
            NFock= 10  Conv=0.36D-08     -V/T= 2.0120
   1 Symmetry operations used in ECPInt.
 ECPInt:  NShTT=     820 NPrTT=    3316 LenC2=     820 LenP2D=    2836.
 LDataN:  DoStor=T MaxTD1= 5 Len=  102
 Calling FoFJK, ICntrl=      2127 FMM=F ISym2X=0 I1Cent= 0 IOpClX= 0 NMat=1 NMatS=1 NMatT=0.
 ***** Axes restored to original set *****
 -------------------------------------------------------------------
 Center     Atomic                   Forces (Hartrees/Bohr)
 Number     Number              X              Y              Z
 -------------------------------------------------------------------
      1        6          -0.000768275    0.000431690    0.000383258
      2        6           0.001019663   -0.000086777   -0.000060508
      3        6          -0.000198251    0.000100548    0.000085000
      4        6           0.000008385   -0.000133011   -0.000362822
      5        1          -0.000026989   -0.000315452   -0.000399324
      6        1           0.000121776    0.000192728   -0.000194536
      7        1          -0.000225573   -0.000010701    0.000104445
      8        1           0.000016028   -0.000208238    0.000153843
      9        1           0.000061373    0.000011328    0.000187173
     10        1          -0.000014832    0.000036412    0.000091213
     11        1           0.000099786   -0.000055840   -0.000011505
     12        1          -0.000093091    0.000037313    0.000023763
 -------------------------------------------------------------------
 Cartesian Forces:  Max     0.001019663 RMS     0.000275468

 GradGradGradGradGradGradGradGradGradGradGradGradGradGradGradGradGradGrad
 Berny optimization.
 Using GEDIIS/GDIIS optimizer.
 FormGI is forming the generalized inverse of G from B-inverse, IUseBI=4.
 Internal  Forces:  Max     0.000897486 RMS     0.000195610
 Search for a local minimum.
 Step number   8 out of a maximum of   55
 All quantities printed in internal units (Hartrees-Bohrs-Radians)
 Mixed Optimization -- En-DIIS/RFO-DIIS
 Swapping is turned off.
 Update second derivatives using D2CorX and points    4    5    6    7    8
 DE= -2.67D-05 DEPred=-3.05D-05 R= 8.76D-01
 TightC=F SS=  1.41D+00  RLast= 1.40D-01 DXNew= 2.4000D+00 4.2086D-01
 Trust test= 8.76D-01 RLast= 1.40D-01 DXMaxT set to 1.43D+00
 ITU=  1  1  1  1  1  1  1  0
     Eigenvalues ---    0.00243   0.00714   0.01576   0.01630   0.03352
     Eigenvalues ---    0.06727   0.07068   0.07127   0.07203   0.15460
     Eigenvalues ---    0.15977   0.15999   0.16000   0.16002   0.16004
     Eigenvalues ---    0.16065   0.17197   0.21022   0.22003   0.31690
     Eigenvalues ---    0.32057   0.32222   0.32687   0.32841   0.33175
     Eigenvalues ---    0.33361   0.33447   0.35277   0.37591   0.57405
 En-DIIS/RFO-DIIS/Sim-DIIS IScMMF=       -3 using points:     8    7
 RFO step:  Lambda=-9.77507198D-06.
 DidBck=F Rises=F RFO-DIIS coefs:    0.84571    0.15429
 Iteration  1 RMS(Cart)=  0.00546806 RMS(Int)=  0.00001942
 Iteration  2 RMS(Cart)=  0.00002062 RMS(Int)=  0.00000048
 Iteration  3 RMS(Cart)=  0.00000000 RMS(Int)=  0.00000048
 Variable       Old X    -DE/DX   Delta X   Delta X   Delta X     New X
                                 (Linear)    (Quad)   (Total)
    R1        2.83394   0.00090   0.00047   0.00169   0.00216   2.83610
    R2        2.09442  -0.00050   0.00017  -0.00123  -0.00106   2.09336
    R3        2.08748  -0.00025   0.00037  -0.00079  -0.00042   2.08706
    R4        2.09278  -0.00005   0.00021  -0.00004   0.00017   2.09295
    R5        2.53021   0.00000  -0.00002   0.00007   0.00005   2.53026
    R6        2.08035  -0.00012   0.00013  -0.00055  -0.00042   2.07993
    R7        2.83644   0.00008  -0.00004   0.00032   0.00028   2.83672
    R8        2.07989  -0.00001   0.00006  -0.00010  -0.00003   2.07985
    R9        2.08673  -0.00002  -0.00000  -0.00003  -0.00003   2.08670
   R10        2.09257   0.00004   0.00011  -0.00011  -0.00001   2.09256
   R11        2.09285  -0.00001  -0.00007   0.00011   0.00004   2.09289
    A1        1.94270  -0.00005  -0.00016   0.00030   0.00014   1.94284
    A2        1.94761   0.00008   0.00036  -0.00044  -0.00008   1.94753
    A3        1.94214   0.00027   0.00022   0.00073   0.00096   1.94309
    A4        1.88309   0.00002  -0.00069   0.00170   0.00101   1.88410
    A5        1.85794  -0.00010   0.00005  -0.00023  -0.00018   1.85776
    A6        1.88667  -0.00025   0.00018  -0.00210  -0.00191   1.88476
    A7        2.19099  -0.00031   0.00036  -0.00212  -0.00177   2.18922
    A8        2.02490   0.00036  -0.00001   0.00194   0.00192   2.02682
    A9        2.06730  -0.00005  -0.00035   0.00019  -0.00016   2.06714
   A10        2.18892  -0.00003   0.00009  -0.00034  -0.00024   2.18868
   A11        2.06655   0.00005  -0.00010   0.00051   0.00041   2.06696
   A12        2.02772  -0.00002   0.00001  -0.00018  -0.00016   2.02755
   A13        1.94776  -0.00005  -0.00001  -0.00029  -0.00030   1.94746
   A14        1.94196   0.00022  -0.00004   0.00137   0.00133   1.94329
   A15        1.94434  -0.00019   0.00012  -0.00134  -0.00122   1.94311
   A16        1.88413  -0.00001  -0.00007   0.00048   0.00041   1.88453
   A17        1.88423   0.00004   0.00001  -0.00022  -0.00021   1.88402
   A18        1.85763  -0.00001  -0.00001   0.00003   0.00003   1.85765
    D1        2.09409   0.00005   0.00830   0.00260   0.01090   2.10499
    D2       -1.04534   0.00001   0.00870  -0.00018   0.00852  -1.03682
    D3       -0.01076  -0.00000   0.00904   0.00052   0.00957  -0.00119
    D4        3.13299  -0.00004   0.00944  -0.00225   0.00719   3.14018
    D5       -2.11979   0.00007   0.00841   0.00299   0.01140  -2.10839
    D6        1.02396   0.00003   0.00881   0.00022   0.00902   1.03298
    D7       -3.13529  -0.00014   0.00003  -0.00431  -0.00428  -3.13958
    D8        0.00590  -0.00014   0.00027  -0.00459  -0.00432   0.00158
    D9        0.00409  -0.00010  -0.00038  -0.00147  -0.00185   0.00224
   D10       -3.13790  -0.00010  -0.00014  -0.00175  -0.00189  -3.13978
   D11       -0.01868   0.00011  -0.00063   0.00741   0.00678  -0.01190
   D12       -2.12444   0.00001  -0.00050   0.00605   0.00555  -2.11889
   D13        2.08887  -0.00000  -0.00054   0.00599   0.00545   2.09432
   D14        3.12331   0.00011  -0.00087   0.00768   0.00681   3.13011
   D15        1.01754   0.00001  -0.00074   0.00633   0.00558   1.02312
   D16       -1.05234  -0.00000  -0.00078   0.00626   0.00548  -1.04685
         Item               Value     Threshold  Converged?
 Maximum Force            0.000897     0.000450     NO 
 RMS     Force            0.000196     0.000300     YES
 Maximum Displacement     0.013829     0.001800     NO 
 RMS     Displacement     0.005469     0.001200     NO 
 Predicted change in Energy=-4.889785D-06
 GradGradGradGradGradGradGradGradGradGradGradGradGradGradGradGradGradGrad

                          Input orientation:                          
 ---------------------------------------------------------------------
 Center     Atomic      Atomic             Coordinates (Angstroms)
 Number     Number       Type             X           Y           Z
 ---------------------------------------------------------------------
      1          6           0       -1.246434    1.520283   -0.025847
      2          6           0       -0.022636    0.656631   -0.119778
      3          6           0        0.017317   -0.661139    0.114082
      4          6           0        1.242316   -1.523887    0.022295
      5          1           0       -1.112475    2.328819    0.719438
      6          1           0       -2.136241    0.933918    0.264279
      7          1           0       -1.464081    2.016995   -0.991535
      8          1           0        0.909730    1.166648   -0.406156
      9          1           0       -0.915460   -1.171272    0.398751
     10          1           0        2.129263   -0.939161   -0.278951
     11          1           0        1.105762   -2.340782   -0.712706
     12          1           0        1.466843   -2.009260    0.992129
 ---------------------------------------------------------------------
                    Distance matrix (angstroms):
                    1          2          3          4          5
     1  C    0.000000
     2  C    1.500800   0.000000
     3  C    2.524925   1.338957   0.000000
     4  C    3.932323   2.524866   1.501127   0.000000
     5  H    1.107757   2.165236   3.253112   4.568850   0.000000
     6  H    1.104424   2.166036   2.684134   4.184974   1.789138
     7  H    1.107540   2.165251   3.254125   4.570589   1.774342
     8  H    2.217823   1.100652   2.099489   2.744660   2.589772
     9  H    2.744868   2.099342   1.100611   2.218569   3.520269
    10  H    4.184287   2.683758   2.166123   1.104232   4.710132
    11  H    4.573010   3.257197   2.165524   1.107335   5.364400
    12  H    4.566817   3.249901   2.165531   1.107509   5.054322
                    6          7          8          9         10
     6  H    0.000000
     7  H    1.789391   0.000000
     8  H    3.127553   2.588579   0.000000
     9  H    2.437256   3.521211   3.073282   0.000000
    10  H    4.690207   4.707309   2.436775   3.127857   0.000000
    11  H    4.710493   5.066760   3.526253   2.586199   1.788920
    12  H    4.708957   5.360594   3.514536   2.594164   1.788730
                   11         12
    11  H    0.000000
    12  H    1.773908   0.000000
 Stoichiometry    C4H8
 Framework group  C1[X(C4H8)]
 Deg. of freedom    30
 Full point group                 C1      NOp   1
 Largest Abelian subgroup         C1      NOp   1
 Largest concise Abelian subgroup C1      NOp   1
                         Standard orientation:                         
 ---------------------------------------------------------------------
 Center     Atomic      Atomic             Coordinates (Angstroms)
 Number     Number       Type             X           Y           Z
 ---------------------------------------------------------------------
      1          6           0        1.964521   -0.079616   -0.000477
      2          6           0        0.540616    0.394611    0.000668
      3          6           0       -0.540608   -0.395174    0.000842
      4          6           0       -1.964564    0.079935   -0.000479
      5          1           0        2.512072    0.292182   -0.888778
      6          1           0        2.025502   -1.182356    0.000044
      7          1           0        2.514218    0.293766    0.885561
      8          1           0        0.392989    1.485318    0.001633
      9          1           0       -0.392788   -1.485812    0.001626
     10          1           0       -2.024876    1.182464    0.010578
     11          1           0       -2.517461   -0.301406    0.879904
     12          1           0       -2.509448   -0.282695   -0.893887
 ---------------------------------------------------------------------
 Rotational constants (GHZ):          34.4374596           3.6926987           3.4808137
 Standard basis: def2SVPP (5D, 7F)
 There are    76 symmetry adapted cartesian basis functions of A   symmetry.
 There are    72 symmetry adapted basis functions of A   symmetry.
    72 basis functions,   132 primitive gaussians,    76 cartesian basis functions
    16 alpha electrons       16 beta electrons
       nuclear repulsion energy       115.2092497383 Hartrees.
 NAtoms=   12 NActive=   12 NUniq=   12 SFac= 1.00D+00 NAtFMM=   60 NAOKFM=F Big=F
 Integral buffers will be    131072 words long.
 Raffenetti 2 integral format.
 Two-electron integral symmetry is turned on.
 Nuclear repulsion after empirical dispersion term =      115.1970033072 Hartrees.
 One-electron integrals computed using PRISM.
   1 Symmetry operations used in ECPInt.
 ECPInt:  NShTT=     820 NPrTT=    3316 LenC2=     820 LenP2D=    2836.
 LDataN:  DoStor=T MaxTD1= 4 Len=   56
 NBasis=    72 RedAO= T EigKep=  2.03D-03  NBF=    72
 NBsUse=    72 1.00D-06 EigRej= -1.00D+00 NBFU=    72
 Initial guess from the checkpoint file:  "/home/software/g16tmp/Gau-91365.chk"
 B after Tr=    -0.000000    0.000000    0.000000
         Rot=    1.000000   -0.000522    0.000041   -0.000047 Ang=  -0.06 deg.
 Keep R1 ints in memory in canonical form, NReq=17947838.
 Requested convergence on RMS density matrix=1.00D-08 within 128 cycles.
 Requested convergence on MAX density matrix=1.00D-06.
 Requested convergence on             energy=1.00D-06.
 No special actions if energy rises.
 SCF Done:  E(RB3LYP) =  -157.106932723     A.U. after    8 cycles
            NFock=  8  Conv=0.26D-08     -V/T= 2.0120
   1 Symmetry operations used in ECPInt.
 ECPInt:  NShTT=     820 NPrTT=    3316 LenC2=     820 LenP2D=    2836.
 LDataN:  DoStor=T MaxTD1= 5 Len=  102
 Calling FoFJK, ICntrl=      2127 FMM=F ISym2X=0 I1Cent= 0 IOpClX= 0 NMat=1 NMatS=1 NMatT=0.
 ***** Axes restored to original set *****
 -------------------------------------------------------------------
 Center     Atomic                   Forces (Hartrees/Bohr)
 Number     Number              X              Y              Z
 -------------------------------------------------------------------
      1        6          -0.000227329    0.000160119    0.000119546
      2        6           0.000208197   -0.000042307   -0.000094701
      3        6          -0.000048401    0.000015847   -0.000008528
      4        6           0.000018851   -0.000017483   -0.000012092
      5        1          -0.000039431   -0.000126550   -0.000145835
      6        1           0.000086535    0.000077726   -0.000056748
      7        1          -0.000026035   -0.000028877    0.000080343
      8        1           0.000012187   -0.000048272    0.000059002
      9        1           0.000030530    0.000017912    0.000086682
     10        1          -0.000004229    0.000006408    0.000027452
     11        1           0.000014953   -0.000003309   -0.000034775
     12        1          -0.000025828   -0.000011214   -0.000020347
 -------------------------------------------------------------------
 Cartesian Forces:  Max     0.000227329 RMS     0.000080092

 GradGradGradGradGradGradGradGradGradGradGradGradGradGradGradGradGradGrad
 Berny optimization.
 Using GEDIIS/GDIIS optimizer.
 FormGI is forming the generalized inverse of G from B-inverse, IUseBI=4.
 Internal  Forces:  Max     0.000215448 RMS     0.000055616
 Search for a local minimum.
 Step number   9 out of a maximum of   55
 All quantities printed in internal units (Hartrees-Bohrs-Radians)
 Mixed Optimization -- En-DIIS/RFO-DIIS
 Swapping is turned off.
 Update second derivatives using D2CorX and points    4    5    6    7    8
                                                      9
 DE= -6.26D-06 DEPred=-4.89D-06 R= 1.28D+00
 TightC=F SS=  1.41D+00  RLast= 2.88D-02 DXNew= 2.4000D+00 8.6257D-02
 Trust test= 1.28D+00 RLast= 2.88D-02 DXMaxT set to 1.43D+00
 ITU=  1  1  1  1  1  1  1  1  0
     Eigenvalues ---    0.00242   0.00556   0.01606   0.01633   0.03229
     Eigenvalues ---    0.06769   0.07060   0.07191   0.07213   0.15640
     Eigenvalues ---    0.15853   0.15999   0.16000   0.16001   0.16014
     Eigenvalues ---    0.16064   0.17442   0.20808   0.21999   0.31680
     Eigenvalues ---    0.32057   0.32156   0.32763   0.32841   0.33164
     Eigenvalues ---    0.33194   0.33467   0.34201   0.35500   0.57407
 En-DIIS/RFO-DIIS/Sim-DIIS IScMMF=       -3 using points:     9    8    7
 RFO step:  Lambda=-1.90763010D-06.
 DidBck=F Rises=F RFO-DIIS coefs:    1.76654   -0.66290   -0.10364
 Iteration  1 RMS(Cart)=  0.00265490 RMS(Int)=  0.00000466
 Iteration  2 RMS(Cart)=  0.00000509 RMS(Int)=  0.00000036
 Iteration  3 RMS(Cart)=  0.00000000 RMS(Int)=  0.00000036
 Variable       Old X    -DE/DX   Delta X   Delta X   Delta X     New X
                                 (Linear)    (Quad)   (Total)
    R1        2.83610   0.00022   0.00134  -0.00044   0.00090   2.83700
    R2        2.09336  -0.00020  -0.00093   0.00018  -0.00075   2.09261
    R3        2.08706  -0.00013  -0.00057   0.00011  -0.00046   2.08660
    R4        2.09295  -0.00008  -0.00001  -0.00018  -0.00019   2.09275
    R5        2.53026  -0.00000   0.00006  -0.00003   0.00002   2.53028
    R6        2.07993  -0.00003  -0.00041   0.00023  -0.00018   2.07975
    R7        2.83672   0.00002   0.00024  -0.00011   0.00013   2.83685
    R8        2.07985  -0.00001  -0.00007   0.00001  -0.00006   2.07979
    R9        2.08670  -0.00001  -0.00002  -0.00000  -0.00003   2.08667
   R10        2.09256   0.00002  -0.00008   0.00013   0.00005   2.09261
   R11        2.09289  -0.00002   0.00007  -0.00011  -0.00004   2.09285
    A1        1.94284   0.00003   0.00022   0.00021   0.00043   1.94327
    A2        1.94753   0.00001  -0.00030   0.00013  -0.00017   1.94736
    A3        1.94309   0.00004   0.00058  -0.00040   0.00019   1.94328
    A4        1.88410  -0.00001   0.00124  -0.00085   0.00039   1.88449
    A5        1.85776  -0.00003  -0.00017   0.00003  -0.00014   1.85762
    A6        1.88476  -0.00004  -0.00159   0.00088  -0.00071   1.88405
    A7        2.18922  -0.00007  -0.00159   0.00083  -0.00077   2.18846
    A8        2.02682   0.00009   0.00148  -0.00063   0.00086   2.02768
    A9        2.06714  -0.00002   0.00011  -0.00020  -0.00009   2.06705
   A10        2.18868   0.00000  -0.00025   0.00020  -0.00005   2.18863
   A11        2.06696   0.00000   0.00038  -0.00026   0.00012   2.06708
   A12        2.02755  -0.00001  -0.00013   0.00006  -0.00008   2.02747
   A13        1.94746  -0.00001  -0.00022   0.00012  -0.00011   1.94735
   A14        1.94329   0.00002   0.00104  -0.00088   0.00017   1.94346
   A15        1.94311  -0.00001  -0.00102   0.00087  -0.00015   1.94297
   A16        1.88453  -0.00000   0.00036  -0.00032   0.00004   1.88457
   A17        1.88402   0.00001  -0.00017   0.00020   0.00003   1.88405
   A18        1.85765  -0.00000   0.00003  -0.00001   0.00002   1.85767
    D1        2.10499   0.00000   0.00278  -0.00145   0.00133   2.10633
    D2       -1.03682   0.00001   0.00069   0.00096   0.00164  -1.03518
    D3       -0.00119  -0.00001   0.00126  -0.00060   0.00066  -0.00053
    D4        3.14018  -0.00001  -0.00083   0.00181   0.00097   3.14115
    D5       -2.10839   0.00001   0.00309  -0.00153   0.00156  -2.10683
    D6        1.03298   0.00001   0.00100   0.00087   0.00187   1.03485
    D7       -3.13958  -0.00003  -0.00330   0.00211  -0.00120  -3.14078
    D8        0.00158  -0.00004  -0.00349   0.00172  -0.00177  -0.00019
    D9        0.00224  -0.00004  -0.00117  -0.00035  -0.00151   0.00073
   D10       -3.13978  -0.00004  -0.00135  -0.00073  -0.00209   3.14131
   D11       -0.01190   0.00003   0.00562   0.00018   0.00580  -0.00610
   D12       -2.11889   0.00002   0.00459   0.00111   0.00570  -2.11319
   D13        2.09432   0.00002   0.00454   0.00112   0.00567   2.09998
   D14        3.13011   0.00003   0.00580   0.00056   0.00636   3.13648
   D15        1.02312   0.00003   0.00478   0.00149   0.00627   1.02939
   D16       -1.04685   0.00003   0.00473   0.00150   0.00623  -1.04063
         Item               Value     Threshold  Converged?
 Maximum Force            0.000215     0.000450     YES
 RMS     Force            0.000056     0.000300     YES
 Maximum Displacement     0.007341     0.001800     NO 
 RMS     Displacement     0.002655     0.001200     NO 
 Predicted change in Energy=-9.538006D-07
 GradGradGradGradGradGradGradGradGradGradGradGradGradGradGradGradGradGrad

                          Input orientation:                          
 ---------------------------------------------------------------------
 Center     Atomic      Atomic             Coordinates (Angstroms)
 Number     Number       Type             X           Y           Z
 ---------------------------------------------------------------------
      1          6           0       -1.246601    1.520319   -0.026033
      2          6           0       -0.022032    0.656929   -0.119962
      3          6           0        0.017668   -0.660667    0.114988
      4          6           0        1.242229   -1.524037    0.022095
      5          1           0       -1.112686    2.330117    0.717295
      6          1           0       -2.135550    0.933807    0.265497
      7          1           0       -1.465993    2.015060   -0.992220
      8          1           0        0.910399    1.166400   -0.406738
      9          1           0       -0.914710   -1.170130    0.402032
     10          1           0        2.130096   -0.938745   -0.275265
     11          1           0        1.106529   -2.338116   -0.716224
     12          1           0        1.464554   -2.013145    0.990535
 ---------------------------------------------------------------------
                    Distance matrix (angstroms):
                    1          2          3          4          5
     1  C    0.000000
     2  C    1.501277   0.000000
     3  C    2.524869   1.338969   0.000000
     4  C    3.932518   2.524906   1.501195   0.000000
     5  H    1.107359   2.165660   3.253500   4.569840   0.000000
     6  H    1.104181   2.166148   2.683533   4.184452   1.788870
     7  H    1.107438   2.165728   3.253717   4.570395   1.773846
     8  H    2.218748   1.100558   2.099367   2.744534   2.590474
     9  H    2.744432   2.099404   1.100580   2.218556   3.519988
    10  H    4.184638   2.683645   2.166097   1.104218   4.710230
    11  H    4.571772   3.255683   2.165725   1.107363   5.363981
    12  H    4.568275   3.251528   2.165470   1.107489   5.057741
                    6          7          8          9         10
     6  H    0.000000
     7  H    1.788649   0.000000
     8  H    3.127907   2.590415   0.000000
     9  H    2.436318   3.520410   3.073191   0.000000
    10  H    4.689841   4.708593   2.436510   3.127796   0.000000
    11  H    4.709600   5.064009   3.523618   2.588454   1.788959
    12  H    4.708605   5.361517   3.516954   2.591893   1.788723
                   11         12
    11  H    0.000000
    12  H    1.773927   0.000000
 Stoichiometry    C4H8
 Framework group  C1[X(C4H8)]
 Deg. of freedom    30
 Full point group                 C1      NOp   1
 Largest Abelian subgroup         C1      NOp   1
 Largest concise Abelian subgroup C1      NOp   1
                         Standard orientation:                         
 ---------------------------------------------------------------------
 Center     Atomic      Atomic             Coordinates (Angstroms)
 Number     Number       Type             X           Y           Z
 ---------------------------------------------------------------------
      1          6           0        1.964641   -0.079774   -0.000226
      2          6           0        0.540473    0.395179    0.000256
      3          6           0       -0.540471   -0.395009    0.000412
      4          6           0       -1.964643    0.079672   -0.000106
      5          1           0        2.513201    0.292195   -0.887336
      6          1           0        2.024975   -1.182305    0.000099
      7          1           0        2.513885    0.292316    0.886509
      8          1           0        0.392364    1.485725    0.000408
      9          1           0       -0.392393   -1.485581   -0.000010
     10          1           0       -2.025164    1.182216    0.005620
     11          1           0       -2.515660   -0.297472    0.883294
     12          1           0       -2.511207   -0.287506   -0.890599
 ---------------------------------------------------------------------
 Rotational constants (GHZ):          34.4326128           3.6925117           3.4805559
 Standard basis: def2SVPP (5D, 7F)
 There are    76 symmetry adapted cartesian basis functions of A   symmetry.
 There are    72 symmetry adapted basis functions of A   symmetry.
    72 basis functions,   132 primitive gaussians,    76 cartesian basis functions
    16 alpha electrons       16 beta electrons
       nuclear repulsion energy       115.2058494227 Hartrees.
 NAtoms=   12 NActive=   12 NUniq=   12 SFac= 1.00D+00 NAtFMM=   60 NAOKFM=F Big=F
 Integral buffers will be    131072 words long.
 Raffenetti 2 integral format.
 Two-electron integral symmetry is turned on.
 Nuclear repulsion after empirical dispersion term =      115.1936030540 Hartrees.
 One-electron integrals computed using PRISM.
   1 Symmetry operations used in ECPInt.
 ECPInt:  NShTT=     820 NPrTT=    3316 LenC2=     820 LenP2D=    2836.
 LDataN:  DoStor=T MaxTD1= 4 Len=   56
 NBasis=    72 RedAO= T EigKep=  2.04D-03  NBF=    72
 NBsUse=    72 1.00D-06 EigRej= -1.00D+00 NBFU=    72
 Initial guess from the checkpoint file:  "/home/software/g16tmp/Gau-91365.chk"
 B after Tr=     0.000000    0.000000   -0.000000
         Rot=    1.000000    0.000511   -0.000021   -0.000019 Ang=   0.06 deg.
 Keep R1 ints in memory in canonical form, NReq=17947838.
 Requested convergence on RMS density matrix=1.00D-08 within 128 cycles.
 Requested convergence on MAX density matrix=1.00D-06.
 Requested convergence on             energy=1.00D-06.
 No special actions if energy rises.
 SCF Done:  E(RB3LYP) =  -157.106933800     A.U. after    8 cycles
            NFock=  8  Conv=0.23D-08     -V/T= 2.0120
   1 Symmetry operations used in ECPInt.
 ECPInt:  NShTT=     820 NPrTT=    3316 LenC2=     820 LenP2D=    2836.
 LDataN:  DoStor=T MaxTD1= 5 Len=  102
 Calling FoFJK, ICntrl=      2127 FMM=F ISym2X=0 I1Cent= 0 IOpClX= 0 NMat=1 NMatS=1 NMatT=0.
 ***** Axes restored to original set *****
 -------------------------------------------------------------------
 Center     Atomic                   Forces (Hartrees/Bohr)
 Number     Number              X              Y              Z
 -------------------------------------------------------------------
      1        6           0.000050352   -0.000027124   -0.000076095
      2        6          -0.000090370   -0.000001283   -0.000000754
      3        6           0.000037663   -0.000001352    0.000017984
      4        6          -0.000000519    0.000017238    0.000057842
      5        1           0.000002436    0.000019899    0.000034825
      6        1          -0.000010713   -0.000012827    0.000030003
      7        1           0.000019344   -0.000001890    0.000000585
      8        1           0.000004778    0.000015606   -0.000012141
      9        1          -0.000004162    0.000001436    0.000002611
     10        1           0.000002686   -0.000002216   -0.000002574
     11        1          -0.000000189    0.000004381   -0.000028684
     12        1          -0.000011307   -0.000011869   -0.000023602
 -------------------------------------------------------------------
 Cartesian Forces:  Max     0.000090370 RMS     0.000027847

 GradGradGradGradGradGradGradGradGradGradGradGradGradGradGradGradGradGrad
 Berny optimization.
 Using GEDIIS/GDIIS optimizer.
 FormGI is forming the generalized inverse of G from B-inverse, IUseBI=4.
 Internal  Forces:  Max     0.000063388 RMS     0.000016901
 Search for a local minimum.
 Step number  10 out of a maximum of   55
 All quantities printed in internal units (Hartrees-Bohrs-Radians)
 Mixed Optimization -- En-DIIS/RFO-DIIS
 Swapping is turned off.
 Update second derivatives using D2CorX and points    4    5    6    7    8
                                                      9   10
 DE= -1.08D-06 DEPred=-9.54D-07 R= 1.13D+00
 TightC=F SS=  1.41D+00  RLast= 1.56D-02 DXNew= 2.4000D+00 4.6850D-02
 Trust test= 1.13D+00 RLast= 1.56D-02 DXMaxT set to 1.43D+00
 ITU=  1  1  1  1  1  1  1  1  1  0
     Eigenvalues ---    0.00240   0.00380   0.01609   0.01679   0.03292
     Eigenvalues ---    0.06985   0.07071   0.07196   0.07233   0.15698
     Eigenvalues ---    0.15990   0.15998   0.16000   0.16006   0.16027
     Eigenvalues ---    0.16077   0.17592   0.21643   0.21994   0.31674
     Eigenvalues ---    0.32057   0.32259   0.32774   0.32838   0.33175
     Eigenvalues ---    0.33398   0.33498   0.35463   0.38812   0.57409
 En-DIIS/RFO-DIIS/Sim-DIIS IScMMF=       -3 using points:    10    9    8    7
 RFO step:  Lambda=-2.90315571D-07.
 DidBck=F Rises=F RFO-DIIS coefs:    1.20924   -0.04871   -0.13444   -0.02608
 Iteration  1 RMS(Cart)=  0.00117847 RMS(Int)=  0.00000099
 Iteration  2 RMS(Cart)=  0.00000107 RMS(Int)=  0.00000010
 Iteration  3 RMS(Cart)=  0.00000000 RMS(Int)=  0.00000010
 Variable       Old X    -DE/DX   Delta X   Delta X   Delta X     New X
                                 (Linear)    (Quad)   (Total)
    R1        2.83700  -0.00006   0.00046  -0.00042   0.00003   2.83704
    R2        2.09261   0.00004  -0.00036   0.00031  -0.00005   2.09255
    R3        2.08660   0.00002  -0.00023   0.00020  -0.00003   2.08657
    R4        2.09275  -0.00001  -0.00005   0.00002  -0.00002   2.09273
    R5        2.53028  -0.00000   0.00002  -0.00002   0.00000   2.53029
    R6        2.07975   0.00001  -0.00013   0.00012  -0.00001   2.07975
    R7        2.83685  -0.00001   0.00008  -0.00008  -0.00000   2.83684
    R8        2.07979   0.00000  -0.00003   0.00003   0.00000   2.07980
    R9        2.08667   0.00000  -0.00001   0.00001   0.00000   2.08667
   R10        2.09261   0.00002  -0.00001   0.00005   0.00005   2.09266
   R11        2.09285  -0.00002   0.00001  -0.00006  -0.00005   2.09280
    A1        1.94327  -0.00000   0.00014  -0.00015  -0.00001   1.94326
    A2        1.94736  -0.00000  -0.00011   0.00006  -0.00004   1.94732
    A3        1.94328  -0.00002   0.00016  -0.00013   0.00002   1.94330
    A4        1.88449  -0.00001   0.00036  -0.00034   0.00002   1.88450
    A5        1.85762   0.00001  -0.00007   0.00008   0.00001   1.85763
    A6        1.88405   0.00002  -0.00049   0.00049   0.00001   1.88406
    A7        2.18846   0.00003  -0.00050   0.00045  -0.00006   2.18840
    A8        2.02768  -0.00003   0.00049  -0.00042   0.00007   2.02774
    A9        2.06705  -0.00000   0.00001  -0.00002  -0.00001   2.06704
   A10        2.18863   0.00001  -0.00007   0.00007   0.00001   2.18864
   A11        2.06708  -0.00001   0.00011  -0.00010   0.00001   2.06709
   A12        2.02747  -0.00000  -0.00004   0.00003  -0.00001   2.02746
   A13        1.94735   0.00001  -0.00007   0.00007   0.00000   1.94735
   A14        1.94346  -0.00002   0.00025  -0.00029  -0.00003   1.94343
   A15        1.94297   0.00001  -0.00025   0.00027   0.00002   1.94299
   A16        1.88457  -0.00001   0.00009  -0.00016  -0.00008   1.88450
   A17        1.88405   0.00000  -0.00003   0.00011   0.00008   1.88414
   A18        1.85767   0.00000   0.00001  -0.00000   0.00001   1.85768
    D1        2.10633  -0.00000   0.00063  -0.00015   0.00047   2.10680
    D2       -1.03518  -0.00001   0.00024  -0.00012   0.00012  -1.03506
    D3       -0.00053   0.00001   0.00015   0.00034   0.00049  -0.00004
    D4        3.14115   0.00001  -0.00024   0.00037   0.00013   3.14129
    D5       -2.10683  -0.00000   0.00074  -0.00024   0.00049  -2.10633
    D6        1.03485  -0.00001   0.00035  -0.00021   0.00014   1.03499
    D7       -3.14078  -0.00000  -0.00094   0.00020  -0.00075  -3.14152
    D8       -0.00019   0.00001  -0.00111   0.00088  -0.00023  -0.00042
    D9        0.00073  -0.00000  -0.00055   0.00016  -0.00039   0.00034
   D10        3.14131   0.00001  -0.00072   0.00085   0.00013   3.14145
   D11       -0.00610   0.00001   0.00241   0.00029   0.00270  -0.00340
   D12       -2.11319   0.00003   0.00217   0.00065   0.00282  -2.11037
   D13        2.09998   0.00003   0.00215   0.00067   0.00282   2.10280
   D14        3.13648  -0.00000   0.00257  -0.00038   0.00219   3.13867
   D15        1.02939   0.00001   0.00233  -0.00002   0.00231   1.03170
   D16       -1.04063   0.00001   0.00232  -0.00001   0.00231  -1.03832
         Item               Value     Threshold  Converged?
 Maximum Force            0.000063     0.000450     YES
 RMS     Force            0.000017     0.000300     YES
 Maximum Displacement     0.003451     0.001800     NO 
 RMS     Displacement     0.001178     0.001200     YES
 Predicted change in Energy=-1.362389D-07
 GradGradGradGradGradGradGradGradGradGradGradGradGradGradGradGradGradGrad

                          Input orientation:                          
 ---------------------------------------------------------------------
 Center     Atomic      Atomic             Coordinates (Angstroms)
 Number     Number       Type             X           Y           Z
 ---------------------------------------------------------------------
      1          6           0       -1.246637    1.520290   -0.026180
      2          6           0       -0.021971    0.656982   -0.119878
      3          6           0        0.017818   -0.660510    0.115648
      4          6           0        1.242225   -1.524029    0.022131
      5          1           0       -1.112542    2.330688    0.716422
      6          1           0       -2.135350    0.933865    0.266181
      7          1           0       -1.466498    2.014202   -0.992670
      8          1           0        0.910336    1.166303   -0.407309
      9          1           0       -0.914458   -1.169860    0.403224
     10          1           0        2.130454   -0.938449   -0.273574
     11          1           0        1.106854   -2.336721   -0.717810
     12          1           0        1.463674   -2.014971    0.989816
 ---------------------------------------------------------------------
                    Distance matrix (angstroms):
                    1          2          3          4          5
     1  C    0.000000
     2  C    1.501295   0.000000
     3  C    2.524847   1.338969   0.000000
     4  C    3.932512   2.524909   1.501193   0.000000
     5  H    1.107332   2.165649   3.253599   4.570100   0.000000
     6  H    1.104165   2.166120   2.683436   4.184354   1.788845
     7  H    1.107425   2.165750   3.253559   4.570129   1.773822
     8  H    2.218806   1.100555   2.099360   2.744532   2.590483
     9  H    2.744383   2.099409   1.100580   2.218547   3.520109
    10  H    4.184656   2.683646   2.166096   1.104218   4.710029
    11  H    4.570975   3.254846   2.165718   1.107387   5.363529
    12  H    4.569037   3.252366   2.165463   1.107464   5.059287
                    6          7          8          9         10
     6  H    0.000000
     7  H    1.788630   0.000000
     8  H    3.127910   2.590544   0.000000
     9  H    2.436189   3.520159   3.073189   0.000000
    10  H    4.689774   4.708854   2.436504   3.127794   0.000000
    11  H    4.709231   5.062432   3.522244   2.589206   1.788929
    12  H    4.708742   5.361939   3.518329   2.591103   1.788756
                   11         12
    11  H    0.000000
    12  H    1.773931   0.000000
 Stoichiometry    C4H8
 Framework group  C1[X(C4H8)]
 Deg. of freedom    30
 Full point group                 C1      NOp   1
 Largest Abelian subgroup         C1      NOp   1
 Largest concise Abelian subgroup C1      NOp   1
                         Standard orientation:                         
 ---------------------------------------------------------------------
 Center     Atomic      Atomic             Coordinates (Angstroms)
 Number     Number       Type             X           Y           Z
 ---------------------------------------------------------------------
      1          6           0        1.964638   -0.079790   -0.000050
      2          6           0        0.540471    0.395222   -0.000019
      3          6           0       -0.540457   -0.394989    0.000103
      4          6           0       -1.964640    0.079653    0.000048
      5          1           0        2.513526    0.292311   -0.886868
      6          1           0        2.024880   -1.182310    0.000084
      7          1           0        2.513569    0.292085    0.886954
      8          1           0        0.392331    1.485761    0.000156
      9          1           0       -0.392361   -1.485560   -0.000213
     10          1           0       -2.025187    1.182204    0.003384
     11          1           0       -2.514652   -0.295464    0.884966
     12          1           0       -2.512183   -0.289603   -0.888953
 ---------------------------------------------------------------------
 Rotational constants (GHZ):          34.4322535           3.6925389           3.4805745
 Standard basis: def2SVPP (5D, 7F)
 There are    76 symmetry adapted cartesian basis functions of A   symmetry.
 There are    72 symmetry adapted basis functions of A   symmetry.
    72 basis functions,   132 primitive gaussians,    76 cartesian basis functions
    16 alpha electrons       16 beta electrons
       nuclear repulsion energy       115.2060476002 Hartrees.
 NAtoms=   12 NActive=   12 NUniq=   12 SFac= 1.00D+00 NAtFMM=   60 NAOKFM=F Big=F
 Integral buffers will be    131072 words long.
 Raffenetti 2 integral format.
 Two-electron integral symmetry is turned on.
 Nuclear repulsion after empirical dispersion term =      115.1938011841 Hartrees.
 One-electron integrals computed using PRISM.
   1 Symmetry operations used in ECPInt.
 ECPInt:  NShTT=     820 NPrTT=    3316 LenC2=     820 LenP2D=    2836.
 LDataN:  DoStor=T MaxTD1= 4 Len=   56
 NBasis=    72 RedAO= T EigKep=  2.04D-03  NBF=    72
 NBsUse=    72 1.00D-06 EigRej= -1.00D+00 NBFU=    72
 Initial guess from the checkpoint file:  "/home/software/g16tmp/Gau-91365.chk"
 B after Tr=     0.000000   -0.000000    0.000000
         Rot=    1.000000    0.000264   -0.000014   -0.000001 Ang=   0.03 deg.
 Keep R1 ints in memory in canonical form, NReq=17947838.
 Requested convergence on RMS density matrix=1.00D-08 within 128 cycles.
 Requested convergence on MAX density matrix=1.00D-06.
 Requested convergence on             energy=1.00D-06.
 No special actions if energy rises.
 SCF Done:  E(RB3LYP) =  -157.106933967     A.U. after    7 cycles
            NFock=  7  Conv=0.23D-08     -V/T= 2.0120
   1 Symmetry operations used in ECPInt.
 ECPInt:  NShTT=     820 NPrTT=    3316 LenC2=     820 LenP2D=    2836.
 LDataN:  DoStor=T MaxTD1= 5 Len=  102
 Calling FoFJK, ICntrl=      2127 FMM=F ISym2X=0 I1Cent= 0 IOpClX= 0 NMat=1 NMatS=1 NMatT=0.
 ***** Axes restored to original set *****
 -------------------------------------------------------------------
 Center     Atomic                   Forces (Hartrees/Bohr)
 Number     Number              X              Y              Z
 -------------------------------------------------------------------
      1        6           0.000072193   -0.000036960   -0.000063391
      2        6          -0.000104770   -0.000005613   -0.000013542
      3        6           0.000035544   -0.000006514   -0.000003154
      4        6          -0.000000117    0.000018119    0.000059982
      5        1           0.000000712    0.000033665    0.000045266
      6        1          -0.000020011   -0.000016116    0.000031452
      7        1           0.000021233   -0.000000417   -0.000007678
      8        1           0.000004442    0.000020447   -0.000007721
      9        1          -0.000004823    0.000001615   -0.000000962
     10        1           0.000002299   -0.000002903   -0.000005070
     11        1          -0.000004605    0.000006374   -0.000018661
     12        1          -0.000002096   -0.000011697   -0.000016521
 -------------------------------------------------------------------
 Cartesian Forces:  Max     0.000104770 RMS     0.000030623

 GradGradGradGradGradGradGradGradGradGradGradGradGradGradGradGradGradGrad
 Berny optimization.
 Using GEDIIS/GDIIS optimizer.
 FormGI is forming the generalized inverse of G from B-inverse, IUseBI=4.
 Internal  Forces:  Max     0.000071520 RMS     0.000019224
 Search for a local minimum.
 Step number  11 out of a maximum of   55
 All quantities printed in internal units (Hartrees-Bohrs-Radians)
 Mixed Optimization -- En-DIIS/RFO-DIIS
 Swapping is turned off.
 Update second derivatives using D2CorX and points    4    5    6    7    8
                                                      9   10   11
 DE= -1.66D-07 DEPred=-1.36D-07 R= 1.22D+00
 Trust test= 1.22D+00 RLast= 6.34D-03 DXMaxT set to 1.43D+00
 ITU=  0  1  1  1  1  1  1  1  1  1  0
     Eigenvalues ---    0.00236   0.00246   0.01601   0.01828   0.03351
     Eigenvalues ---    0.06773   0.07073   0.07128   0.07204   0.15806
     Eigenvalues ---    0.15993   0.16000   0.16002   0.16030   0.16040
     Eigenvalues ---    0.16113   0.17522   0.21539   0.22014   0.31672
     Eigenvalues ---    0.32066   0.32251   0.32654   0.32840   0.33176
     Eigenvalues ---    0.33388   0.33473   0.35457   0.39066   0.57413
 En-DIIS/RFO-DIIS/Sim-DIIS IScMMF=       -3 using points:    11   10    9    8    7
 RFO step:  Lambda=-2.12508289D-07.
 DidBck=F Rises=F RFO-DIIS coefs:    2.28765   -1.04086   -0.47239    0.19997    0.02563
 Iteration  1 RMS(Cart)=  0.00145063 RMS(Int)=  0.00000156
 Iteration  2 RMS(Cart)=  0.00000161 RMS(Int)=  0.00000012
 Iteration  3 RMS(Cart)=  0.00000000 RMS(Int)=  0.00000012
 Variable       Old X    -DE/DX   Delta X   Delta X   Delta X     New X
                                 (Linear)    (Quad)   (Total)
    R1        2.83704  -0.00007  -0.00014  -0.00006  -0.00020   2.83683
    R2        2.09255   0.00006   0.00002   0.00014   0.00016   2.09271
    R3        2.08657   0.00003   0.00000   0.00009   0.00009   2.08666
    R4        2.09273   0.00000  -0.00008   0.00008  -0.00001   2.09272
    R5        2.53029  -0.00000  -0.00001   0.00000  -0.00001   2.53028
    R6        2.07975   0.00002   0.00006  -0.00001   0.00006   2.07981
    R7        2.83684  -0.00001  -0.00004  -0.00001  -0.00005   2.83680
    R8        2.07980   0.00000   0.00001   0.00001   0.00002   2.07981
    R9        2.08667   0.00000   0.00000   0.00001   0.00001   2.08667
   R10        2.09266   0.00001   0.00009  -0.00002   0.00007   2.09273
   R11        2.09280  -0.00001  -0.00009   0.00002  -0.00007   2.09273
    A1        1.94326   0.00000   0.00004  -0.00009  -0.00005   1.94321
    A2        1.94732  -0.00000  -0.00002   0.00006   0.00004   1.94736
    A3        1.94330  -0.00002  -0.00010   0.00001  -0.00010   1.94321
    A4        1.88450  -0.00001  -0.00023   0.00004  -0.00019   1.88432
    A5        1.85763   0.00001   0.00003   0.00002   0.00005   1.85767
    A6        1.88406   0.00002   0.00029  -0.00004   0.00025   1.88431
    A7        2.18840   0.00004   0.00019   0.00004   0.00023   2.18863
    A8        2.02774  -0.00004  -0.00014  -0.00007  -0.00021   2.02753
    A9        2.06704  -0.00000  -0.00005   0.00003  -0.00002   2.06702
   A10        2.18864   0.00001   0.00007  -0.00002   0.00005   2.18868
   A11        2.06709  -0.00001  -0.00007   0.00002  -0.00006   2.06703
   A12        2.02746   0.00000   0.00001   0.00000   0.00001   2.02747
   A13        1.94735   0.00001   0.00004  -0.00001   0.00004   1.94739
   A14        1.94343  -0.00002  -0.00031   0.00009  -0.00022   1.94320
   A15        1.94299   0.00002   0.00028  -0.00007   0.00021   1.94320
   A16        1.88450  -0.00000  -0.00019   0.00000  -0.00019   1.88431
   A17        1.88414  -0.00000   0.00016  -0.00000   0.00016   1.88429
   A18        1.85768   0.00000   0.00001  -0.00001  -0.00000   1.85768
    D1        2.10680  -0.00001  -0.00014   0.00004  -0.00011   2.10669
    D2       -1.03506  -0.00000   0.00008   0.00001   0.00009  -1.03497
    D3       -0.00004   0.00001   0.00014   0.00000   0.00014   0.00010
    D4        3.14129   0.00001   0.00036  -0.00002   0.00034  -3.14156
    D5       -2.10633  -0.00001  -0.00015   0.00001  -0.00015  -2.10648
    D6        1.03499  -0.00000   0.00007  -0.00002   0.00005   1.03505
    D7       -3.14152   0.00001  -0.00029   0.00014  -0.00015   3.14151
    D8       -0.00042   0.00001   0.00029   0.00005   0.00033  -0.00008
    D9        0.00034   0.00000  -0.00052   0.00016  -0.00036  -0.00002
   D10        3.14145   0.00001   0.00006   0.00007   0.00013   3.14158
   D11       -0.00340  -0.00000   0.00328   0.00001   0.00329  -0.00011
   D12       -2.11037   0.00002   0.00370  -0.00005   0.00365  -2.10671
   D13        2.10280   0.00002   0.00371  -0.00005   0.00366   2.10646
   D14        3.13867  -0.00001   0.00271   0.00010   0.00281   3.14148
   D15        1.03170   0.00001   0.00314   0.00004   0.00318   1.03488
   D16       -1.03832   0.00001   0.00314   0.00004   0.00319  -1.03513
         Item               Value     Threshold  Converged?
 Maximum Force            0.000072     0.000450     YES
 RMS     Force            0.000019     0.000300     YES
 Maximum Displacement     0.004357     0.001800     NO 
 RMS     Displacement     0.001451     0.001200     NO 
 Predicted change in Energy=-9.823092D-08
 GradGradGradGradGradGradGradGradGradGradGradGradGradGradGradGradGradGrad

                          Input orientation:                          
 ---------------------------------------------------------------------
 Center     Atomic      Atomic             Coordinates (Angstroms)
 Number     Number       Type             X           Y           Z
 ---------------------------------------------------------------------
      1          6           0       -1.246661    1.520256   -0.026380
      2          6           0       -0.022216    0.656835   -0.120200
      3          6           0        0.017924   -0.660474    0.116257
      4          6           0        1.242292   -1.523963    0.022361
      5          1           0       -1.111994    2.331193    0.715653
      6          1           0       -2.135269    0.934168    0.267161
      7          1           0       -1.466938    2.013506   -0.993109
      8          1           0        0.909897    1.166107   -0.408464
      9          1           0       -0.914183   -1.169755    0.404537
     10          1           0        2.130937   -0.937963   -0.271268
     11          1           0        1.107501   -2.334923   -0.719640
     12          1           0        1.462612   -2.017197    0.989093
 ---------------------------------------------------------------------
                    Distance matrix (angstroms):
                    1          2          3          4          5
     1  C    0.000000
     2  C    1.501187   0.000000
     3  C    2.524897   1.338965   0.000000
     4  C    3.932497   2.524913   1.501169   0.000000
     5  H    1.107415   2.165581   3.253623   4.570071   0.000000
     6  H    1.104214   2.166092   2.683635   4.184526   1.788830
     7  H    1.107422   2.165582   3.253564   4.569989   1.773917
     8  H    2.218593   1.100586   2.099368   2.744554   2.590195
     9  H    2.744520   2.099378   1.100590   2.218538   3.520307
    10  H    4.184612   2.683704   2.166102   1.104221   4.709352
    11  H    4.570021   3.253645   2.165567   1.107425   5.362729
    12  H    4.570002   3.253566   2.165563   1.107425   5.060816
                    6          7          8          9         10
     6  H    0.000000
     7  H    1.788831   0.000000
     8  H    3.127827   2.590220   0.000000
     9  H    2.436476   3.520242   3.073190   0.000000
    10  H    4.689914   4.709238   2.436569   3.127810   0.000000
    11  H    4.709171   5.060766   3.520382   2.590096   1.788842
    12  H    4.709192   5.362644   3.520239   2.590177   1.788830
                   11         12
    11  H    0.000000
    12  H    1.773928   0.000000
 Stoichiometry    C4H8
 Framework group  C1[X(C4H8)]
 Deg. of freedom    30
 Full point group                 C1      NOp   1
 Largest Abelian subgroup         C1      NOp   1
 Largest concise Abelian subgroup C1      NOp   1
                         Standard orientation:                         
 ---------------------------------------------------------------------
 Center     Atomic      Atomic             Coordinates (Angstroms)
 Number     Number       Type             X           Y           Z
 ---------------------------------------------------------------------
      1          6           0        1.964632   -0.079746    0.000019
      2          6           0        0.540512    0.395066   -0.000036
      3          6           0       -0.540505   -0.395016   -0.000024
      4          6           0       -1.964631    0.079716    0.000021
      5          1           0        2.513505    0.292417   -0.886887
      6          1           0        2.025050   -1.182306   -0.000028
      7          1           0        2.513405    0.292331    0.887030
      8          1           0        0.392470    1.485649   -0.000027
      9          1           0       -0.392475   -1.485606   -0.000048
     10          1           0       -2.025139    1.182278    0.000161
     11          1           0       -2.513448   -0.292564    0.886925
     12          1           0       -2.513417   -0.292320   -0.887004
 ---------------------------------------------------------------------
 Rotational constants (GHZ):          34.4345065           3.6925256           3.4805936
 Standard basis: def2SVPP (5D, 7F)
 There are    76 symmetry adapted cartesian basis functions of A   symmetry.
 There are    72 symmetry adapted basis functions of A   symmetry.
    72 basis functions,   132 primitive gaussians,    76 cartesian basis functions
    16 alpha electrons       16 beta electrons
       nuclear repulsion energy       115.2067746561 Hartrees.
 NAtoms=   12 NActive=   12 NUniq=   12 SFac= 1.00D+00 NAtFMM=   60 NAOKFM=F Big=F
 Integral buffers will be    131072 words long.
 Raffenetti 2 integral format.
 Two-electron integral symmetry is turned on.
 Nuclear repulsion after empirical dispersion term =      115.1945282678 Hartrees.
 One-electron integrals computed using PRISM.
   1 Symmetry operations used in ECPInt.
 ECPInt:  NShTT=     820 NPrTT=    3316 LenC2=     820 LenP2D=    2836.
 LDataN:  DoStor=T MaxTD1= 4 Len=   56
 NBasis=    72 RedAO= T EigKep=  2.04D-03  NBF=    72
 NBsUse=    72 1.00D-06 EigRej= -1.00D+00 NBFU=    72
 Initial guess from the checkpoint file:  "/home/software/g16tmp/Gau-91365.chk"
 B after Tr=    -0.000000    0.000000    0.000000
         Rot=    1.000000    0.000404   -0.000023    0.000004 Ang=   0.05 deg.
 Keep R1 ints in memory in canonical form, NReq=17947838.
 Requested convergence on RMS density matrix=1.00D-08 within 128 cycles.
 Requested convergence on MAX density matrix=1.00D-06.
 Requested convergence on             energy=1.00D-06.
 No special actions if energy rises.
 SCF Done:  E(RB3LYP) =  -157.106934099     A.U. after    7 cycles
            NFock=  7  Conv=0.27D-08     -V/T= 2.0120
   1 Symmetry operations used in ECPInt.
 ECPInt:  NShTT=     820 NPrTT=    3316 LenC2=     820 LenP2D=    2836.
 LDataN:  DoStor=T MaxTD1= 5 Len=  102
 Calling FoFJK, ICntrl=      2127 FMM=F ISym2X=0 I1Cent= 0 IOpClX= 0 NMat=1 NMatS=1 NMatT=0.
 ***** Axes restored to original set *****
 -------------------------------------------------------------------
 Center     Atomic                   Forces (Hartrees/Bohr)
 Number     Number              X              Y              Z
 -------------------------------------------------------------------
      1        6           0.000014435   -0.000006510   -0.000001807
      2        6          -0.000012866   -0.000002081   -0.000001507
      3        6           0.000001947   -0.000000777   -0.000000239
      4        6           0.000000122    0.000001804    0.000002536
      5        1           0.000000266    0.000004260    0.000004370
      6        1          -0.000003741   -0.000000514    0.000000958
      7        1          -0.000000010    0.000000470   -0.000002024
      8        1          -0.000000848    0.000003575   -0.000000957
      9        1           0.000000074    0.000000679   -0.000001049
     10        1           0.000000084   -0.000000364   -0.000000405
     11        1           0.000000335    0.000000822    0.000000002
     12        1           0.000000201   -0.000001364    0.000000121
 -------------------------------------------------------------------
 Cartesian Forces:  Max     0.000014435 RMS     0.000003786

 GradGradGradGradGradGradGradGradGradGradGradGradGradGradGradGradGradGrad
 Berny optimization.
 Using GEDIIS/GDIIS optimizer.
 FormGI is forming the generalized inverse of G from B-inverse, IUseBI=4.
 Internal  Forces:  Max     0.000010160 RMS     0.000002523
 Search for a local minimum.
 Step number  12 out of a maximum of   55
 All quantities printed in internal units (Hartrees-Bohrs-Radians)
 Mixed Optimization -- En-DIIS/RFO-DIIS
 Swapping is turned off.
 Update second derivatives using D2CorX and points    4    5    6    7    8
                                                      9   10   11   12
 DE= -1.32D-07 DEPred=-9.82D-08 R= 1.35D+00
 Trust test= 1.35D+00 RLast= 8.16D-03 DXMaxT set to 1.43D+00
 ITU=  0  0  1  1  1  1  1  1  1  1  1  0
     Eigenvalues ---    0.00241   0.00245   0.01589   0.01843   0.03222
     Eigenvalues ---    0.06472   0.07061   0.07116   0.07203   0.15369
     Eigenvalues ---    0.15963   0.16000   0.16002   0.16008   0.16037
     Eigenvalues ---    0.16134   0.17010   0.20398   0.22007   0.31687
     Eigenvalues ---    0.32036   0.32136   0.32487   0.32840   0.33175
     Eigenvalues ---    0.33213   0.33442   0.34332   0.35450   0.57415
 En-DIIS/RFO-DIIS/Sim-DIIS IScMMF=       -3 using points:    12   11   10    9    8    7
 RFO step:  Lambda=-1.17769252D-09.
 DIIS inversion failure, remove point   6.
 DIIS inversion failure, remove point   5.
 DIIS inversion failure, remove point   4.
 RFO-DIIS uses    3 points instead of    6
 DidBck=F Rises=F RFO-DIIS coefs:    1.13771   -0.27070    0.13299    0.00000    0.00000
                  RFO-DIIS coefs:    0.00000
 Iteration  1 RMS(Cart)=  0.00006626 RMS(Int)=  0.00000000
 Iteration  2 RMS(Cart)=  0.00000000 RMS(Int)=  0.00000000
 Variable       Old X    -DE/DX   Delta X   Delta X   Delta X     New X
                                 (Linear)    (Quad)   (Total)
    R1        2.83683  -0.00001  -0.00003  -0.00000  -0.00003   2.83680
    R2        2.09271   0.00001   0.00003  -0.00001   0.00002   2.09273
    R3        2.08666   0.00000   0.00002  -0.00001   0.00001   2.08667
    R4        2.09272   0.00000   0.00000   0.00000   0.00001   2.09273
    R5        2.53028  -0.00000  -0.00000  -0.00000  -0.00000   2.53027
    R6        2.07981   0.00000   0.00001  -0.00000   0.00001   2.07981
    R7        2.83680  -0.00000  -0.00001   0.00000  -0.00000   2.83680
    R8        2.07981  -0.00000   0.00000  -0.00000  -0.00000   2.07981
    R9        2.08667  -0.00000   0.00000  -0.00000   0.00000   2.08667
   R10        2.09273  -0.00000   0.00000  -0.00000   0.00000   2.09273
   R11        2.09273   0.00000  -0.00000   0.00000  -0.00000   2.09273
    A1        1.94321   0.00000  -0.00001  -0.00000  -0.00001   1.94321
    A2        1.94736   0.00000   0.00001   0.00001   0.00002   1.94738
    A3        1.94321  -0.00000  -0.00002   0.00001  -0.00000   1.94320
    A4        1.88432  -0.00000  -0.00003   0.00001  -0.00001   1.88430
    A5        1.85767   0.00000   0.00000  -0.00001  -0.00000   1.85767
    A6        1.88431  -0.00000   0.00003  -0.00003   0.00000   1.88431
    A7        2.18863   0.00001   0.00004   0.00000   0.00004   2.18867
    A8        2.02753  -0.00001  -0.00004  -0.00001  -0.00005   2.02749
    A9        2.06702   0.00000  -0.00000   0.00001   0.00000   2.06703
   A10        2.18868  -0.00000   0.00001  -0.00001  -0.00000   2.18868
   A11        2.06703  -0.00000  -0.00001   0.00000  -0.00001   2.06703
   A12        2.02747   0.00000   0.00000   0.00000   0.00001   2.02748
   A13        1.94739   0.00000   0.00000  -0.00000   0.00000   1.94739
   A14        1.94320  -0.00000  -0.00003   0.00002  -0.00000   1.94320
   A15        1.94320   0.00000   0.00003  -0.00002   0.00001   1.94321
   A16        1.88431  -0.00000  -0.00002   0.00000  -0.00001   1.88430
   A17        1.88429  -0.00000   0.00001  -0.00000   0.00001   1.88430
   A18        1.85768  -0.00000  -0.00000  -0.00000  -0.00000   1.85767
    D1        2.10669  -0.00000  -0.00008  -0.00002  -0.00010   2.10659
    D2       -1.03497   0.00000  -0.00000  -0.00004  -0.00004  -1.03501
    D3        0.00010  -0.00000  -0.00005  -0.00004  -0.00009   0.00001
    D4       -3.14156   0.00000   0.00003  -0.00006  -0.00003   3.14159
    D5       -2.10648  -0.00000  -0.00009  -0.00002  -0.00011  -2.10659
    D6        1.03505   0.00000  -0.00001  -0.00004  -0.00005   1.03500
    D7        3.14151   0.00000   0.00008  -0.00001   0.00007   3.14158
    D8       -0.00008   0.00000   0.00008   0.00000   0.00008   0.00000
    D9       -0.00002   0.00000   0.00000   0.00001   0.00002  -0.00000
   D10        3.14158   0.00000  -0.00000   0.00002   0.00002  -3.14159
   D11       -0.00011  -0.00000   0.00009   0.00002   0.00011   0.00000
   D12       -2.10671   0.00000   0.00013   0.00000   0.00013  -2.10659
   D13        2.10646   0.00000   0.00013   0.00000   0.00013   2.10659
   D14        3.14148  -0.00000   0.00010   0.00001   0.00011   3.14158
   D15        1.03488   0.00000   0.00013  -0.00001   0.00012   1.03500
   D16       -1.03513   0.00000   0.00013  -0.00001   0.00012  -1.03501
         Item               Value     Threshold  Converged?
 Maximum Force            0.000010     0.000450     YES
 RMS     Force            0.000003     0.000300     YES
 Maximum Displacement     0.000202     0.001800     YES
 RMS     Displacement     0.000066     0.001200     YES
 Predicted change in Energy=-9.921973D-10
 Optimization completed.
    -- Stationary point found.
                           ----------------------------
                           !   Optimized Parameters   !
                           ! (Angstroms and Degrees)  !
 --------------------------                            --------------------------
 ! Name  Definition              Value          Derivative Info.                !
 --------------------------------------------------------------------------------
 ! R1    R(1,2)                  1.5012         -DE/DX =    0.0                 !
 ! R2    R(1,5)                  1.1074         -DE/DX =    0.0                 !
 ! R3    R(1,6)                  1.1042         -DE/DX =    0.0                 !
 ! R4    R(1,7)                  1.1074         -DE/DX =    0.0                 !
 ! R5    R(2,3)                  1.339          -DE/DX =    0.0                 !
 ! R6    R(2,8)                  1.1006         -DE/DX =    0.0                 !
 ! R7    R(3,4)                  1.5012         -DE/DX =    0.0                 !
 ! R8    R(3,9)                  1.1006         -DE/DX =    0.0                 !
 ! R9    R(4,10)                 1.1042         -DE/DX =    0.0                 !
 ! R10   R(4,11)                 1.1074         -DE/DX =    0.0                 !
 ! R11   R(4,12)                 1.1074         -DE/DX =    0.0                 !
 ! A1    A(2,1,5)              111.3379         -DE/DX =    0.0                 !
 ! A2    A(2,1,6)              111.5753         -DE/DX =    0.0                 !
 ! A3    A(2,1,7)              111.3375         -DE/DX =    0.0                 !
 ! A4    A(5,1,6)              107.9633         -DE/DX =    0.0                 !
 ! A5    A(5,1,7)              106.4369         -DE/DX =    0.0                 !
 ! A6    A(6,1,7)              107.9629         -DE/DX =    0.0                 !
 ! A7    A(1,2,3)              125.3993         -DE/DX =    0.0                 !
 ! A8    A(1,2,8)              116.1691         -DE/DX =    0.0                 !
 ! A9    A(3,2,8)              118.4316         -DE/DX =    0.0                 !
 ! A10   A(2,3,4)              125.4023         -DE/DX =    0.0                 !
 ! A11   A(2,3,9)              118.4322         -DE/DX =    0.0                 !
 ! A12   A(4,3,9)              116.1656         -DE/DX =    0.0                 !
 ! A13   A(3,4,10)             111.577          -DE/DX =    0.0                 !
 ! A14   A(3,4,11)             111.3374         -DE/DX =    0.0                 !
 ! A15   A(3,4,12)             111.3371         -DE/DX =    0.0                 !
 ! A16   A(10,4,11)            107.9631         -DE/DX =    0.0                 !
 ! A17   A(10,4,12)            107.9621         -DE/DX =    0.0                 !
 ! A18   A(11,4,12)            106.437          -DE/DX =    0.0                 !
 ! D1    D(5,1,2,3)            120.7043         -DE/DX =    0.0                 !
 ! D2    D(5,1,2,8)            -59.2993         -DE/DX =    0.0                 !
 ! D3    D(6,1,2,3)              0.0055         -DE/DX =    0.0                 !
 ! D4    D(6,1,2,8)            180.0019         -DE/DX =    0.0                 !
 ! D5    D(7,1,2,3)           -120.6925         -DE/DX =    0.0                 !
 ! D6    D(7,1,2,8)             59.3039         -DE/DX =    0.0                 !
 ! D7    D(1,2,3,4)            179.9953         -DE/DX =    0.0                 !
 ! D8    D(1,2,3,9)             -0.0046         -DE/DX =    0.0                 !
 ! D9    D(8,2,3,4)             -0.001          -DE/DX =    0.0                 !
 ! D10   D(8,2,3,9)           -180.0009         -DE/DX =    0.0                 !
 ! D11   D(2,3,4,10)            -0.0065         -DE/DX =    0.0                 !
 ! D12   D(2,3,4,11)          -120.7059         -DE/DX =    0.0                 !
 ! D13   D(2,3,4,12)           120.6914         -DE/DX =    0.0                 !
 ! D14   D(9,3,4,10)           179.9934         -DE/DX =    0.0                 !
 ! D15   D(9,3,4,11)            59.294          -DE/DX =    0.0                 !
 ! D16   D(9,3,4,12)           -59.3086         -DE/DX =    0.0                 !
 --------------------------------------------------------------------------------
 GradGradGradGradGradGradGradGradGradGradGradGradGradGradGradGradGradGrad

                          Input orientation:                          
 ---------------------------------------------------------------------
 Center     Atomic      Atomic             Coordinates (Angstroms)
 Number     Number       Type             X           Y           Z
 ---------------------------------------------------------------------
      1          6           0       -1.246661    1.520256   -0.026380
      2          6           0       -0.022216    0.656835   -0.120200
      3          6           0        0.017924   -0.660474    0.116257
      4          6           0        1.242292   -1.523963    0.022361
      5          1           0       -1.111994    2.331193    0.715653
      6          1           0       -2.135269    0.934168    0.267161
      7          1           0       -1.466938    2.013506   -0.993109
      8          1           0        0.909897    1.166107   -0.408464
      9          1           0       -0.914183   -1.169755    0.404537
     10          1           0        2.130937   -0.937963   -0.271268
     11          1           0        1.107501   -2.334923   -0.719640
     12          1           0        1.462612   -2.017197    0.989093
 ---------------------------------------------------------------------
                    Distance matrix (angstroms):
                    1          2          3          4          5
     1  C    0.000000
     2  C    1.501187   0.000000
     3  C    2.524897   1.338965   0.000000
     4  C    3.932497   2.524913   1.501169   0.000000
     5  H    1.107415   2.165581   3.253623   4.570071   0.000000
     6  H    1.104214   2.166092   2.683635   4.184526   1.788830
     7  H    1.107422   2.165582   3.253564   4.569989   1.773917
     8  H    2.218593   1.100586   2.099368   2.744554   2.590195
     9  H    2.744520   2.099378   1.100590   2.218538   3.520307
    10  H    4.184612   2.683704   2.166102   1.104221   4.709352
    11  H    4.570021   3.253645   2.165567   1.107425   5.362729
    12  H    4.570002   3.253566   2.165563   1.107425   5.060816
                    6          7          8          9         10
     6  H    0.000000
     7  H    1.788831   0.000000
     8  H    3.127827   2.590220   0.000000
     9  H    2.436476   3.520242   3.073190   0.000000
    10  H    4.689914   4.709238   2.436569   3.127810   0.000000
    11  H    4.709171   5.060766   3.520382   2.590096   1.788842
    12  H    4.709192   5.362644   3.520239   2.590177   1.788830
                   11         12
    11  H    0.000000
    12  H    1.773928   0.000000
 Stoichiometry    C4H8
 Framework group  C1[X(C4H8)]
 Deg. of freedom    30
 Full point group                 C1      NOp   1
 Largest Abelian subgroup         C1      NOp   1
 Largest concise Abelian subgroup C1      NOp   1
                         Standard orientation:                         
 ---------------------------------------------------------------------
 Center     Atomic      Atomic             Coordinates (Angstroms)
 Number     Number       Type             X           Y           Z
 ---------------------------------------------------------------------
      1          6           0        1.964632   -0.079746    0.000019
      2          6           0        0.540512    0.395066   -0.000036
      3          6           0       -0.540505   -0.395016   -0.000024
      4          6           0       -1.964631    0.079716    0.000021
      5          1           0        2.513505    0.292417   -0.886887
      6          1           0        2.025050   -1.182306   -0.000028
      7          1           0        2.513405    0.292331    0.887030
      8          1           0        0.392470    1.485649   -0.000027
      9          1           0       -0.392475   -1.485606   -0.000048
     10          1           0       -2.025139    1.182278    0.000161
     11          1           0       -2.513448   -0.292564    0.886925
     12          1           0       -2.513417   -0.292320   -0.887004
 ---------------------------------------------------------------------
 Rotational constants (GHZ):          34.4345065           3.6925256           3.4805936

 **********************************************************************

            Population analysis using the SCF Density.

 **********************************************************************

 Orbital symmetries:
       Occupied  (A) (A) (A) (A) (A) (A) (A) (A) (A) (A) (A) (A)
                 (A) (A) (A) (A)
       Virtual   (A) (A) (A) (A) (A) (A) (A) (A) (A) (A) (A) (A)
                 (A) (A) (A) (A) (A) (A) (A) (A) (A) (A) (A) (A)
                 (A) (A) (A) (A) (A) (A) (A) (A) (A) (A) (A) (A)
                 (A) (A) (A) (A) (A) (A) (A) (A) (A) (A) (A) (A)
                 (A) (A) (A) (A) (A) (A) (A) (A)
 The electronic state is 1-A.
 Alpha  occ. eigenvalues --  -10.17900 -10.17829 -10.17632 -10.17631  -0.78556
 Alpha  occ. eigenvalues --   -0.71770  -0.63292  -0.53924  -0.44237  -0.43962
 Alpha  occ. eigenvalues --   -0.41433  -0.40071  -0.37257  -0.36194  -0.34072
 Alpha  occ. eigenvalues --   -0.24257
 Alpha virt. eigenvalues --    0.02454   0.07588   0.07959   0.08624   0.13575
 Alpha virt. eigenvalues --    0.13636   0.14069   0.15206   0.15791   0.23676
 Alpha virt. eigenvalues --    0.27629   0.39363   0.40489   0.42639   0.43562
 Alpha virt. eigenvalues --    0.44949   0.46097   0.52198   0.60230   0.60248
 Alpha virt. eigenvalues --    0.62965   0.64120   0.65442   0.67117   0.67476
 Alpha virt. eigenvalues --    0.69208   0.70020   0.70529   0.70569   0.71508
 Alpha virt. eigenvalues --    0.73834   0.74178   0.85830   0.89187   0.97656
 Alpha virt. eigenvalues --    1.14139   1.36119   1.45973   1.64868   1.70672
 Alpha virt. eigenvalues --    1.76484   1.81889   1.87347   1.89373   1.97660
 Alpha virt. eigenvalues --    2.03402   2.11213   2.17308   2.17373   2.21880
 Alpha virt. eigenvalues --    2.30988   2.33967   2.46299   2.57996   2.81206
 Alpha virt. eigenvalues --    2.89299
          Condensed to atoms (all electrons):
               1          2          3          4          5          6
     1  C    4.820573   0.398833  -0.034069   0.010960   0.366767   0.370379
     2  C    0.398833   4.757554   0.737679  -0.034072  -0.017108  -0.019374
     3  C   -0.034069   0.737679   4.757551   0.398841   0.000204  -0.011080
     4  C    0.010960  -0.034072   0.398841   4.820574  -0.000353   0.000075
     5  H    0.366767  -0.017108   0.000204  -0.000353   0.604165  -0.022971
     6  H    0.370379  -0.019374  -0.011080   0.000075  -0.022971   0.594577
     7  H    0.366771  -0.017108   0.000200  -0.000353  -0.028637  -0.022971
     8  H   -0.061195   0.374348  -0.034909  -0.020868  -0.002264   0.007323
     9  H   -0.020869  -0.034912   0.374348  -0.061196   0.000232   0.011352
    10  H    0.000075  -0.011081  -0.019372   0.370377   0.000001   0.000053
    11  H   -0.000353   0.000204  -0.017108   0.366769  -0.000019   0.000001
    12  H   -0.000353   0.000200  -0.017107   0.366765   0.000070   0.000001
               7          8          9         10         11         12
     1  C    0.366771  -0.061195  -0.020869   0.000075  -0.000353  -0.000353
     2  C   -0.017108   0.374348  -0.034912  -0.011081   0.000204   0.000200
     3  C    0.000200  -0.034909   0.374348  -0.019372  -0.017108  -0.017107
     4  C   -0.000353  -0.020868  -0.061196   0.370377   0.366769   0.366765
     5  H   -0.028637  -0.002264   0.000232   0.000001  -0.000019   0.000070
     6  H   -0.022971   0.007323   0.011352   0.000053   0.000001   0.000001
     7  H    0.604160  -0.002264   0.000232   0.000001   0.000070  -0.000019
     8  H   -0.002264   0.656986   0.010806   0.011352   0.000232   0.000232
     9  H    0.000232   0.010806   0.656990   0.007324  -0.002266  -0.002263
    10  H    0.000001   0.011352   0.007324   0.594581  -0.022973  -0.022972
    11  H    0.000070   0.000232  -0.002266  -0.022973   0.604164  -0.028637
    12  H   -0.000019   0.000232  -0.002263  -0.022972  -0.028637   0.604165
 Mulliken charges:
               1
     1  C   -0.217520
     2  C   -0.135164
     3  C   -0.135177
     4  C   -0.217519
     5  H    0.099914
     6  H    0.092636
     7  H    0.099918
     8  H    0.060221
     9  H    0.060222
    10  H    0.092635
    11  H    0.099916
    12  H    0.099918
 Sum of Mulliken charges =  -0.00000
 Mulliken charges with hydrogens summed into heavy atoms:
               1
     1  C    0.074949
     2  C   -0.074943
     3  C   -0.074955
     4  C    0.074950
 Electronic spatial extent (au):  <R**2>=            402.7709
 Charge=             -0.0000 electrons
 Dipole moment (field-independent basis, Debye):
    X=             -0.0000    Y=             -0.0000    Z=              0.0000  Tot=              0.0001
 Quadrupole moment (field-independent basis, Debye-Ang):
   XX=            -25.5980   YY=            -25.8558   ZZ=            -27.9765
   XY=              0.4523   XZ=              0.0001   YZ=              0.0000
 Traceless Quadrupole moment (field-independent basis, Debye-Ang):
   XX=              0.8788   YY=              0.6210   ZZ=             -1.4998
   XY=              0.4523   XZ=              0.0001   YZ=              0.0000
 Octapole moment (field-independent basis, Debye-Ang**2):
  XXX=              0.0002  YYY=              0.0001  ZZZ=              0.0002  XYY=             -0.0001
  XXY=             -0.0000  XXZ=              0.0001  XZZ=             -0.0000  YZZ=             -0.0001
  YYZ=              0.0001  XYZ=              0.0001
 Hexadecapole moment (field-independent basis, Debye-Ang**3):
 XXXX=           -448.0280 YYYY=            -69.1913 ZZZZ=            -43.6388 XXXY=              4.1200
 XXXZ=             -0.0000 YYYX=             -1.2510 YYYZ=              0.0002 ZZZX=              0.0007
 ZZZY=             -0.0000 XXYY=            -85.5761 XXZZ=            -77.7032 YYZZ=            -20.0482
 XXYZ=             -0.0004 YYXZ=             -0.0005 ZZXY=              1.6532
 N-N= 1.151945282678D+02 E-N=-5.927256206092D+02  KE= 1.552433664889D+02
 Unable to Open any file for archive entry.
 1\1\GINC-NODE05\FOpt\RB3LYP\def2SVPP\C4H8\XUHJ\19-Dec-2023\0\\#N opt f
 req B3LYP/def2SVPP symm=veryloose em=gd3bj scale=0.961 press=0.987 int
 =superfine\\CC=CC_1\\0,1\C,-1.2466609237,1.5202560423,-0.0263799719\C,
 -0.0222158536,0.6568354113,-0.1202003612\C,0.0179243752,-0.6604737756,
 0.11625661\C,1.2422924428,-1.5239629844,0.0223612426\H,-1.1119942258,2
 .3311932532,0.7156531968\H,-2.1352687125,0.9341683332,0.26716141\H,-1.
 4669383222,2.0135057507,-0.9931092471\H,0.909897339,1.1661072483,-0.40
 84641458\H,-0.9141833103,-1.1697553105,0.4045370267\H,2.1309368569,-0.
 9379626597,-0.2712684051\H,1.1075013546,-2.3349227403,-0.7196400834\H,
 1.4626119797,-2.0171965685,0.9890927283\\Version=ES64L-G16RevC.01\Stat
 e=1-A\HF=-157.1069341\RMSD=2.703e-09\RMSF=3.786e-06\Dipole=-0.0000025,
 -0.0000159,-0.0000136\Quadrupole=0.1550626,0.8420225,-0.9970851,-0.057
 6289,-0.2530844,-0.3517631\PG=C01 [X(C4H8)]\\@
 The archive entry for this job was punched.


 IT TAKES GREATER CHARACTER TO CARRY OFF GOOD FORTUNE THAN BAD.
                     FRENCH PROVERB.
 Job cpu time:       0 days  0 hours 10 minutes  3.4 seconds.
 Elapsed time:       0 days  0 hours  0 minutes 40.7 seconds.
 File lengths (MBytes):  RWF=     17 Int=      0 D2E=      0 Chk=      2 Scr=      2
 Normal termination of Gaussian 16 at Tue Dec 19 21:48:49 2023.
 Link1:  Proceeding to internal job step number  2.
 --------------------------------------------------------------------
 #N Geom=AllCheck Guess=TCheck SCRF=Check GenChk RB3LYP/def2SVPP Freq
 --------------------------------------------------------------------
 1/10=4,29=7,30=1,38=1,40=1,113=-987000,114=961000/1,3;
 2/12=2,17=2,18=2,40=1/2;
 3/5=43,7=202,11=2,14=-4,25=1,30=1,70=2,71=2,74=-5,75=-7,116=1,124=41,140=1/1,2,3;
 4/5=101/1;
 5/5=2,38=6,98=1/2;
 8/6=4,10=90,11=11/1;
 11/6=1,8=1,9=11,15=111,16=1/1,2,10;
 10/6=1/2;
 6/7=2,8=2,9=2,10=2,28=1/1;
 7/8=1,10=1,25=1/1,2,3,16;
 1/10=4,30=1/3;
 99//99;
 Structure from the checkpoint file:  "/home/software/g16tmp/Gau-91365.chk"
 -------
 CC=CC_1
 -------
 Charge =  0 Multiplicity = 1
 Redundant internal coordinates found in file.  (old form).
 C,0,-1.2466609237,1.5202560423,-0.0263799719
 C,0,-0.0222158536,0.6568354113,-0.1202003612
 C,0,0.0179243752,-0.6604737756,0.11625661
 C,0,1.2422924428,-1.5239629844,0.0223612426
 H,0,-1.1119942258,2.3311932532,0.7156531968
 H,0,-2.1352687125,0.9341683332,0.26716141
 H,0,-1.4669383222,2.0135057507,-0.9931092471
 H,0,0.909897339,1.1661072483,-0.4084641458
 H,0,-0.9141833103,-1.1697553105,0.4045370267
 H,0,2.1309368569,-0.9379626597,-0.2712684051
 H,0,1.1075013546,-2.3349227403,-0.7196400834
 H,0,1.4626119797,-2.0171965685,0.9890927283
 Recover connectivity data from disk.

 GradGradGradGradGradGradGradGradGradGradGradGradGradGradGradGradGradGrad
 Berny optimization.
 Initialization pass.
                           ----------------------------
                           !    Initial Parameters    !
                           ! (Angstroms and Degrees)  !
 --------------------------                            --------------------------
 ! Name  Definition              Value          Derivative Info.                !
 --------------------------------------------------------------------------------
 ! R1    R(1,2)                  1.5012         calculate D2E/DX2 analytically  !
 ! R2    R(1,5)                  1.1074         calculate D2E/DX2 analytically  !
 ! R3    R(1,6)                  1.1042         calculate D2E/DX2 analytically  !
 ! R4    R(1,7)                  1.1074         calculate D2E/DX2 analytically  !
 ! R5    R(2,3)                  1.339          calculate D2E/DX2 analytically  !
 ! R6    R(2,8)                  1.1006         calculate D2E/DX2 analytically  !
 ! R7    R(3,4)                  1.5012         calculate D2E/DX2 analytically  !
 ! R8    R(3,9)                  1.1006         calculate D2E/DX2 analytically  !
 ! R9    R(4,10)                 1.1042         calculate D2E/DX2 analytically  !
 ! R10   R(4,11)                 1.1074         calculate D2E/DX2 analytically  !
 ! R11   R(4,12)                 1.1074         calculate D2E/DX2 analytically  !
 ! A1    A(2,1,5)              111.3379         calculate D2E/DX2 analytically  !
 ! A2    A(2,1,6)              111.5753         calculate D2E/DX2 analytically  !
 ! A3    A(2,1,7)              111.3375         calculate D2E/DX2 analytically  !
 ! A4    A(5,1,6)              107.9633         calculate D2E/DX2 analytically  !
 ! A5    A(5,1,7)              106.4369         calculate D2E/DX2 analytically  !
 ! A6    A(6,1,7)              107.9629         calculate D2E/DX2 analytically  !
 ! A7    A(1,2,3)              125.3993         calculate D2E/DX2 analytically  !
 ! A8    A(1,2,8)              116.1691         calculate D2E/DX2 analytically  !
 ! A9    A(3,2,8)              118.4316         calculate D2E/DX2 analytically  !
 ! A10   A(2,3,4)              125.4023         calculate D2E/DX2 analytically  !
 ! A11   A(2,3,9)              118.4322         calculate D2E/DX2 analytically  !
 ! A12   A(4,3,9)              116.1656         calculate D2E/DX2 analytically  !
 ! A13   A(3,4,10)             111.577          calculate D2E/DX2 analytically  !
 ! A14   A(3,4,11)             111.3374         calculate D2E/DX2 analytically  !
 ! A15   A(3,4,12)             111.3371         calculate D2E/DX2 analytically  !
 ! A16   A(10,4,11)            107.9631         calculate D2E/DX2 analytically  !
 ! A17   A(10,4,12)            107.9621         calculate D2E/DX2 analytically  !
 ! A18   A(11,4,12)            106.437          calculate D2E/DX2 analytically  !
 ! D1    D(5,1,2,3)            120.7043         calculate D2E/DX2 analytically  !
 ! D2    D(5,1,2,8)            -59.2993         calculate D2E/DX2 analytically  !
 ! D3    D(6,1,2,3)              0.0055         calculate D2E/DX2 analytically  !
 ! D4    D(6,1,2,8)           -179.9981         calculate D2E/DX2 analytically  !
 ! D5    D(7,1,2,3)           -120.6925         calculate D2E/DX2 analytically  !
 ! D6    D(7,1,2,8)             59.3039         calculate D2E/DX2 analytically  !
 ! D7    D(1,2,3,4)            179.9953         calculate D2E/DX2 analytically  !
 ! D8    D(1,2,3,9)             -0.0046         calculate D2E/DX2 analytically  !
 ! D9    D(8,2,3,4)             -0.001          calculate D2E/DX2 analytically  !
 ! D10   D(8,2,3,9)            179.9991         calculate D2E/DX2 analytically  !
 ! D11   D(2,3,4,10)            -0.0065         calculate D2E/DX2 analytically  !
 ! D12   D(2,3,4,11)          -120.7059         calculate D2E/DX2 analytically  !
 ! D13   D(2,3,4,12)           120.6914         calculate D2E/DX2 analytically  !
 ! D14   D(9,3,4,10)           179.9934         calculate D2E/DX2 analytically  !
 ! D15   D(9,3,4,11)            59.294          calculate D2E/DX2 analytically  !
 ! D16   D(9,3,4,12)           -59.3086         calculate D2E/DX2 analytically  !
 --------------------------------------------------------------------------------
 Trust Radius=3.00D-01 FncErr=1.00D-07 GrdErr=1.00D-07 EigMax=2.50D+02 EigMin=1.00D-04
 Number of steps in this run=      2 maximum allowed number of steps=      2.
 GradGradGradGradGradGradGradGradGradGradGradGradGradGradGradGradGradGrad

                          Input orientation:                          
 ---------------------------------------------------------------------
 Center     Atomic      Atomic             Coordinates (Angstroms)
 Number     Number       Type             X           Y           Z
 ---------------------------------------------------------------------
      1          6           0       -1.246661    1.520256   -0.026380
      2          6           0       -0.022216    0.656835   -0.120200
      3          6           0        0.017924   -0.660474    0.116257
      4          6           0        1.242292   -1.523963    0.022361
      5          1           0       -1.111994    2.331193    0.715653
      6          1           0       -2.135269    0.934168    0.267161
      7          1           0       -1.466938    2.013506   -0.993109
      8          1           0        0.909897    1.166107   -0.408464
      9          1           0       -0.914183   -1.169755    0.404537
     10          1           0        2.130937   -0.937963   -0.271268
     11          1           0        1.107501   -2.334923   -0.719640
     12          1           0        1.462612   -2.017197    0.989093
 ---------------------------------------------------------------------
                    Distance matrix (angstroms):
                    1          2          3          4          5
     1  C    0.000000
     2  C    1.501187   0.000000
     3  C    2.524897   1.338965   0.000000
     4  C    3.932497   2.524913   1.501169   0.000000
     5  H    1.107415   2.165581   3.253623   4.570071   0.000000
     6  H    1.104214   2.166092   2.683635   4.184526   1.788830
     7  H    1.107422   2.165582   3.253564   4.569989   1.773917
     8  H    2.218593   1.100586   2.099368   2.744554   2.590195
     9  H    2.744520   2.099378   1.100590   2.218538   3.520307
    10  H    4.184612   2.683704   2.166102   1.104221   4.709352
    11  H    4.570021   3.253645   2.165567   1.107425   5.362729
    12  H    4.570002   3.253566   2.165563   1.107425   5.060816
                    6          7          8          9         10
     6  H    0.000000
     7  H    1.788831   0.000000
     8  H    3.127827   2.590220   0.000000
     9  H    2.436476   3.520242   3.073190   0.000000
    10  H    4.689914   4.709238   2.436569   3.127810   0.000000
    11  H    4.709171   5.060766   3.520382   2.590096   1.788842
    12  H    4.709192   5.362644   3.520239   2.590177   1.788830
                   11         12
    11  H    0.000000
    12  H    1.773928   0.000000
 Stoichiometry    C4H8
 Framework group  C2H[SGH(C4H4),X(H4)]
 Deg. of freedom    10
 Full point group                 C2H     NOp   4
 Largest Abelian subgroup         C2H     NOp   4
 Largest concise Abelian subgroup C2H     NOp   4
                         Standard orientation:                         
 ---------------------------------------------------------------------
 Center     Atomic      Atomic             Coordinates (Angstroms)
 Number     Number       Type             X           Y           Z
 ---------------------------------------------------------------------
      1          6           0       -0.000000   -1.966250    0.000000
      2          6           0        0.416662   -0.524044    0.000000
      3          6           0       -0.416662    0.524044    0.000000
      4          6           0        0.000000    1.966250    0.000000
      5          1           0        0.394117   -2.499577   -0.886887
      6          1           0       -1.099203   -2.071335    0.000000
      7          1           0        0.394117   -2.499577    0.886887
      8          1           0        1.500345   -0.331894   -0.000000
      9          1           0       -1.500345    0.331894   -0.000000
     10          1           0        1.099203    2.071335    0.000000
     11          1           0       -0.394117    2.499577    0.886887
     12          1           0       -0.394117    2.499577   -0.886887
 ---------------------------------------------------------------------
 Rotational constants (GHZ):          34.4340128           3.6925130           3.4805518
 Standard basis: def2SVPP (5D, 7F)
 There are    28 symmetry adapted cartesian basis functions of AG  symmetry.
 There are    10 symmetry adapted cartesian basis functions of BG  symmetry.
 There are    10 symmetry adapted cartesian basis functions of AU  symmetry.
 There are    28 symmetry adapted cartesian basis functions of BU  symmetry.
 There are    26 symmetry adapted basis functions of AG  symmetry.
 There are    10 symmetry adapted basis functions of BG  symmetry.
 There are    10 symmetry adapted basis functions of AU  symmetry.
 There are    26 symmetry adapted basis functions of BU  symmetry.
    72 basis functions,   132 primitive gaussians,    76 cartesian basis functions
    16 alpha electrons       16 beta electrons
       nuclear repulsion energy       115.2062983461 Hartrees.
 NAtoms=   12 NActive=   12 NUniq=    5 SFac= 4.00D+00 NAtFMM=   60 NAOKFM=F Big=F
 Integral buffers will be    131072 words long.
 Raffenetti 2 integral format.
 Two-electron integral symmetry is turned on.
 Nuclear repulsion after empirical dispersion term =      115.1940520129 Hartrees.
 One-electron integrals computed using PRISM.
   4 Symmetry operations used in ECPInt.
 ECPInt:  NShTT=     820 NPrTT=    3316 LenC2=     820 LenP2D=    2836.
 LDataN:  DoStor=T MaxTD1= 4 Len=   56
 NBasis=    72 RedAO= T EigKep=  2.04D-03  NBF=    26    10    10    26
 NBsUse=    72 1.00D-06 EigRej= -1.00D+00 NBFU=    26    10    10    26
 Initial guess from the checkpoint file:  "/home/software/g16tmp/Gau-91365.chk"
 B after Tr=     0.000000    0.000000    0.000000
         Rot=    0.721302    0.000016   -0.000017    0.692620 Ang=  87.68 deg.
 Initial guess orbital symmetries:
       Occupied  (AG) (BU) (AG) (BU) (AG) (BU) (AG) (BU) (BU) (AG)
                 (AU) (BG) (BU) (AG) (AG) (AU)
       Virtual   (BG) (AG) (BU) (BU) (AG) (BG) (AU) (AG) (BU) (BU)
                 (AG) (BU) (AG) (BU) (AG) (BG) (AU) (BU) (AU) (BG)
                 (AG) (BU) (AG) (AG) (BU) (BU) (AG) (AU) (BU) (BG)
                 (BU) (AG) (AG) (BU) (BU) (AG) (AU) (BG) (AU) (AG)
                 (BU) (BU) (AG) (BG) (AG) (AU) (BU) (BU) (BG) (AG)
                 (AU) (AG) (BG) (BU) (BU) (AG)
 Keep R1 ints in memory in symmetry-blocked form, NReq=17954962.
 Requested convergence on RMS density matrix=1.00D-08 within 128 cycles.
 Requested convergence on MAX density matrix=1.00D-06.
 Requested convergence on             energy=1.00D-06.
 No special actions if energy rises.
 SCF Done:  E(RB3LYP) =  -157.106934067     A.U. after    5 cycles
            NFock=  5  Conv=0.30D-08     -V/T= 2.0120
 DoSCS=F DFT=T ScalE2(SS,OS)=  1.000000  1.000000
 Range of M.O.s used for correlation:     1    72
 NBasis=    72 NAE=    16 NBE=    16 NFC=     0 NFV=     0
 NROrb=     72 NOA=    16 NOB=    16 NVA=    56 NVB=    56
   4 Symmetry operations used in ECPInt.
 ECPInt:  NShTT=     820 NPrTT=    3316 LenC2=     820 LenP2D=    2836.
 LDataN:  DoStor=T MaxTD1= 5 Len=  102
 Symmetrizing basis deriv contribution to polar:
 IMax=3 JMax=2 DiffMx= 0.00D+00
 G2DrvN: will do    13 centers at a time, making    1 passes.
 Calling FoFCou, ICntrl=  3107 FMM=F I1Cent=   0 AccDes= 0.00D+00.
 End of G2Drv F.D. properties file   721 does not exist.
 End of G2Drv F.D. properties file   722 does not exist.
 End of G2Drv F.D. properties file   788 does not exist.
          IDoAtm=111111111111
          Differentiating once with respect to electric field.
                with respect to dipole field.
          Differentiating once with respect to nuclear coordinates.
 Keep R1 ints in memory in symmetry-blocked form, NReq=17865835.
          There are    18 degrees of freedom in the 1st order CPHF.  IDoFFX=4 NUNeed=    18.
     18 vectors produced by pass  0 Test12= 4.98D-15 5.56D-09 XBig12= 4.26D+01 4.11D+00.
 AX will form    18 AO Fock derivatives at one time.
     18 vectors produced by pass  1 Test12= 4.98D-15 5.56D-09 XBig12= 5.45D+00 7.44D-01.
     18 vectors produced by pass  2 Test12= 4.98D-15 5.56D-09 XBig12= 1.18D-01 6.84D-02.
     18 vectors produced by pass  3 Test12= 4.98D-15 5.56D-09 XBig12= 1.05D-03 8.18D-03.
     18 vectors produced by pass  4 Test12= 4.98D-15 5.56D-09 XBig12= 4.13D-06 3.47D-04.
     13 vectors produced by pass  5 Test12= 4.98D-15 5.56D-09 XBig12= 5.92D-09 1.26D-05.
      4 vectors produced by pass  6 Test12= 4.98D-15 5.56D-09 XBig12= 4.48D-12 3.34D-07.
      2 vectors produced by pass  7 Test12= 4.98D-15 5.56D-09 XBig12= 4.17D-15 8.84D-09.
 InvSVY:  IOpt=1 It=  1 EMax= 3.55D-15
 Solved reduced A of dimension   109 with    18 vectors.
 Isotropic polarizability for W=    0.000000       45.08 Bohr**3.
 End of Minotr F.D. properties file   721 does not exist.
 End of Minotr F.D. properties file   722 does not exist.
 End of Minotr F.D. properties file   788 does not exist.

 **********************************************************************

            Population analysis using the SCF Density.

 **********************************************************************

 Orbital symmetries:
       Occupied  (AG) (BU) (AG) (BU) (AG) (BU) (AG) (BU) (BU) (AG)
                 (AU) (BG) (BU) (AG) (AG) (AU)
       Virtual   (BG) (AG) (BU) (BU) (AG) (BG) (AU) (AG) (BU) (BU)
                 (AG) (BU) (AG) (BU) (AG) (BG) (AU) (BU) (AU) (BG)
                 (AG) (BU) (AG) (AG) (BU) (BU) (AG) (AU) (BU) (BG)
                 (BU) (AG) (AG) (BU) (BU) (AG) (AU) (BG) (AU) (AG)
                 (BU) (BU) (AG) (BG) (AG) (AU) (BU) (BU) (BG) (AG)
                 (AU) (AG) (BG) (BU) (BU) (AG)
 The electronic state is 1-AG.
 Alpha  occ. eigenvalues --  -10.17901 -10.17830 -10.17632 -10.17630  -0.78555
 Alpha  occ. eigenvalues --   -0.71770  -0.63292  -0.53924  -0.44238  -0.43962
 Alpha  occ. eigenvalues --   -0.41432  -0.40069  -0.37258  -0.36195  -0.34073
 Alpha  occ. eigenvalues --   -0.24257
 Alpha virt. eigenvalues --    0.02453   0.07589   0.07959   0.08624   0.13574
 Alpha virt. eigenvalues --    0.13636   0.14070   0.15206   0.15792   0.23676
 Alpha virt. eigenvalues --    0.27629   0.39361   0.40489   0.42640   0.43562
 Alpha virt. eigenvalues --    0.44947   0.46095   0.52197   0.60229   0.60247
 Alpha virt. eigenvalues --    0.62965   0.64120   0.65447   0.67118   0.67477
 Alpha virt. eigenvalues --    0.69209   0.70022   0.70530   0.70569   0.71509
 Alpha virt. eigenvalues --    0.73838   0.74178   0.85830   0.89185   0.97653
 Alpha virt. eigenvalues --    1.14138   1.36120   1.45973   1.64866   1.70669
 Alpha virt. eigenvalues --    1.76483   1.81888   1.87347   1.89374   1.97657
 Alpha virt. eigenvalues --    2.03402   2.11211   2.17308   2.17377   2.21880
 Alpha virt. eigenvalues --    2.30989   2.33967   2.46294   2.57995   2.81202
 Alpha virt. eigenvalues --    2.89294
          Condensed to atoms (all electrons):
               1          2          3          4          5          6
     1  C    4.820559   0.398838  -0.034070   0.010959   0.366769   0.370382
     2  C    0.398838   4.757568   0.737650  -0.034070  -0.017106  -0.019372
     3  C   -0.034070   0.737650   4.757568   0.398838   0.000203  -0.011081
     4  C    0.010959  -0.034070   0.398838   4.820559  -0.000353   0.000075
     5  H    0.366769  -0.017106   0.000203  -0.000353   0.604178  -0.022969
     6  H    0.370382  -0.019372  -0.011081   0.000075  -0.022969   0.594566
     7  H    0.366769  -0.017106   0.000203  -0.000353  -0.028648  -0.022969
     8  H   -0.061191   0.374351  -0.034911  -0.020866  -0.002264   0.007323
     9  H   -0.020866  -0.034911   0.374351  -0.061191   0.000232   0.011352
    10  H    0.000075  -0.011081  -0.019372   0.370382   0.000001   0.000053
    11  H   -0.000353   0.000203  -0.017106   0.366769  -0.000019   0.000001
    12  H   -0.000353   0.000203  -0.017106   0.366769   0.000070   0.000001
               7          8          9         10         11         12
     1  C    0.366769  -0.061191  -0.020866   0.000075  -0.000353  -0.000353
     2  C   -0.017106   0.374351  -0.034911  -0.011081   0.000203   0.000203
     3  C    0.000203  -0.034911   0.374351  -0.019372  -0.017106  -0.017106
     4  C   -0.000353  -0.020866  -0.061191   0.370382   0.366769   0.366769
     5  H   -0.028648  -0.002264   0.000232   0.000001  -0.000019   0.000070
     6  H   -0.022969   0.007323   0.011352   0.000053   0.000001   0.000001
     7  H    0.604178  -0.002264   0.000232   0.000001   0.000070  -0.000019
     8  H   -0.002264   0.656974   0.010804   0.011352   0.000232   0.000232
     9  H    0.000232   0.010804   0.656974   0.007323  -0.002264  -0.002264
    10  H    0.000001   0.011352   0.007323   0.594566  -0.022969  -0.022969
    11  H    0.000070   0.000232  -0.002264  -0.022969   0.604178  -0.028648
    12  H   -0.000019   0.000232  -0.002264  -0.022969  -0.028648   0.604178
 Mulliken charges:
               1
     1  C   -0.217519
     2  C   -0.135165
     3  C   -0.135165
     4  C   -0.217519
     5  H    0.099907
     6  H    0.092641
     7  H    0.099907
     8  H    0.060228
     9  H    0.060228
    10  H    0.092641
    11  H    0.099907
    12  H    0.099907
 Sum of Mulliken charges =  -0.00000
 Mulliken charges with hydrogens summed into heavy atoms:
               1
     1  C    0.074937
     2  C   -0.074937
     3  C   -0.074937
     4  C    0.074937
 APT charges:
               1
     1  C    0.058337
     2  C    0.019087
     3  C    0.019087
     4  C    0.058337
     5  H   -0.026261
     6  H   -0.014277
     7  H   -0.026261
     8  H   -0.010625
     9  H   -0.010625
    10  H   -0.014277
    11  H   -0.026261
    12  H   -0.026261
 Sum of APT charges =  -0.00000
 APT charges with hydrogens summed into heavy atoms:
               1
     1  C   -0.008462
     2  C    0.008462
     3  C    0.008462
     4  C   -0.008462
 Electronic spatial extent (au):  <R**2>=            402.7736
 Charge=             -0.0000 electrons
 Dipole moment (field-independent basis, Debye):
    X=             -0.0000    Y=              0.0000    Z=              0.0000  Tot=              0.0000
 Quadrupole moment (field-independent basis, Debye-Ang):
   XX=            -25.8182   YY=            -25.6344   ZZ=            -27.9772
   XY=             -0.4617   XZ=              0.0000   YZ=             -0.0000
 Traceless Quadrupole moment (field-independent basis, Debye-Ang):
   XX=              0.6584   YY=              0.8423   ZZ=             -1.5006
   XY=             -0.4617   XZ=              0.0000   YZ=             -0.0000
 Octapole moment (field-independent basis, Debye-Ang**2):
  XXX=             -0.0000  YYY=              0.0000  ZZZ=             -0.0000  XYY=             -0.0000
  XXY=              0.0000  XXZ=             -0.0000  XZZ=             -0.0000  YZZ=             -0.0000
  YYZ=              0.0000  XYZ=             -0.0000
 Hexadecapole moment (field-independent basis, Debye-Ang**3):
 XXXX=            -70.0100 YYYY=           -448.0543 ZZZZ=            -43.6381 XXXY=              8.8201
 XXXZ=              0.0000 YYYX=              3.6671 YYYZ=              0.0000 ZZZX=              0.0000
 ZZZY=              0.0000 XXYY=            -85.1477 XXZZ=            -20.0091 YYZZ=            -77.7455
 XXYZ=              0.0000 YYXZ=              0.0000 ZZXY=              0.6889
 N-N= 1.151940520129D+02 E-N=-5.927246453872D+02  KE= 1.552433562171D+02
 Symmetry AG   KE= 7.642386912182D+01
 Symmetry BG   KE= 1.901318727549D+00
 Symmetry AU   KE= 4.091616211046D+00
 Symmetry BU   KE= 7.282655215669D+01
  Exact polarizability:      43.097      -6.122      61.097      -0.000       0.000      31.052
 Approx polarizability:      62.401     -13.732      76.495      -0.000      -0.000      42.109
   4 Symmetry operations used in ECPInt.
 ECPInt:  NShTT=     820 NPrTT=    3316 LenC2=     820 LenP2D=    2836.
 LDataN:  DoStor=T MaxTD1= 6 Len=  172
 Calling FoFJK, ICntrl=    100127 FMM=F ISym2X=1 I1Cent= 0 IOpClX= 0 NMat=1 NMatS=1 NMatT=0.
 Full mass-weighted force constant matrix:
 Low frequencies ---   -5.4005   -0.0010   -0.0009   -0.0002    2.9105    4.1913
 Low frequencies ---  177.1733  230.3565  245.3258
 Diagonal vibrational polarizability:
        0.7636047       0.8491798       3.9479866
 Harmonic frequencies (cm**-1), IR intensities (KM/Mole), Raman scattering
 activities (A**4/AMU), depolarization ratios for plane and unpolarized
 incident light, reduced masses (AMU), force constants (mDyne/A),
 and normal coordinates:
                      1                      2                      3
                     AU                     BG                     AU
 Frequencies --    177.1733               230.3560               245.3258
 Red. masses --      1.0735                 1.2631                 2.1068
 Frc consts  --      0.0199                 0.0395                 0.0747
 IR Inten    --      1.7789                 0.0000                 3.1192
  Atom  AN      X      Y      Z        X      Y      Z        X      Y      Z
     1   6    -0.00   0.00  -0.03     0.00  -0.00  -0.00     0.00   0.00  -0.13
     2   6     0.00   0.00   0.04    -0.00  -0.00   0.11     0.00   0.00   0.18
     3   6    -0.00  -0.00   0.04    -0.00  -0.00  -0.11    -0.00  -0.00   0.18
     4   6     0.00  -0.00  -0.03     0.00  -0.00   0.00    -0.00  -0.00  -0.13
     5   1    -0.32   0.15  -0.26    -0.27   0.16  -0.22     0.22   0.19  -0.15
     6   1    -0.00   0.00   0.33     0.00  -0.00   0.31    -0.00   0.00  -0.44
     7   1     0.32  -0.15  -0.26     0.27  -0.16  -0.22    -0.22  -0.19  -0.15
     8   1     0.00   0.00   0.03    -0.00   0.00   0.31     0.00   0.00   0.18
     9   1    -0.00  -0.00   0.03    -0.00   0.00  -0.31    -0.00  -0.00   0.18
    10   1     0.00  -0.00   0.33     0.00  -0.00  -0.31     0.00  -0.00  -0.44
    11   1    -0.32   0.15  -0.26     0.27  -0.16   0.22     0.22   0.19  -0.15
    12   1     0.32  -0.15  -0.26    -0.27   0.16   0.22    -0.22  -0.19  -0.15
                      4                      5                      6
                     BU                     AG                     BG
 Frequencies --    285.0026               504.2863               757.6922
 Red. masses --      2.3355                 2.7612                 1.2914
 Frc consts  --      0.1118                 0.4137                 0.4368
 IR Inten    --      0.9839                 0.0000                 0.0000
  Atom  AN      X      Y      Z        X      Y      Z        X      Y      Z
     1   6    -0.14   0.04  -0.00    -0.01   0.23   0.00    -0.00   0.00  -0.03
     2   6     0.19  -0.04   0.00     0.11   0.11  -0.00     0.00  -0.00  -0.11
     3   6     0.19  -0.04  -0.00    -0.11  -0.11  -0.00     0.00  -0.00   0.11
     4   6    -0.14   0.04   0.00     0.01  -0.23   0.00    -0.00   0.00   0.03
     5   1    -0.31  -0.08  -0.00    -0.16   0.14  -0.01    -0.09  -0.27   0.09
     6   1    -0.17   0.36   0.00    -0.04   0.51   0.00    -0.00  -0.00   0.16
     7   1    -0.31  -0.08   0.00    -0.16   0.14   0.01     0.09   0.27   0.09
     8   1     0.21  -0.18   0.00     0.08   0.26   0.00     0.00  -0.00   0.53
     9   1     0.21  -0.18  -0.00    -0.08  -0.26   0.00     0.00  -0.00  -0.53
    10   1    -0.17   0.36  -0.00     0.04  -0.51   0.00    -0.00  -0.00  -0.16
    11   1    -0.31  -0.08  -0.00     0.16  -0.14   0.01     0.09   0.27  -0.09
    12   1    -0.31  -0.08   0.00     0.16  -0.14  -0.01    -0.09  -0.27  -0.09
                      7                      8                      9
                     AG                     BU                     AU
 Frequencies --    881.6538               987.5243               999.3856
 Red. masses --      1.6984                 1.2223                 1.0539
 Frc consts  --      0.7779                 0.7023                 0.6202
 IR Inten    --      0.0000                16.9199                26.2068
  Atom  AN      X      Y      Z        X      Y      Z        X      Y      Z
     1   6    -0.03   0.14  -0.00     0.07  -0.06  -0.00     0.00  -0.00  -0.03
     2   6    -0.10  -0.03   0.00    -0.02   0.03  -0.00    -0.00  -0.00  -0.04
     3   6     0.10   0.03   0.00    -0.02   0.03   0.00     0.00   0.00  -0.04
     4   6     0.03  -0.14  -0.00     0.07  -0.06   0.00    -0.00   0.00  -0.03
     5   1     0.26   0.31   0.03    -0.23  -0.21  -0.04    -0.04  -0.12   0.03
     6   1     0.01  -0.29  -0.00     0.02   0.37   0.00     0.00   0.00   0.03
     7   1     0.26   0.31  -0.03    -0.23  -0.21   0.04     0.04   0.12   0.03
     8   1    -0.07  -0.22   0.00    -0.09   0.39   0.00    -0.00  -0.00   0.68
     9   1     0.07   0.22   0.00    -0.09   0.39  -0.00     0.00   0.00   0.68
    10   1    -0.01   0.29  -0.00     0.02   0.37  -0.00    -0.00  -0.00   0.03
    11   1    -0.26  -0.31  -0.03    -0.23  -0.21  -0.04    -0.04  -0.12   0.03
    12   1    -0.26  -0.31   0.03    -0.23  -0.21   0.04     0.04   0.12   0.03
                     10                     11                     12
                     AU                     BG                     BU
 Frequencies --   1067.0260              1070.2370              1093.4005
 Red. masses --      1.4448                 1.6287                 3.1634
 Frc consts  --      0.9692                 1.0991                 2.2283
 IR Inten    --      0.2007                 0.0000                 2.9878
  Atom  AN      X      Y      Z        X      Y      Z        X      Y      Z
     1   6     0.00   0.00   0.11     0.00   0.00  -0.11    -0.10  -0.17  -0.00
     2   6    -0.00  -0.00  -0.09    -0.00  -0.00   0.13     0.10   0.22   0.00
     3   6     0.00   0.00  -0.09    -0.00  -0.00  -0.13     0.10   0.22  -0.00
     4   6    -0.00  -0.00   0.11     0.00   0.00   0.11    -0.10  -0.17   0.00
     5   1     0.05   0.42  -0.13    -0.05  -0.40   0.12     0.03  -0.15   0.04
     6   1     0.00   0.00  -0.23     0.00   0.00   0.22    -0.07  -0.55   0.00
     7   1    -0.05  -0.42  -0.13     0.05   0.40   0.12     0.03  -0.15  -0.04
     8   1    -0.00  -0.00   0.17    -0.00   0.00  -0.28     0.11   0.18   0.00
     9   1     0.00   0.00   0.17    -0.00   0.00   0.28     0.11   0.18  -0.00
    10   1    -0.00  -0.00  -0.23     0.00   0.00  -0.22    -0.07  -0.55  -0.00
    11   1     0.05   0.42  -0.13     0.05   0.40  -0.12     0.03  -0.15   0.04
    12   1    -0.05  -0.42  -0.13    -0.05  -0.40  -0.12     0.03  -0.15  -0.04
                     13                     14                     15
                     AG                     BU                     AG
 Frequencies --   1170.8060              1323.5580              1324.1665
 Red. masses --      1.9878                 1.2850                 1.2578
 Frc consts  --      1.6054                 1.3263                 1.2994
 IR Inten    --      0.0000                 4.7239                 0.0000
  Atom  AN      X      Y      Z        X      Y      Z        X      Y      Z
     1   6     0.13   0.04  -0.00    -0.06   0.01  -0.00    -0.01  -0.01  -0.00
     2   6    -0.12  -0.11   0.00     0.05  -0.08  -0.00    -0.11  -0.00   0.00
     3   6     0.12   0.11   0.00     0.05  -0.08   0.00     0.11   0.00   0.00
     4   6    -0.13  -0.04  -0.00    -0.06   0.01   0.00     0.01   0.01  -0.00
     5   1    -0.15  -0.03  -0.08     0.17   0.12   0.04    -0.02   0.05  -0.03
     6   1     0.08   0.55   0.00    -0.05  -0.04   0.00    -0.01   0.01   0.00
     7   1    -0.15  -0.03   0.08     0.17   0.12  -0.04    -0.02   0.05   0.03
     8   1    -0.09  -0.28  -0.00    -0.08   0.62  -0.00    -0.23   0.66  -0.00
     9   1     0.09   0.28  -0.00    -0.08   0.62   0.00     0.23  -0.66  -0.00
    10   1    -0.08  -0.55   0.00    -0.05  -0.04  -0.00     0.01  -0.01   0.00
    11   1     0.15   0.03   0.08     0.17   0.12   0.04     0.02  -0.05   0.03
    12   1     0.15   0.03  -0.08     0.17   0.12  -0.04     0.02  -0.05  -0.03
                     16                     17                     18
                     BU                     AG                     AU
 Frequencies --   1412.4192              1412.8481              1461.8866
 Red. masses --      1.3049                 1.2725                 1.0425
 Frc consts  --      1.5338                 1.4966                 1.3126
 IR Inten    --      1.4181                 0.0000                15.6880
  Atom  AN      X      Y      Z        X      Y      Z        X      Y      Z
     1   6     0.02   0.11   0.00    -0.03  -0.10  -0.00     0.00   0.00  -0.04
     2   6    -0.00  -0.03   0.00     0.03   0.01  -0.00    -0.00  -0.00  -0.01
     3   6    -0.00  -0.03  -0.00    -0.03  -0.01  -0.00     0.00   0.00  -0.01
     4   6     0.02   0.11  -0.00     0.03   0.10  -0.00    -0.00  -0.00  -0.04
     5   1    -0.11  -0.34   0.21     0.17   0.34  -0.17     0.32   0.14   0.03
     6   1     0.06  -0.36  -0.00    -0.07   0.36   0.00     0.00   0.00   0.50
     7   1    -0.11  -0.34  -0.21     0.17   0.34   0.17    -0.32  -0.14   0.03
     8   1    -0.02   0.09   0.00     0.04  -0.02  -0.00    -0.00  -0.00   0.04
     9   1    -0.02   0.09  -0.00    -0.04   0.02  -0.00     0.00   0.00   0.04
    10   1     0.06  -0.36   0.00     0.07  -0.36   0.00    -0.00  -0.00   0.50
    11   1    -0.11  -0.34   0.21    -0.17  -0.34   0.17     0.32   0.14   0.03
    12   1    -0.11  -0.34  -0.21    -0.17  -0.34  -0.17    -0.32  -0.14   0.03
                     19                     20                     21
                     BG                     AG                     BU
 Frequencies --   1462.1867              1470.2117              1478.7862
 Red. masses --      1.0433                 1.0539                 1.0485
 Frc consts  --      1.3142                 1.3421                 1.3509
 IR Inten    --      0.0000                 0.0000                18.3586
  Atom  AN      X      Y      Z        X      Y      Z        X      Y      Z
     1   6    -0.00   0.00  -0.04    -0.04   0.01   0.00    -0.03  -0.01   0.00
     2   6    -0.00   0.00  -0.01    -0.00  -0.02   0.00    -0.01   0.02   0.00
     3   6    -0.00   0.00   0.01     0.00   0.02   0.00    -0.01   0.02  -0.00
     4   6    -0.00   0.00   0.04     0.04  -0.01   0.00    -0.03  -0.01  -0.00
     5   1     0.32   0.14   0.03     0.31  -0.19   0.26     0.30  -0.19   0.24
     6   1    -0.00   0.00   0.51    -0.06   0.30  -0.00    -0.06   0.34  -0.00
     7   1    -0.32  -0.14   0.03     0.31  -0.19  -0.26     0.30  -0.19  -0.24
     8   1     0.00  -0.00   0.02    -0.02   0.05  -0.00     0.00  -0.10  -0.00
     9   1     0.00  -0.00  -0.02     0.02  -0.05  -0.00     0.00  -0.10   0.00
    10   1    -0.00   0.00  -0.51     0.06  -0.30  -0.00    -0.06   0.34   0.00
    11   1    -0.32  -0.14  -0.03    -0.31   0.19  -0.26     0.30  -0.19   0.24
    12   1     0.32   0.14  -0.03    -0.31   0.19   0.26     0.30  -0.19  -0.24
                     22                     23                     24
                     AG                     BU                     AG
 Frequencies --   1763.2255              2994.0885              2994.5695
 Red. masses --      6.0174                 1.0390                 1.0387
 Frc consts  --     11.0224                 5.4878                 5.4878
 IR Inten    --      0.0000                67.0760                 0.0000
  Atom  AN      X      Y      Z        X      Y      Z        X      Y      Z
     1   6     0.01  -0.06   0.00     0.00  -0.04  -0.00     0.00  -0.04   0.00
     2   6    -0.22   0.42  -0.00    -0.00   0.00   0.00    -0.00  -0.00  -0.00
     3   6     0.22  -0.42  -0.00    -0.00   0.00  -0.00     0.00   0.00  -0.00
     4   6    -0.01   0.06   0.00     0.00  -0.04   0.00    -0.00   0.04   0.00
     5   1     0.01  -0.15   0.06    -0.16   0.21   0.36    -0.16   0.21   0.36
     6   1    -0.02   0.17  -0.00     0.31   0.03  -0.00     0.31   0.02  -0.00
     7   1     0.01  -0.15  -0.06    -0.16   0.21  -0.36    -0.16   0.21  -0.36
     8   1    -0.13  -0.42  -0.00     0.00  -0.00  -0.00     0.03   0.00  -0.00
     9   1     0.13   0.42  -0.00     0.00  -0.00   0.00    -0.03  -0.00  -0.00
    10   1     0.02  -0.17  -0.00     0.31   0.03   0.00    -0.31  -0.02  -0.00
    11   1    -0.01   0.15  -0.06    -0.16   0.21   0.36     0.16  -0.21  -0.36
    12   1    -0.01   0.15   0.06    -0.16   0.21  -0.36     0.16  -0.21   0.36
                     25                     26                     27
                     AU                     BG                     BU
 Frequencies --   3052.6761              3053.1269              3088.7504
 Red. masses --      1.1021                 1.1021                 1.1007
 Frc consts  --      6.0510                 6.0531                 6.1872
 IR Inten    --     41.4970                 0.0000                15.1666
  Atom  AN      X      Y      Z        X      Y      Z        X      Y      Z
     1   6     0.00  -0.00  -0.07    -0.00   0.00  -0.07    -0.06   0.01   0.00
     2   6    -0.00  -0.00  -0.00     0.00   0.00   0.00     0.02   0.00  -0.00
     3   6     0.00   0.00  -0.00     0.00   0.00  -0.00     0.02   0.00   0.00
     4   6    -0.00   0.00  -0.07    -0.00   0.00   0.07    -0.06   0.01  -0.00
     5   1    -0.18   0.24   0.40    -0.18   0.24   0.40     0.07  -0.09  -0.17
     6   1    -0.00  -0.00  -0.01     0.00   0.00  -0.01     0.59   0.05  -0.00
     7   1     0.18  -0.24   0.40     0.18  -0.24   0.40     0.07  -0.09   0.17
     8   1     0.00   0.00   0.00    -0.00  -0.00   0.00    -0.24  -0.04   0.00
     9   1    -0.00  -0.00   0.00    -0.00  -0.00  -0.00    -0.24  -0.04  -0.00
    10   1     0.00   0.00  -0.01     0.00   0.00   0.01     0.59   0.05   0.00
    11   1    -0.18   0.24   0.40     0.18  -0.24  -0.40     0.07  -0.09  -0.17
    12   1     0.18  -0.24   0.40    -0.18   0.24  -0.40     0.07  -0.09   0.17
                     28                     29                     30
                     AG                     AG                     BU
 Frequencies --   3090.1729              3110.0491              3117.4462
 Red. masses --      1.1008                 1.0944                 1.0879
 Frc consts  --      6.1931                 6.2371                 6.2293
 IR Inten    --      0.0000                 0.0000                68.9328
  Atom  AN      X      Y      Z        X      Y      Z        X      Y      Z
     1   6    -0.06   0.01  -0.00    -0.02   0.01   0.00    -0.02   0.01  -0.00
     2   6     0.02   0.00   0.00    -0.06  -0.00  -0.00    -0.05  -0.01   0.00
     3   6    -0.02  -0.00   0.00     0.06   0.00  -0.00    -0.05  -0.01  -0.00
     4   6     0.06  -0.01  -0.00     0.02  -0.01   0.00    -0.02   0.01   0.00
     5   1     0.06  -0.09  -0.16     0.03  -0.04  -0.07     0.03  -0.04  -0.06
     6   1     0.60   0.05  -0.00     0.20   0.02  -0.00     0.22   0.02   0.00
     7   1     0.06  -0.09   0.16     0.03  -0.04   0.07     0.03  -0.04   0.06
     8   1    -0.23  -0.04  -0.00     0.65   0.12   0.00     0.65   0.12   0.00
     9   1     0.23   0.04  -0.00    -0.65  -0.12   0.00     0.65   0.12  -0.00
    10   1    -0.60  -0.05  -0.00    -0.20  -0.02  -0.00     0.22   0.02  -0.00
    11   1    -0.06   0.09   0.16    -0.03   0.04   0.07     0.03  -0.04  -0.06
    12   1    -0.06   0.09  -0.16    -0.03   0.04  -0.07     0.03  -0.04   0.06

 -------------------
 - Thermochemistry -
 -------------------
 Temperature   298.150 Kelvin.  Pressure   0.98700 Atm.
 Thermochemistry will use frequencies scaled by 0.9610.
 Atom     1 has atomic number  6 and mass  12.00000
 Atom     2 has atomic number  6 and mass  12.00000
 Atom     3 has atomic number  6 and mass  12.00000
 Atom     4 has atomic number  6 and mass  12.00000
 Atom     5 has atomic number  1 and mass   1.00783
 Atom     6 has atomic number  1 and mass   1.00783
 Atom     7 has atomic number  1 and mass   1.00783
 Atom     8 has atomic number  1 and mass   1.00783
 Atom     9 has atomic number  1 and mass   1.00783
 Atom    10 has atomic number  1 and mass   1.00783
 Atom    11 has atomic number  1 and mass   1.00783
 Atom    12 has atomic number  1 and mass   1.00783
 Molecular mass:    56.06260 amu.
 Principal axes and moments of inertia in atomic units:
                           1         2         3
     Eigenvalues --    52.41159 488.75690 518.52158
           X           -0.04609   0.99894   0.00000
           Y            0.99894   0.04609   0.00000
           Z           -0.00000  -0.00000   1.00000
 This molecule is an asymmetric top.
 Rotational symmetry number  2.
 Rotational temperatures (Kelvin)      1.65257     0.17721     0.16704
 Rotational constants (GHZ):          34.43401     3.69251     3.48055
 Zero-point vibrational energy     270618.7 (Joules/Mol)
                                   64.67943 (Kcal/Mol)
 Warning -- explicit consideration of   5 degrees of freedom as
           vibrations may cause significant error
 Vibrational temperatures:    244.97   318.51   339.20   394.06   697.26
          (Kelvin)           1047.63  1219.03  1365.42  1381.82  1475.34
                             1479.78  1511.81  1618.83  1830.04  1830.88
                             1952.90  1953.50  2021.30  2021.71  2032.81
                             2044.67  2437.95  4139.82  4140.49  4220.83
                             4221.45  4270.71  4272.67  4300.15  4310.38
 
 Zero-point correction=                           0.103073 (Hartree/Particle)
 Thermal correction to Energy=                    0.108687
 Thermal correction to Enthalpy=                  0.109631
 Thermal correction to Gibbs Free Energy=         0.076194
 Sum of electronic and zero-point Energies=           -157.003861
 Sum of electronic and thermal Energies=              -156.998247
 Sum of electronic and thermal Enthalpies=            -156.997303
 Sum of electronic and thermal Free Energies=         -157.030740
 
                     E (Thermal)             CV                S
                      KCal/Mol        Cal/Mol-Kelvin    Cal/Mol-Kelvin
 Total                   68.202             18.950             70.375
 Electronic               0.000              0.000              0.000
 Translational            0.889              2.981             38.019
 Rotational               0.889              2.981             22.723
 Vibrational             66.425             12.988              9.634
 Vibration     1          0.625              1.879              2.433
 Vibration     2          0.648              1.809              1.948
 Vibration     3          0.655              1.786              1.835
 Vibration     4          0.676              1.722              1.572
 Vibration     5          0.841              1.284              0.698
                       Q            Log10(Q)             Ln(Q)
 Total Bot       0.898291D-35        -35.046583        -80.697740
 Total V=0       0.231083D+13         12.363767         28.468626
 Vib (Bot)       0.260502D-46        -46.584189       -107.264059
 Vib (Bot)    1  0.118351D+01          0.073172          0.168484
 Vib (Bot)    2  0.893019D+00         -0.049140         -0.113148
 Vib (Bot)    3  0.833298D+00         -0.079200         -0.182364
 Vib (Bot)    4  0.704217D+00         -0.152294         -0.350669
 Vib (Bot)    5  0.343739D+00         -0.463771         -1.067873
 Vib (V=0)       0.670134D+01          0.826161          1.902307
 Vib (V=0)    1  0.178479D+01          0.251588          0.579303
 Vib (V=0)    2  0.152347D+01          0.182833          0.420988
 Vib (V=0)    3  0.147179D+01          0.167847          0.386483
 Vib (V=0)    4  0.136367D+01          0.134708          0.310178
 Vib (V=0)    5  0.110676D+01          0.044053          0.101436
 Electronic      0.100000D+01          0.000000          0.000000
 Translational   0.167165D+08          7.223147         16.631910
 Rotational      0.206281D+05          4.314459          9.934409
 ***** Axes restored to original set *****
 -------------------------------------------------------------------
 Center     Atomic                   Forces (Hartrees/Bohr)
 Number     Number              X              Y              Z
 -------------------------------------------------------------------
      1        6           0.000016645   -0.000006011   -0.000002340
      2        6          -0.000020232   -0.000034299    0.000010577
      3        6           0.000020232    0.000034299   -0.000010577
      4        6          -0.000016645    0.000006011    0.000002340
      5        1           0.000004084    0.000002878    0.000021687
      6        1          -0.000004370    0.000002588    0.000000427
      7        1          -0.000004809   -0.000005079   -0.000021127
      8        1          -0.000000489    0.000000486    0.000000011
      9        1           0.000000489   -0.000000486   -0.000000011
     10        1           0.000004370   -0.000002588   -0.000000427
     11        1          -0.000004084   -0.000002878   -0.000021687
     12        1           0.000004809    0.000005079    0.000021127
 -------------------------------------------------------------------
 Cartesian Forces:  Max     0.000034299 RMS     0.000012981
 FormGI is forming the generalized inverse of G from B-inverse, IUseBI=4.

 GradGradGradGradGradGradGradGradGradGradGradGradGradGradGradGradGradGrad
 Berny optimization.
 Internal  Forces:  Max     0.000040124 RMS     0.000009920
 Search for a local minimum.
 Step number   1 out of a maximum of    2
 All quantities printed in internal units (Hartrees-Bohrs-Radians)
 Second derivative matrix not updated -- analytic derivatives used.
 ITU=  0
     Eigenvalues ---    0.00235   0.00242   0.01689   0.02114   0.03146
     Eigenvalues ---    0.05638   0.05786   0.05794   0.05830   0.10995
     Eigenvalues ---    0.11903   0.12292   0.12459   0.13800   0.14052
     Eigenvalues ---    0.14825   0.14943   0.17738   0.18447   0.31872
     Eigenvalues ---    0.32027   0.32370   0.32406   0.33201   0.33439
     Eigenvalues ---    0.33876   0.34253   0.34430   0.34546   0.63518
 Angle between quadratic step and forces=  42.32 degrees.
 Linear search not attempted -- first point.
 Iteration  1 RMS(Cart)=  0.00006477 RMS(Int)=  0.00000001
 Iteration  2 RMS(Cart)=  0.00000001 RMS(Int)=  0.00000001
 ClnCor:  largest displacement from symmetrization is 1.94D-08 for atom     9.
 Variable       Old X    -DE/DX   Delta X   Delta X   Delta X     New X
                                 (Linear)    (Quad)   (Total)
    R1        2.83683  -0.00001   0.00000  -0.00004  -0.00004   2.83680
    R2        2.09268   0.00002   0.00000   0.00005   0.00005   2.09273
    R3        2.08666   0.00000   0.00000   0.00001   0.00001   2.08667
    R4        2.09268   0.00002   0.00000   0.00005   0.00005   2.09273
    R5        2.53034  -0.00004   0.00000  -0.00007  -0.00007   2.53028
    R6        2.07981  -0.00000   0.00000   0.00001   0.00001   2.07981
    R7        2.83683  -0.00001   0.00000  -0.00004  -0.00004   2.83680
    R8        2.07981  -0.00000   0.00000   0.00001   0.00001   2.07981
    R9        2.08666   0.00000   0.00000   0.00001   0.00001   2.08667
   R10        2.09268   0.00002   0.00000   0.00005   0.00005   2.09273
   R11        2.09268   0.00002   0.00000   0.00005   0.00005   2.09273
    A1        1.94325  -0.00001   0.00000  -0.00004  -0.00004   1.94320
    A2        1.94736   0.00001   0.00000   0.00003   0.00003   1.94739
    A3        1.94325  -0.00001   0.00000  -0.00004  -0.00004   1.94320
    A4        1.88436  -0.00000   0.00000  -0.00005  -0.00005   1.88430
    A5        1.85750   0.00002   0.00000   0.00017   0.00017   1.85767
    A6        1.88436  -0.00000   0.00000  -0.00005  -0.00005   1.88430
    A7        2.18860   0.00001   0.00000   0.00007   0.00007   2.18868
    A8        2.02753  -0.00001   0.00000  -0.00005  -0.00005   2.02748
    A9        2.06705  -0.00000   0.00000  -0.00002  -0.00002   2.06703
   A10        2.18860   0.00001   0.00000   0.00007   0.00007   2.18868
   A11        2.06705  -0.00000   0.00000  -0.00002  -0.00002   2.06703
   A12        2.02753  -0.00001   0.00000  -0.00005  -0.00005   2.02748
   A13        1.94736   0.00001   0.00000   0.00003   0.00003   1.94739
   A14        1.94325  -0.00001   0.00000  -0.00004  -0.00004   1.94320
   A15        1.94325  -0.00001   0.00000  -0.00004  -0.00004   1.94320
   A16        1.88436  -0.00000   0.00000  -0.00005  -0.00005   1.88430
   A17        1.88436  -0.00000   0.00000  -0.00005  -0.00005   1.88430
   A18        1.85750   0.00002   0.00000   0.00017   0.00017   1.85767
    D1        2.10667  -0.00000   0.00000  -0.00008  -0.00008   2.10659
    D2       -1.03493  -0.00000   0.00000  -0.00008  -0.00008  -1.03500
    D3        0.00000  -0.00000   0.00000   0.00000  -0.00000   0.00000
    D4        3.14159   0.00000   0.00000   0.00000   0.00000   3.14159
    D5       -2.10667   0.00000   0.00000   0.00008   0.00008  -2.10659
    D6        1.03493   0.00000   0.00000   0.00008   0.00008   1.03500
    D7        3.14159   0.00000   0.00000  -0.00000   0.00000   3.14159
    D8       -0.00000   0.00000   0.00000  -0.00000   0.00000   0.00000
    D9       -0.00000   0.00000   0.00000  -0.00000   0.00000   0.00000
   D10        3.14159  -0.00000   0.00000  -0.00000   0.00000   3.14159
   D11       -0.00000  -0.00000   0.00000   0.00000   0.00000   0.00000
   D12       -2.10667   0.00000   0.00000   0.00008   0.00008  -2.10659
   D13        2.10667  -0.00000   0.00000  -0.00008  -0.00008   2.10659
   D14        3.14159   0.00000   0.00000   0.00000   0.00000   3.14159
   D15        1.03493   0.00000   0.00000   0.00008   0.00008   1.03500
   D16       -1.03493  -0.00000   0.00000  -0.00008  -0.00008  -1.03500
         Item               Value     Threshold  Converged?
 Maximum Force            0.000040     0.000450     YES
 RMS     Force            0.000010     0.000300     YES
 Maximum Displacement     0.000148     0.001800     YES
 RMS     Displacement     0.000065     0.001200     YES
 Predicted change in Energy=-9.864727D-09
 Optimization completed.
    -- Stationary point found.
                           ----------------------------
                           !   Optimized Parameters   !
                           ! (Angstroms and Degrees)  !
 --------------------------                            --------------------------
 ! Name  Definition              Value          Derivative Info.                !
 --------------------------------------------------------------------------------
 ! R1    R(1,2)                  1.5012         -DE/DX =    0.0                 !
 ! R2    R(1,5)                  1.1074         -DE/DX =    0.0                 !
 ! R3    R(1,6)                  1.1042         -DE/DX =    0.0                 !
 ! R4    R(1,7)                  1.1074         -DE/DX =    0.0                 !
 ! R5    R(2,3)                  1.339          -DE/DX =    0.0                 !
 ! R6    R(2,8)                  1.1006         -DE/DX =    0.0                 !
 ! R7    R(3,4)                  1.5012         -DE/DX =    0.0                 !
 ! R8    R(3,9)                  1.1006         -DE/DX =    0.0                 !
 ! R9    R(4,10)                 1.1042         -DE/DX =    0.0                 !
 ! R10   R(4,11)                 1.1074         -DE/DX =    0.0                 !
 ! R11   R(4,12)                 1.1074         -DE/DX =    0.0                 !
 ! A1    A(2,1,5)              111.34           -DE/DX =    0.0                 !
 ! A2    A(2,1,6)              111.5753         -DE/DX =    0.0                 !
 ! A3    A(2,1,7)              111.34           -DE/DX =    0.0                 !
 ! A4    A(5,1,6)              107.9656         -DE/DX =    0.0                 !
 ! A5    A(5,1,7)              106.4271         -DE/DX =    0.0                 !
 ! A6    A(6,1,7)              107.9656         -DE/DX =    0.0                 !
 ! A7    A(1,2,3)              125.3978         -DE/DX =    0.0                 !
 ! A8    A(1,2,8)              116.1691         -DE/DX =    0.0                 !
 ! A9    A(3,2,8)              118.4331         -DE/DX =    0.0                 !
 ! A10   A(2,3,4)              125.3978         -DE/DX =    0.0                 !
 ! A11   A(2,3,9)              118.4331         -DE/DX =    0.0                 !
 ! A12   A(4,3,9)              116.1691         -DE/DX =    0.0                 !
 ! A13   A(3,4,10)             111.5753         -DE/DX =    0.0                 !
 ! A14   A(3,4,11)             111.34           -DE/DX =    0.0                 !
 ! A15   A(3,4,12)             111.34           -DE/DX =    0.0                 !
 ! A16   A(10,4,11)            107.9656         -DE/DX =    0.0                 !
 ! A17   A(10,4,12)            107.9656         -DE/DX =    0.0                 !
 ! A18   A(11,4,12)            106.4271         -DE/DX =    0.0                 !
 ! D1    D(5,1,2,3)            120.7031         -DE/DX =    0.0                 !
 ! D2    D(5,1,2,8)            -59.2969         -DE/DX =    0.0                 !
 ! D3    D(6,1,2,3)              0.0            -DE/DX =    0.0                 !
 ! D4    D(6,1,2,8)            180.0            -DE/DX =    0.0                 !
 ! D5    D(7,1,2,3)           -120.7031         -DE/DX =    0.0                 !
 ! D6    D(7,1,2,8)             59.2969         -DE/DX =    0.0                 !
 ! D7    D(1,2,3,4)            180.0            -DE/DX =    0.0                 !
 ! D8    D(1,2,3,9)              0.0            -DE/DX =    0.0                 !
 ! D9    D(8,2,3,4)              0.0            -DE/DX =    0.0                 !
 ! D10   D(8,2,3,9)            180.0            -DE/DX =    0.0                 !
 ! D11   D(2,3,4,10)             0.0            -DE/DX =    0.0                 !
 ! D12   D(2,3,4,11)          -120.7031         -DE/DX =    0.0                 !
 ! D13   D(2,3,4,12)           120.7031         -DE/DX =    0.0                 !
 ! D14   D(9,3,4,10)           180.0            -DE/DX =    0.0                 !
 ! D15   D(9,3,4,11)            59.2969         -DE/DX =    0.0                 !
 ! D16   D(9,3,4,12)           -59.2969         -DE/DX =    0.0                 !
 --------------------------------------------------------------------------------
 GradGradGradGradGradGradGradGradGradGradGradGradGradGradGradGradGradGrad

 Dipole is zero, so no output in dipole orientation.

 ----------------------------------------------------------------------

 Electric dipole moment (input orientation):
 (Debye = 10**-18 statcoulomb cm , SI units = C m)
                  (au)            (Debye)         (10**-30 SI)
   Tot        0.000000D+00      0.000000D+00      0.000000D+00
   x          0.000000D+00      0.000000D+00      0.000000D+00
   y          0.000000D+00      0.000000D+00      0.000000D+00
   z          0.000000D+00      0.000000D+00      0.000000D+00

 Dipole polarizability, Alpha (input orientation).
 (esu units = cm**3 , SI units = C**2 m**2 J**-1)
 Alpha(0;0):
               (au)            (10**-24 esu)      (10**-40 SI)
   iso        0.450818D+02      0.668043D+01      0.743298D+01
   aniso      0.282547D+02      0.418691D+01      0.465857D+01
   xx         0.440296D+02      0.652451D+01      0.725950D+01
   yx        -0.805906D+01     -0.119423D+01     -0.132876D+01
   yy         0.592524D+02      0.878030D+01      0.976940D+01
   zx        -0.119801D+01     -0.177527D+00     -0.197525D+00
   zy        -0.356680D+01     -0.528546D+00     -0.588086D+00
   zz         0.319634D+02      0.473648D+01      0.527004D+01

 ----------------------------------------------------------------------
 Unable to Open any file for archive entry.
 1\1\GINC-NODE05\Freq\RB3LYP\def2SVPP\C4H8\XUHJ\19-Dec-2023\0\\#N Geom=
 AllCheck Guess=TCheck SCRF=Check GenChk RB3LYP/def2SVPP Freq\\CC=CC_1\
 \0,1\C,-1.246657214,1.5202593614,-0.026362112\C,-0.0222230387,0.656828
 9829,-0.1202349526\C,0.0178857389,-0.6605123911,0.1162466775\C,1.24231
 99142,-1.5239427697,0.0223738369\H,-1.1119942258,2.3311932532,0.715653
 1968\H,-2.1352742379,0.9341633896,0.2671348087\H,-1.466903711,2.013660
 3822,-0.9929962357\H,0.9098918899,1.1661023731,-0.4084903793\H,-0.9142
 291897,-1.1697857814,0.4045021041\H,2.1309369381,-0.9378467979,-0.2711
 230839\H,1.107656926,-2.3348766615,-0.7196414719\H,1.4625664112,-2.017
 3437905,0.9890079605\\Version=ES64L-G16RevC.01\State=1-AG\HF=-157.1069
 341\RMSD=3.031e-09\RMSF=1.298e-05\ZeroPoint=0.1030732\Thermal=0.108687
 \ETot=-156.9982471\HTot=-156.9973029\GTot=-157.0307405\Dipole=0.,0.,0.
 \DipoleDeriv=0.0420205,0.0074912,0.0192913,0.0453938,-0.0014125,0.0171
 479,0.0122476,0.0250207,0.1344037,0.1468072,-0.0835662,-0.0585715,-0.0
 0078,0.0976368,-0.0569977,-0.0739564,-0.039802,-0.1871823,0.1468071,-0
 .083566,-0.0585715,-0.0007801,0.0976369,-0.0569977,-0.0739564,-0.03980
 2,-0.1871823,0.0420205,0.0074911,0.0192913,0.0453938,-0.0014125,0.0171
 479,0.0122475,0.0250208,0.1344037,0.0118677,0.042463,-0.0408662,0.0299
 545,-0.0813088,-0.0948606,0.0040421,-0.1344579,-0.009343,-0.0857207,-0
 .0179907,0.0356959,-0.0986625,-0.0130523,0.0359344,0.0506879,0.0191777
 ,0.0559426,0.0101911,0.099383,-0.0128616,0.0579254,-0.004016,0.0720776
 ,-0.0477408,0.1004654,-0.0849592,-0.1251658,-0.0477804,0.057312,-0.033
 8312,0.0021527,0.0266985,0.0547197,0.029596,0.0911382,-0.1251658,-0.04
 77805,0.057312,-0.0338312,0.0021527,0.0266985,0.0547197,0.029596,0.091
 1382,-0.0857207,-0.0179907,0.0356959,-0.0986625,-0.0130523,0.0359344,0
 .0506879,0.0191777,0.0559426,0.0118677,0.042463,-0.0408662,0.0299545,-
 0.0813088,-0.0948606,0.0040421,-0.1344579,-0.009343,0.0101911,0.099383
 ,-0.0128616,0.0579254,-0.004016,0.0720776,-0.0477408,0.1004654,-0.0849
 592\Polar=44.0295996,-8.059064,59.2523752,-1.1980082,-3.5668029,31.963
 3519\Quadrupole=0.1550365,0.8426373,-0.9976738,-0.0576691,-0.2532275,-
 0.3519519\PG=C02H [SGH(C4H4),X(H4)]\NImag=0\\0.53203254,0.03682946,0.5
 4479156,-0.00678638,-0.00996925,0.53557381,-0.19126444,0.06402488,0.01
 277306,0.56865208,0.06857968,-0.13170607,-0.00324003,-0.00055034,0.831
 82085,0.01192660,-0.00229393,-0.07453957,-0.08784881,-0.12748126,0.187
 16533,0.00027192,0.02895243,-0.00429201,-0.10944835,0.00822205,0.01025
 984,0.56865208,0.00770203,-0.02200999,0.00351486,0.00822205,-0.5398312
 5,0.08882029,-0.00055034,0.83182085,-0.00034287,-0.00089913,0.00575046
 ,0.01025984,0.08882029,-0.07133533,-0.08784881,-0.12748126,0.18716534,
 0.00094428,-0.00182085,0.00313147,0.00027192,0.00770203,-0.00034287,-0
 .19126444,0.06857968,0.01192660,0.53203254,-0.00182085,-0.00090351,0.0
 0322054,0.02895242,-0.02200999,-0.00089913,0.06402488,-0.13170607,-0.0
 0229393,0.03682946,0.54479156,0.00313147,0.00322054,0.01314215,-0.0042
 9201,0.00351486,0.00575046,0.01277306,-0.00324003,-0.07453957,-0.00678
 638,-0.00996925,0.53557381,-0.05274389,-0.02631712,-0.02171811,0.00507
 084,0.02282895,0.01898398,-0.00240973,-0.00003922,0.00080789,-0.000122
 68,0.00036989,-0.00230628,0.05314813,-0.02813037,-0.18019637,-0.126484
 44,-0.00037178,-0.01710366,-0.00999165,0.00263584,0.00098286,-0.001341
 82,0.00040610,-0.00024418,0.00195134,0.02416727,0.19515938,-0.02251628
 ,-0.12612468,-0.16207881,0.00077116,0.00036759,0.00191808,0.00009749,0
 .00101021,-0.00029540,-0.00020506,-0.00016232,-0.00011931,0.02516873,0
 .13782372,0.17108568,-0.21547404,-0.11219317,0.05550984,-0.02257144,-0
 .01525756,0.00738715,0.00174591,-0.00226808,-0.00005677,0.00031000,0.0
 0037545,-0.00017039,-0.00199787,-0.00085324,0.00022482,0.23347879,-0.1
 1554340,-0.12625027,0.03842858,0.01598463,0.01197611,-0.00566813,0.001
 35403,0.00134962,-0.00063550,0.00015937,0.00001190,-0.00006773,-0.0161
 4631,-0.01055649,0.00771533,0.12094771,0.13214455,0.05613244,0.0377326
 9,-0.06728109,0.00158115,0.00082129,-0.00113908,-0.00072989,0.00011686
 ,-0.00042671,-0.00013023,-0.00011261,-0.00012642,-0.01791916,-0.010468
 63,0.00738358,-0.06181769,-0.04148849,0.06462925,-0.05734614,0.0198532
 1,-0.04241645,-0.00426269,0.01433942,-0.02423663,-0.00257948,-0.000617
 84,0.00029705,0.00076603,0.00116197,0.00177530,-0.00120820,0.00167023,
 -0.00406349,0.00667123,-0.00943550,0.02250802,0.05797821,0.01871533,-0
 .09329221,0.10035072,0.00475802,-0.01263840,0.01623838,0.00282324,0.00
 076872,-0.00016547,-0.00034650,-0.00092024,-0.00184812,-0.00438276,0.0
 1159327,-0.02052888,0.00440487,-0.00678737,0.01367473,-0.02651902,0.10
 059635,-0.04106985,0.09937797,-0.24438072,0.00006838,-0.00093014,0.006
 78635,-0.00012916,-0.00124709,0.00008849,-0.00005230,-0.00004027,-0.00
 033196,-0.00323548,0.00935300,-0.01819495,-0.00105007,0.00154218,-0.00
 505464,0.04611490,-0.10826097,0.26081864,-0.01822411,-0.01267527,0.006
 52938,-0.24423521,-0.10334931,0.06170705,0.00103059,0.00041023,0.00111
 550,0.00085053,0.00143913,-0.00202943,0.00060190,0.00033926,0.00034269
 ,-0.00290761,0.00338392,0.00036193,0.00063633,-0.00004380,-0.00054598,
 0.26020839,0.01594959,0.00977154,-0.00478135,-0.10004017,-0.11059188,0
 .03396849,-0.02779285,-0.01301690,0.00944974,-0.00250043,0.00094784,-0
 .00107513,-0.00099029,0.00062089,-0.00010014,0.00357694,-0.00173240,-0
 .00007493,-0.00070302,0.00050763,0.00033949,0.10993577,0.11805241,0.00
 120978,0.00116442,0.00140235,0.06109208,0.03465584,-0.05875278,0.00635
 672,0.00359159,0.00478016,-0.00129731,-0.00189343,-0.00701089,-0.00045
 226,0.00043034,0.00022138,0.00032606,-0.00003484,0.00180112,0.00061856
 ,-0.00060409,0.00030021,-0.06926559,-0.04010938,0.04694071,0.00085053,
 0.00143913,-0.00202943,0.00103059,0.00041022,0.00111550,-0.24423521,-0
 .10334931,0.06170705,-0.01822411,-0.01267527,0.00652938,0.00019390,-0.
 00017082,0.00002219,0.00056483,-0.00045094,0.00000993,-0.00000398,0.00
 027984,-0.00004921,0.00128444,0.00090199,0.00180156,0.26020839,-0.0025
 0043,0.00094784,-0.00107513,-0.02779285,-0.01301690,0.00944974,-0.1000
 4017,-0.11059188,0.03396849,0.01594959,0.00977154,-0.00478135,0.000279
 57,-0.00009183,0.00003598,0.00129942,-0.00005149,-0.00022146,0.0000834
 6,0.00029430,-0.00011977,0.00090199,-0.00471010,0.00268846,0.10993577,
 0.11805241,-0.00129731,-0.00189343,-0.00701089,0.00635672,0.00359159,0
 .00478016,0.06109208,0.03465584,-0.05875278,0.00120978,0.00116442,0.00
 140235,0.00042305,-0.00111477,0.00018341,-0.00031535,0.00014211,0.0002
 4828,-0.00049728,0.00108375,-0.00000485,0.00180156,0.00268846,0.009890
 89,-0.06926559,-0.04010938,0.04694071,0.00031000,0.00037545,-0.0001703
 9,0.00174591,-0.00226808,-0.00005677,-0.02257144,-0.01525756,0.0073871
 5,-0.21547404,-0.11219317,0.05550984,-0.00003651,0.00005267,0.00002191
 ,0.00029465,-0.00013695,-0.00003874,-0.00007795,0.00005193,-0.00002077
 ,0.00056483,0.00129942,-0.00031536,-0.00290761,0.00357694,0.00032606,0
 .23347879,0.00015937,0.00001190,-0.00006773,0.00135404,0.00134962,-0.0
 0063550,0.01598463,0.01197611,-0.00566813,-0.11554340,-0.12625027,0.03
 842858,-0.00004309,0.00002090,0.00000931,-0.00013695,-0.00015127,0.000
 05389,-0.00007348,0.00002622,0.00000329,-0.00045094,-0.00005149,0.0001
 4211,0.00338392,-0.00173240,-0.00003484,0.12094771,0.13214455,-0.00013
 023,-0.00011261,-0.00012642,-0.00072989,0.00011686,-0.00042671,0.00158
 115,0.00082129,-0.00113908,0.05613244,0.03773269,-0.06728109,0.0000957
 9,-0.00003734,-0.00002704,-0.00003874,0.00005389,-0.00001634,-0.000053
 55,0.00000400,0.00000909,0.00000993,-0.00022146,0.00024828,0.00036193,
 -0.00007493,0.00180112,-0.06181769,-0.04148849,0.06462925,-0.00012268,
 0.00036989,-0.00230628,-0.00240973,-0.00003922,0.00080789,0.00507084,0
 .02282895,0.01898398,-0.05274389,-0.02631712,-0.02171811,0.00008800,-0
 .00018217,0.00010960,-0.00003651,-0.00004309,0.00009579,-0.00058388,0.
 00045527,0.00004224,0.00019390,0.00027957,0.00042305,0.00060190,-0.000
 99029,-0.00045226,-0.00199787,-0.01614631,-0.01791916,0.05314813,0.000
 40610,-0.00024418,0.00195134,0.00263584,0.00098286,-0.00134182,-0.0003
 7178,-0.01710366,-0.00999165,-0.02813037,-0.18019637,-0.12648444,-0.00
 018217,0.00015884,-0.00005042,0.00005267,0.00002090,-0.00003734,0.0004
 3700,-0.00034362,-0.00006933,-0.00017082,-0.00009183,-0.00111477,0.000
 33926,0.00062089,0.00043034,-0.00085324,-0.01055649,-0.01046863,0.0241
 6727,0.19515938,-0.00020506,-0.00016232,-0.00011931,0.00009749,0.00101
 021,-0.00029540,0.00077116,0.00036759,0.00191808,-0.02251628,-0.126124
 68,-0.16207881,0.00010960,-0.00005042,-0.00005565,0.00002191,0.0000093
 1,-0.00002704,0.00002624,0.00000431,-0.00002097,0.00002219,0.00003598,
 0.00018341,0.00034269,-0.00010014,0.00022138,0.00022482,0.00771533,0.0
 0738358,0.02516873,0.13782372,0.17108568,0.00076603,0.00116197,0.00177
 530,-0.00257948,-0.00061784,0.00029705,-0.00426269,0.01433942,-0.02423
 663,-0.05734614,0.01985321,-0.04241645,-0.00058388,0.00043700,0.000026
 24,-0.00007795,-0.00007348,-0.00005355,0.00001052,-0.00019643,-0.00007
 267,-0.00000398,0.00008346,-0.00049728,0.00063633,-0.00070302,0.000618
 56,0.00667123,-0.00943550,0.02250802,-0.00120820,0.00167023,-0.0040634
 9,0.05797821,-0.00034650,-0.00092024,-0.00184812,0.00282324,0.00076872
 ,-0.00016547,0.00475802,-0.01263840,0.01623838,0.01871533,-0.09329221,
 0.10035072,0.00045527,-0.00034362,0.00000431,0.00005193,0.00002622,0.0
 0000400,-0.00019643,0.00019535,0.00005164,0.00027984,0.00029429,0.0010
 8375,-0.00004380,0.00050763,-0.00060409,0.00440487,-0.00678737,0.01367
 473,-0.00438276,0.01159327,-0.02052888,-0.02651902,0.10059635,-0.00005
 230,-0.00004027,-0.00033196,-0.00012916,-0.00124709,0.00008849,0.00006
 838,-0.00093014,0.00678635,-0.04106985,0.09937797,-0.24438072,0.000042
 24,-0.00006933,-0.00002097,-0.00002077,0.00000329,0.00000909,-0.000072
 67,0.00005164,-0.00001468,-0.00004921,-0.00011977,-0.00000485,-0.00054
 598,0.00033949,0.00030021,-0.00105007,0.00154218,-0.00505464,-0.003235
 48,0.00935300,-0.01819495,0.04611490,-0.10826097,0.26081864\\-0.000016
 64,0.00000601,0.00000234,0.00002023,0.00003430,-0.00001058,-0.00002023
 ,-0.00003430,0.00001058,0.00001664,-0.00000601,-0.00000234,-0.00000408
 ,-0.00000288,-0.00002169,0.00000437,-0.00000259,-0.00000043,0.00000481
 ,0.00000508,0.00002113,0.00000049,-0.00000049,-0.00000001,-0.00000049,
 0.00000049,0.00000001,-0.00000437,0.00000259,0.00000043,0.00000408,0.0
 0000288,0.00002169,-0.00000481,-0.00000508,-0.00002113\\\@
 The archive entry for this job was punched.


 We make a living by what we get,
 we make a life by what we give.
                   -- Sir Winston Churchill
 Job cpu time:       0 days  0 hours  1 minutes 50.5 seconds.
 Elapsed time:       0 days  0 hours  0 minutes  7.3 seconds.
 File lengths (MBytes):  RWF=     22 Int=      0 D2E=      0 Chk=      2 Scr=      2
 Normal termination of Gaussian 16 at Tue Dec 19 21:48:57 2023.
