%nprocshared=16
%mem=2880MB
#N opt freq B3LYP/def2SVPP symm=veryloose em=gd3bj scale=0.961 press=0.987

c1ccc2cc3cc4ccccc4cc3cc2c1_1

0 1
C          4.88530        0.69070        0.09332
C          4.88453       -0.69991        0.05347
C          3.67506       -1.39376       -0.01460
C          2.45084       -0.70459       -0.03649
C          1.22509       -1.38912       -0.07027
C         -0.00001       -0.70092       -0.06308
C         -1.22449       -1.38957       -0.04110
C         -2.45039       -0.70511       -0.00858
C         -3.67232       -1.39502        0.05998
C         -4.88278       -0.70200        0.09564
C         -4.88836        0.68840        0.04468
C         -3.68223        1.38813       -0.02201
C         -2.45397        0.70553       -0.03565
C         -1.22849        1.39336       -0.06330
C         -0.00032        0.70718       -0.05889
C          1.22635        1.39459       -0.03801
C          2.45195        0.70553       -0.00976
C          3.67743        1.38979        0.05477
H          5.82507        1.23269        0.15734
H          5.82356       -1.24658        0.07976
H          3.69491       -2.48107       -0.04107
H          1.22484       -2.47756       -0.08562
H         -1.22348       -2.47803       -0.03214
H         -3.68840       -2.48209        0.09633
H         -5.81969       -1.24888        0.16344
H         -5.83055        1.22967        0.06175
H         -3.70746        2.47482       -0.05725
H         -1.23065        2.48169       -0.07039
H          1.22709        2.48226       -0.02556
H          3.69946        2.47712        0.08580

