%nprocshared=8
%mem=10400MB
#N opt freq B3LYP/def2SVPP symm=veryloose em=gd3bj scale=0.961 press=0.987

c1ccc2c(c1)ccc1cc3c(ccc4c5ccccc5ccc34)cc12_2

0 1
C         -6.80510       -0.38860       -0.60440
C         -6.01870       -1.50500       -0.84250
C         -4.62780       -1.41510       -0.73010
C         -3.97240       -0.20800       -0.37610
C         -4.80240        0.91730       -0.13860
C         -6.19940        0.81490       -0.25460
C         -4.23010        2.14100        0.21430
C         -2.84980        2.27230        0.33680
C         -1.99990        1.18490        0.11020
C         -0.60540        1.34800        0.24180
C          0.33070        0.30350        0.03190
C         -0.21800       -0.94190       -0.32510
C          0.62740       -2.02450       -0.55060
C          2.00960       -1.89200       -0.42780
C          2.62510       -0.67450       -0.07370
C          4.06000       -0.54160        0.05270
C          4.99220       -1.59300       -0.15930
C          6.37310       -1.41430       -0.02450
C          6.87700       -0.17330        0.32850
C          5.99860        0.88340        0.54520
C          4.60930        0.71170        0.41170
C          3.76460        1.79330        0.63710
C          2.38250        1.65780        0.51340
C          1.76680        0.43910        0.15900
C         -1.61160       -1.10960       -0.45780
C         -2.54240       -0.06590       -0.24770
H         -7.88630       -0.45130       -0.69000
H         -6.48090       -2.44980       -1.11630
H         -4.06010       -2.31980       -0.92750
H         -6.83180        1.68130       -0.07130
H         -4.85530        3.01200        0.39930
H         -2.44410        3.24330        0.61370
H         -0.24890        2.33630        0.52000
H          0.22320       -2.99620       -0.82760
H          2.59800       -2.78420       -0.62060
H          4.65740       -2.58780       -0.43780
H          7.04770       -2.24880       -0.19690
H          7.94790       -0.02540        0.43530
H          6.40950        1.85240        0.82190
H          4.16900        2.76480        0.91400
H          1.79420        2.54990        0.70620
H         -1.97300       -2.09650       -0.73600

