%nprocshared=16
%mem=1280MB
#N opt freq B3LYP/def2SVPP symm=veryloose em=gd3bj scale=0.961 press=0.987

CCCC_1

0 1
C          0.93891        0.06432       -0.05977
C          2.46480        0.06153       -0.06905
C          3.00759       -0.25316       -1.46752
C          4.53348       -0.25659       -1.47665
H          0.57339        0.29451        0.96316
H          0.54953       -0.93150       -0.36121
H          0.55025        0.83545       -0.75864
H          2.82682       -0.70261        0.65307
H          2.82774        1.06089        0.25657
H          2.64585        0.51121       -2.18956
H          2.64437       -1.25234       -1.79332
H          4.92334        0.73892       -1.17485
H          4.89900       -0.48673       -2.49959
H          4.92165       -1.02815       -0.77796

