 Entering Gaussian System, Link 0=g16
 Initial command:
 /home/software/g16/l1.exe "/home/software/g16tmp/Gau-79361.inp" -scrdir="/home/software/g16tmp/"
 Default is to use a total of   8 processors:
                                8 via shared-memory
                                1 via Linda
 Entering Link 1 = /home/software/g16/l1.exe PID=     79362.
  
 Copyright (c) 1988-2019, Gaussian, Inc.  All Rights Reserved.
  
 This is part of the Gaussian(R) 16 program.  It is based on
 the Gaussian(R) 09 system (copyright 2009, Gaussian, Inc.),
 the Gaussian(R) 03 system (copyright 2003, Gaussian, Inc.),
 the Gaussian(R) 98 system (copyright 1998, Gaussian, Inc.),
 the Gaussian(R) 94 system (copyright 1995, Gaussian, Inc.),
 the Gaussian 92(TM) system (copyright 1992, Gaussian, Inc.),
 the Gaussian 90(TM) system (copyright 1990, Gaussian, Inc.),
 the Gaussian 88(TM) system (copyright 1988, Gaussian, Inc.),
 the Gaussian 86(TM) system (copyright 1986, Carnegie Mellon
 University), and the Gaussian 82(TM) system (copyright 1983,
 Carnegie Mellon University). Gaussian is a federally registered
 trademark of Gaussian, Inc.
  
 This software contains proprietary and confidential information,
 including trade secrets, belonging to Gaussian, Inc.
  
 This software is provided under written license and may be
 used, copied, transmitted, or stored only in accord with that
 written license.
  
 The following legend is applicable only to US Government
 contracts under FAR:
  
                    RESTRICTED RIGHTS LEGEND
  
 Use, reproduction and disclosure by the US Government is
 subject to restrictions as set forth in subparagraphs (a)
 and (c) of the Commercial Computer Software - Restricted
 Rights clause in FAR 52.227-19.
  
 Gaussian, Inc.
 340 Quinnipiac St., Bldg. 40, Wallingford CT 06492
  
  
 ---------------------------------------------------------------
 Warning -- This program may not be used in any manner that
 competes with the business of Gaussian, Inc. or will provide
 assistance to any competitor of Gaussian, Inc.  The licensee
 of this program is prohibited from giving any competitor of
 Gaussian, Inc. access to this program.  By using this program,
 the user acknowledges that Gaussian, Inc. is engaged in the
 business of creating and licensing software in the field of
 computational chemistry and represents and warrants to the
 licensee that it is not a competitor of Gaussian, Inc. and that
 it will not use this program in any manner prohibited above.
 ---------------------------------------------------------------
  

 Cite this work as:
 Gaussian 16, Revision C.01,
 M. J. Frisch, G. W. Trucks, H. B. Schlegel, G. E. Scuseria, 
 M. A. Robb, J. R. Cheeseman, G. Scalmani, V. Barone, 
 G. A. Petersson, H. Nakatsuji, X. Li, M. Caricato, A. V. Marenich, 
 J. Bloino, B. G. Janesko, R. Gomperts, B. Mennucci, H. P. Hratchian, 
 J. V. Ortiz, A. F. Izmaylov, J. L. Sonnenberg, D. Williams-Young, 
 F. Ding, F. Lipparini, F. Egidi, J. Goings, B. Peng, A. Petrone, 
 T. Henderson, D. Ranasinghe, V. G. Zakrzewski, J. Gao, N. Rega, 
 G. Zheng, W. Liang, M. Hada, M. Ehara, K. Toyota, R. Fukuda, 
 J. Hasegawa, M. Ishida, T. Nakajima, Y. Honda, O. Kitao, H. Nakai, 
 T. Vreven, K. Throssell, J. A. Montgomery, Jr., J. E. Peralta, 
 F. Ogliaro, M. J. Bearpark, J. J. Heyd, E. N. Brothers, K. N. Kudin, 
 V. N. Staroverov, T. A. Keith, R. Kobayashi, J. Normand, 
 K. Raghavachari, A. P. Rendell, J. C. Burant, S. S. Iyengar, 
 J. Tomasi, M. Cossi, J. M. Millam, M. Klene, C. Adamo, R. Cammi, 
 J. W. Ochterski, R. L. Martin, K. Morokuma, O. Farkas, 
 J. B. Foresman, and D. J. Fox, Gaussian, Inc., Wallingford CT, 2019.
 
 ******************************************
 Gaussian 16:  ES64L-G16RevC.01  3-Jul-2019
                19-Dec-2023 
 ******************************************
 %nprocshared=16
 Will use up to   16 processors via shared memory.
 %mem=960MB
 ----------------------------------------------------------------------
 #N opt freq B3LYP/def2SVPP symm=veryloose em=gd3bj scale=0.961 press=0
 .987 int=superfine
 ----------------------------------------------------------------------
 1/18=20,19=15,26=5,38=1,113=-987000,114=961000/1,3;
 2/9=110,12=2,17=2,18=2,40=1/2;
 3/5=43,7=202,11=2,25=1,30=1,71=1,74=-5,75=-7,124=41/1,2,3;
 4//1;
 5/5=2,38=5/2;
 6/7=2,8=2,9=2,10=2,28=1/1;
 7//1,2,3,16;
 1/18=20,19=15,26=5/3(2);
 2/9=110/2;
 99//99;
 2/9=110/2;
 3/5=43,7=202,11=2,25=1,30=1,71=1,74=-5,75=-7,124=41/1,2,3;
 4/5=5,16=3,69=1/1;
 5/5=2,38=5/2;
 7//1,2,3,16;
 1/18=20,19=15,26=5/3(-5);
 2/9=110/2;
 6/7=2,8=2,9=2,10=2,19=2,28=1/1;
 99/9=1/99;
 ------
 CC=O_1
 ------
 Symbolic Z-matrix:
 Charge =  0 Multiplicity = 1
 C                    -0.93971   0.71356   0.009 
 C                     0.       -0.47512  -0.027 
 O                     1.2002   -0.37908   0.021 
 H                    -1.9993    0.40901   0.153 
 H                    -0.8518    1.26253  -0.96295 
 H                    -0.6238    1.41853   0.81295 
 H                    -0.48845  -1.48808  -0.126 
 

 GradGradGradGradGradGradGradGradGradGradGradGradGradGradGradGradGradGrad
 Berny optimization.
 Initialization pass.
                           ----------------------------
                           !    Initial Parameters    !
                           ! (Angstroms and Degrees)  !
 --------------------------                            --------------------------
 ! Name  Definition              Value          Derivative Info.                !
 --------------------------------------------------------------------------------
 ! R1    R(1,2)                  1.5157         estimate D2E/DX2                !
 ! R2    R(1,4)                  1.1119         estimate D2E/DX2                !
 ! R3    R(1,5)                  1.1197         estimate D2E/DX2                !
 ! R4    R(1,6)                  1.115          estimate D2E/DX2                !
 ! R5    R(2,3)                  1.205          estimate D2E/DX2                !
 ! R6    R(2,7)                  1.1289         estimate D2E/DX2                !
 ! A1    A(2,1,4)              112.2784         estimate D2E/DX2                !
 ! A2    A(2,1,5)              108.3734         estimate D2E/DX2                !
 ! A3    A(2,1,6)              109.7146         estimate D2E/DX2                !
 ! A4    A(4,1,5)              108.7555         estimate D2E/DX2                !
 ! A5    A(4,1,6)              110.4765         estimate D2E/DX2                !
 ! A6    A(5,1,6)              107.0771         estimate D2E/DX2                !
 ! A7    A(1,2,3)              123.6465         estimate D2E/DX2                !
 ! A8    A(1,2,7)              115.946          estimate D2E/DX2                !
 ! A9    A(3,2,7)              120.395          estimate D2E/DX2                !
 ! D1    D(4,1,2,3)           -168.8641         estimate D2E/DX2                !
 ! D2    D(4,1,2,7)             12.4181         estimate D2E/DX2                !
 ! D3    D(5,1,2,3)             70.9898         estimate D2E/DX2                !
 ! D4    D(5,1,2,7)           -107.728          estimate D2E/DX2                !
 ! D5    D(6,1,2,3)            -45.6075         estimate D2E/DX2                !
 ! D6    D(6,1,2,7)            135.6746         estimate D2E/DX2                !
 --------------------------------------------------------------------------------
 Trust Radius=3.00D-01 FncErr=1.00D-07 GrdErr=1.00D-07 EigMax=2.50D+02 EigMin=1.00D-04
 Number of steps in this run=     31 maximum allowed number of steps=    100.
 GradGradGradGradGradGradGradGradGradGradGradGradGradGradGradGradGradGrad

                          Input orientation:                          
 ---------------------------------------------------------------------
 Center     Atomic      Atomic             Coordinates (Angstroms)
 Number     Number       Type             X           Y           Z
 ---------------------------------------------------------------------
      1          6           0       -0.939710    0.713560    0.009000
      2          6           0        0.000000   -0.475122   -0.027000
      3          8           0        1.200202   -0.379078    0.021000
      4          1           0       -1.999298    0.409012    0.153000
      5          1           0       -0.851802    1.262534   -0.962950
      6          1           0       -0.623802    1.418534    0.812950
      7          1           0       -0.488450   -1.488079   -0.126000
 ---------------------------------------------------------------------
                    Distance matrix (angstroms):
                    1          2          3          4          5
     1  C    0.000000
     2  C    1.515690   0.000000
     3  O    2.402754   1.204995   0.000000
     4  H    1.111851   2.193464   3.297774   0.000000
     5  H    1.119726   2.149655   2.806024   1.813999   0.000000
     6  H    1.114954   2.163464   2.680594   1.829387   1.797259
     7  H    2.251461   1.128923   2.025596   2.441200   2.897996
                    6          7
     6  H    0.000000
     7  H    3.057507   0.000000
 Stoichiometry    C2H4O
 Framework group  C1[X(C2H4O)]
 Deg. of freedom    15
 Full point group                 C1      NOp   1
 Largest Abelian subgroup         C1      NOp   1
 Largest concise Abelian subgroup C1      NOp   1
                         Standard orientation:                         
 ---------------------------------------------------------------------
 Center     Atomic      Atomic             Coordinates (Angstroms)
 Number     Number       Type             X           Y           Z
 ---------------------------------------------------------------------
      1          6           0       -1.172189   -0.135324   -0.004349
      2          6           0        0.242225    0.409420   -0.006100
      3          8           0        1.225786   -0.286688    0.001256
      4          1           0       -1.927979    0.653595   -0.210745
      5          1           0       -1.378991   -0.577163    1.003519
      6          1           0       -1.257898   -0.961664   -0.747948
      7          1           0        0.338362    1.534156    0.007820
 ---------------------------------------------------------------------
 Rotational constants (GHZ):          54.9561495          10.1361197           9.0558350
 Standard basis: def2SVPP (5D, 7F)
 There are    53 symmetry adapted cartesian basis functions of A   symmetry.
 There are    50 symmetry adapted basis functions of A   symmetry.
    50 basis functions,    91 primitive gaussians,    53 cartesian basis functions
    12 alpha electrons       12 beta electrons
       nuclear repulsion energy        69.2827967273 Hartrees.
 NAtoms=    7 NActive=    7 NUniq=    7 SFac= 1.00D+00 NAtFMM=   60 NAOKFM=F Big=F
 Integral buffers will be    131072 words long.
 Raffenetti 2 integral format.
 Two-electron integral symmetry is turned on.
 Nuclear repulsion after empirical dispersion term =       69.2774325180 Hartrees.
 One-electron integrals computed using PRISM.
   1 Symmetry operations used in ECPInt.
 ECPInt:  NShTT=     351 NPrTT=    1429 LenC2=     352 LenP2D=    1280.
 LDataN:  DoStor=T MaxTD1= 4 Len=   56
 NBasis=    50 RedAO= T EigKep=  5.25D-03  NBF=    50
 NBsUse=    50 1.00D-06 EigRej= -1.00D+00 NBFU=    50
 ExpMin= 1.22D-01 ExpMax= 2.27D+03 ExpMxC= 3.41D+02 IAcc=3 IRadAn=         7 AccDes= 0.00D+00
 Harris functional with IExCor=  402 and IRadAn=       7 diagonalized for initial guess.
 HarFok:  IExCor=  402 AccDes= 0.00D+00 IRadAn=         7 IDoV= 1 UseB2=F ITyADJ=14
 ICtDFT=  3500011 ScaDFX=  1.000000  1.000000  1.000000  1.000000
 FoFCou: FMM=F IPFlag=           0 FMFlag=      100000 FMFlg1=           0
         NFxFlg=           0 DoJE=T BraDBF=F KetDBF=T FulRan=T
         wScrn=  0.000000 ICntrl=       500 IOpCl=  0 I1Cent=   200000004 NGrid=           0
         NMat0=    1 NMatS0=      1 NMatT0=    0 NMatD0=    1 NMtDS0=    0 NMtDT0=    0
 Petite list used in FoFCou.
 Keep R1 ints in memory in canonical form, NReq=14907300.
 Requested convergence on RMS density matrix=1.00D-08 within 128 cycles.
 Requested convergence on MAX density matrix=1.00D-06.
 Requested convergence on             energy=1.00D-06.
 No special actions if energy rises.
 Integral accuracy reduced to 1.0D-05 until final iterations.
 Initial convergence to 1.0D-05 achieved.  Increase integral accuracy.
 SCF Done:  E(RB3LYP) =  -153.710793986     A.U. after   13 cycles
            NFock= 13  Conv=0.11D-08     -V/T= 2.0093

 **********************************************************************

            Population analysis using the SCF Density.

 **********************************************************************

 Orbital symmetries:
       Occupied  (A) (A) (A) (A) (A) (A) (A) (A) (A) (A) (A) (A)
       Virtual   (A) (A) (A) (A) (A) (A) (A) (A) (A) (A) (A) (A)
                 (A) (A) (A) (A) (A) (A) (A) (A) (A) (A) (A) (A)
                 (A) (A) (A) (A) (A) (A) (A) (A) (A) (A) (A) (A)
                 (A) (A)
 The electronic state is 1-A.
 Alpha  occ. eigenvalues --  -19.13613 -10.27957 -10.19827  -1.04054  -0.74315
 Alpha  occ. eigenvalues --   -0.57452  -0.47890  -0.44677  -0.43831  -0.40103
 Alpha  occ. eigenvalues --   -0.36771  -0.26033
 Alpha virt. eigenvalues --   -0.03236   0.06456   0.08147   0.12774   0.13394
 Alpha virt. eigenvalues --    0.23054   0.23918   0.41698   0.44677   0.49094
 Alpha virt. eigenvalues --    0.50700   0.58468   0.62424   0.64069   0.66217
 Alpha virt. eigenvalues --    0.66872   0.68383   0.71314   0.82946   0.91326
 Alpha virt. eigenvalues --    1.02363   1.12943   1.34944   1.40837   1.62278
 Alpha virt. eigenvalues --    1.71872   1.79624   1.88783   2.02519   2.11961
 Alpha virt. eigenvalues --    2.15537   2.37642   2.44555   2.67824   2.71180
 Alpha virt. eigenvalues --    3.13378   3.25105   3.57406
          Condensed to atoms (all electrons):
               1          2          3          4          5          6
     1  C    5.227325   0.291090  -0.098308   0.317101   0.344756   0.338434
     2  C    0.291090   4.623976   0.665224   0.002805  -0.002851  -0.001581
     3  O   -0.098308   0.665224   7.669057   0.004283   0.000745   0.005254
     4  H    0.317101   0.002805   0.004283   0.594763  -0.016222  -0.015269
     5  H    0.344756  -0.002851   0.000745  -0.016222   0.539015  -0.007679
     6  H    0.338434  -0.001581   0.005254  -0.015269  -0.007679   0.541103
     7  H   -0.146451   0.381629  -0.045330   0.007890   0.006430   0.008226
               7
     1  C   -0.146451
     2  C    0.381629
     3  O   -0.045330
     4  H    0.007890
     5  H    0.006430
     6  H    0.008226
     7  H    0.724410
 Mulliken charges:
               1
     1  C   -0.273947
     2  C    0.039709
     3  O   -0.200924
     4  H    0.104649
     5  H    0.135805
     6  H    0.131512
     7  H    0.063197
 Sum of Mulliken charges =   0.00000
 Mulliken charges with hydrogens summed into heavy atoms:
               1
     1  C    0.098019
     2  C    0.102906
     3  O   -0.200924
 Electronic spatial extent (au):  <R**2>=            168.3967
 Charge=              0.0000 electrons
 Dipole moment (field-independent basis, Debye):
    X=             -2.2725    Y=              0.9063    Z=              0.0624  Tot=              2.4474
 Quadrupole moment (field-independent basis, Debye-Ang):
   XX=            -20.9437   YY=            -18.0229   ZZ=            -17.7141
   XY=              1.0325   XZ=             -0.1056   YZ=             -0.0098
 Traceless Quadrupole moment (field-independent basis, Debye-Ang):
   XX=             -2.0501   YY=              0.8707   ZZ=              1.1794
   XY=              1.0325   XZ=             -0.1056   YZ=             -0.0098
 Octapole moment (field-independent basis, Debye-Ang**2):
  XXX=              0.5977  YYY=             -0.8332  ZZZ=              0.4853  XYY=              0.8865
  XXY=              0.6516  XXZ=              0.0975  XZZ=              1.3371  YZZ=             -1.1171
  YYZ=             -0.2637  XYZ=              0.0907
 Hexadecapole moment (field-independent basis, Debye-Ang**3):
 XXXX=           -149.8838 YYYY=            -44.0231 ZZZZ=            -22.7210 XXXY=             -2.1721
 XXXZ=             -0.0567 YYYX=             -0.6963 YYYZ=              0.3863 ZZZX=             -0.7499
 ZZZY=             -0.2019 XXYY=            -30.6383 XXZZ=            -27.0445 YYZZ=            -10.8584
 XXYZ=             -0.3358 YYXZ=              0.3856 ZZXY=              0.3404
 N-N= 6.927743251798D+01 E-N=-4.974222103968D+02  KE= 1.523013008244D+02
   1 Symmetry operations used in ECPInt.
 ECPInt:  NShTT=     351 NPrTT=    1429 LenC2=     352 LenP2D=    1280.
 LDataN:  DoStor=T MaxTD1= 5 Len=  102
 Calling FoFJK, ICntrl=      2127 FMM=F ISym2X=0 I1Cent= 0 IOpClX= 0 NMat=1 NMatS=1 NMatT=0.
 ***** Axes restored to original set *****
 -------------------------------------------------------------------
 Center     Atomic                   Forces (Hartrees/Bohr)
 Number     Number              X              Y              Z
 -------------------------------------------------------------------
      1        6          -0.001801198    0.004844759   -0.001117702
      2        6           0.000588814   -0.000796700   -0.000887298
      3        8          -0.001867850   -0.000703440    0.000744551
      4        1           0.005598746    0.001921225   -0.000451065
      5        1          -0.001379341   -0.003625408    0.006726391
      6        1          -0.002133065   -0.003955855   -0.005086467
      7        1           0.000993893    0.002315419    0.000071590
 -------------------------------------------------------------------
 Cartesian Forces:  Max     0.006726391 RMS     0.002945764

 GradGradGradGradGradGradGradGradGradGradGradGradGradGradGradGradGradGrad
 Berny optimization.
 FormGI is forming the generalized inverse of G from B-inverse, IUseBI=4.
 Internal  Forces:  Max     0.007724406 RMS     0.002715155
 Search for a local minimum.
 Step number   1 out of a maximum of   31
 All quantities printed in internal units (Hartrees-Bohrs-Radians)
 Mixed Optimization -- RFO/linear search
 Second derivative matrix not updated -- first step.
 ITU=  0
     Eigenvalues ---    0.00558   0.00560   0.06993   0.07559   0.16000
     Eigenvalues ---    0.16000   0.16000   0.16000   0.22001   0.30676
     Eigenvalues ---    0.30786   0.31592   0.32081   0.32405   1.02353
 RFO step:  Lambda=-6.25638852D-04 EMin= 5.58400629D-03
 Linear search not attempted -- first point.
 Iteration  1 RMS(Cart)=  0.02746614 RMS(Int)=  0.00077370
 Iteration  2 RMS(Cart)=  0.00066506 RMS(Int)=  0.00027903
 Iteration  3 RMS(Cart)=  0.00000029 RMS(Int)=  0.00027903
 Variable       Old X    -DE/DX   Delta X   Delta X   Delta X     New X
                                 (Linear)    (Quad)   (Total)
    R1        2.86424  -0.00081   0.00000  -0.00264  -0.00264   2.86160
    R2        2.10109  -0.00592   0.00000  -0.01823  -0.01823   2.08286
    R3        2.11598  -0.00772   0.00000  -0.02440  -0.02440   2.09157
    R4        2.10696  -0.00677   0.00000  -0.02107  -0.02107   2.08589
    R5        2.27711  -0.00189   0.00000  -0.00184  -0.00184   2.27527
    R6        2.13335  -0.00251   0.00000  -0.00818  -0.00818   2.12518
    A1        1.95963   0.00010   0.00000   0.00004   0.00004   1.95966
    A2        1.89147   0.00087   0.00000   0.00588   0.00587   1.89734
    A3        1.91488   0.00042   0.00000   0.00269   0.00268   1.91756
    A4        1.89814  -0.00055   0.00000  -0.00358  -0.00359   1.89456
    A5        1.92818  -0.00044   0.00000  -0.00365  -0.00365   1.92453
    A6        1.86885  -0.00040   0.00000  -0.00131  -0.00133   1.86752
    A7        2.15804   0.00085   0.00000   0.00418   0.00345   2.16148
    A8        2.02364  -0.00054   0.00000  -0.00215  -0.00288   2.02076
    A9        2.10129  -0.00030   0.00000  -0.00065  -0.00139   2.09990
    D1       -2.94723   0.00059   0.00000   0.08729   0.08728  -2.85996
    D2        0.21674   0.00014   0.00000   0.01582   0.01584   0.23257
    D3        1.23901   0.00064   0.00000   0.08781   0.08781   1.32681
    D4       -1.88021   0.00019   0.00000   0.01635   0.01636  -1.86384
    D5       -0.79600   0.00039   0.00000   0.08457   0.08455  -0.71145
    D6        2.36797  -0.00005   0.00000   0.01310   0.01311   2.38108
         Item               Value     Threshold  Converged?
 Maximum Force            0.007724     0.000450     NO 
 RMS     Force            0.002715     0.000300     NO 
 Maximum Displacement     0.077803     0.001800     NO 
 RMS     Displacement     0.027480     0.001200     NO 
 Predicted change in Energy=-3.208347D-04
 GradGradGradGradGradGradGradGradGradGradGradGradGradGradGradGradGradGrad

                          Input orientation:                          
 ---------------------------------------------------------------------
 Center     Atomic      Atomic             Coordinates (Angstroms)
 Number     Number       Type             X           Y           Z
 ---------------------------------------------------------------------
      1          6           0       -0.938173    0.714203    0.004699
      2          6           0        0.001465   -0.472211   -0.046151
      3          8           0        1.197463   -0.385499    0.062172
      4          1           0       -1.984802    0.411507    0.171409
      5          1           0       -0.877603    1.256602   -0.958197
      6          1           0       -0.613286    1.416590    0.791770
      7          1           0       -0.487925   -1.479832   -0.145701
 ---------------------------------------------------------------------
                    Distance matrix (angstroms):
                    1          2          3          4          5
     1  C    0.000000
     2  C    1.514293   0.000000
     3  O    2.402830   1.204020   0.000000
     4  H    1.102202   2.184845   3.282372   0.000000
     5  H    1.106813   2.143218   2.836115   1.793345   0.000000
     6  H    1.103803   2.155829   2.656812   1.809999   1.777033
     7  H    2.244801   1.124595   2.020225   2.432769   2.880985
                    6          7
     6  H    0.000000
     7  H    3.046938   0.000000
 Stoichiometry    C2H4O
 Framework group  C1[X(C2H4O)]
 Deg. of freedom    15
 Full point group                 C1      NOp   1
 Largest Abelian subgroup         C1      NOp   1
 Largest concise Abelian subgroup C1      NOp   1
                         Standard orientation:                         
 ---------------------------------------------------------------------
 Center     Atomic      Atomic             Coordinates (Angstroms)
 Number     Number       Type             X           Y           Z
 ---------------------------------------------------------------------
      1          6           0       -1.171832   -0.135357   -0.006054
      2          6           0        0.241788    0.407372    0.008350
      3          8           0        1.226289   -0.285667   -0.002561
      4          1           0       -1.912432    0.634851   -0.276497
      5          1           0       -1.415202   -0.518859    1.003269
      6          1           0       -1.238317   -0.990434   -0.700895
      7          1           0        0.335900    1.527684   -0.019166
 ---------------------------------------------------------------------
 Rotational constants (GHZ):          55.6646521          10.1440581           9.0694986
 Standard basis: def2SVPP (5D, 7F)
 There are    53 symmetry adapted cartesian basis functions of A   symmetry.
 There are    50 symmetry adapted basis functions of A   symmetry.
    50 basis functions,    91 primitive gaussians,    53 cartesian basis functions
    12 alpha electrons       12 beta electrons
       nuclear repulsion energy        69.4502773298 Hartrees.
 NAtoms=    7 NActive=    7 NUniq=    7 SFac= 1.00D+00 NAtFMM=   60 NAOKFM=F Big=F
 Integral buffers will be    131072 words long.
 Raffenetti 2 integral format.
 Two-electron integral symmetry is turned on.
 Nuclear repulsion after empirical dispersion term =       69.4449082438 Hartrees.
 One-electron integrals computed using PRISM.
   1 Symmetry operations used in ECPInt.
 ECPInt:  NShTT=     351 NPrTT=    1429 LenC2=     352 LenP2D=    1280.
 LDataN:  DoStor=T MaxTD1= 4 Len=   56
 NBasis=    50 RedAO= T EigKep=  5.17D-03  NBF=    50
 NBsUse=    50 1.00D-06 EigRej= -1.00D+00 NBFU=    50
 Initial guess from the checkpoint file:  "/home/software/g16tmp/Gau-79362.chk"
 B after Tr=    -0.000000   -0.000000   -0.000000
         Rot=    0.999933    0.011393    0.001840    0.000133 Ang=   1.32 deg.
 ExpMin= 1.22D-01 ExpMax= 2.27D+03 ExpMxC= 3.41D+02 IAcc=3 IRadAn=         7 AccDes= 0.00D+00
 Harris functional with IExCor=  402 and IRadAn=       7 diagonalized for initial guess.
 HarFok:  IExCor=  402 AccDes= 0.00D+00 IRadAn=         7 IDoV= 1 UseB2=F ITyADJ=14
 ICtDFT=  3500011 ScaDFX=  1.000000  1.000000  1.000000  1.000000
 FoFCou: FMM=F IPFlag=           0 FMFlag=      100000 FMFlg1=           0
         NFxFlg=           0 DoJE=T BraDBF=F KetDBF=T FulRan=T
         wScrn=  0.000000 ICntrl=       500 IOpCl=  0 I1Cent=   200000004 NGrid=           0
         NMat0=    1 NMatS0=      1 NMatT0=    0 NMatD0=    1 NMtDS0=    0 NMtDT0=    0
 Petite list used in FoFCou.
 Keep R1 ints in memory in canonical form, NReq=14907300.
 Requested convergence on RMS density matrix=1.00D-08 within 128 cycles.
 Requested convergence on MAX density matrix=1.00D-06.
 Requested convergence on             energy=1.00D-06.
 No special actions if energy rises.
 Integral accuracy reduced to 1.0D-05 until final iterations.
 Initial convergence to 1.0D-05 achieved.  Increase integral accuracy.
 SCF Done:  E(RB3LYP) =  -153.710975654     A.U. after   11 cycles
            NFock= 11  Conv=0.84D-08     -V/T= 2.0089
   1 Symmetry operations used in ECPInt.
 ECPInt:  NShTT=     351 NPrTT=    1429 LenC2=     352 LenP2D=    1280.
 LDataN:  DoStor=T MaxTD1= 5 Len=  102
 Calling FoFJK, ICntrl=      2127 FMM=F ISym2X=0 I1Cent= 0 IOpClX= 0 NMat=1 NMatS=1 NMatT=0.
 ***** Axes restored to original set *****
 -------------------------------------------------------------------
 Center     Atomic                   Forces (Hartrees/Bohr)
 Number     Number              X              Y              Z
 -------------------------------------------------------------------
      1        6           0.000791486    0.000427794   -0.001903113
      2        6          -0.000679487   -0.000444084    0.007636022
      3        8           0.000341504    0.000018076   -0.002109745
      4        1          -0.000207154   -0.000341690   -0.000000039
      5        1          -0.000868310    0.000197901   -0.000417628
      6        1           0.000485914   -0.000081954   -0.000134359
      7        1           0.000136047    0.000223956   -0.003071138
 -------------------------------------------------------------------
 Cartesian Forces:  Max     0.007636022 RMS     0.001937790

 GradGradGradGradGradGradGradGradGradGradGradGradGradGradGradGradGradGrad
 Berny optimization.
 Using GEDIIS/GDIIS optimizer.
 FormGI is forming the generalized inverse of G from B-inverse, IUseBI=4.
 Internal  Forces:  Max     0.002139434 RMS     0.000963782
 Search for a local minimum.
 Step number   2 out of a maximum of   31
 All quantities printed in internal units (Hartrees-Bohrs-Radians)
 Mixed Optimization -- En-DIIS/RFO-DIIS
 Update second derivatives using D2CorX and points    1    2
 DE= -1.82D-04 DEPred=-3.21D-04 R= 5.66D-01
 TightC=F SS=  1.41D+00  RLast= 1.57D-01 DXNew= 5.0454D-01 4.7156D-01
 Trust test= 5.66D-01 RLast= 1.57D-01 DXMaxT set to 4.72D-01
 ITU=  1  0
 Use linear search instead of GDIIS.
     Eigenvalues ---    0.00343   0.01632   0.06977   0.07465   0.15436
     Eigenvalues ---    0.16000   0.16000   0.16132   0.21756   0.27333
     Eigenvalues ---    0.30742   0.30820   0.31844   0.32334   1.02254
 RFO step:  Lambda=-1.18811688D-03 EMin= 3.43105126D-03
 Quartic linear search produced a step of -0.29578.
 Iteration  1 RMS(Cart)=  0.05923871 RMS(Int)=  0.00869908
 Iteration  2 RMS(Cart)=  0.00651460 RMS(Int)=  0.00243483
 Iteration  3 RMS(Cart)=  0.00005834 RMS(Int)=  0.00243385
 Iteration  4 RMS(Cart)=  0.00000008 RMS(Int)=  0.00243385
 Variable       Old X    -DE/DX   Delta X   Delta X   Delta X     New X
                                 (Linear)    (Quad)   (Total)
    R1        2.86160  -0.00005   0.00078  -0.00595  -0.00517   2.85643
    R2        2.08286   0.00029   0.00539  -0.03973  -0.03434   2.04852
    R3        2.09157   0.00041   0.00722  -0.05310  -0.04588   2.04569
    R4        2.08589  -0.00000   0.00623  -0.04662  -0.04039   2.04549
    R5        2.27527   0.00015   0.00054  -0.00399  -0.00344   2.27183
    R6        2.12518   0.00001   0.00242  -0.01806  -0.01564   2.10953
    A1        1.95966  -0.00052  -0.00001  -0.00260  -0.00261   1.95706
    A2        1.89734   0.00100  -0.00174   0.01736   0.01559   1.91294
    A3        1.91756  -0.00053  -0.00079   0.00392   0.00310   1.92066
    A4        1.89456  -0.00042   0.00106  -0.01023  -0.00917   1.88539
    A5        1.92453   0.00047   0.00108  -0.00649  -0.00541   1.91911
    A6        1.86752   0.00004   0.00039  -0.00173  -0.00140   1.86612
    A7        2.16148   0.00038  -0.00102   0.01114   0.00373   2.16522
    A8        2.02076  -0.00011   0.00085  -0.00306  -0.00861   2.01214
    A9        2.09990  -0.00013   0.00041   0.00017  -0.00590   2.09400
    D1       -2.85996  -0.00135  -0.02581   0.03146   0.00595  -2.85400
    D2        0.23257   0.00195  -0.00468   0.22529   0.22029   0.45287
    D3        1.32681  -0.00117  -0.02597   0.03426   0.00863   1.33544
    D4       -1.86384   0.00214  -0.00484   0.22809   0.22297  -1.64087
    D5       -0.71145  -0.00150  -0.02501   0.02414  -0.00058  -0.71203
    D6        2.38108   0.00181  -0.00388   0.21797   0.21376   2.59483
         Item               Value     Threshold  Converged?
 Maximum Force            0.002139     0.000450     NO 
 RMS     Force            0.000964     0.000300     NO 
 Maximum Displacement     0.188563     0.001800     NO 
 RMS     Displacement     0.064341     0.001200     NO 
 Predicted change in Energy=-7.271193D-04
 GradGradGradGradGradGradGradGradGradGradGradGradGradGradGradGradGradGrad

                          Input orientation:                          
 ---------------------------------------------------------------------
 Center     Atomic      Atomic             Coordinates (Angstroms)
 Number     Number       Type             X           Y           Z
 ---------------------------------------------------------------------
      1          6           0       -0.936224    0.713958    0.013036
      2          6           0       -0.004173   -0.476035    0.010494
      3          8           0        1.191977   -0.394548    0.099190
      4          1           0       -1.963043    0.428028    0.210539
      5          1           0       -0.904316    1.202350   -0.952539
      6          1           0       -0.607860    1.440868    0.744765
      7          1           0       -0.479220   -1.453260   -0.245485
 ---------------------------------------------------------------------
                    Distance matrix (angstroms):
                    1          2          3          4          5
     1  C    0.000000
     2  C    1.511558   0.000000
     3  O    2.401135   1.202200   0.000000
     4  H    1.084029   2.166684   3.262389   0.000000
     5  H    1.082534   2.134167   2.837370   1.753062   0.000000
     6  H    1.082428   2.139652   2.650460   1.774194   1.739431
     7  H    2.229914   1.116317   2.008127   2.439043   2.780809
                    6          7
     6  H    0.000000
     7  H    3.061556   0.000000
 Stoichiometry    C2H4O
 Framework group  C1[X(C2H4O)]
 Deg. of freedom    15
 Full point group                 C1      NOp   1
 Largest Abelian subgroup         C1      NOp   1
 Largest concise Abelian subgroup C1      NOp   1
                         Standard orientation:                         
 ---------------------------------------------------------------------
 Center     Atomic      Atomic             Coordinates (Angstroms)
 Number     Number       Type             X           Y           Z
 ---------------------------------------------------------------------
      1          6           0       -1.170455   -0.135650   -0.000200
      2          6           0        0.241028    0.404199   -0.033168
      3          8           0        1.226097   -0.283711    0.008090
      4          1           0       -1.896423    0.598877   -0.329685
      5          1           0       -1.424248   -0.427267    1.010952
      6          1           0       -1.241653   -1.025718   -0.612050
      7          1           0        0.330107    1.512504    0.066271
 ---------------------------------------------------------------------
 Rotational constants (GHZ):          56.9625577          10.1721411           9.1079798
 Standard basis: def2SVPP (5D, 7F)
 There are    53 symmetry adapted cartesian basis functions of A   symmetry.
 There are    50 symmetry adapted basis functions of A   symmetry.
    50 basis functions,    91 primitive gaussians,    53 cartesian basis functions
    12 alpha electrons       12 beta electrons
       nuclear repulsion energy        69.7898779002 Hartrees.
 NAtoms=    7 NActive=    7 NUniq=    7 SFac= 1.00D+00 NAtFMM=   60 NAOKFM=F Big=F
 Integral buffers will be    131072 words long.
 Raffenetti 2 integral format.
 Two-electron integral symmetry is turned on.
 Nuclear repulsion after empirical dispersion term =       69.7844960148 Hartrees.
 One-electron integrals computed using PRISM.
   1 Symmetry operations used in ECPInt.
 ECPInt:  NShTT=     351 NPrTT=    1429 LenC2=     352 LenP2D=    1283.
 LDataN:  DoStor=T MaxTD1= 4 Len=   56
 NBasis=    50 RedAO= T EigKep=  5.05D-03  NBF=    50
 NBsUse=    50 1.00D-06 EigRej= -1.00D+00 NBFU=    50
 Initial guess from the checkpoint file:  "/home/software/g16tmp/Gau-79362.chk"
 B after Tr=     0.000000    0.000000    0.000000
         Rot=    0.999847    0.017510    0.000404    0.000184 Ang=   2.01 deg.
 ExpMin= 1.22D-01 ExpMax= 2.27D+03 ExpMxC= 3.41D+02 IAcc=3 IRadAn=         7 AccDes= 0.00D+00
 Harris functional with IExCor=  402 and IRadAn=       7 diagonalized for initial guess.
 HarFok:  IExCor=  402 AccDes= 0.00D+00 IRadAn=         7 IDoV= 1 UseB2=F ITyADJ=14
 ICtDFT=  3500011 ScaDFX=  1.000000  1.000000  1.000000  1.000000
 FoFCou: FMM=F IPFlag=           0 FMFlag=      100000 FMFlg1=           0
         NFxFlg=           0 DoJE=T BraDBF=F KetDBF=T FulRan=T
         wScrn=  0.000000 ICntrl=       500 IOpCl=  0 I1Cent=   200000004 NGrid=           0
         NMat0=    1 NMatS0=      1 NMatT0=    0 NMatD0=    1 NMtDS0=    0 NMtDT0=    0
 Petite list used in FoFCou.
 Keep R1 ints in memory in canonical form, NReq=14907300.
 Requested convergence on RMS density matrix=1.00D-08 within 128 cycles.
 Requested convergence on MAX density matrix=1.00D-06.
 Requested convergence on             energy=1.00D-06.
 No special actions if energy rises.
 Integral accuracy reduced to 1.0D-05 until final iterations.
 Initial convergence to 1.0D-05 achieved.  Increase integral accuracy.
 SCF Done:  E(RB3LYP) =  -153.709559781     A.U. after   12 cycles
            NFock= 12  Conv=0.87D-08     -V/T= 2.0082
   1 Symmetry operations used in ECPInt.
 ECPInt:  NShTT=     351 NPrTT=    1429 LenC2=     352 LenP2D=    1283.
 LDataN:  DoStor=T MaxTD1= 5 Len=  102
 Calling FoFJK, ICntrl=      2127 FMM=F ISym2X=0 I1Cent= 0 IOpClX= 0 NMat=1 NMatS=1 NMatT=0.
 ***** Axes restored to original set *****
 -------------------------------------------------------------------
 Center     Atomic                   Forces (Hartrees/Bohr)
 Number     Number              X              Y              Z
 -------------------------------------------------------------------
      1        6           0.004742202   -0.010849046    0.009998477
      2        6           0.000266975    0.005064780   -0.017748194
      3        8           0.003963437   -0.000028632    0.007189658
      4        1          -0.012314779   -0.003876472    0.002565145
      5        1           0.001572664    0.005090218   -0.015829012
      6        1           0.004790524    0.010081444    0.009803105
      7        1          -0.003021022   -0.005482293    0.004020822
 -------------------------------------------------------------------
 Cartesian Forces:  Max     0.017748194 RMS     0.008096204

 GradGradGradGradGradGradGradGradGradGradGradGradGradGradGradGradGradGrad
 Berny optimization.
 Using GEDIIS/GDIIS optimizer.
 FormGI is forming the generalized inverse of G from B-inverse, IUseBI=4.
 Internal  Forces:  Max     0.016461654 RMS     0.006270070
 Search for a local minimum.
 Step number   3 out of a maximum of   31
 All quantities printed in internal units (Hartrees-Bohrs-Radians)
 Mixed Optimization -- RFO/linear search
 Update second derivatives using D2CorX and points    1    3    2
 DE=  1.42D-03 DEPred=-7.27D-04 R=-1.95D+00
 Trust test=-1.95D+00 RLast= 3.87D-01 DXMaxT set to 2.36D-01
 ITU= -1  1  0
 Use linear search instead of GDIIS.
     Eigenvalues ---    0.00395   0.04769   0.07050   0.07355   0.15993
     Eigenvalues ---    0.16000   0.16051   0.16491   0.21906   0.30699
     Eigenvalues ---    0.30769   0.31834   0.32257   0.38032   1.02600
 RFO step:  Lambda=-2.52612760D-04 EMin= 3.94859487D-03
 Quartic linear search produced a step of -0.76016.
 Iteration  1 RMS(Cart)=  0.02822812 RMS(Int)=  0.00137654
 Iteration  2 RMS(Cart)=  0.00115478 RMS(Int)=  0.00080468
 Iteration  3 RMS(Cart)=  0.00000055 RMS(Int)=  0.00080468
 Variable       Old X    -DE/DX   Delta X   Delta X   Delta X     New X
                                 (Linear)    (Quad)   (Total)
    R1        2.85643   0.00111   0.00393   0.00013   0.00406   2.86049
    R2        2.04852   0.01315   0.02610   0.00590   0.03200   2.08052
    R3        2.04569   0.01646   0.03488   0.00744   0.04231   2.08801
    R4        2.04549   0.01485   0.03070   0.00602   0.03672   2.08221
    R5        2.27183   0.00447   0.00262   0.00070   0.00331   2.27514
    R6        2.10953   0.00516   0.01189   0.00209   0.01399   2.12352
    A1        1.95706  -0.00000   0.00198  -0.00247  -0.00050   1.95656
    A2        1.91294  -0.00399  -0.01185  -0.00109  -0.01295   1.89999
    A3        1.92066   0.00077  -0.00236   0.00059  -0.00175   1.91891
    A4        1.88539   0.00133   0.00697  -0.00224   0.00471   1.89010
    A5        1.91911   0.00040   0.00411   0.00237   0.00648   1.92559
    A6        1.86612   0.00154   0.00106   0.00304   0.00412   1.87025
    A7        2.16522   0.00009  -0.00284   0.00056  -0.00015   2.16507
    A8        2.01214   0.00079   0.00655  -0.00149   0.00718   2.01932
    A9        2.09400   0.00023   0.00448  -0.00206   0.00456   2.09856
    D1       -2.85400   0.00361  -0.00453   0.05301   0.04848  -2.80552
    D2        0.45287  -0.00409  -0.16746   0.07397  -0.09346   0.35940
    D3        1.33544   0.00463  -0.00656   0.05815   0.05156   1.38700
    D4       -1.64087  -0.00307  -0.16949   0.07911  -0.09039  -1.73126
    D5       -0.71203   0.00468   0.00044   0.05476   0.05520  -0.65684
    D6        2.59483  -0.00302  -0.16249   0.07572  -0.08675   2.50809
         Item               Value     Threshold  Converged?
 Maximum Force            0.016462     0.000450     NO 
 RMS     Force            0.006270     0.000300     NO 
 Maximum Displacement     0.070774     0.001800     NO 
 RMS     Displacement     0.028150     0.001200     NO 
 Predicted change in Energy=-2.975775D-04
 GradGradGradGradGradGradGradGradGradGradGradGradGradGradGradGradGradGrad

                          Input orientation:                          
 ---------------------------------------------------------------------
 Center     Atomic      Atomic             Coordinates (Angstroms)
 Number     Number       Type             X           Y           Z
 ---------------------------------------------------------------------
      1          6           0       -0.937055    0.715117    0.009488
      2          6           0        0.000651   -0.472608   -0.026958
      3          8           0        1.194526   -0.393258    0.106702
      4          1           0       -1.977800    0.415338    0.207240
      5          1           0       -0.903514    1.226868   -0.969207
      6          1           0       -0.596857    1.439490    0.766881
      7          1           0       -0.482812   -1.469586   -0.214146
 ---------------------------------------------------------------------
                    Distance matrix (angstroms):
                    1          2          3          4          5
     1  C    0.000000
     2  C    1.513708   0.000000
     3  O    2.404492   1.203952   0.000000
     4  H    1.100965   2.181184   3.275300   0.000000
     5  H    1.104925   2.143260   2.860797   1.787931   0.000000
     6  H    1.101859   2.154836   2.646480   1.808062   1.775739
     7  H    2.242605   1.123717   2.018635   2.442436   2.831602
                    6          7
     6  H    0.000000
     7  H    3.072156   0.000000
 Stoichiometry    C2H4O
 Framework group  C1[X(C2H4O)]
 Deg. of freedom    15
 Full point group                 C1      NOp   1
 Largest Abelian subgroup         C1      NOp   1
 Largest concise Abelian subgroup C1      NOp   1
                         Standard orientation:                         
 ---------------------------------------------------------------------
 Center     Atomic      Atomic             Coordinates (Angstroms)
 Number     Number       Type             X           Y           Z
 ---------------------------------------------------------------------
      1          6           0       -1.172151   -0.136286   -0.004756
      2          6           0        0.241258    0.405547   -0.005908
      3          8           0        1.227757   -0.284578    0.001010
      4          1           0       -1.903002    0.612155   -0.347999
      5          1           0       -1.439292   -0.435145    1.024894
      6          1           0       -1.228271   -1.041281   -0.630799
      7          1           0        0.333867    1.525331    0.009803
 ---------------------------------------------------------------------
 Rotational constants (GHZ):          55.9249085          10.1313489           9.0643305
 Standard basis: def2SVPP (5D, 7F)
 There are    53 symmetry adapted cartesian basis functions of A   symmetry.
 There are    50 symmetry adapted basis functions of A   symmetry.
    50 basis functions,    91 primitive gaussians,    53 cartesian basis functions
    12 alpha electrons       12 beta electrons
       nuclear repulsion energy        69.4690358931 Hartrees.
 NAtoms=    7 NActive=    7 NUniq=    7 SFac= 1.00D+00 NAtFMM=   60 NAOKFM=F Big=F
 Integral buffers will be    131072 words long.
 Raffenetti 2 integral format.
 Two-electron integral symmetry is turned on.
 Nuclear repulsion after empirical dispersion term =       69.4636663771 Hartrees.
 One-electron integrals computed using PRISM.
   1 Symmetry operations used in ECPInt.
 ECPInt:  NShTT=     351 NPrTT=    1429 LenC2=     352 LenP2D=    1280.
 LDataN:  DoStor=T MaxTD1= 4 Len=   56
 NBasis=    50 RedAO= T EigKep=  5.14D-03  NBF=    50
 NBsUse=    50 1.00D-06 EigRej= -1.00D+00 NBFU=    50
 Lowest energy guess from the checkpoint file:  "/home/software/g16tmp/Gau-79362.chk"
 B after Tr=     0.000000    0.000000    0.000000
         Rot=    0.999851    0.017246    0.001155   -0.000009 Ang=   1.98 deg.
 B after Tr=     0.000000    0.000000   -0.000000
         Rot=    1.000000   -0.000352    0.000720   -0.000222 Ang=  -0.10 deg.
 Keep R1 ints in memory in canonical form, NReq=14907300.
 Requested convergence on RMS density matrix=1.00D-08 within 128 cycles.
 Requested convergence on MAX density matrix=1.00D-06.
 Requested convergence on             energy=1.00D-06.
 No special actions if energy rises.
 Integral accuracy reduced to 1.0D-05 until final iterations.
 Initial convergence to 1.0D-05 achieved.  Increase integral accuracy.
 SCF Done:  E(RB3LYP) =  -153.711343142     A.U. after   11 cycles
            NFock= 11  Conv=0.96D-08     -V/T= 2.0089
   1 Symmetry operations used in ECPInt.
 ECPInt:  NShTT=     351 NPrTT=    1429 LenC2=     352 LenP2D=    1280.
 LDataN:  DoStor=T MaxTD1= 5 Len=  102
 Calling FoFJK, ICntrl=      2127 FMM=F ISym2X=0 I1Cent= 0 IOpClX= 0 NMat=1 NMatS=1 NMatT=0.
 ***** Axes restored to original set *****
 -------------------------------------------------------------------
 Center     Atomic                   Forces (Hartrees/Bohr)
 Number     Number              X              Y              Z
 -------------------------------------------------------------------
      1        6           0.001078520   -0.000746506    0.001553129
      2        6           0.000108153    0.000579350   -0.000859908
      3        8           0.000191555    0.000043066    0.000919976
      4        1          -0.001214653   -0.000518256    0.000203185
      5        1          -0.000413838    0.000074246   -0.001814219
      6        1           0.000712128    0.000863601    0.000519411
      7        1          -0.000461864   -0.000295502   -0.000521574
 -------------------------------------------------------------------
 Cartesian Forces:  Max     0.001814219 RMS     0.000800393

 GradGradGradGradGradGradGradGradGradGradGradGradGradGradGradGradGradGrad
 Berny optimization.
 Using GEDIIS/GDIIS optimizer.
 FormGI is forming the generalized inverse of G from B-inverse, IUseBI=4.
 Internal  Forces:  Max     0.001628783 RMS     0.000631060
 Search for a local minimum.
 Step number   4 out of a maximum of   31
 All quantities printed in internal units (Hartrees-Bohrs-Radians)
 Mixed Optimization -- En-DIIS/RFO-DIIS
 Update second derivatives using D2CorX and points    1    3    2    4
 DE= -3.67D-04 DEPred=-2.98D-04 R= 1.23D+00
 TightC=F SS=  1.41D+00  RLast= 2.44D-01 DXNew= 3.9654D-01 7.3155D-01
 Trust test= 1.23D+00 RLast= 2.44D-01 DXMaxT set to 3.97D-01
 ITU=  1 -1  1  0
 Use linear search instead of GDIIS.
     Eigenvalues ---    0.00083   0.05510   0.07345   0.07397   0.15987
     Eigenvalues ---    0.16043   0.16052   0.16979   0.21940   0.30714
     Eigenvalues ---    0.30812   0.31834   0.32261   0.41128   1.02644
 RFO step:  Lambda=-5.92921539D-04 EMin= 8.27231470D-04
 Quartic linear search produced a step of  0.50554.
 Iteration  1 RMS(Cart)=  0.09203117 RMS(Int)=  0.04457026
 Iteration  2 RMS(Cart)=  0.03814285 RMS(Int)=  0.00107971
 Iteration  3 RMS(Cart)=  0.00097634 RMS(Int)=  0.00026049
 Iteration  4 RMS(Cart)=  0.00000064 RMS(Int)=  0.00026049
 Variable       Old X    -DE/DX   Delta X   Delta X   Delta X     New X
                                 (Linear)    (Quad)   (Total)
    R1        2.86049  -0.00035  -0.00056  -0.00434  -0.00490   2.85560
    R2        2.08052   0.00133  -0.00118  -0.00211  -0.00329   2.07723
    R3        2.08801   0.00163  -0.00180  -0.00386  -0.00566   2.08234
    R4        2.08221   0.00114  -0.00186  -0.00572  -0.00757   2.07464
    R5        2.27514   0.00029  -0.00007  -0.00033  -0.00040   2.27474
    R6        2.12352   0.00055  -0.00084  -0.00170  -0.00254   2.12098
    A1        1.95656  -0.00020  -0.00157  -0.00675  -0.00835   1.94821
    A2        1.89999  -0.00044   0.00134  -0.00100   0.00028   1.90027
    A3        1.91891   0.00005   0.00068   0.00520   0.00586   1.92477
    A4        1.89010  -0.00010  -0.00225  -0.01230  -0.01463   1.87547
    A5        1.92559   0.00033   0.00054   0.00664   0.00719   1.93279
    A6        1.87025   0.00037   0.00138   0.00852   0.00986   1.88010
    A7        2.16507   0.00003   0.00181   0.00569   0.00681   2.17188
    A8        2.01932  -0.00034  -0.00072  -0.00713  -0.00853   2.01079
    A9        2.09856   0.00032  -0.00068   0.00125  -0.00012   2.09844
    D1       -2.80552   0.00027   0.02752   0.21804   0.24561  -2.55991
    D2        0.35940  -0.00002   0.06412   0.22739   0.29153   0.65093
    D3        1.38700   0.00080   0.03043   0.23828   0.26871   1.65571
    D4       -1.73126   0.00052   0.06703   0.24763   0.31463  -1.41663
    D5       -0.65684   0.00059   0.02761   0.22562   0.25322  -0.40361
    D6        2.50809   0.00031   0.06421   0.23497   0.29914   2.80723
         Item               Value     Threshold  Converged?
 Maximum Force            0.001629     0.000450     NO 
 RMS     Force            0.000631     0.000300     NO 
 Maximum Displacement     0.333394     0.001800     NO 
 RMS     Displacement     0.128645     0.001200     NO 
 Predicted change in Energy=-4.651115D-04
 GradGradGradGradGradGradGradGradGradGradGradGradGradGradGradGradGradGrad

                          Input orientation:                          
 ---------------------------------------------------------------------
 Center     Atomic      Atomic             Coordinates (Angstroms)
 Number     Number       Type             X           Y           Z
 ---------------------------------------------------------------------
      1          6           0       -0.932916    0.717283    0.017084
      2          6           0       -0.000361   -0.471308   -0.015501
      3          8           0        1.170206   -0.425973    0.261470
      4          1           0       -1.950974    0.425459    0.311518
      5          1           0       -0.992821    1.151266   -0.994012
      6          1           0       -0.540225    1.490746    0.690011
      7          1           0       -0.455769   -1.426111   -0.390570
 ---------------------------------------------------------------------
                    Distance matrix (angstroms):
                    1          2          3          4          5
     1  C    0.000000
     2  C    1.511116   0.000000
     3  O    2.406217   1.203742   0.000000
     4  H    1.099225   2.171642   3.235616   0.000000
     5  H    1.101928   2.138974   2.956789   1.774616   0.000000
     6  H    1.097852   2.153800   2.604425   1.807846   1.776519
     7  H    2.233381   1.122374   2.017233   2.481306   2.701007
                    6          7
     6  H    0.000000
     7  H    3.111726   0.000000
 Stoichiometry    C2H4O
 Framework group  C1[X(C2H4O)]
 Deg. of freedom    15
 Full point group                 C1      NOp   1
 Largest Abelian subgroup         C1      NOp   1
 Largest concise Abelian subgroup C1      NOp   1
                         Standard orientation:                         
 ---------------------------------------------------------------------
 Center     Atomic      Atomic             Coordinates (Angstroms)
 Number     Number       Type             X           Y           Z
 ---------------------------------------------------------------------
      1          6           0       -1.171211   -0.140660   -0.004939
      2          6           0        0.239367    0.401225   -0.014907
      3          8           0        1.230891   -0.281090    0.002988
      4          1           0       -1.854484    0.497702   -0.582805
      5          1           0       -1.537733   -0.161664    1.034035
      6          1           0       -1.185999   -1.170371   -0.385407
      7          1           0        0.322151    1.519666    0.029346
 ---------------------------------------------------------------------
 Rotational constants (GHZ):          56.4746153          10.1169222           9.0640427
 Standard basis: def2SVPP (5D, 7F)
 There are    53 symmetry adapted cartesian basis functions of A   symmetry.
 There are    50 symmetry adapted basis functions of A   symmetry.
    50 basis functions,    91 primitive gaussians,    53 cartesian basis functions
    12 alpha electrons       12 beta electrons
       nuclear repulsion energy        69.5296074432 Hartrees.
 NAtoms=    7 NActive=    7 NUniq=    7 SFac= 1.00D+00 NAtFMM=   60 NAOKFM=F Big=F
 Integral buffers will be    131072 words long.
 Raffenetti 2 integral format.
 Two-electron integral symmetry is turned on.
 Nuclear repulsion after empirical dispersion term =       69.5242354408 Hartrees.
 One-electron integrals computed using PRISM.
   1 Symmetry operations used in ECPInt.
 ECPInt:  NShTT=     351 NPrTT=    1429 LenC2=     352 LenP2D=    1279.
 LDataN:  DoStor=T MaxTD1= 4 Len=   56
 NBasis=    50 RedAO= T EigKep=  5.01D-03  NBF=    50
 NBsUse=    50 1.00D-06 EigRej= -1.00D+00 NBFU=    50
 Initial guess from the checkpoint file:  "/home/software/g16tmp/Gau-79362.chk"
 B after Tr=    -0.000000   -0.000000    0.000000
         Rot=    0.998430    0.055795    0.004958   -0.000613 Ang=   6.42 deg.
 ExpMin= 1.22D-01 ExpMax= 2.27D+03 ExpMxC= 3.41D+02 IAcc=3 IRadAn=         7 AccDes= 0.00D+00
 Harris functional with IExCor=  402 and IRadAn=       7 diagonalized for initial guess.
 HarFok:  IExCor=  402 AccDes= 0.00D+00 IRadAn=         7 IDoV= 1 UseB2=F ITyADJ=14
 ICtDFT=  3500011 ScaDFX=  1.000000  1.000000  1.000000  1.000000
 FoFCou: FMM=F IPFlag=           0 FMFlag=      100000 FMFlg1=           0
         NFxFlg=           0 DoJE=T BraDBF=F KetDBF=T FulRan=T
         wScrn=  0.000000 ICntrl=       500 IOpCl=  0 I1Cent=   200000004 NGrid=           0
         NMat0=    1 NMatS0=      1 NMatT0=    0 NMatD0=    1 NMtDS0=    0 NMtDT0=    0
 Petite list used in FoFCou.
 Keep R1 ints in memory in canonical form, NReq=14907300.
 Requested convergence on RMS density matrix=1.00D-08 within 128 cycles.
 Requested convergence on MAX density matrix=1.00D-06.
 Requested convergence on             energy=1.00D-06.
 No special actions if energy rises.
 Integral accuracy reduced to 1.0D-05 until final iterations.
 Initial convergence to 1.0D-05 achieved.  Increase integral accuracy.
 SCF Done:  E(RB3LYP) =  -153.711966636     A.U. after   12 cycles
            NFock= 12  Conv=0.55D-08     -V/T= 2.0088
   1 Symmetry operations used in ECPInt.
 ECPInt:  NShTT=     351 NPrTT=    1429 LenC2=     352 LenP2D=    1279.
 LDataN:  DoStor=T MaxTD1= 5 Len=  102
 Calling FoFJK, ICntrl=      2127 FMM=F ISym2X=0 I1Cent= 0 IOpClX= 0 NMat=1 NMatS=1 NMatT=0.
 ***** Axes restored to original set *****
 -------------------------------------------------------------------
 Center     Atomic                   Forces (Hartrees/Bohr)
 Number     Number              X              Y              Z
 -------------------------------------------------------------------
      1        6           0.001954154   -0.002155046    0.002946551
      2        6           0.001364289    0.002853091   -0.005321462
      3        8           0.000204437   -0.000508713    0.002704176
      4        1          -0.002985080   -0.000910352    0.001013851
      5        1          -0.000549100    0.000167008   -0.004152626
      6        1           0.001320359    0.001980544    0.002107264
      7        1          -0.001309059   -0.001426532    0.000702244
 -------------------------------------------------------------------
 Cartesian Forces:  Max     0.005321462 RMS     0.002244219

 GradGradGradGradGradGradGradGradGradGradGradGradGradGradGradGradGradGrad
 Berny optimization.
 Using GEDIIS/GDIIS optimizer.
 FormGI is forming the generalized inverse of G from B-inverse, IUseBI=4.
 Internal  Forces:  Max     0.003905958 RMS     0.001595518
 Search for a local minimum.
 Step number   5 out of a maximum of   31
 All quantities printed in internal units (Hartrees-Bohrs-Radians)
 Mixed Optimization -- RFO/linear search
 Update second derivatives using D2CorX and points    4    5
 DE= -6.23D-04 DEPred=-4.65D-04 R= 1.34D+00
 TightC=F SS=  1.41D+00  RLast= 6.86D-01 DXNew= 6.6689D-01 2.0585D+00
 Trust test= 1.34D+00 RLast= 6.86D-01 DXMaxT set to 6.67D-01
 ITU=  1  1 -1  1  0
 Use linear search instead of GDIIS.
     Eigenvalues ---    0.00027   0.06740   0.07334   0.07970   0.15960
     Eigenvalues ---    0.16035   0.16104   0.17610   0.21993   0.30722
     Eigenvalues ---    0.30828   0.31823   0.32259   0.47719   1.02812
 RFO step:  Lambda=-3.28011898D-04 EMin= 2.66390455D-04
 Quartic linear search produced a step of  0.43156.
 Iteration  1 RMS(Cart)=  0.09201354 RMS(Int)=  0.03526554
 Iteration  2 RMS(Cart)=  0.03053936 RMS(Int)=  0.00055153
 Iteration  3 RMS(Cart)=  0.00055596 RMS(Int)=  0.00007165
 Iteration  4 RMS(Cart)=  0.00000016 RMS(Int)=  0.00007165
 Variable       Old X    -DE/DX   Delta X   Delta X   Delta X     New X
                                 (Linear)    (Quad)   (Total)
    R1        2.85560  -0.00052  -0.00211  -0.00389  -0.00600   2.84959
    R2        2.07723   0.00328  -0.00142   0.00541   0.00399   2.08122
    R3        2.08234   0.00391  -0.00244   0.00579   0.00335   2.08569
    R4        2.07464   0.00316  -0.00327   0.00254  -0.00073   2.07391
    R5        2.27474   0.00080  -0.00017   0.00031   0.00014   2.27488
    R6        2.12098   0.00151  -0.00110   0.00232   0.00122   2.12220
    A1        1.94821   0.00001  -0.00360  -0.00629  -0.00996   1.93825
    A2        1.90027  -0.00132   0.00012  -0.00223  -0.00221   1.89806
    A3        1.92477  -0.00007   0.00253   0.00096   0.00347   1.92824
    A4        1.87547   0.00014  -0.00631  -0.00955  -0.01601   1.85946
    A5        1.93279   0.00014   0.00310   0.00420   0.00731   1.94010
    A6        1.88010   0.00111   0.00425   0.01327   0.01747   1.89757
    A7        2.17188   0.00035   0.00294   0.00571   0.00852   2.18040
    A8        2.01079  -0.00050  -0.00368  -0.00637  -0.01019   2.00060
    A9        2.09844   0.00031  -0.00005   0.00151   0.00132   2.09977
    D1       -2.55991   0.00138   0.10600   0.14442   0.25048  -2.30943
    D2        0.65093  -0.00112   0.12581   0.13016   0.25604   0.90697
    D3        1.65571   0.00204   0.11596   0.16141   0.27734   1.93305
    D4       -1.41663  -0.00046   0.13578   0.14716   0.28290  -1.13374
    D5       -0.40361   0.00152   0.10928   0.14607   0.25533  -0.14828
    D6        2.80723  -0.00098   0.12910   0.13182   0.26089   3.06812
         Item               Value     Threshold  Converged?
 Maximum Force            0.003906     0.000450     NO 
 RMS     Force            0.001596     0.000300     NO 
 Maximum Displacement     0.287504     0.001800     NO 
 RMS     Displacement     0.121424     0.001200     NO 
 Predicted change in Energy=-5.520434D-04
 GradGradGradGradGradGradGradGradGradGradGradGradGradGradGradGradGradGrad

                          Input orientation:                          
 ---------------------------------------------------------------------
 Center     Atomic      Atomic             Coordinates (Angstroms)
 Number     Number       Type             X           Y           Z
 ---------------------------------------------------------------------
      1          6           0       -0.927835    0.720485    0.021018
      2          6           0        0.000548   -0.467265   -0.014192
      3          8           0        1.128948   -0.472740    0.405160
      4          1           0       -1.919494    0.436245    0.406712
      5          1           0       -1.083271    1.080005   -1.010844
      6          1           0       -0.489744    1.532803    0.614857
      7          1           0       -0.412013   -1.368172   -0.542711
 ---------------------------------------------------------------------
                    Distance matrix (angstroms):
                    1          2          3          4          5
     1  C    0.000000
     2  C    1.507940   0.000000
     3  O    2.408674   1.203816   0.000000
     4  H    1.101336   2.163343   3.181078   0.000000
     5  H    1.103700   2.135889   3.051229   1.767247   0.000000
     6  H    1.097465   2.153221   2.585796   1.813822   1.788911
     7  H    2.224039   1.123019   2.018618   2.535710   2.581338
                    6          7
     6  H    0.000000
     7  H    3.124366   0.000000
 Stoichiometry    C2H4O
 Framework group  C1[X(C2H4O)]
 Deg. of freedom    15
 Full point group                 C1      NOp   1
 Largest Abelian subgroup         C1      NOp   1
 Largest concise Abelian subgroup C1      NOp   1
                         Standard orientation:                         
 ---------------------------------------------------------------------
 Center     Atomic      Atomic             Coordinates (Angstroms)
 Number     Number       Type             X           Y           Z
 ---------------------------------------------------------------------
      1          6           0       -1.170213   -0.146292   -0.003950
      2          6           0        0.236742    0.396136   -0.015448
      3          8           0        1.234928   -0.276520    0.002775
      4          1           0       -1.787246    0.337891   -0.777111
      5          1           0       -1.635905    0.095913    0.966937
      6          1           0       -1.162419   -1.236618   -0.128680
      7          1           0        0.306971    1.515908    0.033047
 ---------------------------------------------------------------------
 Rotational constants (GHZ):          56.9297075          10.0950142           9.0574980
 Standard basis: def2SVPP (5D, 7F)
 There are    53 symmetry adapted cartesian basis functions of A   symmetry.
 There are    50 symmetry adapted basis functions of A   symmetry.
    50 basis functions,    91 primitive gaussians,    53 cartesian basis functions
    12 alpha electrons       12 beta electrons
       nuclear repulsion energy        69.5378604255 Hartrees.
 NAtoms=    7 NActive=    7 NUniq=    7 SFac= 1.00D+00 NAtFMM=   60 NAOKFM=F Big=F
 Integral buffers will be    131072 words long.
 Raffenetti 2 integral format.
 Two-electron integral symmetry is turned on.
 Nuclear repulsion after empirical dispersion term =       69.5324873932 Hartrees.
 One-electron integrals computed using PRISM.
   1 Symmetry operations used in ECPInt.
 ECPInt:  NShTT=     351 NPrTT=    1429 LenC2=     352 LenP2D=    1279.
 LDataN:  DoStor=T MaxTD1= 4 Len=   56
 NBasis=    50 RedAO= T EigKep=  4.90D-03  NBF=    50
 NBsUse=    50 1.00D-06 EigRej= -1.00D+00 NBFU=    50
 Initial guess from the checkpoint file:  "/home/software/g16tmp/Gau-79362.chk"
 B after Tr=     0.000000   -0.000000    0.000000
         Rot=    0.998538    0.053799    0.005107   -0.001075 Ang=   6.20 deg.
 ExpMin= 1.22D-01 ExpMax= 2.27D+03 ExpMxC= 3.41D+02 IAcc=3 IRadAn=         7 AccDes= 0.00D+00
 Harris functional with IExCor=  402 and IRadAn=       7 diagonalized for initial guess.
 HarFok:  IExCor=  402 AccDes= 0.00D+00 IRadAn=         7 IDoV= 1 UseB2=F ITyADJ=14
 ICtDFT=  3500011 ScaDFX=  1.000000  1.000000  1.000000  1.000000
 FoFCou: FMM=F IPFlag=           0 FMFlag=      100000 FMFlg1=           0
         NFxFlg=           0 DoJE=T BraDBF=F KetDBF=T FulRan=T
         wScrn=  0.000000 ICntrl=       500 IOpCl=  0 I1Cent=   200000004 NGrid=           0
         NMat0=    1 NMatS0=      1 NMatT0=    0 NMatD0=    1 NMtDS0=    0 NMtDT0=    0
 Petite list used in FoFCou.
 Keep R1 ints in memory in canonical form, NReq=14907300.
 Requested convergence on RMS density matrix=1.00D-08 within 128 cycles.
 Requested convergence on MAX density matrix=1.00D-06.
 Requested convergence on             energy=1.00D-06.
 No special actions if energy rises.
 Integral accuracy reduced to 1.0D-05 until final iterations.
 Initial convergence to 1.0D-05 achieved.  Increase integral accuracy.
 SCF Done:  E(RB3LYP) =  -153.712419911     A.U. after   12 cycles
            NFock= 12  Conv=0.72D-08     -V/T= 2.0088
   1 Symmetry operations used in ECPInt.
 ECPInt:  NShTT=     351 NPrTT=    1429 LenC2=     352 LenP2D=    1279.
 LDataN:  DoStor=T MaxTD1= 5 Len=  102
 Calling FoFJK, ICntrl=      2127 FMM=F ISym2X=0 I1Cent= 0 IOpClX= 0 NMat=1 NMatS=1 NMatT=0.
 ***** Axes restored to original set *****
 -------------------------------------------------------------------
 Center     Atomic                   Forces (Hartrees/Bohr)
 Number     Number              X              Y              Z
 -------------------------------------------------------------------
      1        6           0.001430505   -0.001543902   -0.000002796
      2        6           0.002528181    0.002828140   -0.005563218
      3        8          -0.000459520   -0.000698683    0.002593079
      4        1          -0.002196289   -0.000572043    0.001835009
      5        1          -0.000509309    0.000125266   -0.002801918
      6        1           0.000650604    0.001714553    0.002616141
      7        1          -0.001444171   -0.001853331    0.001323704
 -------------------------------------------------------------------
 Cartesian Forces:  Max     0.005563218 RMS     0.002085285

 GradGradGradGradGradGradGradGradGradGradGradGradGradGradGradGradGradGrad
 Berny optimization.
 Using GEDIIS/GDIIS optimizer.
 FormGI is forming the generalized inverse of G from B-inverse, IUseBI=4.
 Internal  Forces:  Max     0.002944378 RMS     0.001447896
 Search for a local minimum.
 Step number   6 out of a maximum of   31
 All quantities printed in internal units (Hartrees-Bohrs-Radians)
 Mixed Optimization -- RFO/linear search
 Update second derivatives using D2CorX and points    5    6
 DE= -4.53D-04 DEPred=-5.52D-04 R= 8.21D-01
 TightC=F SS=  1.41D+00  RLast= 6.48D-01 DXNew= 1.1216D+00 1.9430D+00
 Trust test= 8.21D-01 RLast= 6.48D-01 DXMaxT set to 1.12D+00
 ITU=  1  1  1 -1  1  0
 Use linear search instead of GDIIS.
     Eigenvalues ---    0.00113   0.05727   0.07159   0.07583   0.15661
     Eigenvalues ---    0.16040   0.16072   0.16781   0.21989   0.29912
     Eigenvalues ---    0.30770   0.31648   0.32231   0.32704   1.02482
 RFO step:  Lambda=-4.00296471D-04 EMin= 1.12655822D-03
 Quartic linear search produced a step of  0.19127.
 Iteration  1 RMS(Cart)=  0.03602892 RMS(Int)=  0.00098603
 Iteration  2 RMS(Cart)=  0.00089965 RMS(Int)=  0.00016384
 Iteration  3 RMS(Cart)=  0.00000052 RMS(Int)=  0.00016384
 Variable       Old X    -DE/DX   Delta X   Delta X   Delta X     New X
                                 (Linear)    (Quad)   (Total)
    R1        2.84959   0.00021  -0.00115  -0.00038  -0.00153   2.84806
    R2        2.08122   0.00277   0.00076   0.00961   0.01038   2.09160
    R3        2.08569   0.00273   0.00064   0.00981   0.01045   2.09614
    R4        2.07391   0.00294  -0.00014   0.00880   0.00866   2.08257
    R5        2.27488   0.00048   0.00003   0.00043   0.00045   2.27534
    R6        2.12220   0.00139   0.00023   0.00502   0.00525   2.12745
    A1        1.93825  -0.00027  -0.00190  -0.00874  -0.01069   1.92756
    A2        1.89806  -0.00047  -0.00042   0.00505   0.00458   1.90264
    A3        1.92824   0.00006   0.00066  -0.00231  -0.00171   1.92653
    A4        1.85946   0.00044  -0.00306  -0.00093  -0.00402   1.85544
    A5        1.94010  -0.00067   0.00140  -0.00661  -0.00528   1.93482
    A6        1.89757   0.00096   0.00334   0.01446   0.01775   1.91532
    A7        2.18040  -0.00002   0.00163   0.00155   0.00275   2.18315
    A8        2.00060   0.00006  -0.00195  -0.00094  -0.00332   1.99728
    A9        2.09977   0.00016   0.00025   0.00298   0.00281   2.10257
    D1       -2.30943   0.00203   0.04791   0.05599   0.10389  -2.20554
    D2        0.90697  -0.00111   0.04897   0.00048   0.04943   0.95641
    D3        1.93305   0.00194   0.05305   0.05910   0.11216   2.04521
    D4       -1.13374  -0.00120   0.05411   0.00359   0.05771  -1.07603
    D5       -0.14828   0.00102   0.04884   0.03967   0.08852  -0.05977
    D6        3.06812  -0.00212   0.04990  -0.01584   0.03407   3.10219
         Item               Value     Threshold  Converged?
 Maximum Force            0.002944     0.000450     NO 
 RMS     Force            0.001448     0.000300     NO 
 Maximum Displacement     0.090083     0.001800     NO 
 RMS     Displacement     0.036043     0.001200     NO 
 Predicted change in Energy=-2.265659D-04
 GradGradGradGradGradGradGradGradGradGradGradGradGradGradGradGradGradGrad

                          Input orientation:                          
 ---------------------------------------------------------------------
 Center     Atomic      Atomic             Coordinates (Angstroms)
 Number     Number       Type             X           Y           Z
 ---------------------------------------------------------------------
      1          6           0       -0.922945    0.724568    0.015162
      2          6           0        0.007111   -0.460636   -0.026364
      3          8           0        1.111285   -0.491024    0.452830
      4          1           0       -1.904232    0.431376    0.434900
      5          1           0       -1.117570    1.067693   -1.021551
      6          1           0       -0.474807    1.543801    0.600432
      7          1           0       -0.401702   -1.354418   -0.575408
 ---------------------------------------------------------------------
                    Distance matrix (angstroms):
                    1          2          3          4          5
     1  C    0.000000
     2  C    1.507129   0.000000
     3  O    2.409836   1.204056   0.000000
     4  H    1.106827   2.159093   3.153488   0.000000
     5  H    1.109228   2.142684   3.093734   1.773410   0.000000
     6  H    1.102048   2.154736   2.584180   1.818831   1.808494
     7  H    2.223207   1.125799   2.022833   2.543104   2.564786
                    6          7
     6  H    0.000000
     7  H    3.128516   0.000000
 Stoichiometry    C2H4O
 Framework group  C1[X(C2H4O)]
 Deg. of freedom    15
 Full point group                 C1      NOp   1
 Largest Abelian subgroup         C1      NOp   1
 Largest concise Abelian subgroup C1      NOp   1
                         Standard orientation:                         
 ---------------------------------------------------------------------
 Center     Atomic      Atomic             Coordinates (Angstroms)
 Number     Number       Type             X           Y           Z
 ---------------------------------------------------------------------
      1          6           0       -1.169980   -0.148631   -0.002543
      2          6           0        0.235833    0.394623   -0.004742
      3          8           0        1.236542   -0.274930    0.000656
      4          1           0       -1.751407    0.280163   -0.841079
      5          1           0       -1.680659    0.174110    0.927743
      6          1           0       -1.156232   -1.249248   -0.056979
      7          1           0        0.300844    1.518462    0.008779
 ---------------------------------------------------------------------
 Rotational constants (GHZ):          56.8140665          10.0818620           9.0480865
 Standard basis: def2SVPP (5D, 7F)
 There are    53 symmetry adapted cartesian basis functions of A   symmetry.
 There are    50 symmetry adapted basis functions of A   symmetry.
    50 basis functions,    91 primitive gaussians,    53 cartesian basis functions
    12 alpha electrons       12 beta electrons
       nuclear repulsion energy        69.4700706843 Hartrees.
 NAtoms=    7 NActive=    7 NUniq=    7 SFac= 1.00D+00 NAtFMM=   60 NAOKFM=F Big=F
 Integral buffers will be    131072 words long.
 Raffenetti 2 integral format.
 Two-electron integral symmetry is turned on.
 Nuclear repulsion after empirical dispersion term =       69.4646996383 Hartrees.
 One-electron integrals computed using PRISM.
   1 Symmetry operations used in ECPInt.
 ECPInt:  NShTT=     351 NPrTT=    1429 LenC2=     352 LenP2D=    1279.
 LDataN:  DoStor=T MaxTD1= 4 Len=   56
 NBasis=    50 RedAO= T EigKep=  4.88D-03  NBF=    50
 NBsUse=    50 1.00D-06 EigRej= -1.00D+00 NBFU=    50
 Initial guess from the checkpoint file:  "/home/software/g16tmp/Gau-79362.chk"
 B after Tr=    -0.000000    0.000000   -0.000000
         Rot=    0.999853    0.016977    0.002431   -0.000530 Ang=   1.97 deg.
 ExpMin= 1.22D-01 ExpMax= 2.27D+03 ExpMxC= 3.41D+02 IAcc=3 IRadAn=         7 AccDes= 0.00D+00
 Harris functional with IExCor=  402 and IRadAn=       7 diagonalized for initial guess.
 HarFok:  IExCor=  402 AccDes= 0.00D+00 IRadAn=         7 IDoV= 1 UseB2=F ITyADJ=14
 ICtDFT=  3500011 ScaDFX=  1.000000  1.000000  1.000000  1.000000
 FoFCou: FMM=F IPFlag=           0 FMFlag=      100000 FMFlg1=           0
         NFxFlg=           0 DoJE=T BraDBF=F KetDBF=T FulRan=T
         wScrn=  0.000000 ICntrl=       500 IOpCl=  0 I1Cent=   200000004 NGrid=           0
         NMat0=    1 NMatS0=      1 NMatT0=    0 NMatD0=    1 NMtDS0=    0 NMtDT0=    0
 Petite list used in FoFCou.
 Keep R1 ints in memory in canonical form, NReq=14907300.
 Requested convergence on RMS density matrix=1.00D-08 within 128 cycles.
 Requested convergence on MAX density matrix=1.00D-06.
 Requested convergence on             energy=1.00D-06.
 No special actions if energy rises.
 Integral accuracy reduced to 1.0D-05 until final iterations.
 Initial convergence to 1.0D-05 achieved.  Increase integral accuracy.
 SCF Done:  E(RB3LYP) =  -153.712669772     A.U. after   12 cycles
            NFock= 12  Conv=0.23D-08     -V/T= 2.0089
   1 Symmetry operations used in ECPInt.
 ECPInt:  NShTT=     351 NPrTT=    1429 LenC2=     352 LenP2D=    1279.
 LDataN:  DoStor=T MaxTD1= 5 Len=  102
 Calling FoFJK, ICntrl=      2127 FMM=F ISym2X=0 I1Cent= 0 IOpClX= 0 NMat=1 NMatS=1 NMatT=0.
 ***** Axes restored to original set *****
 -------------------------------------------------------------------
 Center     Atomic                   Forces (Hartrees/Bohr)
 Number     Number              X              Y              Z
 -------------------------------------------------------------------
      1        6          -0.000300803    0.000536032   -0.001779697
      2        6           0.000603016   -0.000280721   -0.001046943
      3        8          -0.000583700   -0.000128646    0.000389909
      4        1           0.000660140    0.000165658    0.000686477
      5        1           0.000244224   -0.000029504    0.001029640
      6        1          -0.000686967   -0.000077868    0.000240960
      7        1           0.000064089   -0.000184951    0.000479654
 -------------------------------------------------------------------
 Cartesian Forces:  Max     0.001779697 RMS     0.000634430

 GradGradGradGradGradGradGradGradGradGradGradGradGradGradGradGradGradGrad
 Berny optimization.
 Using GEDIIS/GDIIS optimizer.
 FormGI is forming the generalized inverse of G from B-inverse, IUseBI=4.
 Internal  Forces:  Max     0.001014306 RMS     0.000463067
 Search for a local minimum.
 Step number   7 out of a maximum of   31
 All quantities printed in internal units (Hartrees-Bohrs-Radians)
 Mixed Optimization -- En-DIIS/RFO-DIIS
 Update second derivatives using D2CorX and points    6    7
 DE= -2.50D-04 DEPred=-2.27D-04 R= 1.10D+00
 TightC=F SS=  1.41D+00  RLast= 1.97D-01 DXNew= 1.8863D+00 5.9237D-01
 Trust test= 1.10D+00 RLast= 1.97D-01 DXMaxT set to 1.12D+00
 ITU=  1  1  1  1 -1  1  0
 Use linear search instead of GDIIS.
     Eigenvalues ---    0.00112   0.04526   0.07164   0.07498   0.15849
     Eigenvalues ---    0.16049   0.16220   0.16882   0.21991   0.30636
     Eigenvalues ---    0.30790   0.31841   0.32243   0.35397   1.02646
 RFO step:  Lambda=-4.86810819D-05 EMin= 1.11729580D-03
 Quartic linear search produced a step of  0.19069.
 Iteration  1 RMS(Cart)=  0.02358080 RMS(Int)=  0.00035392
 Iteration  2 RMS(Cart)=  0.00033911 RMS(Int)=  0.00005307
 Iteration  3 RMS(Cart)=  0.00000005 RMS(Int)=  0.00005307
 Variable       Old X    -DE/DX   Delta X   Delta X   Delta X     New X
                                 (Linear)    (Quad)   (Total)
    R1        2.84806   0.00052  -0.00029   0.00157   0.00128   2.84934
    R2        2.09160  -0.00037   0.00198  -0.00219  -0.00021   2.09139
    R3        2.09614  -0.00101   0.00199  -0.00485  -0.00285   2.09328
    R4        2.08257  -0.00021   0.00165  -0.00215  -0.00049   2.08207
    R5        2.27534  -0.00038   0.00009  -0.00049  -0.00040   2.27493
    R6        2.12745  -0.00011   0.00100  -0.00099   0.00001   2.12746
    A1        1.92756  -0.00047  -0.00204  -0.00569  -0.00774   1.91982
    A2        1.90264   0.00047   0.00087   0.00712   0.00797   1.91061
    A3        1.92653   0.00052  -0.00033   0.00247   0.00209   1.92862
    A4        1.85544   0.00036  -0.00077   0.00345   0.00269   1.85814
    A5        1.93482  -0.00065  -0.00101  -0.00794  -0.00899   1.92583
    A6        1.91532  -0.00022   0.00338   0.00089   0.00423   1.91955
    A7        2.18315  -0.00026   0.00052  -0.00052  -0.00013   2.18302
    A8        1.99728   0.00039  -0.00063   0.00197   0.00121   1.99850
    A9        2.10257  -0.00012   0.00053  -0.00132  -0.00091   2.10166
    D1       -2.20554   0.00079   0.01981   0.04503   0.06481  -2.14073
    D2        0.95641   0.00013   0.00943   0.03740   0.04681   1.00321
    D3        2.04521   0.00034   0.02139   0.03991   0.06133   2.10653
    D4       -1.07603  -0.00032   0.01100   0.03229   0.04332  -1.03271
    D5       -0.05977  -0.00001   0.01688   0.03276   0.04964  -0.01013
    D6        3.10219  -0.00067   0.00650   0.02514   0.03163   3.13382
         Item               Value     Threshold  Converged?
 Maximum Force            0.001014     0.000450     NO 
 RMS     Force            0.000463     0.000300     NO 
 Maximum Displacement     0.054272     0.001800     NO 
 RMS     Displacement     0.023580     0.001200     NO 
 Predicted change in Energy=-3.079285D-05
 GradGradGradGradGradGradGradGradGradGradGradGradGradGradGradGradGradGrad

                          Input orientation:                          
 ---------------------------------------------------------------------
 Center     Atomic      Atomic             Coordinates (Angstroms)
 Number     Number       Type             X           Y           Z
 ---------------------------------------------------------------------
      1          6           0       -0.920825    0.726620    0.010149
      2          6           0        0.009059   -0.459592   -0.031006
      3          8           0        1.097448   -0.503577    0.481549
      4          1           0       -1.890596    0.432067    0.454678
      5          1           0       -1.137950    1.061579   -1.023145
      6          1           0       -0.469971    1.550574    0.586139
      7          1           0       -0.390025   -1.346311   -0.598364
 ---------------------------------------------------------------------
                    Distance matrix (angstroms):
                    1          2          3          4          5
     1  C    0.000000
     2  C    1.507806   0.000000
     3  O    2.410193   1.203843   0.000000
     4  H    1.106717   2.153981   3.131223   0.000000
     5  H    1.107717   2.148006   3.116219   1.773901   0.000000
     6  H    1.101787   2.156642   2.585977   1.812875   1.809726
     7  H    2.224653   1.125803   2.022125   2.554064   2.556906
                    6          7
     6  H    0.000000
     7  H    3.130716   0.000000
 Stoichiometry    C2H4O
 Framework group  C1[X(C2H4O)]
 Deg. of freedom    15
 Full point group                 C1      NOp   1
 Largest Abelian subgroup         C1      NOp   1
 Largest concise Abelian subgroup C1      NOp   1
                         Standard orientation:                         
 ---------------------------------------------------------------------
 Center     Atomic      Atomic             Coordinates (Angstroms)
 Number     Number       Type             X           Y           Z
 ---------------------------------------------------------------------
      1          6           0       -1.170371   -0.148003   -0.000941
      2          6           0        0.236405    0.394638   -0.000674
      3          8           0        1.236445   -0.275555   -0.000069
      4          1           0       -1.725139    0.238998   -0.876890
      5          1           0       -1.707021    0.216878    0.896781
      6          1           0       -1.159015   -1.249686   -0.010957
      7          1           0        0.303410    1.518444    0.001316
 ---------------------------------------------------------------------
 Rotational constants (GHZ):          56.8085785          10.0781814           9.0454889
 Standard basis: def2SVPP (5D, 7F)
 There are    53 symmetry adapted cartesian basis functions of A   symmetry.
 There are    50 symmetry adapted basis functions of A   symmetry.
    50 basis functions,    91 primitive gaussians,    53 cartesian basis functions
    12 alpha electrons       12 beta electrons
       nuclear repulsion energy        69.4685784476 Hartrees.
 NAtoms=    7 NActive=    7 NUniq=    7 SFac= 1.00D+00 NAtFMM=   60 NAOKFM=F Big=F
 Integral buffers will be    131072 words long.
 Raffenetti 2 integral format.
 Two-electron integral symmetry is turned on.
 Nuclear repulsion after empirical dispersion term =       69.4632081551 Hartrees.
 One-electron integrals computed using PRISM.
   1 Symmetry operations used in ECPInt.
 ECPInt:  NShTT=     351 NPrTT=    1429 LenC2=     352 LenP2D=    1279.
 LDataN:  DoStor=T MaxTD1= 4 Len=   56
 NBasis=    50 RedAO= T EigKep=  4.89D-03  NBF=    50
 NBsUse=    50 1.00D-06 EigRej= -1.00D+00 NBFU=    50
 Initial guess from the checkpoint file:  "/home/software/g16tmp/Gau-79362.chk"
 B after Tr=     0.000000   -0.000000    0.000000
         Rot=    0.999946    0.010309    0.001568    0.000325 Ang=   1.20 deg.
 ExpMin= 1.22D-01 ExpMax= 2.27D+03 ExpMxC= 3.41D+02 IAcc=3 IRadAn=         7 AccDes= 0.00D+00
 Harris functional with IExCor=  402 and IRadAn=       7 diagonalized for initial guess.
 HarFok:  IExCor=  402 AccDes= 0.00D+00 IRadAn=         7 IDoV= 1 UseB2=F ITyADJ=14
 ICtDFT=  3500011 ScaDFX=  1.000000  1.000000  1.000000  1.000000
 FoFCou: FMM=F IPFlag=           0 FMFlag=      100000 FMFlg1=           0
         NFxFlg=           0 DoJE=T BraDBF=F KetDBF=T FulRan=T
         wScrn=  0.000000 ICntrl=       500 IOpCl=  0 I1Cent=   200000004 NGrid=           0
         NMat0=    1 NMatS0=      1 NMatT0=    0 NMatD0=    1 NMtDS0=    0 NMtDT0=    0
 Petite list used in FoFCou.
 Keep R1 ints in memory in canonical form, NReq=14907300.
 Requested convergence on RMS density matrix=1.00D-08 within 128 cycles.
 Requested convergence on MAX density matrix=1.00D-06.
 Requested convergence on             energy=1.00D-06.
 No special actions if energy rises.
 Integral accuracy reduced to 1.0D-05 until final iterations.
 Initial convergence to 1.0D-05 achieved.  Increase integral accuracy.
 SCF Done:  E(RB3LYP) =  -153.712707617     A.U. after   11 cycles
            NFock= 11  Conv=0.37D-08     -V/T= 2.0089
   1 Symmetry operations used in ECPInt.
 ECPInt:  NShTT=     351 NPrTT=    1429 LenC2=     352 LenP2D=    1279.
 LDataN:  DoStor=T MaxTD1= 5 Len=  102
 Calling FoFJK, ICntrl=      2127 FMM=F ISym2X=0 I1Cent= 0 IOpClX= 0 NMat=1 NMatS=1 NMatT=0.
 ***** Axes restored to original set *****
 -------------------------------------------------------------------
 Center     Atomic                   Forces (Hartrees/Bohr)
 Number     Number              X              Y              Z
 -------------------------------------------------------------------
      1        6          -0.000082844    0.000129041   -0.001111718
      2        6          -0.000090124   -0.000377693    0.000090560
      3        8          -0.000012253    0.000072613    0.000030199
      4        1           0.000194382    0.000003188    0.000366798
      5        1           0.000119631    0.000111842    0.000404169
      6        1          -0.000196315   -0.000034446    0.000148763
      7        1           0.000067523    0.000095456    0.000071231
 -------------------------------------------------------------------
 Cartesian Forces:  Max     0.001111718 RMS     0.000298237

 GradGradGradGradGradGradGradGradGradGradGradGradGradGradGradGradGradGrad
 Berny optimization.
 Using GEDIIS/GDIIS optimizer.
 FormGI is forming the generalized inverse of G from B-inverse, IUseBI=4.
 Internal  Forces:  Max     0.000366645 RMS     0.000177516
 Search for a local minimum.
 Step number   8 out of a maximum of   31
 All quantities printed in internal units (Hartrees-Bohrs-Radians)
 Mixed Optimization -- En-DIIS/RFO-DIIS
 Swapping is turned off.
 Update second derivatives using D2CorX and points    6    7    8
 DE= -3.78D-05 DEPred=-3.08D-05 R= 1.23D+00
 TightC=F SS=  1.41D+00  RLast= 1.25D-01 DXNew= 1.8863D+00 3.7638D-01
 Trust test= 1.23D+00 RLast= 1.25D-01 DXMaxT set to 1.12D+00
 ITU=  1  1  1  1  1 -1  1  0
     Eigenvalues ---    0.00112   0.03934   0.07086   0.07272   0.15853
     Eigenvalues ---    0.15876   0.16074   0.17118   0.21903   0.30585
     Eigenvalues ---    0.30734   0.31638   0.32255   0.35224   1.02677
 En-DIIS/RFO-DIIS/Sim-DIIS IScMMF=       -3 using points:     8    7
 RFO step:  Lambda=-8.47233329D-06.
 DidBck=F Rises=F RFO-DIIS coefs:    1.21308   -0.21308
 Iteration  1 RMS(Cart)=  0.00538965 RMS(Int)=  0.00002327
 Iteration  2 RMS(Cart)=  0.00001991 RMS(Int)=  0.00000885
 Iteration  3 RMS(Cart)=  0.00000000 RMS(Int)=  0.00000885
 Variable       Old X    -DE/DX   Delta X   Delta X   Delta X     New X
                                 (Linear)    (Quad)   (Total)
    R1        2.84934   0.00014   0.00027   0.00031   0.00058   2.84992
    R2        2.09139  -0.00002  -0.00004   0.00028   0.00023   2.09162
    R3        2.09328  -0.00037  -0.00061  -0.00073  -0.00134   2.09194
    R4        2.08207  -0.00003  -0.00011   0.00022   0.00011   2.08219
    R5        2.27493  -0.00000  -0.00009   0.00007  -0.00001   2.27492
    R6        2.12746  -0.00014   0.00000  -0.00041  -0.00041   2.12705
    A1        1.91982  -0.00025  -0.00165  -0.00173  -0.00339   1.91643
    A2        1.91061   0.00035   0.00170   0.00305   0.00475   1.91536
    A3        1.92862   0.00006   0.00045  -0.00068  -0.00025   1.92838
    A4        1.85814   0.00018   0.00057   0.00260   0.00318   1.86132
    A5        1.92583  -0.00022  -0.00192  -0.00296  -0.00490   1.92093
    A6        1.91955  -0.00012   0.00090  -0.00013   0.00076   1.92031
    A7        2.18302  -0.00014  -0.00003  -0.00065  -0.00069   2.18234
    A8        1.99850   0.00009   0.00026   0.00025   0.00050   1.99900
    A9        2.10166   0.00004  -0.00019   0.00039   0.00019   2.10185
    D1       -2.14073   0.00023   0.01381   0.00256   0.01636  -2.12437
    D2        1.00321   0.00023   0.00997   0.00265   0.01261   1.01583
    D3        2.10653  -0.00005   0.01307  -0.00137   0.01170   2.11824
    D4       -1.03271  -0.00005   0.00923  -0.00128   0.00795  -1.02475
    D5       -0.01013  -0.00017   0.01058  -0.00277   0.00780  -0.00232
    D6        3.13382  -0.00017   0.00674  -0.00268   0.00406   3.13787
         Item               Value     Threshold  Converged?
 Maximum Force            0.000367     0.000450     YES
 RMS     Force            0.000178     0.000300     YES
 Maximum Displacement     0.012331     0.001800     NO 
 RMS     Displacement     0.005391     0.001200     NO 
 Predicted change in Energy=-4.232721D-06
 GradGradGradGradGradGradGradGradGradGradGradGradGradGradGradGradGradGrad

                          Input orientation:                          
 ---------------------------------------------------------------------
 Center     Atomic      Atomic             Coordinates (Angstroms)
 Number     Number       Type             X           Y           Z
 ---------------------------------------------------------------------
      1          6           0       -0.920352    0.727032    0.007379
      2          6           0        0.009303   -0.459806   -0.032158
      3          8           0        1.093954   -0.505780    0.488074
      4          1           0       -1.886362    0.431780    0.459867
      5          1           0       -1.142606    1.062447   -1.023916
      6          1           0       -0.469423    1.551114    0.583242
      7          1           0       -0.387373   -1.345426   -0.602489
 ---------------------------------------------------------------------
                    Distance matrix (angstroms):
                    1          2          3          4          5
     1  C    0.000000
     2  C    1.508114   0.000000
     3  O    2.410047   1.203838   0.000000
     4  H    1.106840   2.151874   3.124436   0.000000
     5  H    1.107010   2.151217   3.122124   1.775536   0.000000
     6  H    1.101847   2.156780   2.585348   1.809931   1.809676
     7  H    2.225104   1.125589   2.022044   2.556174   2.558482
                    6          7
     6  H    0.000000
     7  H    3.130916   0.000000
 Stoichiometry    C2H4O
 Framework group  C1[X(C2H4O)]
 Deg. of freedom    15
 Full point group                 C1      NOp   1
 Largest Abelian subgroup         C1      NOp   1
 Largest concise Abelian subgroup C1      NOp   1
                         Standard orientation:                         
 ---------------------------------------------------------------------
 Center     Atomic      Atomic             Coordinates (Angstroms)
 Number     Number       Type             X           Y           Z
 ---------------------------------------------------------------------
      1          6           0       -1.170481   -0.147389   -0.000155
      2          6           0        0.236698    0.395063    0.000232
      3          8           0        1.236130   -0.276025   -0.000073
      4          1           0       -1.717243    0.229060   -0.885837
      5          1           0       -1.714513    0.223660    0.889689
      6          1           0       -1.159072   -1.249173   -0.003158
      7          1           0        0.304489    1.518608   -0.000575
 ---------------------------------------------------------------------
 Rotational constants (GHZ):          56.7687317          10.0791468           9.0462277
 Standard basis: def2SVPP (5D, 7F)
 There are    53 symmetry adapted cartesian basis functions of A   symmetry.
 There are    50 symmetry adapted basis functions of A   symmetry.
    50 basis functions,    91 primitive gaussians,    53 cartesian basis functions
    12 alpha electrons       12 beta electrons
       nuclear repulsion energy        69.4682351621 Hartrees.
 NAtoms=    7 NActive=    7 NUniq=    7 SFac= 1.00D+00 NAtFMM=   60 NAOKFM=F Big=F
 Integral buffers will be    131072 words long.
 Raffenetti 2 integral format.
 Two-electron integral symmetry is turned on.
 Nuclear repulsion after empirical dispersion term =       69.4628650014 Hartrees.
 One-electron integrals computed using PRISM.
   1 Symmetry operations used in ECPInt.
 ECPInt:  NShTT=     351 NPrTT=    1429 LenC2=     352 LenP2D=    1279.
 LDataN:  DoStor=T MaxTD1= 4 Len=   56
 NBasis=    50 RedAO= T EigKep=  4.89D-03  NBF=    50
 NBsUse=    50 1.00D-06 EigRej= -1.00D+00 NBFU=    50
 Initial guess from the checkpoint file:  "/home/software/g16tmp/Gau-79362.chk"
 B after Tr=    -0.000000    0.000000   -0.000000
         Rot=    0.999998    0.002052    0.000460    0.000100 Ang=   0.24 deg.
 Keep R1 ints in memory in canonical form, NReq=14907300.
 Requested convergence on RMS density matrix=1.00D-08 within 128 cycles.
 Requested convergence on MAX density matrix=1.00D-06.
 Requested convergence on             energy=1.00D-06.
 No special actions if energy rises.
 SCF Done:  E(RB3LYP) =  -153.712712210     A.U. after    8 cycles
            NFock=  8  Conv=0.79D-08     -V/T= 2.0089
   1 Symmetry operations used in ECPInt.
 ECPInt:  NShTT=     351 NPrTT=    1429 LenC2=     352 LenP2D=    1279.
 LDataN:  DoStor=T MaxTD1= 5 Len=  102
 Calling FoFJK, ICntrl=      2127 FMM=F ISym2X=0 I1Cent= 0 IOpClX= 0 NMat=1 NMatS=1 NMatT=0.
 ***** Axes restored to original set *****
 -------------------------------------------------------------------
 Center     Atomic                   Forces (Hartrees/Bohr)
 Number     Number              X              Y              Z
 -------------------------------------------------------------------
      1        6          -0.000022767    0.000038519   -0.000190842
      2        6          -0.000112881   -0.000094705    0.000175700
      3        8           0.000046256    0.000019974   -0.000045090
      4        1           0.000022484   -0.000000552    0.000029413
      5        1           0.000005310    0.000018658    0.000080282
      6        1           0.000005674   -0.000032631   -0.000008186
      7        1           0.000055924    0.000050737   -0.000041276
 -------------------------------------------------------------------
 Cartesian Forces:  Max     0.000190842 RMS     0.000073140

 GradGradGradGradGradGradGradGradGradGradGradGradGradGradGradGradGradGrad
 Berny optimization.
 Using GEDIIS/GDIIS optimizer.
 FormGI is forming the generalized inverse of G from B-inverse, IUseBI=4.
 Internal  Forces:  Max     0.000078077 RMS     0.000038884
 Search for a local minimum.
 Step number   9 out of a maximum of   31
 All quantities printed in internal units (Hartrees-Bohrs-Radians)
 Mixed Optimization -- En-DIIS/RFO-DIIS
 Swapping is turned off.
 Update second derivatives using D2CorX and points    6    7    8    9
 DE= -4.59D-06 DEPred=-4.23D-06 R= 1.09D+00
 TightC=F SS=  1.41D+00  RLast= 2.79D-02 DXNew= 1.8863D+00 8.3584D-02
 Trust test= 1.09D+00 RLast= 2.79D-02 DXMaxT set to 1.12D+00
 ITU=  1  1  1  1  1  1 -1  1  0
     Eigenvalues ---    0.00101   0.04491   0.06295   0.07086   0.15824
     Eigenvalues ---    0.15899   0.16120   0.16864   0.21893   0.30411
     Eigenvalues ---    0.30750   0.31517   0.32257   0.34921   1.02763
 En-DIIS/RFO-DIIS/Sim-DIIS IScMMF=       -3 using points:     9    8    7
 RFO step:  Lambda=-4.62981262D-07.
 DidBck=F Rises=F RFO-DIIS coefs:    0.93308    0.15882   -0.09190
 Iteration  1 RMS(Cart)=  0.00190120 RMS(Int)=  0.00000428
 Iteration  2 RMS(Cart)=  0.00000222 RMS(Int)=  0.00000368
 Iteration  3 RMS(Cart)=  0.00000000 RMS(Int)=  0.00000368
 Variable       Old X    -DE/DX   Delta X   Delta X   Delta X     New X
                                 (Linear)    (Quad)   (Total)
    R1        2.84992   0.00001   0.00008  -0.00006   0.00002   2.84994
    R2        2.09162  -0.00001  -0.00003   0.00002  -0.00001   2.09161
    R3        2.09194  -0.00007  -0.00017  -0.00014  -0.00031   2.09164
    R4        2.08219  -0.00003  -0.00005  -0.00004  -0.00010   2.08209
    R5        2.27492   0.00002  -0.00004   0.00005   0.00001   2.27494
    R6        2.12705  -0.00004   0.00003  -0.00016  -0.00014   2.12692
    A1        1.91643  -0.00002  -0.00049   0.00013  -0.00036   1.91608
    A2        1.91536   0.00008   0.00042   0.00030   0.00072   1.91607
    A3        1.92838  -0.00005   0.00021  -0.00049  -0.00029   1.92809
    A4        1.86132   0.00001   0.00003   0.00027   0.00031   1.86162
    A5        1.92093   0.00000  -0.00050   0.00002  -0.00048   1.92045
    A6        1.92031  -0.00001   0.00034  -0.00020   0.00013   1.92044
    A7        2.18234  -0.00001   0.00003  -0.00001   0.00001   2.18235
    A8        1.99900   0.00002   0.00008  -0.00002   0.00005   1.99905
    A9        2.10185  -0.00001  -0.00010   0.00003  -0.00007   2.10178
    D1       -2.12437  -0.00001   0.00486  -0.00079   0.00407  -2.12030
    D2        1.01583   0.00008   0.00346   0.00164   0.00509   1.02092
    D3        2.11824  -0.00005   0.00485  -0.00137   0.00348   2.12172
    D4       -1.02475   0.00003   0.00345   0.00106   0.00451  -1.02024
    D5       -0.00232  -0.00005   0.00404  -0.00100   0.00304   0.00071
    D6        3.13787   0.00003   0.00264   0.00143   0.00407  -3.14125
         Item               Value     Threshold  Converged?
 Maximum Force            0.000078     0.000450     YES
 RMS     Force            0.000039     0.000300     YES
 Maximum Displacement     0.004084     0.001800     NO 
 RMS     Displacement     0.001901     0.001200     NO 
 Predicted change in Energy=-2.262626D-07
 GradGradGradGradGradGradGradGradGradGradGradGradGradGradGradGradGradGrad

                          Input orientation:                          
 ---------------------------------------------------------------------
 Center     Atomic      Atomic             Coordinates (Angstroms)
 Number     Number       Type             X           Y           Z
 ---------------------------------------------------------------------
      1          6           0       -0.920376    0.727040    0.007076
      2          6           0        0.009170   -0.459916   -0.031963
      3          8           0        1.092917   -0.506567    0.490110
      4          1           0       -1.885598    0.432179    0.461480
      5          1           0       -1.144068    1.061755   -1.023960
      6          1           0       -0.468772    1.551407    0.581906
      7          1           0       -0.386134   -1.344536   -0.604650
 ---------------------------------------------------------------------
                    Distance matrix (angstroms):
                    1          2          3          4          5
     1  C    0.000000
     2  C    1.508126   0.000000
     3  O    2.410074   1.203845   0.000000
     4  H    1.106833   2.151619   3.123078   0.000000
     5  H    1.106846   2.151627   3.123482   1.775602   0.000000
     6  H    1.101797   2.156544   2.585064   1.809577   1.809583
     7  H    2.225095   1.125517   2.021950   2.557683   2.557444
                    6          7
     6  H    0.000000
     7  H    3.130691   0.000000
 Stoichiometry    C2H4O
 Framework group  C1[X(C2H4O)]
 Deg. of freedom    15
 Full point group                 C1      NOp   1
 Largest Abelian subgroup         C1      NOp   1
 Largest concise Abelian subgroup C1      NOp   1
                         Standard orientation:                         
 ---------------------------------------------------------------------
 Center     Atomic      Atomic             Coordinates (Angstroms)
 Number     Number       Type             X           Y           Z
 ---------------------------------------------------------------------
      1          6           0       -1.170514   -0.147312   -0.000009
      2          6           0        0.236701    0.395083    0.000077
      3          8           0        1.236120   -0.276040   -0.000022
      4          1           0       -1.715691    0.225640   -0.888135
      5          1           0       -1.716152    0.226551    0.887467
      6          1           0       -1.158836   -1.249047    0.000562
      7          1           0        0.304599    1.518549   -0.000128
 ---------------------------------------------------------------------
 Rotational constants (GHZ):          56.7726276          10.0790409           9.0462796
 Standard basis: def2SVPP (5D, 7F)
 There are    53 symmetry adapted cartesian basis functions of A   symmetry.
 There are    50 symmetry adapted basis functions of A   symmetry.
    50 basis functions,    91 primitive gaussians,    53 cartesian basis functions
    12 alpha electrons       12 beta electrons
       nuclear repulsion energy        69.4690032077 Hartrees.
 NAtoms=    7 NActive=    7 NUniq=    7 SFac= 1.00D+00 NAtFMM=   60 NAOKFM=F Big=F
 Integral buffers will be    131072 words long.
 Raffenetti 2 integral format.
 Two-electron integral symmetry is turned on.
 Nuclear repulsion after empirical dispersion term =       69.4636330285 Hartrees.
 One-electron integrals computed using PRISM.
   1 Symmetry operations used in ECPInt.
 ECPInt:  NShTT=     351 NPrTT=    1429 LenC2=     352 LenP2D=    1279.
 LDataN:  DoStor=T MaxTD1= 4 Len=   56
 NBasis=    50 RedAO= T EigKep=  4.89D-03  NBF=    50
 NBsUse=    50 1.00D-06 EigRej= -1.00D+00 NBFU=    50
 Initial guess from the checkpoint file:  "/home/software/g16tmp/Gau-79362.chk"
 B after Tr=     0.000000   -0.000000    0.000000
         Rot=    1.000000    0.000776    0.000095   -0.000003 Ang=   0.09 deg.
 Keep R1 ints in memory in canonical form, NReq=14907300.
 Requested convergence on RMS density matrix=1.00D-08 within 128 cycles.
 Requested convergence on MAX density matrix=1.00D-06.
 Requested convergence on             energy=1.00D-06.
 No special actions if energy rises.
 SCF Done:  E(RB3LYP) =  -153.712712427     A.U. after    8 cycles
            NFock=  8  Conv=0.71D-08     -V/T= 2.0089
   1 Symmetry operations used in ECPInt.
 ECPInt:  NShTT=     351 NPrTT=    1429 LenC2=     352 LenP2D=    1279.
 LDataN:  DoStor=T MaxTD1= 5 Len=  102
 Calling FoFJK, ICntrl=      2127 FMM=F ISym2X=0 I1Cent= 0 IOpClX= 0 NMat=1 NMatS=1 NMatT=0.
 ***** Axes restored to original set *****
 -------------------------------------------------------------------
 Center     Atomic                   Forces (Hartrees/Bohr)
 Number     Number              X              Y              Z
 -------------------------------------------------------------------
      1        6           0.000003260    0.000003604   -0.000033089
      2        6          -0.000032840   -0.000026172    0.000025278
      3        8           0.000016728    0.000015351   -0.000003345
      4        1          -0.000011380   -0.000001867    0.000009177
      5        1          -0.000004339    0.000008777   -0.000002569
      6        1           0.000015673    0.000001210    0.000013339
      7        1           0.000012898   -0.000000903   -0.000008791
 -------------------------------------------------------------------
 Cartesian Forces:  Max     0.000033089 RMS     0.000015487

 GradGradGradGradGradGradGradGradGradGradGradGradGradGradGradGradGradGrad
 Berny optimization.
 Using GEDIIS/GDIIS optimizer.
 FormGI is forming the generalized inverse of G from B-inverse, IUseBI=4.
 Internal  Forces:  Max     0.000025766 RMS     0.000012580
 Search for a local minimum.
 Step number  10 out of a maximum of   31
 All quantities printed in internal units (Hartrees-Bohrs-Radians)
 Mixed Optimization -- En-DIIS/RFO-DIIS
 Swapping is turned off.
 Update second derivatives using D2CorX and points    6    7    8    9   10
 DE= -2.17D-07 DEPred=-2.26D-07 R= 9.60D-01
 Trust test= 9.60D-01 RLast= 1.01D-02 DXMaxT set to 1.12D+00
 ITU=  0  1  1  1  1  1  1 -1  1  0
     Eigenvalues ---    0.00128   0.04321   0.05389   0.07084   0.15496
     Eigenvalues ---    0.15930   0.16255   0.16475   0.22038   0.30394
     Eigenvalues ---    0.30765   0.31500   0.32270   0.36390   1.02788
 En-DIIS/RFO-DIIS/Sim-DIIS IScMMF=       -3 using points:    10    9    8    7
 RFO step:  Lambda=-2.98168915D-08.
 DidBck=F Rises=F RFO-DIIS coefs:    1.07669   -0.02195   -0.08234    0.02760
 Iteration  1 RMS(Cart)=  0.00027176 RMS(Int)=  0.00000094
 Iteration  2 RMS(Cart)=  0.00000005 RMS(Int)=  0.00000094
 Variable       Old X    -DE/DX   Delta X   Delta X   Delta X     New X
                                 (Linear)    (Quad)   (Total)
    R1        2.84994   0.00001  -0.00000   0.00003   0.00003   2.84998
    R2        2.09161   0.00001   0.00002   0.00002   0.00003   2.09164
    R3        2.09164   0.00001  -0.00002   0.00002   0.00000   2.09164
    R4        2.08209   0.00001   0.00001   0.00003   0.00004   2.08214
    R5        2.27494   0.00001   0.00001   0.00000   0.00001   2.27495
    R6        2.12692   0.00000  -0.00003   0.00003  -0.00001   2.12691
    A1        1.91608   0.00000   0.00000   0.00007   0.00007   1.91614
    A2        1.91607   0.00002   0.00009   0.00002   0.00011   1.91619
    A3        1.92809  -0.00003  -0.00009  -0.00011  -0.00020   1.92789
    A4        1.86162  -0.00000   0.00012  -0.00004   0.00008   1.86171
    A5        1.92045   0.00000  -0.00006   0.00002  -0.00003   1.92041
    A6        1.92044   0.00000  -0.00007   0.00004  -0.00002   1.92042
    A7        2.18235  -0.00002  -0.00003  -0.00010  -0.00013   2.18222
    A8        1.99905   0.00002  -0.00000   0.00015   0.00015   1.99920
    A9        2.10178   0.00000   0.00003  -0.00005  -0.00002   2.10177
    D1       -2.12030  -0.00000  -0.00058   0.00000  -0.00058  -2.12088
    D2        1.02092   0.00001  -0.00021  -0.00000  -0.00021   1.02071
    D3        2.12172  -0.00001  -0.00079   0.00000  -0.00078   2.12093
    D4       -1.02024   0.00000  -0.00041  -0.00001  -0.00042  -1.02066
    D5        0.00071  -0.00001  -0.00071   0.00001  -0.00070   0.00001
    D6       -3.14125   0.00000  -0.00034  -0.00000  -0.00034  -3.14159
         Item               Value     Threshold  Converged?
 Maximum Force            0.000026     0.000450     YES
 RMS     Force            0.000013     0.000300     YES
 Maximum Displacement     0.000495     0.001800     YES
 RMS     Displacement     0.000272     0.001200     YES
 Predicted change in Energy=-1.479775D-08
 Optimization completed.
    -- Stationary point found.
                           ----------------------------
                           !   Optimized Parameters   !
                           ! (Angstroms and Degrees)  !
 --------------------------                            --------------------------
 ! Name  Definition              Value          Derivative Info.                !
 --------------------------------------------------------------------------------
 ! R1    R(1,2)                  1.5081         -DE/DX =    0.0                 !
 ! R2    R(1,4)                  1.1068         -DE/DX =    0.0                 !
 ! R3    R(1,5)                  1.1068         -DE/DX =    0.0                 !
 ! R4    R(1,6)                  1.1018         -DE/DX =    0.0                 !
 ! R5    R(2,3)                  1.2038         -DE/DX =    0.0                 !
 ! R6    R(2,7)                  1.1255         -DE/DX =    0.0                 !
 ! A1    A(2,1,4)              109.783          -DE/DX =    0.0                 !
 ! A2    A(2,1,5)              109.7829         -DE/DX =    0.0                 !
 ! A3    A(2,1,6)              110.4713         -DE/DX =    0.0                 !
 ! A4    A(4,1,5)              106.6631         -DE/DX =    0.0                 !
 ! A5    A(4,1,6)              110.0336         -DE/DX =    0.0                 !
 ! A6    A(5,1,6)              110.0332         -DE/DX =    0.0                 !
 ! A7    A(1,2,3)              125.0396         -DE/DX =    0.0                 !
 ! A8    A(1,2,7)              114.5371         -DE/DX =    0.0                 !
 ! A9    A(3,2,7)              120.4233         -DE/DX =    0.0                 !
 ! D1    D(4,1,2,3)           -121.4843         -DE/DX =    0.0                 !
 ! D2    D(4,1,2,7)             58.4947         -DE/DX =    0.0                 !
 ! D3    D(5,1,2,3)            121.5655         -DE/DX =    0.0                 !
 ! D4    D(5,1,2,7)            -58.4555         -DE/DX =    0.0                 !
 ! D5    D(6,1,2,3)              0.0409         -DE/DX =    0.0                 !
 ! D6    D(6,1,2,7)           -179.9801         -DE/DX =    0.0                 !
 --------------------------------------------------------------------------------
 GradGradGradGradGradGradGradGradGradGradGradGradGradGradGradGradGradGrad

                          Input orientation:                          
 ---------------------------------------------------------------------
 Center     Atomic      Atomic             Coordinates (Angstroms)
 Number     Number       Type             X           Y           Z
 ---------------------------------------------------------------------
      1          6           0       -0.920376    0.727040    0.007076
      2          6           0        0.009170   -0.459916   -0.031963
      3          8           0        1.092917   -0.506567    0.490110
      4          1           0       -1.885598    0.432179    0.461480
      5          1           0       -1.144068    1.061755   -1.023960
      6          1           0       -0.468772    1.551407    0.581906
      7          1           0       -0.386134   -1.344536   -0.604650
 ---------------------------------------------------------------------
                    Distance matrix (angstroms):
                    1          2          3          4          5
     1  C    0.000000
     2  C    1.508126   0.000000
     3  O    2.410074   1.203845   0.000000
     4  H    1.106833   2.151619   3.123078   0.000000
     5  H    1.106846   2.151627   3.123482   1.775602   0.000000
     6  H    1.101797   2.156544   2.585064   1.809577   1.809583
     7  H    2.225095   1.125517   2.021950   2.557683   2.557444
                    6          7
     6  H    0.000000
     7  H    3.130691   0.000000
 Stoichiometry    C2H4O
 Framework group  C1[X(C2H4O)]
 Deg. of freedom    15
 Full point group                 C1      NOp   1
 Largest Abelian subgroup         C1      NOp   1
 Largest concise Abelian subgroup C1      NOp   1
                         Standard orientation:                         
 ---------------------------------------------------------------------
 Center     Atomic      Atomic             Coordinates (Angstroms)
 Number     Number       Type             X           Y           Z
 ---------------------------------------------------------------------
      1          6           0       -1.170514   -0.147312   -0.000009
      2          6           0        0.236701    0.395083    0.000077
      3          8           0        1.236120   -0.276040   -0.000022
      4          1           0       -1.715691    0.225640   -0.888135
      5          1           0       -1.716152    0.226551    0.887467
      6          1           0       -1.158836   -1.249047    0.000562
      7          1           0        0.304599    1.518549   -0.000128
 ---------------------------------------------------------------------
 Rotational constants (GHZ):          56.7726276          10.0790409           9.0462796

 **********************************************************************

            Population analysis using the SCF Density.

 **********************************************************************

 Orbital symmetries:
       Occupied  (A) (A) (A) (A) (A) (A) (A) (A) (A) (A) (A) (A)
       Virtual   (A) (A) (A) (A) (A) (A) (A) (A) (A) (A) (A) (A)
                 (A) (A) (A) (A) (A) (A) (A) (A) (A) (A) (A) (A)
                 (A) (A) (A) (A) (A) (A) (A) (A) (A) (A) (A) (A)
                 (A) (A)
 The electronic state is 1-A.
 Alpha  occ. eigenvalues --  -19.13652 -10.27870 -10.19573  -1.04100  -0.74812
 Alpha  occ. eigenvalues --   -0.57521  -0.48081  -0.44905  -0.43899  -0.40176
 Alpha  occ. eigenvalues --   -0.37131  -0.26044
 Alpha virt. eigenvalues --   -0.02637   0.06332   0.09231   0.11706   0.12478
 Alpha virt. eigenvalues --    0.23374   0.24193   0.43161   0.44822   0.48875
 Alpha virt. eigenvalues --    0.50534   0.57440   0.62497   0.64385   0.66535
 Alpha virt. eigenvalues --    0.67147   0.68154   0.71230   0.84654   0.91467
 Alpha virt. eigenvalues --    1.01717   1.13477   1.36673   1.41783   1.63177
 Alpha virt. eigenvalues --    1.69618   1.80892   1.95915   1.99574   2.06399
 Alpha virt. eigenvalues --    2.16901   2.39959   2.45883   2.67924   2.70718
 Alpha virt. eigenvalues --    3.13421   3.25771   3.57517
          Condensed to atoms (all electrons):
               1          2          3          4          5          6
     1  C    5.244947   0.288489  -0.103508   0.333734   0.333682   0.318175
     2  C    0.288489   4.606422   0.689098  -0.001328  -0.001320   0.001910
     3  O   -0.103508   0.689098   7.640900   0.002144   0.002150   0.013123
     4  H    0.333734  -0.001328   0.002144   0.567540  -0.016099  -0.012126
     5  H    0.333682  -0.001320   0.002150  -0.016099   0.567621  -0.012132
     6  H    0.318175   0.001910   0.013123  -0.012126  -0.012132   0.562269
     7  H   -0.153183   0.374677  -0.049382   0.005763   0.005768   0.010965
               7
     1  C   -0.153183
     2  C    0.374677
     3  O   -0.049382
     4  H    0.005763
     5  H    0.005768
     6  H    0.010965
     7  H    0.749103
 Mulliken charges:
               1
     1  C   -0.262335
     2  C    0.042052
     3  O   -0.194526
     4  H    0.120373
     5  H    0.120330
     6  H    0.117817
     7  H    0.056289
 Sum of Mulliken charges =  -0.00000
 Mulliken charges with hydrogens summed into heavy atoms:
               1
     1  C    0.096185
     2  C    0.098340
     3  O   -0.194526
 Electronic spatial extent (au):  <R**2>=            168.2535
 Charge=             -0.0000 electrons
 Dipole moment (field-independent basis, Debye):
    X=             -2.3539    Y=              1.0365    Z=             -0.0001  Tot=              2.5720
 Quadrupole moment (field-independent basis, Debye-Ang):
   XX=            -20.7638   YY=            -18.1214   ZZ=            -17.7424
   XY=              0.7380   XZ=              0.0004   YZ=             -0.0001
 Traceless Quadrupole moment (field-independent basis, Debye-Ang):
   XX=             -1.8879   YY=              0.7545   ZZ=              1.1335
   XY=              0.7380   XZ=              0.0004   YZ=             -0.0001
 Octapole moment (field-independent basis, Debye-Ang**2):
  XXX=              0.1317  YYY=             -1.3736  ZZZ=             -0.0014  XYY=              1.1481
  XXY=              0.9098  XXZ=             -0.0005  XZZ=              1.0482  YZZ=             -0.0453
  YYZ=              0.0005  XYZ=             -0.0002
 Hexadecapole moment (field-independent basis, Debye-Ang**3):
 XXXX=           -149.6116 YYYY=            -42.6531 ZZZZ=            -22.7415 XXXY=             -2.3119
 XXXZ=              0.0008 YYYX=             -0.1400 YYYZ=             -0.0011 ZZZX=              0.0022
 ZZZY=              0.0002 XXYY=            -31.5051 XXZZ=            -25.8931 YYZZ=            -11.4347
 XXYZ=              0.0008 YYXZ=             -0.0011 ZZXY=             -1.2508
 N-N= 6.946363302848D+01 E-N=-4.978180195461D+02  KE= 1.523536016031D+02
 Unable to Open any file for archive entry.
 1\1\GINC-NODE05\FOpt\RB3LYP\def2SVPP\C2H4O1\XUHJ\19-Dec-2023\0\\#N opt
  freq B3LYP/def2SVPP symm=veryloose em=gd3bj scale=0.961 press=0.987 i
 nt=superfine\\CC=O_1\\0,1\C,-0.9203755989,0.7270399344,0.007076435\C,0
 .009170068,-0.4599160746,-0.0319630688\O,1.0929169987,-0.5065671973,0.
 4901097872\H,-1.8855979598,0.4321786728,0.4614802422\H,-1.1440681057,1
 .0617546726,-1.0239595987\H,-0.4687718781,1.5514066676,0.5819064749\H,
 -0.3861335243,-1.3445356755,-0.6046502717\\Version=ES64L-G16RevC.01\St
 ate=1-A\HF=-153.7127124\RMSD=7.119e-09\RMSF=1.549e-05\Dipole=-0.918446
 6,0.2045958,-0.3722599\Quadrupole=-1.0535766,0.4531539,0.6004227,0.711
 7053,-0.6462918,0.1906698\PG=C01 [X(C2H4O1)]\\@
 The archive entry for this job was punched.


 LEARN FROM YESTERDAY,
 LIVE FOR TODAY,
 LOOK TO TOMORROW,
 REST THIS AFTERNOON.

           -- SNOOPY
 Job cpu time:       0 days  0 hours  4 minutes 44.8 seconds.
 Elapsed time:       0 days  0 hours  0 minutes 20.3 seconds.
 File lengths (MBytes):  RWF=     17 Int=      0 D2E=      0 Chk=      2 Scr=      2
 Normal termination of Gaussian 16 at Tue Dec 19 21:47:38 2023.
 Link1:  Proceeding to internal job step number  2.
 --------------------------------------------------------------------
 #N Geom=AllCheck Guess=TCheck SCRF=Check GenChk RB3LYP/def2SVPP Freq
 --------------------------------------------------------------------
 1/10=4,29=7,30=1,38=1,40=1,113=-987000,114=961000/1,3;
 2/12=2,17=2,18=2,40=1/2;
 3/5=43,7=202,11=2,14=-4,25=1,30=1,70=2,71=2,74=-5,75=-7,116=1,124=41,140=1/1,2,3;
 4/5=101/1;
 5/5=2,38=6,98=1/2;
 8/6=4,10=90,11=11/1;
 11/6=1,8=1,9=11,15=111,16=1/1,2,10;
 10/6=1/2;
 6/7=2,8=2,9=2,10=2,28=1/1;
 7/8=1,10=1,25=1/1,2,3,16;
 1/10=4,30=1/3;
 99//99;
 Structure from the checkpoint file:  "/home/software/g16tmp/Gau-79362.chk"
 ------
 CC=O_1
 ------
 Charge =  0 Multiplicity = 1
 Redundant internal coordinates found in file.  (old form).
 C,0,-0.9203755989,0.7270399344,0.007076435
 C,0,0.009170068,-0.4599160746,-0.0319630688
 O,0,1.0929169987,-0.5065671973,0.4901097872
 H,0,-1.8855979598,0.4321786728,0.4614802422
 H,0,-1.1440681057,1.0617546726,-1.0239595987
 H,0,-0.4687718781,1.5514066676,0.5819064749
 H,0,-0.3861335243,-1.3445356755,-0.6046502717
 Recover connectivity data from disk.

 GradGradGradGradGradGradGradGradGradGradGradGradGradGradGradGradGradGrad
 Berny optimization.
 Initialization pass.
                           ----------------------------
                           !    Initial Parameters    !
                           ! (Angstroms and Degrees)  !
 --------------------------                            --------------------------
 ! Name  Definition              Value          Derivative Info.                !
 --------------------------------------------------------------------------------
 ! R1    R(1,2)                  1.5081         calculate D2E/DX2 analytically  !
 ! R2    R(1,4)                  1.1068         calculate D2E/DX2 analytically  !
 ! R3    R(1,5)                  1.1068         calculate D2E/DX2 analytically  !
 ! R4    R(1,6)                  1.1018         calculate D2E/DX2 analytically  !
 ! R5    R(2,3)                  1.2038         calculate D2E/DX2 analytically  !
 ! R6    R(2,7)                  1.1255         calculate D2E/DX2 analytically  !
 ! A1    A(2,1,4)              109.783          calculate D2E/DX2 analytically  !
 ! A2    A(2,1,5)              109.7829         calculate D2E/DX2 analytically  !
 ! A3    A(2,1,6)              110.4713         calculate D2E/DX2 analytically  !
 ! A4    A(4,1,5)              106.6631         calculate D2E/DX2 analytically  !
 ! A5    A(4,1,6)              110.0336         calculate D2E/DX2 analytically  !
 ! A6    A(5,1,6)              110.0332         calculate D2E/DX2 analytically  !
 ! A7    A(1,2,3)              125.0396         calculate D2E/DX2 analytically  !
 ! A8    A(1,2,7)              114.5371         calculate D2E/DX2 analytically  !
 ! A9    A(3,2,7)              120.4233         calculate D2E/DX2 analytically  !
 ! D1    D(4,1,2,3)           -121.4843         calculate D2E/DX2 analytically  !
 ! D2    D(4,1,2,7)             58.4947         calculate D2E/DX2 analytically  !
 ! D3    D(5,1,2,3)            121.5655         calculate D2E/DX2 analytically  !
 ! D4    D(5,1,2,7)            -58.4555         calculate D2E/DX2 analytically  !
 ! D5    D(6,1,2,3)              0.0409         calculate D2E/DX2 analytically  !
 ! D6    D(6,1,2,7)           -179.9801         calculate D2E/DX2 analytically  !
 --------------------------------------------------------------------------------
 Trust Radius=3.00D-01 FncErr=1.00D-07 GrdErr=1.00D-07 EigMax=2.50D+02 EigMin=1.00D-04
 Number of steps in this run=      2 maximum allowed number of steps=      2.
 GradGradGradGradGradGradGradGradGradGradGradGradGradGradGradGradGradGrad

                          Input orientation:                          
 ---------------------------------------------------------------------
 Center     Atomic      Atomic             Coordinates (Angstroms)
 Number     Number       Type             X           Y           Z
 ---------------------------------------------------------------------
      1          6           0       -0.920376    0.727040    0.007076
      2          6           0        0.009170   -0.459916   -0.031963
      3          8           0        1.092917   -0.506567    0.490110
      4          1           0       -1.885598    0.432179    0.461480
      5          1           0       -1.144068    1.061755   -1.023960
      6          1           0       -0.468772    1.551407    0.581906
      7          1           0       -0.386134   -1.344536   -0.604650
 ---------------------------------------------------------------------
                    Distance matrix (angstroms):
                    1          2          3          4          5
     1  C    0.000000
     2  C    1.508126   0.000000
     3  O    2.410074   1.203845   0.000000
     4  H    1.106833   2.151619   3.123078   0.000000
     5  H    1.106846   2.151627   3.123482   1.775602   0.000000
     6  H    1.101797   2.156544   2.585064   1.809577   1.809583
     7  H    2.225095   1.125517   2.021950   2.557683   2.557444
                    6          7
     6  H    0.000000
     7  H    3.130691   0.000000
 Stoichiometry    C2H4O
 Framework group  CS[SG(C2H2O),X(H2)]
 Deg. of freedom    10
 Full point group                 CS      NOp   2
 Largest Abelian subgroup         CS      NOp   2
 Largest concise Abelian subgroup CS      NOp   2
                         Standard orientation:                         
 ---------------------------------------------------------------------
 Center     Atomic      Atomic             Coordinates (Angstroms)
 Number     Number       Type             X           Y           Z
 ---------------------------------------------------------------------
      1          6           0       -0.000000   -1.179747    0.000000
      2          6           0       -0.362434    0.284181    0.000000
      3          8           0        0.428230    1.191977   -0.000000
      4          1           0       -0.438108   -1.674088   -0.888135
      5          1           0       -0.438108   -1.674088    0.888135
      6          1           0        1.094570   -1.305731    0.000000
      7          1           0       -1.468630    0.491832    0.000000
 ---------------------------------------------------------------------
 Rotational constants (GHZ):          56.7672708          10.0791571           9.0466243
 Standard basis: def2SVPP (5D, 7F)
 There are    39 symmetry adapted cartesian basis functions of A'  symmetry.
 There are    14 symmetry adapted cartesian basis functions of A"  symmetry.
 There are    36 symmetry adapted basis functions of A'  symmetry.
 There are    14 symmetry adapted basis functions of A"  symmetry.
    50 basis functions,    91 primitive gaussians,    53 cartesian basis functions
    12 alpha electrons       12 beta electrons
       nuclear repulsion energy        69.4691703429 Hartrees.
 NAtoms=    7 NActive=    7 NUniq=    6 SFac= 1.36D+00 NAtFMM=   60 NAOKFM=F Big=F
 Integral buffers will be    131072 words long.
 Raffenetti 2 integral format.
 Two-electron integral symmetry is turned on.
 Nuclear repulsion after empirical dispersion term =       69.4638001282 Hartrees.
 One-electron integrals computed using PRISM.
   2 Symmetry operations used in ECPInt.
 ECPInt:  NShTT=     351 NPrTT=    1429 LenC2=     352 LenP2D=    1279.
 LDataN:  DoStor=T MaxTD1= 4 Len=   56
 NBasis=    50 RedAO= T EigKep=  4.89D-03  NBF=    36    14
 NBsUse=    50 1.00D-06 EigRej= -1.00D+00 NBFU=    36    14
 Initial guess from the checkpoint file:  "/home/software/g16tmp/Gau-79362.chk"
 B after Tr=     0.000076    0.000027   -0.000000
         Rot=    0.749941   -0.000075   -0.000084   -0.661504 Ang= -82.83 deg.
 Initial guess orbital symmetries:
       Occupied  (A') (A') (A') (A') (A') (A') (A') (A") (A') (A')
                 (A") (A')
       Virtual   (A") (A') (A') (A") (A') (A') (A') (A') (A") (A')
                 (A") (A') (A') (A') (A') (A") (A') (A') (A') (A')
                 (A") (A') (A') (A") (A") (A') (A') (A') (A") (A')
                 (A") (A') (A') (A") (A') (A") (A') (A')
 Keep R1 ints in memory in symmetry-blocked form, NReq=14910605.
 Requested convergence on RMS density matrix=1.00D-08 within 128 cycles.
 Requested convergence on MAX density matrix=1.00D-06.
 Requested convergence on             energy=1.00D-06.
 No special actions if energy rises.
 SCF Done:  E(RB3LYP) =  -153.712712359     A.U. after    7 cycles
            NFock=  7  Conv=0.17D-08     -V/T= 2.0089
 DoSCS=F DFT=T ScalE2(SS,OS)=  1.000000  1.000000
 Range of M.O.s used for correlation:     1    50
 NBasis=    50 NAE=    12 NBE=    12 NFC=     0 NFV=     0
 NROrb=     50 NOA=    12 NOB=    12 NVA=    38 NVB=    38
   2 Symmetry operations used in ECPInt.
 ECPInt:  NShTT=     351 NPrTT=    1429 LenC2=     352 LenP2D=    1279.
 LDataN:  DoStor=T MaxTD1= 5 Len=  102
 Symmetrizing basis deriv contribution to polar:
 IMax=3 JMax=2 DiffMx= 0.00D+00
 G2DrvN: will do     8 centers at a time, making    1 passes.
 Calling FoFCou, ICntrl=  3107 FMM=F I1Cent=   0 AccDes= 0.00D+00.
 End of G2Drv F.D. properties file   721 does not exist.
 End of G2Drv F.D. properties file   722 does not exist.
 End of G2Drv F.D. properties file   788 does not exist.
          IDoAtm=1111111
          Differentiating once with respect to electric field.
                with respect to dipole field.
          Differentiating once with respect to nuclear coordinates.
 Keep R1 ints in memory in symmetry-blocked form, NReq=14815334.
          There are    21 degrees of freedom in the 1st order CPHF.  IDoFFX=4 NUNeed=    21.
     21 vectors produced by pass  0 Test12= 2.17D-15 4.76D-09 XBig12= 1.97D+01 2.73D+00.
 AX will form    21 AO Fock derivatives at one time.
     21 vectors produced by pass  1 Test12= 2.17D-15 4.76D-09 XBig12= 3.25D+00 4.88D-01.
     21 vectors produced by pass  2 Test12= 2.17D-15 4.76D-09 XBig12= 1.37D-02 2.32D-02.
     21 vectors produced by pass  3 Test12= 2.17D-15 4.76D-09 XBig12= 2.13D-05 1.05D-03.
     21 vectors produced by pass  4 Test12= 2.17D-15 4.76D-09 XBig12= 2.20D-08 2.95D-05.
      9 vectors produced by pass  5 Test12= 2.17D-15 4.76D-09 XBig12= 1.14D-11 7.25D-07.
      2 vectors produced by pass  6 Test12= 2.17D-15 4.76D-09 XBig12= 5.04D-15 2.03D-08.
 InvSVY:  IOpt=1 It=  1 EMax= 8.88D-16
 Solved reduced A of dimension   116 with    21 vectors.
 Isotropic polarizability for W=    0.000000       24.25 Bohr**3.
 End of Minotr F.D. properties file   721 does not exist.
 End of Minotr F.D. properties file   722 does not exist.
 End of Minotr F.D. properties file   788 does not exist.

 **********************************************************************

            Population analysis using the SCF Density.

 **********************************************************************

 Orbital symmetries:
       Occupied  (A') (A') (A') (A') (A') (A') (A') (A") (A') (A')
                 (A") (A')
       Virtual   (A") (A') (A') (A") (A') (A') (A') (A') (A") (A')
                 (A") (A') (A') (A') (A') (A") (A') (A') (A') (A')
                 (A") (A') (A') (A") (A") (A') (A') (A') (A") (A')
                 (A") (A') (A') (A") (A') (A") (A') (A')
 The electronic state is 1-A'.
 Alpha  occ. eigenvalues --  -19.13652 -10.27870 -10.19572  -1.04100  -0.74812
 Alpha  occ. eigenvalues --   -0.57522  -0.48077  -0.44911  -0.43900  -0.40170
 Alpha  occ. eigenvalues --   -0.37134  -0.26044
 Alpha virt. eigenvalues --   -0.02638   0.06332   0.09231   0.11707   0.12477
 Alpha virt. eigenvalues --    0.23375   0.24192   0.43156   0.44836   0.48867
 Alpha virt. eigenvalues --    0.50537   0.57443   0.62495   0.64374   0.66536
 Alpha virt. eigenvalues --    0.67152   0.68154   0.71223   0.84644   0.91471
 Alpha virt. eigenvalues --    1.01717   1.13476   1.36672   1.41786   1.63178
 Alpha virt. eigenvalues --    1.69626   1.80891   1.95911   1.99568   2.06409
 Alpha virt. eigenvalues --    2.16898   2.39959   2.45884   2.67923   2.70718
 Alpha virt. eigenvalues --    3.13421   3.25770   3.57517
          Condensed to atoms (all electrons):
               1          2          3          4          5          6
     1  C    5.244858   0.288496  -0.103512   0.333744   0.333744   0.318181
     2  C    0.288496   4.606476   0.689093  -0.001333  -0.001333   0.001908
     3  O   -0.103512   0.689093   7.640904   0.002147   0.002147   0.013121
     4  H    0.333744  -0.001333   0.002147   0.567499  -0.016057  -0.012146
     5  H    0.333744  -0.001333   0.002147  -0.016057   0.567499  -0.012146
     6  H    0.318181   0.001908   0.013121  -0.012146  -0.012146   0.562347
     7  H   -0.153178   0.374675  -0.049383   0.005763   0.005763   0.010965
               7
     1  C   -0.153178
     2  C    0.374675
     3  O   -0.049383
     4  H    0.005763
     5  H    0.005763
     6  H    0.010965
     7  H    0.749097
 Mulliken charges:
               1
     1  C   -0.262334
     2  C    0.042018
     3  O   -0.194518
     4  H    0.120383
     5  H    0.120383
     6  H    0.117770
     7  H    0.056297
 Sum of Mulliken charges =  -0.00000
 Mulliken charges with hydrogens summed into heavy atoms:
               1
     1  C    0.096202
     2  C    0.098316
     3  O   -0.194518
 APT charges:
               1
     1  C   -0.142413
     2  C    0.782046
     3  O   -0.612051
     4  H    0.029347
     5  H    0.029347
     6  H    0.019082
     7  H   -0.105358
 Sum of APT charges =  -0.00000
 APT charges with hydrogens summed into heavy atoms:
               1
     1  C   -0.064637
     2  C    0.676688
     3  O   -0.612051
 Electronic spatial extent (au):  <R**2>=            168.2509
 Charge=             -0.0000 electrons
 Dipole moment (field-independent basis, Debye):
    X=             -1.3219    Y=             -2.2058    Z=             -0.0000  Tot=              2.5716
 Quadrupole moment (field-independent basis, Debye-Ang):
   XX=            -18.3467   YY=            -20.5407   ZZ=            -17.7405
   XY=             -1.0436   XZ=              0.0000   YZ=              0.0000
 Traceless Quadrupole moment (field-independent basis, Debye-Ang):
   XX=              0.5293   YY=             -1.6647   ZZ=              1.1355
   XY=             -1.0436   XZ=              0.0000   YZ=              0.0000
 Octapole moment (field-independent basis, Debye-Ang**2):
  XXX=              1.7208  YYY=              0.5169  ZZZ=             -0.0000  XYY=             -1.1007
  XXY=              0.6990  XXZ=              0.0000  XZZ=              0.1752  YZZ=              1.0314
  YYZ=             -0.0000  XYZ=              0.0000
 Hexadecapole moment (field-independent basis, Debye-Ang**3):
 XXXX=            -44.1834 YYYY=           -149.0253 ZZZZ=            -22.7417 XXXY=             -6.1932
 XXXZ=              0.0000 YYYX=             -4.6817 YYYZ=              0.0000 ZZZX=              0.0000
 ZZZY=              0.0000 XXYY=            -31.0355 XXZZ=            -11.3507 YYZZ=            -25.9734
 XXYZ=              0.0000 YYXZ=              0.0000 ZZXY=             -0.5785
 N-N= 6.946380012816D+01 E-N=-4.978183952900D+02  KE= 1.523536168405D+02
 Symmetry A'   KE= 1.467257046955D+02
 Symmetry A"   KE= 5.627912145053D+00
  Exact polarizability:      26.318       1.838      28.650       0.000       0.000      17.767
 Approx polarizability:      37.046       8.032      39.969      -0.000      -0.000      23.411
   2 Symmetry operations used in ECPInt.
 ECPInt:  NShTT=     351 NPrTT=    1429 LenC2=     352 LenP2D=    1279.
 LDataN:  DoStor=T MaxTD1= 6 Len=  172
 Calling FoFJK, ICntrl=    100127 FMM=F ISym2X=1 I1Cent= 0 IOpClX= 0 NMat=1 NMatS=1 NMatT=0.
 Full mass-weighted force constant matrix:
 Low frequencies ---   -6.1218   -5.6593    0.0005    0.0015    0.0016    7.0659
 Low frequencies ---  156.1629  510.7824  773.8721
 Diagonal vibrational polarizability:
        1.6792055       3.0317459       0.3365077
 Harmonic frequencies (cm**-1), IR intensities (KM/Mole), Raman scattering
 activities (A**4/AMU), depolarization ratios for plane and unpolarized
 incident light, reduced masses (AMU), force constants (mDyne/A),
 and normal coordinates:
                      1                      2                      3
                     A"                     A'                     A"
 Frequencies --    156.1625               510.7823               773.8721
 Red. masses --      1.2435                 2.4850                 1.1221
 Frc consts  --      0.0179                 0.3820                 0.3959
 IR Inten    --      0.0999                12.8350                 0.4477
  Atom  AN      X      Y      Z        X      Y      Z        X      Y      Z
     1   6    -0.00   0.00  -0.00    -0.04  -0.16   0.00    -0.00  -0.00  -0.07
     2   6    -0.00   0.00   0.11     0.20  -0.04   0.00     0.00  -0.00  -0.06
     3   8     0.00  -0.00  -0.08    -0.08   0.21  -0.00    -0.00   0.00   0.03
     4   1     0.42   0.23  -0.34    -0.33   0.06   0.02     0.15  -0.48   0.13
     5   1    -0.42  -0.23  -0.34    -0.33   0.06  -0.02    -0.15   0.48   0.13
     6   1     0.00   0.00   0.42    -0.11  -0.75   0.00    -0.00  -0.00   0.27
     7   1    -0.00   0.00   0.32     0.15  -0.26  -0.00     0.00  -0.00   0.62
                      4                      5                      6
                     A'                     A'                     A"
 Frequencies --    893.7543              1127.9897              1135.1856
 Red. masses --      2.1072                 2.0781                 1.7841
 Frc consts  --      0.9917                 1.5579                 1.3546
 IR Inten    --      7.6524                24.1989                 2.0198
  Atom  AN      X      Y      Z        X      Y      Z        X      Y      Z
     1   6     0.05   0.24  -0.00    -0.19   0.05   0.00    -0.00   0.00  -0.14
     2   6     0.06  -0.14   0.00     0.18  -0.16  -0.00     0.00  -0.00   0.22
     3   8    -0.04  -0.10  -0.00    -0.03   0.05   0.00    -0.00   0.00  -0.05
     4   1    -0.32   0.49   0.04     0.22  -0.06  -0.13     0.01  -0.41   0.10
     5   1    -0.32   0.49  -0.04     0.22  -0.06   0.13    -0.01   0.41   0.10
     6   1    -0.01  -0.22   0.00    -0.09   0.84  -0.00    -0.00   0.00   0.30
     7   1    -0.00  -0.40  -0.00     0.19  -0.14   0.00     0.00  -0.00  -0.69
                      7                      8                      9
                     A'                     A'                     A'
 Frequencies --   1371.3754              1426.1858              1443.4668
 Red. masses --      1.2785                 1.1694                 1.0842
 Frc consts  --      1.4167                 1.4014                 1.3310
 IR Inten    --     24.1830                11.0656                18.9147
  Atom  AN      X      Y      Z        X      Y      Z        X      Y      Z
     1   6     0.05  -0.15   0.00     0.05   0.04  -0.00     0.04  -0.03  -0.00
     2   6    -0.01   0.01   0.00     0.05  -0.06   0.00    -0.02   0.02  -0.00
     3   8    -0.01  -0.01  -0.00    -0.06  -0.01  -0.00     0.04   0.03   0.00
     4   1    -0.18   0.52  -0.25    -0.23  -0.16   0.24    -0.42  -0.17   0.29
     5   1    -0.18   0.52   0.25    -0.23  -0.16  -0.24    -0.42  -0.17  -0.29
     6   1     0.11   0.42   0.00     0.05   0.07   0.00     0.09   0.47   0.00
     7   1     0.03   0.25  -0.00     0.24   0.80  -0.00    -0.12  -0.42   0.00
                     10                     11                     12
                     A"                     A'                     A'
 Frequencies --   1454.9602              1864.1015              2863.4027
 Red. masses --      1.0466                 9.6939                 1.0839
 Frc consts  --      1.3054                19.8467                 5.2361
 IR Inten    --     11.7696               177.8162               146.4622
  Atom  AN      X      Y      Z        X      Y      Z        X      Y      Z
     1   6    -0.00   0.00  -0.05    -0.03  -0.05  -0.00     0.00   0.00  -0.00
     2   6     0.00   0.00  -0.03     0.42   0.56   0.00    -0.08   0.02   0.00
     3   8    -0.00  -0.00   0.00    -0.31  -0.36   0.00    -0.00  -0.00  -0.00
     4   1    -0.43   0.21   0.05    -0.03  -0.15   0.07    -0.02  -0.01  -0.03
     5   1     0.43  -0.21   0.05    -0.03  -0.15  -0.07    -0.02  -0.01   0.03
     6   1    -0.00  -0.00   0.73     0.03   0.23  -0.00    -0.01  -0.00   0.00
     7   1    -0.00  -0.00   0.08     0.17  -0.39  -0.00     0.97  -0.21  -0.00
                     13                     14                     15
                     A'                     A"                     A'
 Frequencies --   3008.6586              3079.4417              3136.1443
 Red. masses --      1.0385                 1.1013                 1.1054
 Frc consts  --      5.5386                 6.1531                 6.4058
 IR Inten    --      1.4974                 5.0692                 6.7246
  Atom  AN      X      Y      Z        X      Y      Z        X      Y      Z
     1   6    -0.01  -0.05   0.00     0.00  -0.00  -0.09    -0.09  -0.01  -0.00
     2   6    -0.00   0.00   0.00    -0.00   0.00  -0.00    -0.00  -0.00   0.00
     3   8     0.00   0.00  -0.00     0.00   0.00  -0.00     0.00   0.00  -0.00
     4   1     0.25   0.28   0.52     0.28   0.32   0.56     0.11   0.13   0.23
     5   1     0.25   0.28  -0.52    -0.28  -0.32   0.56     0.11   0.13  -0.23
     6   1    -0.42   0.04   0.00    -0.00   0.00  -0.01     0.90  -0.10  -0.00
     7   1     0.04  -0.01  -0.00     0.00  -0.00   0.00     0.03  -0.01  -0.00

 -------------------
 - Thermochemistry -
 -------------------
 Temperature   298.150 Kelvin.  Pressure   0.98700 Atm.
 Thermochemistry will use frequencies scaled by 0.9610.
 Atom     1 has atomic number  6 and mass  12.00000
 Atom     2 has atomic number  6 and mass  12.00000
 Atom     3 has atomic number  8 and mass  15.99491
 Atom     4 has atomic number  1 and mass   1.00783
 Atom     5 has atomic number  1 and mass   1.00783
 Atom     6 has atomic number  1 and mass   1.00783
 Atom     7 has atomic number  1 and mass   1.00783
 Molecular mass:    44.02621 amu.
 Principal axes and moments of inertia in atomic units:
                           1         2         3
     Eigenvalues --    31.79193 179.05676 199.49333
           X            0.15016   0.98866   0.00000
           Y            0.98866  -0.15016   0.00000
           Z           -0.00000  -0.00000   1.00000
 This molecule is an asymmetric top.
 Rotational symmetry number  1.
 Rotational temperatures (Kelvin)      2.72440     0.48372     0.43417
 Rotational constants (GHZ):          56.76727    10.07916     9.04662
 Zero-point vibrational energy     139364.4 (Joules/Mol)
                                   33.30889 (Kcal/Mol)
 Warning -- explicit consideration of   2 degrees of freedom as
           vibrations may cause significant error
 Vibrational temperatures:    215.92   706.24  1070.01  1235.76  1559.63
          (Kelvin)           1569.58  1896.15  1971.94  1995.83  2011.72
                             2577.43  3959.13  4159.97  4257.84  4336.24
 
 Zero-point correction=                           0.053081 (Hartree/Particle)
 Thermal correction to Energy=                    0.057035
 Thermal correction to Enthalpy=                  0.057979
 Thermal correction to Gibbs Free Energy=         0.028071
 Sum of electronic and zero-point Energies=           -153.659631
 Sum of electronic and thermal Energies=              -153.655677
 Sum of electronic and thermal Enthalpies=            -153.654733
 Sum of electronic and thermal Free Energies=         -153.684642
 
                     E (Thermal)             CV                S
                      KCal/Mol        Cal/Mol-Kelvin    Cal/Mol-Kelvin
 Total                   35.790             11.524             62.948
 Electronic               0.000              0.000              0.000
 Translational            0.889              2.981             37.299
 Rotational               0.889              2.981             21.656
 Vibrational             34.013              5.562              3.993
 Vibration     1          0.618              1.903              2.671
 Vibration     2          0.847              1.270              0.681
                       Q            Log10(Q)             Ln(Q)
 Total Bot       0.122562D-12        -12.911644        -29.730160
 Total V=0       0.319113D+12         11.503945         26.488813
 Vib (Bot)       0.873350D-24        -24.058812        -55.397461
 Vib (Bot)    1  0.135111D+01          0.130692          0.300929
 Vib (Bot)    2  0.337531D+00         -0.471687         -1.086099
 Vib (V=0)       0.227393D+01          0.356778          0.821511
 Vib (V=0)    1  0.194066D+01          0.287950          0.663029
 Vib (V=0)    2  0.110326D+01          0.042679          0.098273
 Electronic      0.100000D+01          0.000000          0.000000
 Translational   0.116333D+08          7.065704         16.269384
 Rotational      0.120632D+05          4.081464          9.397917
 ***** Axes restored to original set *****
 -------------------------------------------------------------------
 Center     Atomic                   Forces (Hartrees/Bohr)
 Number     Number              X              Y              Z
 -------------------------------------------------------------------
      1        6           0.000045417    0.000037991    0.000038822
      2        6          -0.000003167   -0.000012200   -0.000006759
      3        8           0.000011401    0.000005858    0.000008185
      4        1          -0.000034969    0.000004690   -0.000066854
      5        1          -0.000070882   -0.000025792    0.000004988
      6        1           0.000044362   -0.000005463    0.000019858
      7        1           0.000007837   -0.000005083    0.000001761
 -------------------------------------------------------------------
 Cartesian Forces:  Max     0.000070882 RMS     0.000030363
 FormGI is forming the generalized inverse of G from B-inverse, IUseBI=4.

 GradGradGradGradGradGradGradGradGradGradGradGradGradGradGradGradGradGrad
 Berny optimization.
 Internal  Forces:  Max     0.000074712 RMS     0.000028710
 Search for a local minimum.
 Step number   1 out of a maximum of    2
 All quantities printed in internal units (Hartrees-Bohrs-Radians)
 Second derivative matrix not updated -- analytic derivatives used.
 ITU=  0
     Eigenvalues ---    0.00132   0.04489   0.05384   0.05613   0.11096
     Eigenvalues ---    0.12199   0.13052   0.16005   0.22491   0.29180
     Eigenvalues ---    0.29586   0.32985   0.33430   0.34461   0.91287
 Angle between quadratic step and forces=  24.80 degrees.
 Linear search not attempted -- first point.
 Iteration  1 RMS(Cart)=  0.00033709 RMS(Int)=  0.00000008
 Iteration  2 RMS(Cart)=  0.00000009 RMS(Int)=  0.00000001
 ClnCor:  largest displacement from symmetrization is 8.19D-09 for atom     6.
 Variable       Old X    -DE/DX   Delta X   Delta X   Delta X     New X
                                 (Linear)    (Quad)   (Total)
    R1        2.84994   0.00002   0.00000   0.00003   0.00003   2.84998
    R2        2.09163   0.00000   0.00000   0.00002   0.00002   2.09165
    R3        2.09163   0.00000   0.00000   0.00002   0.00002   2.09165
    R4        2.08209   0.00002   0.00000   0.00005   0.00005   2.08214
    R5        2.27494   0.00001   0.00000   0.00002   0.00002   2.27496
    R6        2.12692   0.00000   0.00000  -0.00001  -0.00001   2.12690
    A1        1.91602   0.00003   0.00000   0.00017   0.00017   1.91619
    A2        1.91602   0.00003   0.00000   0.00017   0.00017   1.91619
    A3        1.92809  -0.00005   0.00000  -0.00028  -0.00028   1.92781
    A4        1.86263  -0.00007   0.00000  -0.00095  -0.00095   1.86168
    A5        1.92000   0.00003   0.00000   0.00044   0.00044   1.92044
    A6        1.92000   0.00003   0.00000   0.00044   0.00044   1.92044
    A7        2.18235  -0.00002   0.00000  -0.00017  -0.00017   2.18218
    A8        1.99905   0.00002   0.00000   0.00020   0.00020   1.99925
    A9        2.10178  -0.00000   0.00000  -0.00003  -0.00003   2.10176
    D1       -2.12043  -0.00003   0.00000  -0.00048  -0.00048  -2.12090
    D2        1.02117  -0.00003   0.00000  -0.00048  -0.00048   1.02069
    D3        2.12043   0.00003   0.00000   0.00048   0.00048   2.12090
    D4       -1.02117   0.00003   0.00000   0.00048   0.00048  -1.02069
    D5       -0.00000  -0.00000   0.00000  -0.00000   0.00000  -0.00000
    D6        3.14159   0.00000   0.00000  -0.00000   0.00000   3.14159
         Item               Value     Threshold  Converged?
 Maximum Force            0.000075     0.000450     YES
 RMS     Force            0.000029     0.000300     YES
 Maximum Displacement     0.000828     0.001800     YES
 RMS     Displacement     0.000337     0.001200     YES
 Predicted change in Energy=-9.279842D-08
 Optimization completed.
    -- Stationary point found.
                           ----------------------------
                           !   Optimized Parameters   !
                           ! (Angstroms and Degrees)  !
 --------------------------                            --------------------------
 ! Name  Definition              Value          Derivative Info.                !
 --------------------------------------------------------------------------------
 ! R1    R(1,2)                  1.5081         -DE/DX =    0.0                 !
 ! R2    R(1,4)                  1.1068         -DE/DX =    0.0                 !
 ! R3    R(1,5)                  1.1068         -DE/DX =    0.0                 !
 ! R4    R(1,6)                  1.1018         -DE/DX =    0.0                 !
 ! R5    R(2,3)                  1.2038         -DE/DX =    0.0                 !
 ! R6    R(2,7)                  1.1255         -DE/DX =    0.0                 !
 ! A1    A(2,1,4)              109.7801         -DE/DX =    0.0                 !
 ! A2    A(2,1,5)              109.7801         -DE/DX =    0.0                 !
 ! A3    A(2,1,6)              110.4713         -DE/DX =   -0.0001              !
 ! A4    A(4,1,5)              106.7209         -DE/DX =   -0.0001              !
 ! A5    A(4,1,6)              110.0081         -DE/DX =    0.0                 !
 ! A6    A(5,1,6)              110.0081         -DE/DX =    0.0                 !
 ! A7    A(1,2,3)              125.0396         -DE/DX =    0.0                 !
 ! A8    A(1,2,7)              114.5371         -DE/DX =    0.0                 !
 ! A9    A(3,2,7)              120.4233         -DE/DX =    0.0                 !
 ! D1    D(4,1,2,3)           -121.4915         -DE/DX =    0.0                 !
 ! D2    D(4,1,2,7)             58.5085         -DE/DX =    0.0                 !
 ! D3    D(5,1,2,3)            121.4915         -DE/DX =    0.0                 !
 ! D4    D(5,1,2,7)            -58.5085         -DE/DX =    0.0                 !
 ! D5    D(6,1,2,3)              0.0            -DE/DX =    0.0                 !
 ! D6    D(6,1,2,7)            180.0            -DE/DX =    0.0                 !
 --------------------------------------------------------------------------------
 GradGradGradGradGradGradGradGradGradGradGradGradGradGradGradGradGradGrad


 ----------------------------------------------------------------------

 Electric dipole moment (input orientation):
 (Debye = 10**-18 statcoulomb cm , SI units = C m)
                  (au)            (Debye)         (10**-30 SI)
   Tot        0.101173D+01      0.257156D+01      0.857780D+01
   x         -0.918253D+00     -0.233397D+01     -0.778528D+01
   y          0.204647D+00      0.520160D+00      0.173507D+01
   z         -0.372193D+00     -0.946019D+00     -0.315558D+01

 Dipole polarizability, Alpha (input orientation).
 (esu units = cm**3 , SI units = C**2 m**2 J**-1)
 Alpha(0;0):
               (au)            (10**-24 esu)      (10**-40 SI)
   iso        0.242452D+02      0.359277D+01      0.399750D+01
   aniso      0.104223D+02      0.154442D+01      0.171840D+01
   xx         0.275593D+02      0.408386D+01      0.454391D+01
   yx        -0.204875D+01     -0.303594D+00     -0.337794D+00
   yy         0.246011D+02      0.364550D+01      0.405617D+01
   zx         0.402557D+01      0.596527D+00      0.663726D+00
   zy         0.187526D+01      0.277884D+00      0.309188D+00
   zz         0.205753D+02      0.304895D+01      0.339241D+01

 ----------------------------------------------------------------------

 Dipole orientation:
     6         -0.51958349         -1.10209069          1.85154967
     6         -0.05507319          0.85304469         -0.16930709
     8         -0.14748056          0.46409980         -2.40884416
     1         -2.09931345         -0.49043574          3.07842660
     1          1.16644554         -1.26633019          3.07842660
     1         -0.95798524         -2.94733453          0.99248420
     1          0.40602195          2.79380557          0.56867547

 Electric dipole moment (dipole orientation):
 (Debye = 10**-18 statcoulomb cm , SI units = C m)
                  (au)            (Debye)         (10**-30 SI)
   Tot        0.101173D+01      0.257156D+01      0.857780D+01
   x          0.000000D+00      0.000000D+00      0.000000D+00
   y          0.000000D+00      0.000000D+00      0.000000D+00
   z          0.101173D+01      0.257156D+01      0.857780D+01

 Dipole polarizability, Alpha (dipole orientation).
 (esu units = cm**3 , SI units = C**2 m**2 J**-1)
 Alpha(0;0):
               (au)            (10**-24 esu)      (10**-40 SI)
   iso        0.242452D+02      0.359277D+01      0.399750D+01
   aniso      0.104223D+02      0.154442D+01      0.171840D+01
   xx         0.181706D+02      0.269260D+01      0.299593D+01
   yx         0.169713D+01      0.251489D+00      0.279820D+00
   yy         0.249107D+02      0.369138D+01      0.410721D+01
   zx        -0.373353D-01     -0.553252D-02     -0.615576D-02
   zy        -0.157145D+00     -0.232865D-01     -0.259098D-01
   zz         0.296544D+02      0.439433D+01      0.488935D+01

 ----------------------------------------------------------------------
 Unable to Open any file for archive entry.
 1\1\GINC-NODE05\Freq\RB3LYP\def2SVPP\C2H4O1\XUHJ\19-Dec-2023\0\\#N Geo
 m=AllCheck Guess=TCheck SCRF=Check GenChk RB3LYP/def2SVPP Freq\\CC=O_1
 \\0,1\C,-0.9203719928,0.7270429952,0.007069221\C,0.0091378814,-0.45994
 33932,-0.0318986806\O,1.0929261781,-0.5065594062,0.4900914242\H,-1.885
 5979598,0.4321786728,0.4614802422\H,-1.1430479448,1.0624236753,-1.0239
 64596\H,-0.4690066891,1.5512073699,0.5823762061\H,-0.3860799221,-1.344
 4901803,-0.604757501\\Version=ES64L-G16RevC.01\State=1-A'\HF=-153.7127
 124\RMSD=1.663e-09\RMSF=3.036e-05\ZeroPoint=0.0530811\Thermal=0.057035
 1\ETot=-153.6556772\HTot=-153.6547331\GTot=-153.6846416\Dipole=-0.9182
 534,0.2046467,-0.3721925\DipoleDeriv=-0.2014871,0.1987637,-0.0356625,0
 .2421598,-0.2465234,0.000098,-0.0172504,-0.0215951,0.0207712,1.0470543
 ,-0.1765146,0.3737326,-0.272616,0.8876277,0.1768553,0.3329587,0.224894
 9,0.4114566,-0.9197732,0.1141967,-0.2668597,0.0850286,-0.4779904,-0.03
 76785,-0.2792351,-0.0230978,-0.4383897,-0.020248,-0.0275057,0.0544455,
 -0.0434961,0.0272732,0.037896,0.0689313,-0.0022757,0.0810155,0.0958643
 ,0.0131123,-0.0150755,0.043421,0.0518735,0.0021631,-0.0234864,0.035177
 4,-0.0596972,0.0333665,-0.0522459,-0.0463924,-0.0021296,-0.0165888,-0.
 0428212,-0.0251291,-0.0678735,0.0404698,-0.0347768,-0.0698066,-0.06418
 8,-0.0523678,-0.2256719,-0.1365127,-0.056789,-0.1452302,-0.0556262\Pol
 ar=27.5592733,-2.0487516,24.6010555,4.0255664,1.8752571,20.5753282\Qua
 drupole=-1.0548649,0.4536202,0.6012447,0.7117347,-0.6473329,0.1900729\
 PG=CS [SG(C2H2O1),X(H2)]\NImag=0\\0.53118488,0.05165248,0.52499851,0.0
 2716852,0.02765435,0.54598996,-0.11313174,0.04599152,0.00747192,0.8674
 6436,0.04603008,-0.18291993,-0.01682026,-0.04414302,0.50407139,0.00748
 829,-0.01683954,-0.09244482,0.30946778,0.10231267,0.40902559,-0.040023
 76,0.02094714,-0.02440262,-0.66987360,0.02801236,-0.29073295,0.7375562
 2,0.03879177,0.01263037,0.01347629,0.02253707,-0.10643197,-0.00652627,
 -0.03852238,0.07834018,-0.01683149,0.00455604,0.02009110,-0.29305601,-
 0.00378926,-0.21259869,0.34147269,0.00475079,0.19446849,-0.24400415,-0
 .06409658,0.09818531,-0.01900241,-0.00870507,0.00564842,-0.00012098,0.
 00497794,-0.00033634,0.26190505,-0.06122116,-0.06615467,0.02360370,0.0
 2413565,0.01308539,-0.01235212,0.00094420,-0.00460457,0.00306405,0.065
 68238,0.06494906,0.09585972,0.02509688,-0.08675444,-0.00269263,0.00130
 998,-0.00046350,-0.00016894,0.00101633,-0.00073798,-0.10365836,-0.0311
 3385,0.09013035,-0.04914393,0.01618144,-0.05258726,-0.00645857,0.00405
 609,-0.02288210,-0.00303611,0.00314252,0.00347583,0.00733965,-0.009170
 38,0.02604507,0.05387368,0.01490375,-0.07378174,0.07420414,0.00264743,
 -0.00335823,0.02771711,0.00306534,-0.00226204,-0.00289322,0.00163245,-
 0.00249977,0.00659913,-0.01913071,0.07084117,-0.04958378,0.07191227,-0
 .27398758,-0.00120505,-0.00165736,0.00343626,0.00156426,0.00120948,-0.
 00016539,-0.00322879,0.00336341,-0.01086466,0.05389823,-0.08095936,0.2
 9226961,-0.09655336,-0.08730082,-0.06031559,0.01106599,0.01733032,0.01
 315780,0.00143686,-0.00317431,0.00022646,-0.00763229,-0.01775569,-0.01
 522102,-0.00250849,-0.00298931,-0.00104095,0.09629152,-0.08323364,-0.1
 9953161,-0.10505412,-0.01523024,-0.02173285,-0.01660231,-0.00059247,0.
 00536651,0.00270642,-0.00087904,-0.00407970,-0.00237994,0.00562131,0.0
 1027946,0.00535153,0.09016557,0.21277808,-0.05858996,-0.10708723,-0.12
 471461,-0.00065701,-0.00032582,-0.00101313,0.00132188,0.00141580,-0.00
 044890,0.00462130,0.01176986,0.00869895,-0.01006952,-0.02153895,-0.010
 78402,0.06391030,0.11627000,0.12624877,0.01167207,0.01662482,0.0044797
 1,-0.07006403,-0.04258077,-0.02214723,-0.02593863,-0.02775262,-0.03495
 115,0.00151513,-0.00261500,-0.00016383,-0.00006623,-0.00012896,-0.0004
 0391,-0.00210023,0.00414852,-0.00053698,0.08498193,-0.00692329,-0.0152
 4093,-0.01706409,-0.03593841,-0.20271381,-0.07770955,-0.01385418,0.016
 96152,-0.00839482,0.00138791,-0.00069573,-0.00050853,-0.00070027,0.000
 78115,0.00078003,0.00372424,-0.00307990,-0.00050366,0.05230401,0.20398
 769,-0.00551129,-0.00529277,0.01182039,-0.01932901,-0.08102995,-0.1059
 4171,-0.02905431,-0.01534243,-0.00060863,-0.00123154,0.00168495,-0.000
 00871,0.00211976,-0.00312885,0.00009577,-0.00071699,-0.00029157,0.0020
 1294,0.05372339,0.10340062,0.09262993\\-0.00004542,-0.00003799,-0.0000
 3882,0.00000317,0.00001220,0.00000676,-0.00001140,-0.00000586,-0.00000
 818,0.00003497,-0.00000469,0.00006685,0.00007088,0.00002579,-0.0000049
 9,-0.00004436,0.00000546,-0.00001986,-0.00000784,0.00000508,-0.0000017
 6\\\@
 The archive entry for this job was punched.


 MUD THROWN IS GROUND LOST -- FROM A TEA BAG
 Job cpu time:       0 days  0 hours  1 minutes  8.2 seconds.
 Elapsed time:       0 days  0 hours  0 minutes  4.7 seconds.
 File lengths (MBytes):  RWF=     82 Int=      0 D2E=      0 Chk=      2 Scr=      2
 Normal termination of Gaussian 16 at Tue Dec 19 21:47:43 2023.
