 Entering Gaussian System, Link 0=g16
 Initial command:
 /home/software/g16/l1.exe "/home/software/g16tmp/Gau-42399.inp" -scrdir="/home/software/g16tmp/"
 Default is to use a total of   8 processors:
                                8 via shared-memory
                                1 via Linda
 Entering Link 1 = /home/software/g16/l1.exe PID=     42403.
  
 Copyright (c) 1988-2019, Gaussian, Inc.  All Rights Reserved.
  
 This is part of the Gaussian(R) 16 program.  It is based on
 the Gaussian(R) 09 system (copyright 2009, Gaussian, Inc.),
 the Gaussian(R) 03 system (copyright 2003, Gaussian, Inc.),
 the Gaussian(R) 98 system (copyright 1998, Gaussian, Inc.),
 the Gaussian(R) 94 system (copyright 1995, Gaussian, Inc.),
 the Gaussian 92(TM) system (copyright 1992, Gaussian, Inc.),
 the Gaussian 90(TM) system (copyright 1990, Gaussian, Inc.),
 the Gaussian 88(TM) system (copyright 1988, Gaussian, Inc.),
 the Gaussian 86(TM) system (copyright 1986, Carnegie Mellon
 University), and the Gaussian 82(TM) system (copyright 1983,
 Carnegie Mellon University). Gaussian is a federally registered
 trademark of Gaussian, Inc.
  
 This software contains proprietary and confidential information,
 including trade secrets, belonging to Gaussian, Inc.
  
 This software is provided under written license and may be
 used, copied, transmitted, or stored only in accord with that
 written license.
  
 The following legend is applicable only to US Government
 contracts under FAR:
  
                    RESTRICTED RIGHTS LEGEND
  
 Use, reproduction and disclosure by the US Government is
 subject to restrictions as set forth in subparagraphs (a)
 and (c) of the Commercial Computer Software - Restricted
 Rights clause in FAR 52.227-19.
  
 Gaussian, Inc.
 340 Quinnipiac St., Bldg. 40, Wallingford CT 06492
  
  
 ---------------------------------------------------------------
 Warning -- This program may not be used in any manner that
 competes with the business of Gaussian, Inc. or will provide
 assistance to any competitor of Gaussian, Inc.  The licensee
 of this program is prohibited from giving any competitor of
 Gaussian, Inc. access to this program.  By using this program,
 the user acknowledges that Gaussian, Inc. is engaged in the
 business of creating and licensing software in the field of
 computational chemistry and represents and warrants to the
 licensee that it is not a competitor of Gaussian, Inc. and that
 it will not use this program in any manner prohibited above.
 ---------------------------------------------------------------
  

 Cite this work as:
 Gaussian 16, Revision C.01,
 M. J. Frisch, G. W. Trucks, H. B. Schlegel, G. E. Scuseria, 
 M. A. Robb, J. R. Cheeseman, G. Scalmani, V. Barone, 
 G. A. Petersson, H. Nakatsuji, X. Li, M. Caricato, A. V. Marenich, 
 J. Bloino, B. G. Janesko, R. Gomperts, B. Mennucci, H. P. Hratchian, 
 J. V. Ortiz, A. F. Izmaylov, J. L. Sonnenberg, D. Williams-Young, 
 F. Ding, F. Lipparini, F. Egidi, J. Goings, B. Peng, A. Petrone, 
 T. Henderson, D. Ranasinghe, V. G. Zakrzewski, J. Gao, N. Rega, 
 G. Zheng, W. Liang, M. Hada, M. Ehara, K. Toyota, R. Fukuda, 
 J. Hasegawa, M. Ishida, T. Nakajima, Y. Honda, O. Kitao, H. Nakai, 
 T. Vreven, K. Throssell, J. A. Montgomery, Jr., J. E. Peralta, 
 F. Ogliaro, M. J. Bearpark, J. J. Heyd, E. N. Brothers, K. N. Kudin, 
 V. N. Staroverov, T. A. Keith, R. Kobayashi, J. Normand, 
 K. Raghavachari, A. P. Rendell, J. C. Burant, S. S. Iyengar, 
 J. Tomasi, M. Cossi, J. M. Millam, M. Klene, C. Adamo, R. Cammi, 
 J. W. Ochterski, R. L. Martin, K. Morokuma, O. Farkas, 
 J. B. Foresman, and D. J. Fox, Gaussian, Inc., Wallingford CT, 2019.
 
 ******************************************
 Gaussian 16:  ES64L-G16RevC.01  3-Jul-2019
                19-Dec-2023 
 ******************************************
 %nprocshared=16
 Will use up to   16 processors via shared memory.
 %mem=960MB
 ----------------------------------------------------------------------
 #N opt freq B3LYP/def2SVPP symm=veryloose em=gd3bj scale=0.961 press=0
 .987
 ----------------------------------------------------------------------
 1/18=20,19=15,26=3,38=1,113=-987000,114=961000/1,3;
 2/9=110,12=2,17=2,18=2,40=1/2;
 3/5=43,7=202,11=2,25=1,30=1,71=1,74=-5,124=41/1,2,3;
 4//1;
 5/5=2,38=5/2;
 6/7=2,8=2,9=2,10=2,28=1/1;
 7//1,2,3,16;
 1/18=20,19=15,26=3/3(2);
 2/9=110/2;
 99//99;
 2/9=110/2;
 3/5=43,7=202,11=2,25=1,30=1,71=1,74=-5,124=41/1,2,3;
 4/5=5,16=3,69=1/1;
 5/5=2,38=5/2;
 7//1,2,3,16;
 1/18=20,19=15,26=3/3(-5);
 2/9=110/2;
 6/7=2,8=2,9=2,10=2,19=2,28=1/1;
 99/9=1/99;
 -------
 C[C]C_1
 -------
 Symbolic Z-matrix:
 Charge =  0 Multiplicity = 3
 C                     0.80414   0.1701   -0.02717 
 C                     2.00061  -0.63347  -0.26742 
 C                     3.1902   -1.44644  -0.51048 
 H                     1.07014   1.18579   0.27685 
 H                     0.19372  -0.27437   0.76441 
 H                     0.19404   0.23359  -0.93299 
 H                     4.10107  -0.86754  -0.33731 
 H                     3.2062   -1.80729  -1.54303 
 H                     3.2061   -2.31493   0.15444 
 

 GradGradGradGradGradGradGradGradGradGradGradGradGradGradGradGradGradGrad
 Berny optimization.
 Initialization pass.
                           ----------------------------
                           !    Initial Parameters    !
                           ! (Angstroms and Degrees)  !
 --------------------------                            --------------------------
 ! Name  Definition              Value          Derivative Info.                !
 --------------------------------------------------------------------------------
 ! R1    R(1,2)                  1.4612         estimate D2E/DX2                !
 ! R2    R(1,4)                  1.0931         estimate D2E/DX2                !
 ! R3    R(1,5)                  1.094          estimate D2E/DX2                !
 ! R4    R(1,6)                  1.094          estimate D2E/DX2                !
 ! R5    R(2,3)                  1.4612         estimate D2E/DX2                !
 ! R6    R(3,7)                  1.0931         estimate D2E/DX2                !
 ! R7    R(3,8)                  1.0939         estimate D2E/DX2                !
 ! R8    R(3,9)                  1.0939         estimate D2E/DX2                !
 ! A1    A(2,1,4)              110.9458         estimate D2E/DX2                !
 ! A2    A(2,1,5)              110.6367         estimate D2E/DX2                !
 ! A3    A(2,1,6)              110.6367         estimate D2E/DX2                !
 ! A4    A(4,1,5)              108.1835         estimate D2E/DX2                !
 ! A5    A(4,1,6)              108.185          estimate D2E/DX2                !
 ! A6    A(5,1,6)              108.1516         estimate D2E/DX2                !
 ! A7    A(2,3,7)              110.9408         estimate D2E/DX2                !
 ! A8    A(2,3,8)              110.6373         estimate D2E/DX2                !
 ! A9    A(2,3,9)              110.6368         estimate D2E/DX2                !
 ! A10   A(7,3,8)              108.1832         estimate D2E/DX2                !
 ! A11   A(7,3,9)              108.1837         estimate D2E/DX2                !
 ! A12   A(8,3,9)              108.1578         estimate D2E/DX2                !
 ! A13   L(1,2,3,5,-1)         179.7618         estimate D2E/DX2                !
 ! A14   L(1,2,3,5,-2)         179.1678         estimate D2E/DX2                !
 ! D1    D(4,1,3,7)             -0.014          estimate D2E/DX2                !
 ! D2    D(4,1,3,8)           -120.167          estimate D2E/DX2                !
 ! D3    D(4,1,3,9)            120.1393         estimate D2E/DX2                !
 ! D4    D(5,1,3,7)           -120.1703         estimate D2E/DX2                !
 ! D5    D(5,1,3,8)            119.6767         estimate D2E/DX2                !
 ! D6    D(5,1,3,9)             -0.017          estimate D2E/DX2                !
 ! D7    D(6,1,3,7)            120.1442         estimate D2E/DX2                !
 ! D8    D(6,1,3,8)             -0.0088         estimate D2E/DX2                !
 ! D9    D(6,1,3,9)           -119.7025         estimate D2E/DX2                !
 --------------------------------------------------------------------------------
 Trust Radius=3.00D-01 FncErr=1.00D-07 GrdErr=1.00D-06 EigMax=2.50D+02 EigMin=1.00D-04
 Number of steps in this run=     41 maximum allowed number of steps=    100.
 GradGradGradGradGradGradGradGradGradGradGradGradGradGradGradGradGradGrad

                          Input orientation:                          
 ---------------------------------------------------------------------
 Center     Atomic      Atomic             Coordinates (Angstroms)
 Number     Number       Type             X           Y           Z
 ---------------------------------------------------------------------
      1          6           0        0.804140    0.170100   -0.027170
      2          6           0        2.000610   -0.633470   -0.267420
      3          6           0        3.190200   -1.446440   -0.510480
      4          1           0        1.070140    1.185790    0.276850
      5          1           0        0.193720   -0.274370    0.764410
      6          1           0        0.194040    0.233590   -0.932990
      7          1           0        4.101070   -0.867540   -0.337310
      8          1           0        3.206200   -1.807290   -1.543030
      9          1           0        3.206100   -2.314930    0.154440
 ---------------------------------------------------------------------
                    Distance matrix (angstroms):
                    1          2          3          4          5
     1  C    0.000000
     2  C    1.461159   0.000000
     3  C    2.922340   1.461206   0.000000
     4  H    1.093074   2.114642   3.470328   0.000000
     5  H    1.093968   2.111511   3.460923   1.771410   0.000000
     6  H    1.093967   2.111509   3.460923   1.771426   1.771776
     7  H    3.470249   2.114617   1.093068   3.712128   4.102807
     8  H    3.460895   2.111512   1.093905   4.102834   4.092574
     9  H    3.460891   2.111511   1.093913   4.102725   3.689225
                    6          7          8          9
     6  H    0.000000
     7  H    4.102707   0.000000
     8  H    3.689234   1.771351   0.000000
     9  H    4.092672   1.771363   1.771751   0.000000
 This structure is nearly, but not quite of a higher symmetry.
 Consider Symm=Loose if the higher symmetry is desired.
 Stoichiometry    C3H6(3)
 Framework group  C1[X(C3H6)]
 Deg. of freedom    21
 Full point group                 C1      NOp   1
 Largest Abelian subgroup         C1      NOp   1
 Largest concise Abelian subgroup C1      NOp   1
                         Standard orientation:                         
 ---------------------------------------------------------------------
 Center     Atomic      Atomic             Coordinates (Angstroms)
 Number     Number       Type             X           Y           Z
 ---------------------------------------------------------------------
      1          6           0       -1.419787   -0.065970    0.338879
      2          6           0        0.001250   -0.000998    0.005089
      3          6           0        1.419497    0.066219   -0.340136
      4          1           0       -1.562235   -0.275003    1.402281
      5          1           0       -1.914584   -0.856029   -0.233614
      6          1           0       -1.913779    0.882462    0.108202
      7          1           0        2.044398   -0.106850    0.539832
      8          1           0        1.670579    1.049230   -0.749129
      9          1           0        1.669859   -0.689311   -1.090562
 ---------------------------------------------------------------------
 Rotational constants (GHZ):          79.8905884           6.7326962           6.7325589
 Standard basis: def2SVPP (5D, 7F)
 There are    57 symmetry adapted cartesian basis functions of A   symmetry.
 There are    54 symmetry adapted basis functions of A   symmetry.
    54 basis functions,    99 primitive gaussians,    57 cartesian basis functions
    13 alpha electrons       11 beta electrons
       nuclear repulsion energy        67.5267201955 Hartrees.
 NAtoms=    9 NActive=    9 NUniq=    9 SFac= 1.00D+00 NAtFMM=   60 NAOKFM=F Big=F
 Integral buffers will be    131072 words long.
 Raffenetti 2 integral format.
 Two-electron integral symmetry is turned on.
 Nuclear repulsion after empirical dispersion term =       67.5196438658 Hartrees.
 One-electron integrals computed using PRISM.
   1 Symmetry operations used in ECPInt.
 ECPInt:  NShTT=     465 NPrTT=    1887 LenC2=     466 LenP2D=    1649.
 LDataN:  DoStor=T MaxTD1= 4 Len=   56
 NBasis=    54 RedAO= T EigKep=  1.57D-03  NBF=    54
 NBsUse=    54 1.00D-06 EigRej= -1.00D+00 NBFU=    54
 ExpMin= 1.22D-01 ExpMax= 1.24D+03 ExpMxC= 1.86D+02 IAcc=3 IRadAn=         5 AccDes= 0.00D+00
 Harris functional with IExCor=  402 and IRadAn=       5 diagonalized for initial guess.
 HarFok:  IExCor=  402 AccDes= 0.00D+00 IRadAn=         5 IDoV= 1 UseB2=F ITyADJ=14
 ICtDFT=  3500011 ScaDFX=  1.000000  1.000000  1.000000  1.000000
 FoFCou: FMM=F IPFlag=           0 FMFlag=      100000 FMFlg1=           0
         NFxFlg=           0 DoJE=T BraDBF=F KetDBF=T FulRan=T
         wScrn=  0.000000 ICntrl=       500 IOpCl=  0 I1Cent=   200000004 NGrid=           0
         NMat0=    1 NMatS0=      1 NMatT0=    0 NMatD0=    1 NMtDS0=    0 NMtDT0=    0
 Petite list used in FoFCou.
 Initial guess <Sx>= 0.0000 <Sy>= 0.0000 <Sz>= 1.0000 <S**2>= 2.0000 S= 1.0000
 Keep R1 and R2 ints in memory in canonical form, NReq=16304564.
 Requested convergence on RMS density matrix=1.00D-08 within 128 cycles.
 Requested convergence on MAX density matrix=1.00D-06.
 Requested convergence on             energy=1.00D-06.
 No special actions if energy rises.
 Integral accuracy reduced to 1.0D-05 until final iterations.
 Initial convergence to 1.0D-05 achieved.  Increase integral accuracy.
 SCF Done:  E(UB3LYP) =  -117.694753184     A.U. after   13 cycles
            NFock= 13  Conv=0.43D-08     -V/T= 2.0103
 <Sx>= 0.0000 <Sy>= 0.0000 <Sz>= 1.0000 <S**2>= 2.0120 S= 1.0040
 <L.S>=  0.00000000000    
 Annihilation of the first spin contaminant:
 S**2 before annihilation     2.0120,   after     2.0001

 **********************************************************************

            Population analysis using the SCF Density.

 **********************************************************************

 Orbital symmetries:
 Alpha Orbitals:
       Occupied  (A) (A) (A) (A) (A) (A) (A) (A) (A) (A) (A) (A)
                 (A)
       Virtual   (A) (A) (A) (A) (A) (A) (A) (A) (A) (A) (A) (A)
                 (A) (A) (A) (A) (A) (A) (A) (A) (A) (A) (A) (A)
                 (A) (A) (A) (A) (A) (A) (A) (A) (A) (A) (A) (A)
                 (A) (A) (A) (A) (A)
 Beta  Orbitals:
       Occupied  (A) (A) (A) (A) (A) (A) (A) (A) (A) (A) (A)
       Virtual   (A) (A) (A) (A) (A) (A) (A) (A) (A) (A) (A) (A)
                 (A) (A) (A) (A) (A) (A) (A) (A) (A) (A) (A) (A)
                 (A) (A) (A) (A) (A) (A) (A) (A) (A) (A) (A) (A)
                 (A) (A) (A) (A) (A) (A) (A)
 The electronic state is 3-A.
 Alpha  occ. eigenvalues --  -10.18840 -10.18838 -10.17740  -0.76984  -0.70829
 Alpha  occ. eigenvalues --   -0.53347  -0.43933  -0.43930  -0.41121  -0.40655
 Alpha  occ. eigenvalues --   -0.40637  -0.17398  -0.17373
 Alpha virt. eigenvalues --    0.05578   0.09429   0.13826   0.13860   0.14013
 Alpha virt. eigenvalues --    0.14015   0.18078   0.26336   0.36260   0.47490
 Alpha virt. eigenvalues --    0.47524   0.48839   0.48849   0.60067   0.62021
 Alpha virt. eigenvalues --    0.62131   0.67826   0.68419   0.68624   0.68682
 Alpha virt. eigenvalues --    0.70950   0.70991   0.71951   0.79618   1.00784
 Alpha virt. eigenvalues --    1.13361   1.37563   1.37693   1.63434   1.63673
 Alpha virt. eigenvalues --    1.81059   1.81367   1.90343   2.04437   2.04619
 Alpha virt. eigenvalues --    2.18209   2.18286   2.24522   2.47536   2.47637
 Alpha virt. eigenvalues --    2.96880
  Beta  occ. eigenvalues --  -10.19064 -10.19061 -10.14921  -0.73990  -0.70318
  Beta  occ. eigenvalues --   -0.48816  -0.41868  -0.41860  -0.39890  -0.39801
  Beta  occ. eigenvalues --   -0.39785
  Beta virt. eigenvalues --   -0.01030  -0.01001   0.06246   0.09618   0.14377
  Beta virt. eigenvalues --    0.14378   0.14443   0.14480   0.21720   0.26813
  Beta virt. eigenvalues --    0.37773   0.48429   0.48469   0.52480   0.52542
  Beta virt. eigenvalues --    0.63630   0.66760   0.66799   0.68156   0.68684
  Beta virt. eigenvalues --    0.69250   0.69332   0.71068   0.71108   0.73212
  Beta virt. eigenvalues --    0.80934   1.01753   1.14622   1.39883   1.40005
  Beta virt. eigenvalues --    1.72856   1.73163   1.84243   1.84620   1.92594
  Beta virt. eigenvalues --    2.05228   2.05399   2.19397   2.19474   2.24608
  Beta virt. eigenvalues --    2.51112   2.51204   2.99652
          Condensed to atoms (all electrons):
               1          2          3          4          5          6
     1  C    4.773946   0.443576  -0.101848   0.350937   0.350481   0.350482
     2  C    0.443576   5.504776   0.443558  -0.025988  -0.026586  -0.026586
     3  C   -0.101848   0.443558   4.773865   0.004295   0.004175   0.004175
     4  H    0.350937  -0.025988   0.004295   0.631229  -0.030085  -0.030083
     5  H    0.350481  -0.026586   0.004175  -0.030085   0.632565  -0.029933
     6  H    0.350482  -0.026586   0.004175  -0.030083  -0.029933   0.632560
     7  H    0.004295  -0.025989   0.350940   0.001592  -0.000584  -0.000584
     8  H    0.004175  -0.026576   0.350492  -0.000584  -0.000588   0.001696
     9  H    0.004175  -0.026578   0.350491  -0.000584   0.001696  -0.000588
               7          8          9
     1  C    0.004295   0.004175   0.004175
     2  C   -0.025989  -0.026576  -0.026578
     3  C    0.350940   0.350492   0.350491
     4  H    0.001592  -0.000584  -0.000584
     5  H   -0.000584  -0.000588   0.001696
     6  H   -0.000584   0.001696  -0.000588
     7  H    0.631230  -0.030081  -0.030081
     8  H   -0.030081   0.632534  -0.029926
     9  H   -0.030081  -0.029926   0.632535
          Atomic-Atomic Spin Densities.
               1          2          3          4          5          6
     1  C   -0.208245  -0.036316   0.010364   0.015523   0.015181   0.015183
     2  C   -0.036316   2.316618  -0.036321  -0.043724  -0.044157  -0.044157
     3  C    0.010364  -0.036321  -0.208215   0.000162   0.000091   0.000092
     4  H    0.015523  -0.043724   0.000162   0.129107  -0.018248  -0.018247
     5  H    0.015181  -0.044157   0.000091  -0.018248   0.130292  -0.018078
     6  H    0.015183  -0.044157   0.000092  -0.018247  -0.018078   0.130288
     7  H    0.000162  -0.043726   0.015528   0.002021  -0.000498  -0.000498
     8  H    0.000092  -0.044146   0.015179  -0.000498  -0.000503   0.002133
     9  H    0.000091  -0.044148   0.015179  -0.000498   0.002133  -0.000503
               7          8          9
     1  C    0.000162   0.000092   0.000091
     2  C   -0.043726  -0.044146  -0.044148
     3  C    0.015528   0.015179   0.015179
     4  H    0.002021  -0.000498  -0.000498
     5  H   -0.000498  -0.000503   0.002133
     6  H   -0.000498   0.002133  -0.000503
     7  H    0.129087  -0.018244  -0.018244
     8  H   -0.018244   0.130245  -0.018073
     9  H   -0.018244  -0.018073   0.130248
 Mulliken charges and spin densities:
               1          2
     1  C   -0.180220  -0.187964
     2  C   -0.233607   1.979923
     3  C   -0.180143  -0.187941
     4  H    0.099271   0.065598
     5  H    0.098860   0.066213
     6  H    0.098861   0.066212
     7  H    0.099262   0.065587
     8  H    0.098858   0.066185
     9  H    0.098858   0.066187
 Sum of Mulliken charges =   0.00000   2.00000
 Mulliken charges and spin densities with hydrogens summed into heavy atoms:
               1          2
     1  C    0.116772   0.010058
     2  C   -0.233607   1.979923
     3  C    0.116834   0.010018
 Electronic spatial extent (au):  <R**2>=            231.5984
 Charge=              0.0000 electrons
 Dipole moment (field-independent basis, Debye):
    X=             -0.0028    Y=              0.0023    Z=             -0.0118  Tot=              0.0124
 Quadrupole moment (field-independent basis, Debye-Ang):
   XX=            -19.1970   YY=            -20.3531   ZZ=            -20.2833
   XY=              0.0537   XZ=             -0.2755   YZ=             -0.0142
 Traceless Quadrupole moment (field-independent basis, Debye-Ang):
   XX=              0.7474   YY=             -0.4086   ZZ=             -0.3388
   XY=              0.0537   XZ=             -0.2755   YZ=             -0.0142
 Octapole moment (field-independent basis, Debye-Ang**2):
  XXX=              0.0526  YYY=              0.4569  ZZZ=              0.6200  XYY=             -0.1881
  XXY=             -0.0181  XXZ=              0.0914  XZZ=              0.1412  YZZ=             -0.4418
  YYZ=             -0.6957  XYZ=             -0.0677
 Hexadecapole moment (field-independent basis, Debye-Ang**3):
 XXXX=           -241.9022 YYYY=            -35.4760 ZZZZ=            -46.1236 XXXY=             -5.1340
 XXXZ=             26.3721 YYYX=             -4.5103 YYYZ=              1.0708 ZZZX=             23.2885
 ZZZY=              1.0833 XXYY=            -44.0521 XXZZ=            -46.5009 YYZZ=            -13.5910
 XXYZ=              0.4955 YYXZ=              7.7248 ZZXY=             -1.5273
 N-N= 6.751964386582D+01 E-N=-4.066712091503D+02  KE= 1.164898874693D+02
                          Isotropic Fermi Contact Couplings
        Atom                 a.u.       MegaHertz       Gauss      10(-4) cm-1
     1  C(13)             -0.08912     -50.09429     -17.87489     -16.70966
     2  C(13)              0.40443     227.32920      81.11671      75.82886
     3  C(13)             -0.08911     -50.08559     -17.87178     -16.70675
     4  H(1)               0.02992      66.87274      23.86186      22.30634
     5  H(1)               0.03006      67.18738      23.97413      22.41130
     6  H(1)               0.03006      67.18619      23.97370      22.41090
     7  H(1)               0.02992      66.86528      23.85919      22.30386
     8  H(1)               0.03005      67.16713      23.96690      22.40454
     9  H(1)               0.03005      67.16776      23.96713      22.40475
 --------------------------------------------------------
       Center         ----  Spin Dipole Couplings  ----
                      3XX-RR        3YY-RR        3ZZ-RR
 --------------------------------------------------------
     1   Atom        0.026319     -0.014307     -0.012012
     2   Atom       -1.033037      0.560719      0.472318
     3   Atom        0.026153     -0.014285     -0.011868
     4   Atom        0.015348     -0.017276      0.001928
     5   Atom        0.028668     -0.011007     -0.017661
     6   Atom        0.028635     -0.010892     -0.017744
     7   Atom        0.033750     -0.017957     -0.015794
     8   Atom        0.019169     -0.007443     -0.011726
     9   Atom        0.019143     -0.013756     -0.005387
 --------------------------------------------------------
                        XY            XZ            YZ
 --------------------------------------------------------
     1   Atom        0.001860     -0.009554     -0.000465
     2   Atom       -0.074341      0.381857      0.017889
     3   Atom        0.001912     -0.009816     -0.000490
     4   Atom        0.004963     -0.025321     -0.003915
     5   Atom        0.017735      0.003028      0.001481
     6   Atom       -0.017597     -0.003919      0.001282
     7   Atom       -0.001893      0.009533     -0.000446
     8   Atom        0.019246     -0.015366     -0.008169
     9   Atom       -0.012030     -0.021501      0.007351
 --------------------------------------------------------


 ---------------------------------------------------------------------------------
              Anisotropic Spin Dipole Couplings in Principal Axis System
 ---------------------------------------------------------------------------------

       Atom             a.u.   MegaHertz   Gauss  10(-4) cm-1        Axes

              Baa    -0.0144    -1.932    -0.689    -0.644  0.0014  0.9804  0.1970
     1 C(13)  Bbb    -0.0143    -1.913    -0.683    -0.638  0.2333 -0.1919  0.9533
              Bcc     0.0287     3.845     1.372     1.283  0.9724  0.0446 -0.2290
 
              Baa    -1.1278  -151.343   -54.003   -50.483  0.9716  0.0452 -0.2324
     2 C(13)  Bbb     0.5636    75.633    26.988    25.228  0.2367 -0.1860  0.9536
              Bcc     0.5642    75.711    27.015    25.254  0.0001  0.9815  0.1914
 
              Baa    -0.0144    -1.930    -0.689    -0.644  0.0010  0.9808  0.1952
     3 C(13)  Bbb    -0.0142    -1.912    -0.682    -0.638  0.2403 -0.1897  0.9520
              Bcc     0.0286     3.842     1.371     1.281  0.9707  0.0459 -0.2358
 
              Baa    -0.0180    -9.627    -3.435    -3.211  0.0005  0.9812  0.1929
     4 H(1)   Bbb    -0.0175    -9.361    -3.340    -3.123  0.6172 -0.1521  0.7720
              Bcc     0.0356    18.989     6.776     6.334  0.7868  0.1187 -0.6057
 
              Baa    -0.0181    -9.674    -3.452    -3.227  0.1879 -0.6253  0.7574
     5 H(1)   Bbb    -0.0175    -9.348    -3.335    -3.118 -0.3092  0.6943  0.6499
              Bcc     0.0357    19.022     6.788     6.345  0.9322  0.3563  0.0629
 
              Baa    -0.0181    -9.674    -3.452    -3.227  0.1883  0.2917  0.9378
     6 H(1)   Bbb    -0.0175    -9.348    -3.335    -3.118  0.3100  0.8884 -0.3386
              Bcc     0.0357    19.022     6.788     6.345  0.9319 -0.3544 -0.0769
 
              Baa    -0.0180    -9.628    -3.435    -3.212  0.0004  0.9813  0.1926
     7 H(1)   Bbb    -0.0175    -9.362    -3.341    -3.123 -0.1862 -0.1892  0.9641
              Bcc     0.0356    18.990     6.776     6.334  0.9825 -0.0363  0.1826
 
              Baa    -0.0181    -9.675    -3.452    -3.227  0.2302  0.2943  0.9276
     8 H(1)   Bbb    -0.0175    -9.348    -3.336    -3.118 -0.5063  0.8502 -0.1441
              Bcc     0.0357    19.022     6.788     6.345  0.8310  0.4365 -0.3448
 
              Baa    -0.0181    -9.675    -3.452    -3.227  0.2299 -0.6234  0.7473
     9 H(1)   Bbb    -0.0175    -9.348    -3.336    -3.118  0.5070  0.7322  0.4548
              Bcc     0.0357    19.022     6.788     6.345  0.8307 -0.2743 -0.4844
 

 ---------------------------------------------------------------------------------

   1 Symmetry operations used in ECPInt.
 ECPInt:  NShTT=     465 NPrTT=    1887 LenC2=     466 LenP2D=    1649.
 LDataN:  DoStor=T MaxTD1= 5 Len=  102
 Calling FoFJK, ICntrl=      2127 FMM=F ISym2X=0 I1Cent= 0 IOpClX= 1 NMat=1 NMatS=1 NMatT=0.
 ***** Axes restored to original set *****
 -------------------------------------------------------------------
 Center     Atomic                   Forces (Hartrees/Bohr)
 Number     Number              X              Y              Z
 -------------------------------------------------------------------
      1        6           0.018575500   -0.013821126   -0.004130977
      2        6           0.000725736    0.000944841    0.000281795
      3        6          -0.019808071    0.012233907    0.003662082
      4        1          -0.000824282    0.012316845    0.003684914
      5        1          -0.009517629   -0.001542949    0.008156756
      6        1          -0.009514587    0.003193716   -0.007666950
      7        1           0.012400384    0.003361372    0.001006511
      8        1           0.003981623   -0.005971275   -0.010434369
      9        1           0.003981326   -0.010715331    0.005440237
 -------------------------------------------------------------------
 Cartesian Forces:  Max     0.019808071 RMS     0.008780826

 GradGradGradGradGradGradGradGradGradGradGradGradGradGradGradGradGradGrad
 Berny optimization.
 FormGI is forming the generalized inverse of G from B-inverse, IUseBI=4.
 Internal  Forces:  Max     0.012273104 RMS     0.005923192
 Search for a local minimum.
 Step number   1 out of a maximum of   41
 All quantities printed in internal units (Hartrees-Bohrs-Radians)
 Mixed Optimization -- RFO/linear search
 Second derivative matrix not updated -- first step.
 ITU=  0
     Eigenvalues ---    0.00230   0.00999   0.01195   0.05447   0.05513
     Eigenvalues ---    0.05809   0.06673   0.16000   0.16000   0.16000
     Eigenvalues ---    0.16000   0.16000   0.16000   0.34358   0.34358
     Eigenvalues ---    0.34364   0.34365   0.34460   0.34461   0.36814
     Eigenvalues ---    0.36820
 RFO step:  Lambda=-3.85217659D-03 EMin= 2.30000000D-03
 Linear search not attempted -- first point.
 Iteration  1 RMS(Cart)=  0.02964079 RMS(Int)=  0.00036398
 Iteration  2 RMS(Cart)=  0.00031638 RMS(Int)=  0.00020008
 Iteration  3 RMS(Cart)=  0.00000019 RMS(Int)=  0.00020008
 Variable       Old X    -DE/DX   Delta X   Delta X   Delta X     New X
                                 (Linear)    (Quad)   (Total)
    R1        2.76119   0.00114   0.00000   0.00305   0.00305   2.76424
    R2        2.06561   0.01227   0.00000   0.03521   0.03521   2.10082
    R3        2.06730   0.01184   0.00000   0.03408   0.03408   2.10138
    R4        2.06730   0.01184   0.00000   0.03408   0.03408   2.10138
    R5        2.76128   0.00111   0.00000   0.00299   0.00299   2.76427
    R6        2.06560   0.01227   0.00000   0.03522   0.03522   2.10082
    R7        2.06718   0.01188   0.00000   0.03418   0.03418   2.10136
    R8        2.06720   0.01187   0.00000   0.03416   0.03416   2.10136
    A1        1.93637   0.00358   0.00000   0.02137   0.02100   1.95737
    A2        1.93097   0.00450   0.00000   0.02770   0.02746   1.95843
    A3        1.93097   0.00447   0.00000   0.02756   0.02722   1.95819
    A4        1.88816  -0.00430   0.00000  -0.02676  -0.02701   1.86115
    A5        1.88818  -0.00436   0.00000  -0.02708  -0.02750   1.86069
    A6        1.88760  -0.00446   0.00000  -0.02629  -0.02649   1.86111
    A7        1.93628   0.00359   0.00000   0.02143   0.02106   1.95734
    A8        1.93099   0.00447   0.00000   0.02753   0.02719   1.95817
    A9        1.93098   0.00450   0.00000   0.02770   0.02745   1.95843
   A10        1.88815  -0.00436   0.00000  -0.02705  -0.02747   1.86068
   A11        1.88816  -0.00430   0.00000  -0.02675  -0.02700   1.86116
   A12        1.88771  -0.00447   0.00000  -0.02635  -0.02655   1.86116
   A13        3.13743  -0.00037   0.00000  -0.01873  -0.01862   3.11881
   A14        3.12707  -0.00033   0.00000  -0.01659  -0.01658   3.11049
    D1       -0.00024   0.00000   0.00000  -0.00000  -0.00000  -0.00024
    D2       -2.09731   0.00003   0.00000  -0.00451  -0.00461  -2.10192
    D3        2.09683  -0.00007   0.00000  -0.00190  -0.00194   2.09489
    D4       -2.09737   0.00008   0.00000   0.00195   0.00198  -2.09539
    D5        2.08875   0.00011   0.00000  -0.00256  -0.00263   2.08612
    D6       -0.00030   0.00000   0.00000   0.00004   0.00004  -0.00025
    D7        2.09691  -0.00003   0.00000   0.00446   0.00456   2.10147
    D8       -0.00015  -0.00000   0.00000  -0.00005  -0.00005  -0.00021
    D9       -2.08920  -0.00011   0.00000   0.00255   0.00262  -2.08658
         Item               Value     Threshold  Converged?
 Maximum Force            0.012273     0.000450     NO 
 RMS     Force            0.005923     0.000300     NO 
 Maximum Displacement     0.064605     0.001800     NO 
 RMS     Displacement     0.029687     0.001200     NO 
 Predicted change in Energy=-1.956899D-03
 GradGradGradGradGradGradGradGradGradGradGradGradGradGradGradGradGradGrad

                          Input orientation:                          
 ---------------------------------------------------------------------
 Center     Atomic      Atomic             Coordinates (Angstroms)
 Number     Number       Type             X           Y           Z
 ---------------------------------------------------------------------
      1          6           0        0.802757    0.170854   -0.027552
      2          6           0        2.007443   -0.621591   -0.273461
      3          6           0        3.191246   -1.447290   -0.511337
      4          1           0        1.041612    1.210357    0.285936
      5          1           0        0.168838   -0.265949    0.774881
      6          1           0        0.160875    0.251172   -0.932029
      7          1           0        4.135257   -0.885427   -0.340913
      8          1           0        3.233366   -1.830614   -1.554320
      9          1           0        3.224826   -2.336072    0.156094
 ---------------------------------------------------------------------
                    Distance matrix (angstroms):
                    1          2          3          4          5
     1  C    0.000000
     2  C    1.462774   0.000000
     3  C    2.925290   1.462790   0.000000
     4  H    1.111707   2.145178   3.509937   0.000000
     5  H    1.112002   2.146153   3.490685   1.783334   0.000000
     6  H    1.112000   2.145983   3.499272   1.783024   1.783542
     7  H    3.509912   2.145170   1.111706   3.788917   4.166682
     8  H    3.499251   2.145978   1.111991   4.175863   4.155080
     9  H    3.490677   2.146156   1.111992   4.166586   3.742642
                    6          7          8          9
     6  H    0.000000
     7  H    4.175762   0.000000
     8  H    3.763147   1.783015   0.000000
     9  H    4.155194   1.783332   1.783558   0.000000
 Stoichiometry    C3H6(3)
 Framework group  C1[X(C3H6)]
 Deg. of freedom    21
 Full point group                 C1      NOp   1
 Largest Abelian subgroup         C1      NOp   1
 Largest concise Abelian subgroup C1      NOp   1
                         Standard orientation:                         
 ---------------------------------------------------------------------
 Center     Atomic      Atomic             Coordinates (Angstroms)
 Number     Number       Type             X           Y           Z
 ---------------------------------------------------------------------
      1          6           0       -1.462641   -0.003257   -0.001622
      2          6           0       -0.000003    0.014647    0.007373
      3          6           0        1.462649   -0.003262   -0.001626
      4          1           0       -1.894467    0.623641    0.808573
      5          1           0       -1.871321   -1.028141    0.136737
      6          1           0       -1.881581    0.380099   -0.957693
      7          1           0        1.894450    0.623839    0.808424
      8          1           0        1.881566    0.379895   -0.957777
      9          1           0        1.871321   -1.028103    0.136990
 ---------------------------------------------------------------------
 Rotational constants (GHZ):          78.7989040           6.6517069           6.6513588
 Standard basis: def2SVPP (5D, 7F)
 There are    57 symmetry adapted cartesian basis functions of A   symmetry.
 There are    54 symmetry adapted basis functions of A   symmetry.
    54 basis functions,    99 primitive gaussians,    57 cartesian basis functions
    13 alpha electrons       11 beta electrons
       nuclear repulsion energy        66.9777213177 Hartrees.
 NAtoms=    9 NActive=    9 NUniq=    9 SFac= 1.00D+00 NAtFMM=   60 NAOKFM=F Big=F
 Integral buffers will be    131072 words long.
 Raffenetti 2 integral format.
 Two-electron integral symmetry is turned on.
 Nuclear repulsion after empirical dispersion term =       66.9706996611 Hartrees.
 One-electron integrals computed using PRISM.
   1 Symmetry operations used in ECPInt.
 ECPInt:  NShTT=     465 NPrTT=    1887 LenC2=     466 LenP2D=    1645.
 LDataN:  DoStor=T MaxTD1= 4 Len=   56
 NBasis=    54 RedAO= T EigKep=  1.67D-03  NBF=    54
 NBsUse=    54 1.00D-06 EigRej= -1.00D+00 NBFU=    54
 Initial guess from the checkpoint file:  "/home/software/g16tmp/Gau-42403.chk"
 B after Tr=     0.000000   -0.000000   -0.000000
         Rot=    0.903521    0.411632    0.115921   -0.027781 Ang=  50.75 deg.
 Initial guess <Sx>= 0.0000 <Sy>= 0.0000 <Sz>= 1.0000 <S**2>= 2.0122 S= 1.0040
 ExpMin= 1.22D-01 ExpMax= 1.24D+03 ExpMxC= 1.86D+02 IAcc=3 IRadAn=         5 AccDes= 0.00D+00
 Harris functional with IExCor=  402 and IRadAn=       5 diagonalized for initial guess.
 HarFok:  IExCor=  402 AccDes= 0.00D+00 IRadAn=         5 IDoV= 1 UseB2=F ITyADJ=14
 ICtDFT=  3500011 ScaDFX=  1.000000  1.000000  1.000000  1.000000
 FoFCou: FMM=F IPFlag=           0 FMFlag=      100000 FMFlg1=           0
         NFxFlg=           0 DoJE=T BraDBF=F KetDBF=T FulRan=T
         wScrn=  0.000000 ICntrl=       500 IOpCl=  0 I1Cent=   200000004 NGrid=           0
         NMat0=    1 NMatS0=      1 NMatT0=    0 NMatD0=    1 NMtDS0=    0 NMtDT0=    0
 Petite list used in FoFCou.
 Keep R1 and R2 ints in memory in canonical form, NReq=16304564.
 Requested convergence on RMS density matrix=1.00D-08 within 128 cycles.
 Requested convergence on MAX density matrix=1.00D-06.
 Requested convergence on             energy=1.00D-06.
 No special actions if energy rises.
 Integral accuracy reduced to 1.0D-05 until final iterations.
 Initial convergence to 1.0D-05 achieved.  Increase integral accuracy.
 SCF Done:  E(UB3LYP) =  -117.696886519     A.U. after   11 cycles
            NFock= 11  Conv=0.78D-08     -V/T= 2.0117
 <Sx>= 0.0000 <Sy>= 0.0000 <Sz>= 1.0000 <S**2>= 2.0124 S= 1.0041
 <L.S>=  0.00000000000    
 Annihilation of the first spin contaminant:
 S**2 before annihilation     2.0124,   after     2.0001
   1 Symmetry operations used in ECPInt.
 ECPInt:  NShTT=     465 NPrTT=    1887 LenC2=     466 LenP2D=    1645.
 LDataN:  DoStor=T MaxTD1= 5 Len=  102
 Calling FoFJK, ICntrl=      2127 FMM=F ISym2X=0 I1Cent= 0 IOpClX= 1 NMat=1 NMatS=1 NMatT=0.
 ***** Axes restored to original set *****
 -------------------------------------------------------------------
 Center     Atomic                   Forces (Hartrees/Bohr)
 Number     Number              X              Y              Z
 -------------------------------------------------------------------
      1        6           0.006728373   -0.005622437   -0.001350984
      2        6           0.001069844    0.001690892   -0.000415861
      3        6          -0.007692902    0.004158897    0.001570870
      4        1          -0.000546699    0.000866626    0.000291175
      5        1          -0.001191908    0.000363117    0.000569334
      6        1          -0.001044302    0.000511053   -0.000208988
      7        1           0.001044567   -0.000212224   -0.000030688
      8        1           0.000753723   -0.000710962   -0.000575742
      9        1           0.000879304   -0.001044961    0.000150885
 -------------------------------------------------------------------
 Cartesian Forces:  Max     0.007692902 RMS     0.002514154

 GradGradGradGradGradGradGradGradGradGradGradGradGradGradGradGradGradGrad
 Berny optimization.
 Using GEDIIS/GDIIS optimizer.
 FormGI is forming the generalized inverse of G from B-inverse, IUseBI=4.
 Internal  Forces:  Max     0.005476760 RMS     0.001589088
 Search for a local minimum.
 Step number   2 out of a maximum of   41
 All quantities printed in internal units (Hartrees-Bohrs-Radians)
 Mixed Optimization -- RFO/linear search
 Update second derivatives using D2CorX and points    1    2
 DE= -2.13D-03 DEPred=-1.96D-03 R= 1.09D+00
 TightC=F SS=  1.41D+00  RLast= 1.27D-01 DXNew= 5.0454D-01 3.8054D-01
 Trust test= 1.09D+00 RLast= 1.27D-01 DXMaxT set to 3.81D-01
 ITU=  1  0
 Use linear search instead of GDIIS.
     Eigenvalues ---    0.00230   0.00939   0.01173   0.05168   0.05259
     Eigenvalues ---    0.05585   0.06518   0.14110   0.16000   0.16000
     Eigenvalues ---    0.16000   0.16000   0.16008   0.30427   0.34359
     Eigenvalues ---    0.34361   0.34365   0.34428   0.34460   0.36817
     Eigenvalues ---    0.43689
 RFO step:  Lambda=-7.13242334D-04 EMin= 2.30000000D-03
 Quartic linear search produced a step of  0.14567.
 Iteration  1 RMS(Cart)=  0.07379217 RMS(Int)=  0.00447978
 Iteration  2 RMS(Cart)=  0.00790646 RMS(Int)=  0.00085746
 Iteration  3 RMS(Cart)=  0.00002388 RMS(Int)=  0.00085725
 Iteration  4 RMS(Cart)=  0.00000002 RMS(Int)=  0.00085725
 Variable       Old X    -DE/DX   Delta X   Delta X   Delta X     New X
                                 (Linear)    (Quad)   (Total)
    R1        2.76424  -0.00547   0.00044  -0.01687  -0.01642   2.74782
    R2        2.10082   0.00077   0.00513   0.00377   0.00890   2.10972
    R3        2.10138   0.00095   0.00496   0.00434   0.00930   2.11068
    R4        2.10138   0.00081   0.00496   0.00386   0.00882   2.11020
    R5        2.76427  -0.00548   0.00044  -0.01688  -0.01645   2.74782
    R6        2.10082   0.00078   0.00513   0.00377   0.00890   2.10972
    R7        2.10136   0.00081   0.00498   0.00387   0.00885   2.11021
    R8        2.10136   0.00095   0.00498   0.00433   0.00931   2.11067
    A1        1.95737   0.00049   0.00306   0.00433   0.00646   1.96383
    A2        1.95843   0.00119   0.00400   0.00930   0.01423   1.97266
    A3        1.95819   0.00077   0.00396   0.00666   0.01015   1.96834
    A4        1.86115  -0.00081  -0.00393  -0.00704  -0.01067   1.85048
    A5        1.86069  -0.00110  -0.00401  -0.00849  -0.01425   1.84644
    A6        1.86111  -0.00078  -0.00386  -0.00669  -0.00917   1.85194
    A7        1.95734   0.00049   0.00307   0.00434   0.00647   1.96381
    A8        1.95817   0.00077   0.00396   0.00666   0.01015   1.96832
    A9        1.95843   0.00120   0.00400   0.00939   0.01430   1.97273
   A10        1.86068  -0.00110  -0.00400  -0.00849  -0.01425   1.84643
   A11        1.86116  -0.00081  -0.00393  -0.00707  -0.01070   1.85046
   A12        1.86116  -0.00079  -0.00387  -0.00674  -0.00922   1.85193
   A13        3.11881  -0.00197  -0.00271  -0.17249  -0.17355   2.94526
   A14        3.11049  -0.00071  -0.00241  -0.06126  -0.06350   3.04699
    D1       -0.00024  -0.00000  -0.00000  -0.00006  -0.00006  -0.00030
    D2       -2.10192  -0.00019  -0.00067  -0.05851  -0.06049  -2.16241
    D3        2.09489  -0.00008  -0.00028  -0.02023  -0.02074   2.07415
    D4       -2.09539   0.00008   0.00029   0.02016   0.02067  -2.07472
    D5        2.08612  -0.00011  -0.00038  -0.03829  -0.03977   2.04635
    D6       -0.00025   0.00000   0.00001  -0.00002  -0.00002  -0.00027
    D7        2.10147   0.00019   0.00066   0.05841   0.06039   2.16186
    D8       -0.00021   0.00000  -0.00001  -0.00004  -0.00004  -0.00025
    D9       -2.08658   0.00011   0.00038   0.03824   0.03971  -2.04687
         Item               Value     Threshold  Converged?
 Maximum Force            0.005477     0.000450     NO 
 RMS     Force            0.001589     0.000300     NO 
 Maximum Displacement     0.196144     0.001800     NO 
 RMS     Displacement     0.073194     0.001200     NO 
 Predicted change in Energy=-3.917371D-04
 GradGradGradGradGradGradGradGradGradGradGradGradGradGradGradGradGradGrad

                          Input orientation:                          
 ---------------------------------------------------------------------
 Center     Atomic      Atomic             Coordinates (Angstroms)
 Number     Number       Type             X           Y           Z
 ---------------------------------------------------------------------
      1          6           0        0.819524    0.168904   -0.035289
      2          6           0        2.063289   -0.517796   -0.344887
      3          6           0        3.181788   -1.431476   -0.513745
      4          1           0        0.984583    1.217924    0.309239
      5          1           0        0.233154   -0.332271    0.772491
      6          1           0        0.135487    0.241980   -0.914892
      7          1           0        4.167400   -0.938266   -0.335698
      8          1           0        3.238098   -1.860274   -1.543272
      9          1           0        3.142898   -2.303285    0.183353
 ---------------------------------------------------------------------
                    Distance matrix (angstroms):
                    1          2          3          4          5
     1  C    0.000000
     2  C    1.454083   0.000000
     3  C    2.893169   1.454086   0.000000
     4  H    1.116418   2.145743   3.538973   0.000000
     5  H    1.116922   2.152289   3.399573   1.783916   0.000000
     6  H    1.116668   2.149089   3.498760   1.780991   1.785094
     7  H    3.538975   2.145732   1.116418   3.898131   4.132023
     8  H    3.498725   2.149081   1.116676   4.240923   4.089895
     9  H    3.399645   2.152340   1.116919   4.131959   3.563508
                    6          7          8          9
     6  H    0.000000
     7  H    4.240846   0.000000
     8  H    3.800069   1.780994   0.000000
     9  H    4.090115   1.783899   1.785093   0.000000
 Stoichiometry    C3H6(3)
 Framework group  C1[X(C3H6)]
 Deg. of freedom    21
 Full point group                 C1      NOp   1
 Largest Abelian subgroup         C1      NOp   1
 Largest concise Abelian subgroup C1      NOp   1
                         Standard orientation:                         
 ---------------------------------------------------------------------
 Center     Atomic      Atomic             Coordinates (Angstroms)
 Number     Number       Type             X           Y           Z
 ---------------------------------------------------------------------
      1          6           0       -1.446586   -0.026673   -0.001765
      2          6           0       -0.000003    0.120537    0.007384
      3          6           0        1.446583   -0.026676   -0.001764
      4          1           0       -1.949065    0.641604    0.738038
      5          1           0       -1.781714   -1.063826    0.242198
      6          1           0       -1.900059    0.220629   -0.991792
      7          1           0        1.949066    0.641823    0.737836
      8          1           0        1.900011    0.220384   -0.991880
      9          1           0        1.781794   -1.063735    0.242471
 ---------------------------------------------------------------------
 Rotational constants (GHZ):          76.6164665           6.7604816           6.7426792
 Standard basis: def2SVPP (5D, 7F)
 There are    57 symmetry adapted cartesian basis functions of A   symmetry.
 There are    54 symmetry adapted basis functions of A   symmetry.
    54 basis functions,    99 primitive gaussians,    57 cartesian basis functions
    13 alpha electrons       11 beta electrons
       nuclear repulsion energy        67.1573577016 Hartrees.
 NAtoms=    9 NActive=    9 NUniq=    9 SFac= 1.00D+00 NAtFMM=   60 NAOKFM=F Big=F
 Integral buffers will be    131072 words long.
 Raffenetti 2 integral format.
 Two-electron integral symmetry is turned on.
 Nuclear repulsion after empirical dispersion term =       67.1503070484 Hartrees.
 One-electron integrals computed using PRISM.
   1 Symmetry operations used in ECPInt.
 ECPInt:  NShTT=     465 NPrTT=    1887 LenC2=     466 LenP2D=    1647.
 LDataN:  DoStor=T MaxTD1= 4 Len=   56
 NBasis=    54 RedAO= T EigKep=  1.83D-03  NBF=    54
 NBsUse=    54 1.00D-06 EigRej= -1.00D+00 NBFU=    54
 Initial guess from the checkpoint file:  "/home/software/g16tmp/Gau-42403.chk"
 B after Tr=    -0.000000   -0.000000   -0.000000
         Rot=    0.998647    0.052005   -0.000001   -0.000002 Ang=   5.96 deg.
 Initial guess <Sx>= 0.0000 <Sy>= 0.0000 <Sz>= 1.0000 <S**2>= 2.0122 S= 1.0041
 ExpMin= 1.22D-01 ExpMax= 1.24D+03 ExpMxC= 1.86D+02 IAcc=3 IRadAn=         5 AccDes= 0.00D+00
 Harris functional with IExCor=  402 and IRadAn=       5 diagonalized for initial guess.
 HarFok:  IExCor=  402 AccDes= 0.00D+00 IRadAn=         5 IDoV= 1 UseB2=F ITyADJ=14
 ICtDFT=  3500011 ScaDFX=  1.000000  1.000000  1.000000  1.000000
 FoFCou: FMM=F IPFlag=           0 FMFlag=      100000 FMFlg1=           0
         NFxFlg=           0 DoJE=T BraDBF=F KetDBF=T FulRan=T
         wScrn=  0.000000 ICntrl=       500 IOpCl=  0 I1Cent=   200000004 NGrid=           0
         NMat0=    1 NMatS0=      1 NMatT0=    0 NMatD0=    1 NMtDS0=    0 NMtDT0=    0
 Petite list used in FoFCou.
 Keep R1 and R2 ints in memory in canonical form, NReq=16304564.
 Requested convergence on RMS density matrix=1.00D-08 within 128 cycles.
 Requested convergence on MAX density matrix=1.00D-06.
 Requested convergence on             energy=1.00D-06.
 No special actions if energy rises.
 Integral accuracy reduced to 1.0D-05 until final iterations.
 Initial convergence to 1.0D-05 achieved.  Increase integral accuracy.
 SCF Done:  E(UB3LYP) =  -117.698807969     A.U. after   11 cycles
            NFock= 11  Conv=0.94D-08     -V/T= 2.0118
 <Sx>= 0.0000 <Sy>= 0.0000 <Sz>= 1.0000 <S**2>= 2.0115 S= 1.0038
 <L.S>=  0.00000000000    
 Annihilation of the first spin contaminant:
 S**2 before annihilation     2.0115,   after     2.0001
   1 Symmetry operations used in ECPInt.
 ECPInt:  NShTT=     465 NPrTT=    1887 LenC2=     466 LenP2D=    1647.
 LDataN:  DoStor=T MaxTD1= 5 Len=  102
 Calling FoFJK, ICntrl=      2127 FMM=F ISym2X=0 I1Cent= 0 IOpClX= 1 NMat=1 NMatS=1 NMatT=0.
 ***** Axes restored to original set *****
 -------------------------------------------------------------------
 Center     Atomic                   Forces (Hartrees/Bohr)
 Number     Number              X              Y              Z
 -------------------------------------------------------------------
      1        6          -0.002968566   -0.003715202    0.002661496
      2        6           0.005766545    0.010289200   -0.005960938
      3        6          -0.001643709   -0.004606517    0.002384182
      4        1           0.000537980   -0.002430489   -0.000642700
      5        1          -0.000028711    0.000510670   -0.000538033
      6        1           0.001127230   -0.000562567    0.001187437
      7        1          -0.002548537   -0.000339757   -0.000017591
      8        1          -0.000561887    0.000583471    0.001533596
      9        1           0.000319656    0.000271191   -0.000607449
 -------------------------------------------------------------------
 Cartesian Forces:  Max     0.010289200 RMS     0.003068839

 GradGradGradGradGradGradGradGradGradGradGradGradGradGradGradGradGradGrad
 Berny optimization.
 Using GEDIIS/GDIIS optimizer.
 FormGI is forming the generalized inverse of G from B-inverse, IUseBI=4.
 Internal  Forces:  Max     0.014141441 RMS     0.002917180
 Search for a local minimum.
 Step number   3 out of a maximum of   41
 All quantities printed in internal units (Hartrees-Bohrs-Radians)
 Mixed Optimization -- RFO/linear search
 Update second derivatives using D2CorX and points    1    2    3
 DE= -1.92D-03 DEPred=-3.92D-04 R= 4.90D+00
 TightC=F SS=  1.41D+00  RLast= 2.19D-01 DXNew= 6.3998D-01 6.5729D-01
 Trust test= 4.90D+00 RLast= 2.19D-01 DXMaxT set to 6.40D-01
 ITU=  1  1  0
 Use linear search instead of GDIIS.
     Eigenvalues ---   -0.07369   0.00230   0.01109   0.02373   0.04772
     Eigenvalues ---    0.05374   0.05547   0.05710   0.15875   0.16000
     Eigenvalues ---    0.16000   0.16000   0.16000   0.20755   0.33411
     Eigenvalues ---    0.34309   0.34361   0.34362   0.34398   0.34460
     Eigenvalues ---    0.36807
 RFO step:  Lambda=-7.69406285D-02 EMin=-7.36894910D-02
 I=     1 Eig=   -7.37D-02 Dot1= -9.48D-03
 I=     1 Stepn= -6.00D-01 RXN=   6.00D-01 EDone=F
 Mixed    1 eigenvectors in step.  Raw Step.Grad=  9.48D-03.
 RFO eigenvector is Hessian eigenvector with negative curvature.
 Taking step of  6.00D-01 in eigenvector direction(s).  Step.Grad= -6.90D-04.
 Skip linear search -- no minimum in search direction.
 Iteration  1 RMS(Cart)=  0.11609668 RMS(Int)=  0.05343380
 Iteration  2 RMS(Cart)=  0.08696718 RMS(Int)=  0.01283894
 Iteration  3 RMS(Cart)=  0.03018996 RMS(Int)=  0.00204295
 Iteration  4 RMS(Cart)=  0.00056689 RMS(Int)=  0.00200793
 Iteration  5 RMS(Cart)=  0.00000079 RMS(Int)=  0.00200793
 Variable       Old X    -DE/DX   Delta X   Delta X   Delta X     New X
                                 (Linear)    (Quad)   (Total)
    R1        2.74782  -0.00126   0.00000  -0.03932  -0.03932   2.70850
    R2        2.10972  -0.00240   0.00000  -0.06196  -0.06196   2.04776
    R3        2.11068  -0.00055   0.00000  -0.04530  -0.04529   2.06539
    R4        2.11020  -0.00166   0.00000  -0.05457  -0.05457   2.05562
    R5        2.74782  -0.00122   0.00000  -0.03900  -0.03901   2.70882
    R6        2.10972  -0.00240   0.00000  -0.06198  -0.06198   2.04775
    R7        2.11021  -0.00167   0.00000  -0.05472  -0.05472   2.05549
    R8        2.11067  -0.00060   0.00000  -0.04581  -0.04581   2.06487
    A1        1.96383  -0.00210   0.00000  -0.05632  -0.05793   1.90590
    A2        1.97266   0.00208   0.00000   0.02268   0.02383   1.99649
    A3        1.96834  -0.00105   0.00000  -0.04366  -0.04712   1.92123
    A4        1.85048   0.00117   0.00000   0.04774   0.05103   1.90151
    A5        1.84644  -0.00125   0.00000  -0.01758  -0.02135   1.82509
    A6        1.85194   0.00124   0.00000   0.05521   0.05376   1.90570
    A7        1.96381  -0.00213   0.00000  -0.05703  -0.05877   1.90504
    A8        1.96832  -0.00105   0.00000  -0.04346  -0.04681   1.92151
    A9        1.97273   0.00217   0.00000   0.02411   0.02534   1.99807
   A10        1.84643  -0.00124   0.00000  -0.01769  -0.02143   1.82500
   A11        1.85046   0.00111   0.00000   0.04646   0.04927   1.89973
   A12        1.85193   0.00123   0.00000   0.05556   0.05445   1.90638
   A13        2.94526  -0.01414   0.00000  -0.51973  -0.51591   2.42935
   A14        3.04699  -0.00258   0.00000  -0.10807  -0.10986   2.93713
    D1       -0.00030  -0.00001   0.00000  -0.00039  -0.00042  -0.00072
    D2       -2.16241  -0.00155   0.00000  -0.10684  -0.10927  -2.27168
    D3        2.07415  -0.00062   0.00000  -0.04162  -0.04435   2.02979
    D4       -2.07472   0.00058   0.00000   0.03990   0.04234  -2.03238
    D5        2.04635  -0.00097   0.00000  -0.06654  -0.06651   1.97984
    D6       -0.00027  -0.00003   0.00000  -0.00132  -0.00160  -0.00187
    D7        2.16186   0.00156   0.00000   0.10664   0.10906   2.27092
    D8       -0.00025   0.00001   0.00000   0.00020   0.00021  -0.00004
    D9       -2.04687   0.00095   0.00000   0.06542   0.06512  -1.98175
         Item               Value     Threshold  Converged?
 Maximum Force            0.014141     0.000450     NO 
 RMS     Force            0.002917     0.000300     NO 
 Maximum Displacement     0.568522     0.001800     NO 
 RMS     Displacement     0.231695     0.001200     NO 
 Predicted change in Energy=-2.262709D-02
 GradGradGradGradGradGradGradGradGradGradGradGradGradGradGradGradGradGrad

                          Input orientation:                          
 ---------------------------------------------------------------------
 Center     Atomic      Atomic             Coordinates (Angstroms)
 Number     Number       Type             X           Y           Z
 ---------------------------------------------------------------------
      1          6           0        0.909544    0.113679   -0.049969
      2          6           0        2.215714   -0.239369   -0.522782
      3          6           0        3.097304   -1.369276   -0.493226
      4          1           0        0.930564    1.127880    0.331092
      5          1           0        0.515878   -0.548624    0.725232
      6          1           0        0.208285    0.148017   -0.880837
      7          1           0        4.109251   -1.026000   -0.313337
      8          1           0        3.137629   -1.837575   -1.474148
      9          1           0        2.842049   -2.123291    0.255276
 ---------------------------------------------------------------------
                    Distance matrix (angstroms):
                    1          2          3          4          5
     1  C    0.000000
     2  C    1.433275   0.000000
     3  C    2.679912   1.433445   0.000000
     4  H    1.083629   2.061573   3.407353   0.000000
     5  H    1.092957   2.131343   2.970164   1.771433   0.000000
     6  H    1.087789   2.075583   3.286161   1.717728   1.777464
     7  H    3.406811   2.061101   1.083622   3.893397   3.770789
     8  H    3.286341   2.075882   1.087721   4.113872   3.656808
     9  H    2.971832   2.132330   1.092680   3.772219   2.848071
                    6          7          8          9
     6  H    0.000000
     7  H    4.113138   0.000000
     8  H    3.588265   1.717610   0.000000
     9  H    3.658730   1.770077   1.777613   0.000000
 Stoichiometry    C3H6(3)
 Framework group  C1[X(C3H6)]
 Deg. of freedom    21
 Full point group                 C1      NOp   1
 Largest Abelian subgroup         C1      NOp   1
 Largest concise Abelian subgroup C1      NOp   1
                         Standard orientation:                         
 ---------------------------------------------------------------------
 Center     Atomic      Atomic             Coordinates (Angstroms)
 Number     Number       Type             X           Y           Z
 ---------------------------------------------------------------------
      1          6           0       -1.339997   -0.101086   -0.003991
      2          6           0       -0.000133    0.407031    0.025300
      3          6           0        1.339916   -0.101070   -0.004184
      4          1           0       -1.947034    0.453712    0.701669
      5          1           0       -1.423072   -1.167962    0.218336
      6          1           0       -1.794119    0.098821   -0.972027
      7          1           0        1.946362    0.454524    0.701347
      8          1           0        1.794146    0.098765   -0.972108
      9          1           0        1.424998   -1.167108    0.220034
 ---------------------------------------------------------------------
 Rotational constants (GHZ):          60.2927166           7.8590468           7.5782152
 Standard basis: def2SVPP (5D, 7F)
 There are    57 symmetry adapted cartesian basis functions of A   symmetry.
 There are    54 symmetry adapted basis functions of A   symmetry.
    54 basis functions,    99 primitive gaussians,    57 cartesian basis functions
    13 alpha electrons       11 beta electrons
       nuclear repulsion energy        69.3564172077 Hartrees.
 NAtoms=    9 NActive=    9 NUniq=    9 SFac= 1.00D+00 NAtFMM=   60 NAOKFM=F Big=F
 Integral buffers will be    131072 words long.
 Raffenetti 2 integral format.
 Two-electron integral symmetry is turned on.
 Nuclear repulsion after empirical dispersion term =       69.3489754953 Hartrees.
 One-electron integrals computed using PRISM.
   1 Symmetry operations used in ECPInt.
 ECPInt:  NShTT=     465 NPrTT=    1887 LenC2=     466 LenP2D=    1665.
 LDataN:  DoStor=T MaxTD1= 4 Len=   56
 NBasis=    54 RedAO= T EigKep=  3.27D-03  NBF=    54
 NBsUse=    54 1.00D-06 EigRej= -1.00D+00 NBFU=    54
 Initial guess from the checkpoint file:  "/home/software/g16tmp/Gau-42403.chk"
 B after Tr=     0.000000    0.000000    0.000000
         Rot=    0.999973   -0.007403    0.000009   -0.000060 Ang=  -0.85 deg.
 Initial guess <Sx>= 0.0000 <Sy>= 0.0000 <Sz>= 1.0000 <S**2>= 2.0109 S= 1.0036
 ExpMin= 1.22D-01 ExpMax= 1.24D+03 ExpMxC= 1.86D+02 IAcc=3 IRadAn=         5 AccDes= 0.00D+00
 Harris functional with IExCor=  402 and IRadAn=       5 diagonalized for initial guess.
 HarFok:  IExCor=  402 AccDes= 0.00D+00 IRadAn=         5 IDoV= 1 UseB2=F ITyADJ=14
 ICtDFT=  3500011 ScaDFX=  1.000000  1.000000  1.000000  1.000000
 FoFCou: FMM=F IPFlag=           0 FMFlag=      100000 FMFlg1=           0
         NFxFlg=           0 DoJE=T BraDBF=F KetDBF=T FulRan=T
         wScrn=  0.000000 ICntrl=       500 IOpCl=  0 I1Cent=   200000004 NGrid=           0
         NMat0=    1 NMatS0=      1 NMatT0=    0 NMatD0=    1 NMtDS0=    0 NMtDT0=    0
 Petite list used in FoFCou.
 Keep R1 and R2 ints in memory in canonical form, NReq=16304564.
 Requested convergence on RMS density matrix=1.00D-08 within 128 cycles.
 Requested convergence on MAX density matrix=1.00D-06.
 Requested convergence on             energy=1.00D-06.
 No special actions if energy rises.
 Integral accuracy reduced to 1.0D-05 until final iterations.
 Initial convergence to 1.0D-05 achieved.  Increase integral accuracy.
 SCF Done:  E(UB3LYP) =  -117.702517446     A.U. after   13 cycles
            NFock= 13  Conv=0.62D-08     -V/T= 2.0086
 <Sx>= 0.0000 <Sy>= 0.0000 <Sz>= 1.0000 <S**2>= 2.0067 S= 1.0022
 <L.S>=  0.00000000000    
 Annihilation of the first spin contaminant:
 S**2 before annihilation     2.0067,   after     2.0000
   1 Symmetry operations used in ECPInt.
 ECPInt:  NShTT=     465 NPrTT=    1887 LenC2=     466 LenP2D=    1665.
 LDataN:  DoStor=T MaxTD1= 5 Len=  102
 Calling FoFJK, ICntrl=      2127 FMM=F ISym2X=0 I1Cent= 0 IOpClX= 1 NMat=1 NMatS=1 NMatT=0.
 ***** Axes restored to original set *****
 -------------------------------------------------------------------
 Center     Atomic                   Forces (Hartrees/Bohr)
 Number     Number              X              Y              Z
 -------------------------------------------------------------------
      1        6          -0.002888277    0.006314930   -0.005266196
      2        6           0.005932038    0.008186608    0.001257056
      3        6           0.005409119    0.001079768   -0.006941017
      4        1          -0.003982527    0.015822194    0.010840545
      5        1          -0.003706578   -0.007757740    0.008284966
      6        1          -0.016679693   -0.002094220   -0.009548852
      7        1           0.018594177    0.000594482    0.006189925
      8        1           0.001054192   -0.014165899   -0.013159082
      9        1          -0.003732451   -0.007980122    0.008342656
 -------------------------------------------------------------------
 Cartesian Forces:  Max     0.018594177 RMS     0.008745319

 GradGradGradGradGradGradGradGradGradGradGradGradGradGradGradGradGradGrad
 Berny optimization.
 Using GEDIIS/GDIIS optimizer.
 FormGI is forming the generalized inverse of G from B-inverse, IUseBI=4.
 Internal  Forces:  Max     0.029276318 RMS     0.010954477
 Search for a local minimum.
 Step number   4 out of a maximum of   41
 All quantities printed in internal units (Hartrees-Bohrs-Radians)
 Mixed Optimization -- RFO/linear search
 Update second derivatives using D2CorX and points    3    4
 ITU=  0  1  1  0
 Use linear search instead of GDIIS.
     Eigenvalues ---    0.00230   0.00786   0.01088   0.04453   0.05566
     Eigenvalues ---    0.06323   0.06360   0.09656   0.15976   0.16000
     Eigenvalues ---    0.16000   0.16000   0.16367   0.26102   0.34273
     Eigenvalues ---    0.34361   0.34362   0.34398   0.34460   0.36644
     Eigenvalues ---    0.41674
 RFO step:  Lambda=-1.72061335D-02 EMin= 2.30003233D-03
 Quartic linear search produced a step of -0.25639.
 Iteration  1 RMS(Cart)=  0.11809906 RMS(Int)=  0.03299086
 Iteration  2 RMS(Cart)=  0.08675848 RMS(Int)=  0.00463690
 Iteration  3 RMS(Cart)=  0.00461870 RMS(Int)=  0.00381150
 Iteration  4 RMS(Cart)=  0.00002531 RMS(Int)=  0.00381150
 Iteration  5 RMS(Cart)=  0.00000034 RMS(Int)=  0.00381150
 Variable       Old X    -DE/DX   Delta X   Delta X   Delta X     New X
                                 (Linear)    (Quad)   (Total)
    R1        2.70850   0.02928   0.01008   0.06494   0.07515   2.78365
    R2        2.04776   0.01854   0.01589   0.08884   0.10473   2.15249
    R3        2.06539   0.01194   0.01161   0.09152   0.10306   2.16845
    R4        2.05562   0.01798   0.01399   0.09125   0.10525   2.16087
    R5        2.70882   0.02913   0.01000   0.06493   0.07486   2.78368
    R6        2.04775   0.01858   0.01589   0.08891   0.10480   2.15255
    R7        2.05549   0.01800   0.01403   0.09149   0.10551   2.16101
    R8        2.06487   0.01209   0.01174   0.09149   0.10324   2.16810
    A1        1.90590   0.00665   0.01485   0.02864   0.03894   1.94484
    A2        1.99649  -0.00497  -0.00611   0.07673   0.07363   2.07012
    A3        1.92123   0.00577   0.01208   0.05259   0.05757   1.97879
    A4        1.90151  -0.00208  -0.01308  -0.03679  -0.04518   1.85633
    A5        1.82509  -0.00195   0.00547  -0.09132  -0.09244   1.73265
    A6        1.90570  -0.00321  -0.01378  -0.04586  -0.05877   1.84693
    A7        1.90504   0.00649   0.01507   0.02700   0.03732   1.94236
    A8        1.92151   0.00588   0.01200   0.05354   0.05881   1.98033
    A9        1.99807  -0.00491  -0.00650   0.07803   0.07471   2.07278
   A10        1.82500  -0.00195   0.00549  -0.09120  -0.09205   1.73294
   A11        1.89973  -0.00269  -0.01263  -0.04174  -0.05111   1.84863
   A12        1.90638  -0.00263  -0.01396  -0.04203  -0.05450   1.85189
   A13        2.42935   0.00794   0.13227  -0.51588  -0.37413   2.05522
   A14        2.93713  -0.00420   0.02817  -0.16912  -0.14504   2.79208
    D1       -0.00072   0.00002   0.00011  -0.00447  -0.00439  -0.00511
    D2       -2.27168  -0.00456   0.02801  -0.20854  -0.18504  -2.45672
    D3        2.02979  -0.00157   0.01137  -0.08780  -0.07900   1.95080
    D4       -2.03238   0.00087  -0.01086   0.07450   0.06508  -1.96730
    D5        1.97984  -0.00371   0.01705  -0.12956  -0.11556   1.86428
    D6       -0.00187  -0.00072   0.00041  -0.00883  -0.00953  -0.01139
    D7        2.27092   0.00462  -0.02796   0.20071   0.17745   2.44837
    D8       -0.00004   0.00004  -0.00005  -0.00335  -0.00319  -0.00323
    D9       -1.98175   0.00303  -0.01670   0.11738   0.10284  -1.87891
         Item               Value     Threshold  Converged?
 Maximum Force            0.029276     0.000450     NO 
 RMS     Force            0.010954     0.000300     NO 
 Maximum Displacement     0.485283     0.001800     NO 
 RMS     Displacement     0.172461     0.001200     NO 
 Predicted change in Energy=-1.002906D-02
 GradGradGradGradGradGradGradGradGradGradGradGradGradGradGradGradGradGrad

                          Input orientation:                          
 ---------------------------------------------------------------------
 Center     Atomic      Atomic             Coordinates (Angstroms)
 Number     Number       Type             X           Y           Z
 ---------------------------------------------------------------------
      1          6           0        1.000812    0.091682   -0.071326
      2          6           0        2.374589    0.017431   -0.597713
      3          6           0        3.039936   -1.291979   -0.485182
      4          1           0        0.781036    1.116230    0.375249
      5          1           0        0.669747   -0.679695    0.711053
      6          1           0        0.200399    0.070957   -0.887698
      7          1           0        4.159768   -1.173476   -0.313602
      8          1           0        3.064548   -1.876179   -1.467946
      9          1           0        2.675384   -2.029532    0.314466
 ---------------------------------------------------------------------
                    Distance matrix (angstroms):
                    1          2          3          4          5
     1  C    0.000000
     2  C    1.473044   0.000000
     3  C    2.498764   1.473060   0.000000
     4  H    1.139048   2.166431   3.412102   0.000000
     5  H    1.147494   2.259500   2.724641   1.830436   0.000000
     6  H    1.143483   2.194095   3.175308   1.739187   1.827504
     7  H    3.411499   2.164681   1.139081   4.139215   3.670693
     8  H    3.175221   2.195247   1.143557   4.191218   3.451766
     9  H    2.729940   2.261108   1.147310   3.672610   2.449882
                    6          7          8          9
     6  H    0.000000
     7  H    4.189845   0.000000
     8  H    3.511606   1.739485   0.000000
     9  H    3.461618   1.825020   1.830835   0.000000
 Stoichiometry    C3H6(3)
 Framework group  C1[X(C3H6)]
 Deg. of freedom    21
 Full point group                 C1      NOp   1
 Largest Abelian subgroup         C1      NOp   1
 Largest concise Abelian subgroup C1      NOp   1
                         Standard orientation:                         
 ---------------------------------------------------------------------
 Center     Atomic      Atomic             Coordinates (Angstroms)
 Number     Number       Type             X           Y           Z
 ---------------------------------------------------------------------
      1          6           0       -1.249580   -0.145506   -0.000895
      2          6           0       -0.000218    0.634334    0.027434
      3          6           0        1.249184   -0.145438   -0.001852
      4          1           0       -2.070005    0.360691    0.605813
      5          1           0       -1.222025   -1.239999    0.342719
      6          1           0       -1.756464   -0.153204   -1.025865
      7          1           0        2.069206    0.364489    0.602337
      8          1           0        1.755140   -0.156425   -1.027332
      9          1           0        1.227826   -1.235889    0.354209
 ---------------------------------------------------------------------
 Rotational constants (GHZ):          43.0014482           8.6469014           7.8995157
 Standard basis: def2SVPP (5D, 7F)
 There are    57 symmetry adapted cartesian basis functions of A   symmetry.
 There are    54 symmetry adapted basis functions of A   symmetry.
    54 basis functions,    99 primitive gaussians,    57 cartesian basis functions
    13 alpha electrons       11 beta electrons
       nuclear repulsion energy        68.0837610184 Hartrees.
 NAtoms=    9 NActive=    9 NUniq=    9 SFac= 1.00D+00 NAtFMM=   60 NAOKFM=F Big=F
 Integral buffers will be    131072 words long.
 Raffenetti 2 integral format.
 Two-electron integral symmetry is turned on.
 Nuclear repulsion after empirical dispersion term =       68.0761789594 Hartrees.
 One-electron integrals computed using PRISM.
   1 Symmetry operations used in ECPInt.
 ECPInt:  NShTT=     465 NPrTT=    1887 LenC2=     466 LenP2D=    1670.
 LDataN:  DoStor=T MaxTD1= 4 Len=   56
 NBasis=    54 RedAO= T EigKep=  4.04D-03  NBF=    54
 NBsUse=    54 1.00D-06 EigRej= -1.00D+00 NBFU=    54
 Initial guess from the checkpoint file:  "/home/software/g16tmp/Gau-42403.chk"
 B after Tr=    -0.000000   -0.000000   -0.000000
         Rot=    0.998826    0.048447   -0.000028   -0.000113 Ang=   5.55 deg.
 Initial guess <Sx>= 0.0000 <Sy>= 0.0000 <Sz>= 1.0000 <S**2>= 2.0072 S= 1.0024
 ExpMin= 1.22D-01 ExpMax= 1.24D+03 ExpMxC= 1.86D+02 IAcc=3 IRadAn=         5 AccDes= 0.00D+00
 Harris functional with IExCor=  402 and IRadAn=       5 diagonalized for initial guess.
 HarFok:  IExCor=  402 AccDes= 0.00D+00 IRadAn=         5 IDoV= 1 UseB2=F ITyADJ=14
 ICtDFT=  3500011 ScaDFX=  1.000000  1.000000  1.000000  1.000000
 FoFCou: FMM=F IPFlag=           0 FMFlag=      100000 FMFlg1=           0
         NFxFlg=           0 DoJE=T BraDBF=F KetDBF=T FulRan=T
         wScrn=  0.000000 ICntrl=       500 IOpCl=  0 I1Cent=   200000004 NGrid=           0
         NMat0=    1 NMatS0=      1 NMatT0=    0 NMatD0=    1 NMtDS0=    0 NMtDT0=    0
 Petite list used in FoFCou.
 Keep R1 and R2 ints in memory in canonical form, NReq=16304564.
 Requested convergence on RMS density matrix=1.00D-08 within 128 cycles.
 Requested convergence on MAX density matrix=1.00D-06.
 Requested convergence on             energy=1.00D-06.
 No special actions if energy rises.
 Integral accuracy reduced to 1.0D-05 until final iterations.
 Initial convergence to 1.0D-05 achieved.  Increase integral accuracy.
 SCF Done:  E(UB3LYP) =  -117.690534520     A.U. after   14 cycles
            NFock= 14  Conv=0.53D-08     -V/T= 2.0129
 <Sx>= 0.0000 <Sy>= 0.0000 <Sz>= 1.0000 <S**2>= 2.0061 S= 1.0020
 <L.S>=  0.00000000000    
 Annihilation of the first spin contaminant:
 S**2 before annihilation     2.0061,   after     2.0000
   1 Symmetry operations used in ECPInt.
 ECPInt:  NShTT=     465 NPrTT=    1887 LenC2=     466 LenP2D=    1670.
 LDataN:  DoStor=T MaxTD1= 5 Len=  102
 Calling FoFJK, ICntrl=      2127 FMM=F ISym2X=0 I1Cent= 0 IOpClX= 1 NMat=1 NMatS=1 NMatT=0.
 ***** Axes restored to original set *****
 -------------------------------------------------------------------
 Center     Atomic                   Forces (Hartrees/Bohr)
 Number     Number              X              Y              Z
 -------------------------------------------------------------------
      1        6          -0.039581797    0.040770622   -0.002585141
      2        6          -0.020981613   -0.039454856    0.028537248
      3        6           0.050164505   -0.019108259   -0.020154221
      4        1           0.004207311   -0.014292835   -0.000870811
      5        1           0.016187963    0.011562350   -0.015430448
      6        1           0.011593335   -0.006176265    0.008285496
      7        1          -0.014346102   -0.001491633    0.002596048
      8        1          -0.007350683    0.006508471    0.012340898
      9        1           0.000107081    0.021682406   -0.012719069
 -------------------------------------------------------------------
 Cartesian Forces:  Max     0.050164505 RMS     0.020662984

 GradGradGradGradGradGradGradGradGradGradGradGradGradGradGradGradGradGrad
 Berny optimization.
 Using GEDIIS/GDIIS optimizer.
 FormGI is forming the generalized inverse of G from B-inverse, IUseBI=4.
 Internal  Forces:  Max     0.062461378 RMS     0.015934162
 Search for a local minimum.
 Step number   5 out of a maximum of   41
 All quantities printed in internal units (Hartrees-Bohrs-Radians)
 Mixed Optimization -- RFO/linear search
 Update second derivatives using D2CorX and points    3    5    4
 DE=  1.20D-02 DEPred=-1.00D-02 R=-1.19D+00
 Trust test=-1.19D+00 RLast= 6.22D-01 DXMaxT set to 3.20D-01
 ITU= -1  0  1  1  0
 Use linear search instead of GDIIS.
     Eigenvalues ---    0.00230   0.00829   0.03027   0.03413   0.05607
     Eigenvalues ---    0.05938   0.06486   0.14705   0.15736   0.16000
     Eigenvalues ---    0.16000   0.16001   0.16077   0.27081   0.31955
     Eigenvalues ---    0.34361   0.34362   0.34399   0.34460   0.34494
     Eigenvalues ---    0.36286
 RFO step:  Lambda=-2.12484782D-02 EMin= 2.30172462D-03
 Quartic linear search produced a step of -0.70955.
 Maximum step size (   0.320) exceeded in Quadratic search.
    -- Step size scaled by   0.641
 Iteration  1 RMS(Cart)=  0.13232733 RMS(Int)=  0.04810897
 Iteration  2 RMS(Cart)=  0.09286525 RMS(Int)=  0.00765656
 Iteration  3 RMS(Cart)=  0.01143462 RMS(Int)=  0.00139368
 Iteration  4 RMS(Cart)=  0.00021438 RMS(Int)=  0.00138995
 Iteration  5 RMS(Cart)=  0.00000013 RMS(Int)=  0.00138995
 Variable       Old X    -DE/DX   Delta X   Delta X   Delta X     New X
                                 (Linear)    (Quad)   (Total)
    R1        2.78365   0.00527  -0.05332   0.07406   0.02073   2.80438
    R2        2.15249  -0.01401  -0.07431   0.06518  -0.00913   2.14336
    R3        2.16845  -0.02348  -0.07313   0.04581  -0.02730   2.14115
    R4        2.16087  -0.01392  -0.07468   0.06191  -0.01277   2.14810
    R5        2.78368   0.00482  -0.05312   0.07342   0.02029   2.80397
    R6        2.15255  -0.01387  -0.07436   0.06533  -0.00904   2.14352
    R7        2.16101  -0.01409  -0.07487   0.06197  -0.01290   2.14811
    R8        2.16810  -0.02284  -0.07325   0.04658  -0.02667   2.14143
    A1        1.94484   0.01101  -0.02763   0.05737   0.02955   1.97439
    A2        2.07012  -0.02296  -0.05224  -0.03605  -0.08715   1.98297
    A3        1.97879   0.00350  -0.04085   0.04852   0.00563   1.98442
    A4        1.85633  -0.00093   0.03206  -0.03702  -0.00181   1.85452
    A5        1.73265   0.01783   0.06559   0.01330   0.07698   1.80964
    A6        1.84693  -0.00197   0.04170  -0.04423  -0.00407   1.84286
    A7        1.94236   0.01124  -0.02648   0.05735   0.03056   1.97292
    A8        1.98033   0.00339  -0.04173   0.04907   0.00538   1.98571
    A9        2.07278  -0.02382  -0.05301  -0.03744  -0.08924   1.98353
   A10        1.73294   0.01782   0.06532   0.01358   0.07706   1.81000
   A11        1.84863  -0.00081   0.03626  -0.03876   0.00028   1.84891
   A12        1.85189  -0.00106   0.03867  -0.04157  -0.00425   1.84764
   A13        2.05522   0.06246   0.26546   0.22377   0.49136   2.54658
   A14        2.79208   0.00606   0.10291  -0.00370   0.09758   2.88967
    D1       -0.00511   0.00007   0.00312   0.00074   0.00384  -0.00127
    D2       -2.45672   0.00245   0.13129   0.01117   0.14126  -2.31546
    D3        1.95080   0.00140   0.05605   0.02021   0.07408   2.02487
    D4       -1.96730  -0.00199  -0.04618  -0.02275  -0.06700  -2.03430
    D5        1.86428   0.00039   0.08200  -0.01231   0.07043   1.93470
    D6       -0.01139  -0.00066   0.00676  -0.00327   0.00324  -0.00815
    D7        2.44837  -0.00257  -0.12591  -0.01107  -0.13576   2.31262
    D8       -0.00323  -0.00019   0.00227  -0.00064   0.00167  -0.00157
    D9       -1.87891  -0.00124  -0.07297   0.00840  -0.06551  -1.94442
         Item               Value     Threshold  Converged?
 Maximum Force            0.062461     0.000450     NO 
 RMS     Force            0.015934     0.000300     NO 
 Maximum Displacement     0.511229     0.001800     NO 
 RMS     Displacement     0.231168     0.001200     NO 
 Predicted change in Energy=-1.299015D-02
 GradGradGradGradGradGradGradGradGradGradGradGradGradGradGradGradGradGrad

                          Input orientation:                          
 ---------------------------------------------------------------------
 Center     Atomic      Atomic             Coordinates (Angstroms)
 Number     Number       Type             X           Y           Z
 ---------------------------------------------------------------------
      1          6           0        0.858847    0.170905   -0.046344
      2          6           0        2.219061   -0.253099   -0.461471
      3          6           0        3.166481   -1.393804   -0.514791
      4          1           0        0.826289    1.230413    0.357182
      5          1           0        0.402830   -0.487808    0.754872
      6          1           0        0.104816    0.183788   -0.896883
      7          1           0        4.243417   -1.085109   -0.337164
      8          1           0        3.198893   -1.915757   -1.524084
      9          1           0        2.945586   -2.204089    0.245983
 ---------------------------------------------------------------------
                    Distance matrix (angstroms):
                    1          2          3          4          5
     1  C    0.000000
     2  C    1.484012   0.000000
     3  C    2.827177   1.483797   0.000000
     4  H    1.134219   2.193357   3.622617   0.000000
     5  H    1.133049   2.198471   3.173427   1.813769   0.000000
     6  H    1.136726   2.202382   3.465340   1.785673   1.807802
     7  H    3.621803   2.192193   1.134300   4.185752   4.037254
     8  H    3.466077   2.203099   1.136731   4.366555   3.879516
     9  H    3.174985   2.198793   1.133196   4.037275   3.109694
                    6          7          8          9
     6  H    0.000000
     7  H    4.364791   0.000000
     8  H    3.791409   1.785998   0.000000
     9  H    3.883049   1.810122   1.811197   0.000000
 Stoichiometry    C3H6(3)
 Framework group  C1[X(C3H6)]
 Deg. of freedom    21
 Full point group                 C1      NOp   1
 Largest Abelian subgroup         C1      NOp   1
 Largest concise Abelian subgroup C1      NOp   1
                         Standard orientation:                         
 ---------------------------------------------------------------------
 Center     Atomic      Atomic             Coordinates (Angstroms)
 Number     Number       Type             X           Y           Z
 ---------------------------------------------------------------------
      1          6           0       -1.413685   -0.081103   -0.000853
      2          6           0        0.000047    0.370016    0.011225
      3          6           0        1.413492   -0.081271   -0.001719
      4          1           0       -2.093276    0.566247    0.635972
      5          1           0       -1.554043   -1.144198    0.365110
      6          1           0       -1.895663   -0.046098   -1.029745
      7          1           0        2.092476    0.567453    0.634499
      8          1           0        1.895745   -0.047949   -1.030543
      9          1           0        1.555640   -1.141305    0.372788
 ---------------------------------------------------------------------
 Rotational constants (GHZ):          61.0553552           7.0064195           6.8338446
 Standard basis: def2SVPP (5D, 7F)
 There are    57 symmetry adapted cartesian basis functions of A   symmetry.
 There are    54 symmetry adapted basis functions of A   symmetry.
    54 basis functions,    99 primitive gaussians,    57 cartesian basis functions
    13 alpha electrons       11 beta electrons
       nuclear repulsion energy        66.4311577846 Hartrees.
 NAtoms=    9 NActive=    9 NUniq=    9 SFac= 1.00D+00 NAtFMM=   60 NAOKFM=F Big=F
 Integral buffers will be    131072 words long.
 Raffenetti 2 integral format.
 Two-electron integral symmetry is turned on.
 Nuclear repulsion after empirical dispersion term =       66.4240188055 Hartrees.
 One-electron integrals computed using PRISM.
   1 Symmetry operations used in ECPInt.
 ECPInt:  NShTT=     465 NPrTT=    1887 LenC2=     466 LenP2D=    1648.
 LDataN:  DoStor=T MaxTD1= 4 Len=   56
 NBasis=    54 RedAO= T EigKep=  3.83D-03  NBF=    54
 NBsUse=    54 1.00D-06 EigRej= -1.00D+00 NBFU=    54
 Lowest energy guess from the checkpoint file:  "/home/software/g16tmp/Gau-42403.chk"
 B after Tr=    -0.000000   -0.000000   -0.000000
         Rot=    0.998064    0.062197    0.000000    0.000023 Ang=   7.13 deg.
 B after Tr=    -0.000000    0.000000    0.000000
         Rot=    0.999963    0.008563    0.000020    0.000140 Ang=   0.98 deg.
 Initial guess <Sx>= 0.0000 <Sy>= 0.0000 <Sz>= 1.0000 <S**2>= 2.0074 S= 1.0025
 Keep R1 and R2 ints in memory in canonical form, NReq=16304564.
 Requested convergence on RMS density matrix=1.00D-08 within 128 cycles.
 Requested convergence on MAX density matrix=1.00D-06.
 Requested convergence on             energy=1.00D-06.
 No special actions if energy rises.
 Integral accuracy reduced to 1.0D-05 until final iterations.
 Initial convergence to 1.0D-05 achieved.  Increase integral accuracy.
 SCF Done:  E(UB3LYP) =  -117.704650739     A.U. after   12 cycles
            NFock= 12  Conv=0.72D-08     -V/T= 2.0135
 <Sx>= 0.0000 <Sy>= 0.0000 <Sz>= 1.0000 <S**2>= 2.0084 S= 1.0028
 <L.S>=  0.00000000000    
 Annihilation of the first spin contaminant:
 S**2 before annihilation     2.0084,   after     2.0000
   1 Symmetry operations used in ECPInt.
 ECPInt:  NShTT=     465 NPrTT=    1887 LenC2=     466 LenP2D=    1648.
 LDataN:  DoStor=T MaxTD1= 5 Len=  102
 Calling FoFJK, ICntrl=      2127 FMM=F ISym2X=0 I1Cent= 0 IOpClX= 1 NMat=1 NMatS=1 NMatT=0.
 ***** Axes restored to original set *****
 -------------------------------------------------------------------
 Center     Atomic                   Forces (Hartrees/Bohr)
 Number     Number              X              Y              Z
 -------------------------------------------------------------------
      1        6          -0.008655306    0.000560890   -0.000228734
      2        6           0.001677366    0.002118185    0.001884508
      3        6           0.003899961   -0.007318031   -0.002063720
      4        1           0.004784914   -0.013878081   -0.003963551
      5        1           0.006903091    0.005371689   -0.007519599
      6        1           0.010194107   -0.002698830    0.007869169
      7        1          -0.015125535   -0.000218328   -0.000185893
      8        1          -0.003808107    0.006579188    0.010874001
      9        1           0.000129509    0.009483317   -0.006666182
 -------------------------------------------------------------------
 Cartesian Forces:  Max     0.015125535 RMS     0.006765446

 GradGradGradGradGradGradGradGradGradGradGradGradGradGradGradGradGradGrad
 Berny optimization.
 Using GEDIIS/GDIIS optimizer.
 FormGI is forming the generalized inverse of G from B-inverse, IUseBI=4.
 Internal  Forces:  Max     0.016355422 RMS     0.007810005
 Search for a local minimum.
 Step number   6 out of a maximum of   41
 All quantities printed in internal units (Hartrees-Bohrs-Radians)
 Mixed Optimization -- RFO/linear search
 Update second derivatives using D2CorX and points    3    5    4    6
 DE= -2.13D-03 DEPred=-1.30D-02 R= 1.64D-01
 Trust test= 1.64D-01 RLast= 3.45D-01 DXMaxT set to 3.20D-01
 ITU=  0 -1  0  1  1  0
 Use linear search instead of GDIIS.
     Eigenvalues ---    0.00230   0.00919   0.01524   0.03963   0.05579
     Eigenvalues ---    0.06135   0.09095   0.14445   0.16000   0.16000
     Eigenvalues ---    0.16000   0.16011   0.17543   0.28680   0.34227
     Eigenvalues ---    0.34362   0.34362   0.34439   0.34460   0.36712
     Eigenvalues ---    0.38360
 RFO step:  Lambda=-5.50314041D-03 EMin= 2.29887999D-03
 Quartic linear search produced a step of -0.44262.
 Maximum step size (   0.320) exceeded in Quadratic search.
    -- Step size scaled by   0.704
 Iteration  1 RMS(Cart)=  0.15607244 RMS(Int)=  0.01425018
 Iteration  2 RMS(Cart)=  0.02181102 RMS(Int)=  0.00579841
 Iteration  3 RMS(Cart)=  0.00036628 RMS(Int)=  0.00579511
 Iteration  4 RMS(Cart)=  0.00001033 RMS(Int)=  0.00579511
 Iteration  5 RMS(Cart)=  0.00000028 RMS(Int)=  0.00579511
 Variable       Old X    -DE/DX   Delta X   Delta X   Delta X     New X
                                 (Linear)    (Quad)   (Total)
    R1        2.80438  -0.01636  -0.04244   0.05494   0.01248   2.81686
    R2        2.14336  -0.01451  -0.04231  -0.01694  -0.05925   2.08411
    R3        2.14115  -0.01105  -0.03353  -0.03281  -0.06626   2.07489
    R4        2.14810  -0.01268  -0.04093  -0.01127  -0.05220   2.09590
    R5        2.80397  -0.01615  -0.04212   0.05452   0.01237   2.81634
    R6        2.14352  -0.01445  -0.04239  -0.01658  -0.05897   2.08454
    R7        2.14811  -0.01278  -0.04099  -0.01163  -0.05263   2.09548
    R8        2.14143  -0.01128  -0.03389  -0.03240  -0.06629   2.07514
    A1        1.97439  -0.00515  -0.03032   0.01233  -0.01421   1.96018
    A2        1.98297  -0.00175   0.00599  -0.09996  -0.09714   1.88583
    A3        1.98442  -0.00344  -0.02797   0.00279  -0.02208   1.96235
    A4        1.85452   0.00404   0.02080   0.02803   0.05027   1.90480
    A5        1.80964   0.00404   0.00684   0.05854   0.06980   1.87943
    A6        1.84286   0.00361   0.02782   0.01291   0.02572   1.86858
    A7        1.97292  -0.00527  -0.03005   0.01077  -0.01511   1.95781
    A8        1.98571  -0.00339  -0.02841   0.00417  -0.02079   1.96492
    A9        1.98353  -0.00145   0.00643  -0.10010  -0.09753   1.88600
   A10        1.81000   0.00405   0.00664   0.05865   0.07026   1.88026
   A11        1.84891   0.00376   0.02250   0.02228   0.04619   1.89510
   A12        1.84764   0.00360   0.02600   0.01895   0.02947   1.87711
   A13        2.54658  -0.01237  -0.05189  -0.10722  -0.16621   2.38037
   A14        2.88967  -0.00555   0.02101  -0.22920  -0.20643   2.68324
    D1       -0.00127  -0.00012   0.00025  -0.01255  -0.01260  -0.01388
    D2       -2.31546  -0.00220   0.01938  -0.12422  -0.09825  -2.41370
    D3        2.02487  -0.00110   0.00218  -0.03748  -0.03981   1.98506
    D4       -2.03430   0.00078   0.00085   0.00741   0.01320  -2.02110
    D5        1.93470  -0.00130   0.01998  -0.10426  -0.07244   1.86227
    D6       -0.00815  -0.00020   0.00278  -0.01751  -0.01401  -0.02216
    D7        2.31262   0.00204  -0.01845   0.10086   0.07562   2.38824
    D8       -0.00157  -0.00003   0.00068  -0.01081  -0.01002  -0.01159
    D9       -1.94442   0.00107  -0.01652   0.07594   0.04841  -1.89601
         Item               Value     Threshold  Converged?
 Maximum Force            0.016355     0.000450     NO 
 RMS     Force            0.007810     0.000300     NO 
 Maximum Displacement     0.364244     0.001800     NO 
 RMS     Displacement     0.169812     0.001200     NO 
 Predicted change in Energy=-5.440229D-03
 GradGradGradGradGradGradGradGradGradGradGradGradGradGradGradGradGradGrad

                          Input orientation:                          
 ---------------------------------------------------------------------
 Center     Atomic      Atomic             Coordinates (Angstroms)
 Number     Number       Type             X           Y           Z
 ---------------------------------------------------------------------
      1          6           0        0.907873    0.156646   -0.054935
      2          6           0        2.337107   -0.099705   -0.391846
      3          6           0        3.134287   -1.353651   -0.506931
      4          1           0        0.749279    1.168134    0.355000
      5          1           0        0.595351   -0.586797    0.690180
      6          1           0        0.238788    0.039751   -0.931727
      7          1           0        4.212846   -1.176449   -0.358187
      8          1           0        3.006143   -1.851001   -1.489703
      9          1           0        2.784546   -2.051488    0.265447
 ---------------------------------------------------------------------
                    Distance matrix (angstroms):
                    1          2          3          4          5
     1  C    0.000000
     2  C    1.490616   0.000000
     3  C    2.728042   1.490342   0.000000
     4  H    1.102863   2.164807   3.576392   0.000000
     5  H    1.097986   2.107546   2.909868   1.793271   0.000000
     6  H    1.109101   2.171144   3.241286   1.785922   1.774903
     7  H    3.576584   2.163078   1.103094   4.242877   3.812221
     8  H    3.239127   2.172542   1.108882   4.196610   3.487408
     9  H    2.915544   2.107532   1.098118   3.810025   2.668012
                    6          7          8          9
     6  H    0.000000
     7  H    4.195382   0.000000
     8  H    3.397725   1.786472   0.000000
     9  H    3.505337   1.787359   1.780408   0.000000
 Stoichiometry    C3H6(3)
 Framework group  C1[X(C3H6)]
 Deg. of freedom    21
 Full point group                 C1      NOp   1
 Largest Abelian subgroup         C1      NOp   1
 Largest concise Abelian subgroup C1      NOp   1
                         Standard orientation:                         
 ---------------------------------------------------------------------
 Center     Atomic      Atomic             Coordinates (Angstroms)
 Number     Number       Type             X           Y           Z
 ---------------------------------------------------------------------
      1          6           0       -1.364229   -0.106468    0.003287
      2          6           0        0.000033    0.493753   -0.018123
      3          6           0        1.363813   -0.106931    0.001967
      4          1           0       -2.121249    0.588710    0.403229
      5          1           0       -1.331002   -1.004373    0.634345
      6          1           0       -1.700839   -0.428414   -1.003266
      7          1           0        2.121609    0.593617    0.391574
      8          1           0        1.696863   -0.440806   -1.001638
      9          1           0        1.336911   -0.990863    0.652969
 ---------------------------------------------------------------------
 Rotational constants (GHZ):          53.7234138           7.6213497           7.2869942
 Standard basis: def2SVPP (5D, 7F)
 There are    57 symmetry adapted cartesian basis functions of A   symmetry.
 There are    54 symmetry adapted basis functions of A   symmetry.
    54 basis functions,    99 primitive gaussians,    57 cartesian basis functions
    13 alpha electrons       11 beta electrons
       nuclear repulsion energy        67.6896665945 Hartrees.
 NAtoms=    9 NActive=    9 NUniq=    9 SFac= 1.00D+00 NAtFMM=   60 NAOKFM=F Big=F
 Integral buffers will be    131072 words long.
 Raffenetti 2 integral format.
 Two-electron integral symmetry is turned on.
 Nuclear repulsion after empirical dispersion term =       67.6822385668 Hartrees.
 One-electron integrals computed using PRISM.
   1 Symmetry operations used in ECPInt.
 ECPInt:  NShTT=     465 NPrTT=    1887 LenC2=     466 LenP2D=    1662.
 LDataN:  DoStor=T MaxTD1= 4 Len=   56
 NBasis=    54 RedAO= T EigKep=  4.21D-03  NBF=    54
 NBsUse=    54 1.00D-06 EigRej= -1.00D+00 NBFU=    54
 Initial guess from the checkpoint file:  "/home/software/g16tmp/Gau-42403.chk"
 B after Tr=    -0.000000   -0.000000   -0.000000
         Rot=    0.991649    0.128968   -0.000091   -0.000062 Ang=  14.82 deg.
 Initial guess <Sx>= 0.0000 <Sy>= 0.0000 <Sz>= 1.0000 <S**2>= 2.0081 S= 1.0027
 ExpMin= 1.22D-01 ExpMax= 1.24D+03 ExpMxC= 1.86D+02 IAcc=3 IRadAn=         5 AccDes= 0.00D+00
 Harris functional with IExCor=  402 and IRadAn=       5 diagonalized for initial guess.
 HarFok:  IExCor=  402 AccDes= 0.00D+00 IRadAn=         5 IDoV= 1 UseB2=F ITyADJ=14
 ICtDFT=  3500011 ScaDFX=  1.000000  1.000000  1.000000  1.000000
 FoFCou: FMM=F IPFlag=           0 FMFlag=      100000 FMFlg1=           0
         NFxFlg=           0 DoJE=T BraDBF=F KetDBF=T FulRan=T
         wScrn=  0.000000 ICntrl=       500 IOpCl=  0 I1Cent=   200000004 NGrid=           0
         NMat0=    1 NMatS0=      1 NMatT0=    0 NMatD0=    1 NMtDS0=    0 NMtDT0=    0
 Petite list used in FoFCou.
 Keep R1 and R2 ints in memory in canonical form, NReq=16304564.
 Requested convergence on RMS density matrix=1.00D-08 within 128 cycles.
 Requested convergence on MAX density matrix=1.00D-06.
 Requested convergence on             energy=1.00D-06.
 No special actions if energy rises.
 Integral accuracy reduced to 1.0D-05 until final iterations.
 Initial convergence to 1.0D-05 achieved.  Increase integral accuracy.
 SCF Done:  E(UB3LYP) =  -117.708235323     A.U. after   13 cycles
            NFock= 13  Conv=0.61D-08     -V/T= 2.0114
 <Sx>= 0.0000 <Sy>= 0.0000 <Sz>= 1.0000 <S**2>= 2.0064 S= 1.0021
 <L.S>=  0.00000000000    
 Annihilation of the first spin contaminant:
 S**2 before annihilation     2.0064,   after     2.0000
   1 Symmetry operations used in ECPInt.
 ECPInt:  NShTT=     465 NPrTT=    1887 LenC2=     466 LenP2D=    1662.
 LDataN:  DoStor=T MaxTD1= 5 Len=  102
 Calling FoFJK, ICntrl=      2127 FMM=F ISym2X=0 I1Cent= 0 IOpClX= 1 NMat=1 NMatS=1 NMatT=0.
 ***** Axes restored to original set *****
 -------------------------------------------------------------------
 Center     Atomic                   Forces (Hartrees/Bohr)
 Number     Number              X              Y              Z
 -------------------------------------------------------------------
      1        6           0.016534327   -0.002756715   -0.008639738
      2        6          -0.001388788   -0.001615793   -0.000489997
      3        6          -0.009387497    0.015757125   -0.002117821
      4        1          -0.000399330    0.001152169    0.001141876
      5        1          -0.006161992   -0.003446786    0.007835194
      6        1          -0.001839733    0.000747963   -0.001720153
      7        1           0.001505766    0.000081331    0.000242692
      8        1           0.000566348   -0.001351276   -0.002062694
      9        1           0.000570900   -0.008568018    0.005810641
 -------------------------------------------------------------------
 Cartesian Forces:  Max     0.016534327 RMS     0.005895619

 GradGradGradGradGradGradGradGradGradGradGradGradGradGradGradGradGradGrad
 Berny optimization.
 Using GEDIIS/GDIIS optimizer.
 FormGI is forming the generalized inverse of G from B-inverse, IUseBI=4.
 Internal  Forces:  Max     0.009439689 RMS     0.003927752
 Search for a local minimum.
 Step number   7 out of a maximum of   41
 All quantities printed in internal units (Hartrees-Bohrs-Radians)
 Mixed Optimization -- RFO/linear search
 Update second derivatives using D2CorX and points    5    4    6    7
 DE= -3.58D-03 DEPred=-5.44D-03 R= 6.59D-01
 TightC=F SS=  1.41D+00  RLast= 3.92D-01 DXNew= 5.3816D-01 1.1746D+00
 Trust test= 6.59D-01 RLast= 3.92D-01 DXMaxT set to 5.38D-01
 ITU=  1  0 -1  0  1  1  0
 Use linear search instead of GDIIS.
     Eigenvalues ---    0.00230   0.00800   0.03591   0.03788   0.06425
     Eigenvalues ---    0.06844   0.11234   0.13711   0.15995   0.16000
     Eigenvalues ---    0.16000   0.16082   0.18010   0.32006   0.34311
     Eigenvalues ---    0.34362   0.34363   0.34460   0.36234   0.36701
     Eigenvalues ---    0.39241
 RFO step:  Lambda=-1.29658734D-03 EMin= 2.29545710D-03
 Quartic linear search produced a step of -0.22774.
 Iteration  1 RMS(Cart)=  0.04860600 RMS(Int)=  0.00237523
 Iteration  2 RMS(Cart)=  0.00242273 RMS(Int)=  0.00160243
 Iteration  3 RMS(Cart)=  0.00001173 RMS(Int)=  0.00160242
 Iteration  4 RMS(Cart)=  0.00000009 RMS(Int)=  0.00160242
 Variable       Old X    -DE/DX   Delta X   Delta X   Delta X     New X
                                 (Linear)    (Quad)   (Total)
    R1        2.81686  -0.00887  -0.00284  -0.02493  -0.02774   2.78912
    R2        2.08411   0.00154   0.01349  -0.00430   0.00919   2.09330
    R3        2.07489   0.00944   0.01509   0.01002   0.02507   2.09996
    R4        2.09590   0.00239   0.01189  -0.00222   0.00967   2.10557
    R5        2.81634  -0.00874  -0.00282  -0.02462  -0.02744   2.78890
    R6        2.08454   0.00152   0.01343  -0.00431   0.00912   2.09367
    R7        2.09548   0.00237   0.01199  -0.00230   0.00969   2.10517
    R8        2.07514   0.00935   0.01510   0.00979   0.02488   2.10002
    A1        1.96018  -0.00168   0.00324  -0.00753  -0.00546   1.95472
    A2        1.88583   0.00650   0.02212   0.01817   0.04083   1.92666
    A3        1.96235   0.00112   0.00503   0.00619   0.01083   1.97317
    A4        1.90480  -0.00399  -0.01145  -0.01782  -0.03036   1.87444
    A5        1.87943  -0.00105  -0.01590   0.00215  -0.01482   1.86461
    A6        1.86858  -0.00111  -0.00586  -0.00191  -0.00361   1.86497
    A7        1.95781  -0.00151   0.00344  -0.00656  -0.00434   1.95347
    A8        1.96492   0.00097   0.00474   0.00511   0.00962   1.97454
    A9        1.88600   0.00642   0.02221   0.01821   0.04077   1.92677
   A10        1.88026  -0.00100  -0.01600   0.00196  -0.01505   1.86521
   A11        1.89510  -0.00364  -0.01052  -0.01435  -0.02624   1.86886
   A12        1.87711  -0.00146  -0.00671  -0.00529  -0.00749   1.86962
   A13        2.38037  -0.00063   0.03785  -0.00443   0.03480   2.41517
   A14        2.68324  -0.00107   0.04701  -0.12877  -0.08150   2.60174
    D1       -0.01388  -0.00019   0.00287  -0.03271  -0.02991  -0.04379
    D2       -2.41370   0.00087   0.02237   0.01096   0.03171  -2.38199
    D3        1.98506   0.00033   0.00907   0.00815   0.01893   2.00399
    D4       -2.02110  -0.00026  -0.00301  -0.05993  -0.06459  -2.08569
    D5        1.86227   0.00081   0.01650  -0.01626  -0.00297   1.85930
    D6       -0.02216   0.00027   0.00319  -0.01907  -0.01575  -0.03791
    D7        2.38824  -0.00121  -0.01722  -0.06557  -0.08132   2.30691
    D8       -0.01159  -0.00015   0.00228  -0.02191  -0.01970  -0.03129
    D9       -1.89601  -0.00069  -0.01103  -0.02472  -0.03248  -1.92849
         Item               Value     Threshold  Converged?
 Maximum Force            0.009440     0.000450     NO 
 RMS     Force            0.003928     0.000300     NO 
 Maximum Displacement     0.118899     0.001800     NO 
 RMS     Displacement     0.048566     0.001200     NO 
 Predicted change in Energy=-1.108397D-03
 GradGradGradGradGradGradGradGradGradGradGradGradGradGradGradGradGradGrad

                          Input orientation:                          
 ---------------------------------------------------------------------
 Center     Atomic      Atomic             Coordinates (Angstroms)
 Number     Number       Type             X           Y           Z
 ---------------------------------------------------------------------
      1          6           0        0.915803    0.149453   -0.056183
      2          6           0        2.342885   -0.109423   -0.329702
      3          6           0        3.126363   -1.348385   -0.500533
      4          1           0        0.746724    1.173205    0.331634
      5          1           0        0.532433   -0.562228    0.706323
      6          1           0        0.271037    0.035326   -0.957702
      7          1           0        4.214617   -1.166982   -0.399124
      8          1           0        2.970217   -1.831740   -1.491997
      9          1           0        2.846141   -2.093786    0.274585
 ---------------------------------------------------------------------
                    Distance matrix (angstroms):
                    1          2          3          4          5
     1  C    0.000000
     2  C    1.475938   0.000000
     3  C    2.706943   1.475821   0.000000
     4  H    1.107726   2.151797   3.565613   0.000000
     5  H    1.111251   2.134507   2.966988   1.788306   0.000000
     6  H    1.114219   2.169767   3.205705   1.784218   1.787282
     7  H    3.568302   2.150960   1.107920   4.246970   3.891814
     8  H    3.194886   2.170449   1.114008   4.159235   3.519525
     9  H    2.977874   2.134508   1.111285   3.883817   2.808080
                    6          7          8          9
     6  H    0.000000
     7  H    4.160453   0.000000
     8  H    3.325203   1.784602   0.000000
     9  H    3.561293   1.784819   1.790217   0.000000
 Stoichiometry    C3H6(3)
 Framework group  C1[X(C3H6)]
 Deg. of freedom    21
 Full point group                 C1      NOp   1
 Largest Abelian subgroup         C1      NOp   1
 Largest concise Abelian subgroup C1      NOp   1
                         Standard orientation:                         
 ---------------------------------------------------------------------
 Center     Atomic      Atomic             Coordinates (Angstroms)
 Number     Number       Type             X           Y           Z
 ---------------------------------------------------------------------
      1          6           0       -1.353614   -0.104582   -0.000502
      2          6           0       -0.000004    0.483717   -0.006648
      3          6           0        1.353329   -0.104932   -0.001322
      4          1           0       -2.121631    0.624973    0.323467
      5          1           0       -1.397954   -0.966562    0.699428
      6          1           0       -1.669362   -0.483213   -0.999715
      7          1           0        2.125186    0.635030    0.288815
      8          1           0        1.655669   -0.516043   -0.991570
      9          1           0        1.409823   -0.939400    0.730407
 ---------------------------------------------------------------------
 Rotational constants (GHZ):          53.9856309           7.6786306           7.3520254
 Standard basis: def2SVPP (5D, 7F)
 There are    57 symmetry adapted cartesian basis functions of A   symmetry.
 There are    54 symmetry adapted basis functions of A   symmetry.
    54 basis functions,    99 primitive gaussians,    57 cartesian basis functions
    13 alpha electrons       11 beta electrons
       nuclear repulsion energy        67.8279602821 Hartrees.
 NAtoms=    9 NActive=    9 NUniq=    9 SFac= 1.00D+00 NAtFMM=   60 NAOKFM=F Big=F
 Integral buffers will be    131072 words long.
 Raffenetti 2 integral format.
 Two-electron integral symmetry is turned on.
 Nuclear repulsion after empirical dispersion term =       67.8205460243 Hartrees.
 One-electron integrals computed using PRISM.
   1 Symmetry operations used in ECPInt.
 ECPInt:  NShTT=     465 NPrTT=    1887 LenC2=     466 LenP2D=    1662.
 LDataN:  DoStor=T MaxTD1= 4 Len=   56
 NBasis=    54 RedAO= T EigKep=  4.16D-03  NBF=    54
 NBsUse=    54 1.00D-06 EigRej= -1.00D+00 NBFU=    54
 Initial guess from the checkpoint file:  "/home/software/g16tmp/Gau-42403.chk"
 B after Tr=     0.000000    0.000000    0.000000
         Rot=    0.999609    0.027973   -0.000377    0.000061 Ang=   3.21 deg.
 Initial guess <Sx>= 0.0000 <Sy>= 0.0000 <Sz>= 1.0000 <S**2>= 2.0063 S= 1.0021
 ExpMin= 1.22D-01 ExpMax= 1.24D+03 ExpMxC= 1.86D+02 IAcc=3 IRadAn=         5 AccDes= 0.00D+00
 Harris functional with IExCor=  402 and IRadAn=       5 diagonalized for initial guess.
 HarFok:  IExCor=  402 AccDes= 0.00D+00 IRadAn=         5 IDoV= 1 UseB2=F ITyADJ=14
 ICtDFT=  3500011 ScaDFX=  1.000000  1.000000  1.000000  1.000000
 FoFCou: FMM=F IPFlag=           0 FMFlag=      100000 FMFlg1=           0
         NFxFlg=           0 DoJE=T BraDBF=F KetDBF=T FulRan=T
         wScrn=  0.000000 ICntrl=       500 IOpCl=  0 I1Cent=   200000004 NGrid=           0
         NMat0=    1 NMatS0=      1 NMatT0=    0 NMatD0=    1 NMtDS0=    0 NMtDT0=    0
 Petite list used in FoFCou.
 Keep R1 and R2 ints in memory in canonical form, NReq=16304564.
 Requested convergence on RMS density matrix=1.00D-08 within 128 cycles.
 Requested convergence on MAX density matrix=1.00D-06.
 Requested convergence on             energy=1.00D-06.
 No special actions if energy rises.
 Integral accuracy reduced to 1.0D-05 until final iterations.
 Initial convergence to 1.0D-05 achieved.  Increase integral accuracy.
 SCF Done:  E(UB3LYP) =  -117.709597495     A.U. after   12 cycles
            NFock= 12  Conv=0.44D-08     -V/T= 2.0115
 <Sx>= 0.0000 <Sy>= 0.0000 <Sz>= 1.0000 <S**2>= 2.0065 S= 1.0022
 <L.S>=  0.00000000000    
 Annihilation of the first spin contaminant:
 S**2 before annihilation     2.0065,   after     2.0000
   1 Symmetry operations used in ECPInt.
 ECPInt:  NShTT=     465 NPrTT=    1887 LenC2=     466 LenP2D=    1662.
 LDataN:  DoStor=T MaxTD1= 5 Len=  102
 Calling FoFJK, ICntrl=      2127 FMM=F ISym2X=0 I1Cent= 0 IOpClX= 1 NMat=1 NMatS=1 NMatT=0.
 ***** Axes restored to original set *****
 -------------------------------------------------------------------
 Center     Atomic                   Forces (Hartrees/Bohr)
 Number     Number              X              Y              Z
 -------------------------------------------------------------------
      1        6           0.003755667   -0.000070689   -0.001434830
      2        6          -0.000887639   -0.001220732   -0.000072640
      3        6          -0.001060122    0.003896447    0.000352758
      4        1           0.000310953   -0.000710638   -0.000362035
      5        1          -0.001553639   -0.000216796    0.001368904
      6        1           0.000247597    0.000008253   -0.000078656
      7        1          -0.000942360    0.000203116   -0.000373548
      8        1          -0.000225294    0.000088654    0.000010393
      9        1           0.000354837   -0.001977614    0.000589654
 -------------------------------------------------------------------
 Cartesian Forces:  Max     0.003896447 RMS     0.001298573

 GradGradGradGradGradGradGradGradGradGradGradGradGradGradGradGradGradGrad
 Berny optimization.
 Using GEDIIS/GDIIS optimizer.
 FormGI is forming the generalized inverse of G from B-inverse, IUseBI=4.
 Internal  Forces:  Max     0.002935834 RMS     0.001077262
 Search for a local minimum.
 Step number   8 out of a maximum of   41
 All quantities printed in internal units (Hartrees-Bohrs-Radians)
 Mixed Optimization -- RFO/linear search
 Update second derivatives using D2CorX and points    5    4    6    7    8
 DE= -1.36D-03 DEPred=-1.11D-03 R= 1.23D+00
 TightC=F SS=  1.41D+00  RLast= 1.77D-01 DXNew= 9.0507D-01 5.3190D-01
 Trust test= 1.23D+00 RLast= 1.77D-01 DXMaxT set to 5.38D-01
 ITU=  1  1  0 -1  0  1  1  0
 Use linear search instead of GDIIS.
     Eigenvalues ---    0.00220   0.00541   0.03568   0.03855   0.05991
     Eigenvalues ---    0.06736   0.10745   0.14614   0.15991   0.16000
     Eigenvalues ---    0.16001   0.16032   0.17745   0.32899   0.34290
     Eigenvalues ---    0.34356   0.34362   0.34453   0.34935   0.36734
     Eigenvalues ---    0.38128
 RFO step:  Lambda=-3.04606415D-04 EMin= 2.19718865D-03
 Quartic linear search produced a step of  0.42406.
 Iteration  1 RMS(Cart)=  0.08723748 RMS(Int)=  0.00516414
 Iteration  2 RMS(Cart)=  0.00746615 RMS(Int)=  0.00163594
 Iteration  3 RMS(Cart)=  0.00003463 RMS(Int)=  0.00163575
 Iteration  4 RMS(Cart)=  0.00000016 RMS(Int)=  0.00163575
 Variable       Old X    -DE/DX   Delta X   Delta X   Delta X     New X
                                 (Linear)    (Quad)   (Total)
    R1        2.78912  -0.00294  -0.01176  -0.00159  -0.01334   2.77577
    R2        2.09330  -0.00083   0.00390  -0.00441  -0.00052   2.09278
    R3        2.09996   0.00161   0.01063  -0.00094   0.00962   2.10958
    R4        2.10557  -0.00008   0.00410  -0.00150   0.00260   2.10817
    R5        2.78890  -0.00292  -0.01164  -0.00161  -0.01319   2.77570
    R6        2.09367  -0.00093   0.00387  -0.00480  -0.00093   2.09273
    R7        2.10517  -0.00002   0.00411  -0.00122   0.00289   2.10806
    R8        2.10002   0.00165   0.01055  -0.00075   0.00980   2.10983
    A1        1.95472  -0.00050  -0.00231  -0.00034  -0.00346   1.95126
    A2        1.92666   0.00169   0.01731  -0.00053   0.01555   1.94221
    A3        1.97317  -0.00016   0.00459  -0.00363   0.00261   1.97579
    A4        1.87444  -0.00106  -0.01287   0.00164  -0.01481   1.85963
    A5        1.86461   0.00038  -0.00628   0.00787   0.00300   1.86762
    A6        1.86497  -0.00045  -0.00153  -0.00477  -0.00433   1.86063
    A7        1.95347  -0.00055  -0.00184  -0.00152  -0.00401   1.94946
    A8        1.97454  -0.00022   0.00408  -0.00402   0.00217   1.97671
    A9        1.92677   0.00173   0.01729   0.00083   0.01563   1.94240
   A10        1.86521   0.00045  -0.00638   0.00816   0.00367   1.86888
   A11        1.86886  -0.00093  -0.01113   0.00166  -0.01299   1.85586
   A12        1.86962  -0.00058  -0.00318  -0.00480  -0.00584   1.86378
   A13        2.41517   0.00082   0.01476   0.01680   0.03005   2.44522
   A14        2.60174  -0.00067  -0.03456  -0.15057  -0.18198   2.41976
    D1       -0.04379  -0.00011  -0.01268  -0.03160  -0.04454  -0.08833
    D2       -2.38199   0.00056   0.01345   0.04042   0.05458  -2.32741
    D3        2.00399   0.00054   0.00803   0.04538   0.05589   2.05988
    D4       -2.08569  -0.00054  -0.02739  -0.09620  -0.12541  -2.21110
    D5        1.85930   0.00013  -0.00126  -0.02418  -0.02629   1.83301
    D6       -0.03791   0.00010  -0.00668  -0.01922  -0.02498  -0.06289
    D7        2.30691  -0.00073  -0.03449  -0.09046  -0.12601   2.18090
    D8       -0.03129  -0.00006  -0.00836  -0.01844  -0.02689  -0.05818
    D9       -1.92849  -0.00008  -0.01378  -0.01348  -0.02558  -1.95408
         Item               Value     Threshold  Converged?
 Maximum Force            0.002936     0.000450     NO 
 RMS     Force            0.001077     0.000300     NO 
 Maximum Displacement     0.257285     0.001800     NO 
 RMS     Displacement     0.087125     0.001200     NO 
 Predicted change in Energy=-3.117483D-04
 GradGradGradGradGradGradGradGradGradGradGradGradGradGradGradGradGradGrad

                          Input orientation:                          
 ---------------------------------------------------------------------
 Center     Atomic      Atomic             Coordinates (Angstroms)
 Number     Number       Type             X           Y           Z
 ---------------------------------------------------------------------
      1          6           0        0.932345    0.141032   -0.053063
      2          6           0        2.373829   -0.103883   -0.193553
      3          6           0        3.114816   -1.337725   -0.486912
      4          1           0        0.721720    1.174931    0.283304
      5          1           0        0.477937   -0.539248    0.706508
      6          1           0        0.365440   -0.015549   -1.001036
      7          1           0        4.209474   -1.170444   -0.475331
      8          1           0        2.861205   -1.778313   -1.479883
      9          1           0        2.909454   -2.125363    0.277265
 ---------------------------------------------------------------------
                    Distance matrix (angstroms):
                    1          2          3          4          5
     1  C    0.000000
     2  C    1.468876   0.000000
     3  C    2.671727   1.468839   0.000000
     4  H    1.107452   2.142947   3.554375   0.000000
     5  H    1.116340   2.143376   3.002490   1.782397   0.000000
     6  H    1.115595   2.166440   3.093791   1.787094   1.789587
     7  H    3.554976   2.141621   1.107427   4.270917   3.964785
     8  H    3.072491   2.167001   1.115538   4.050663   3.463460
     9  H    3.025660   2.143582   1.116473   3.959565   2.934669
                    6          7          8          9
     6  H    0.000000
     7  H    4.048055   0.000000
     8  H    3.092811   1.787864   0.000000
     9  H    3.543639   1.779978   1.791742   0.000000
 Stoichiometry    C3H6(3)
 Framework group  C1[X(C3H6)]
 Deg. of freedom    21
 Full point group                 C1      NOp   1
 Largest Abelian subgroup         C1      NOp   1
 Largest concise Abelian subgroup C1      NOp   1
                         Standard orientation:                         
 ---------------------------------------------------------------------
 Center     Atomic      Atomic             Coordinates (Angstroms)
 Number     Number       Type             X           Y           Z
 ---------------------------------------------------------------------
      1          6           0       -1.335988   -0.108691   -0.001076
      2          6           0        0.000016    0.501747   -0.008422
      3          6           0        1.335739   -0.109227   -0.001748
      4          1           0       -2.134731    0.651114    0.104556
      5          1           0       -1.453929   -0.815175    0.855187
      6          1           0       -1.558828   -0.689818   -0.926920
      7          1           0        2.135634    0.655715    0.036016
      8          1           0        1.533319   -0.745990   -0.896131
      9          1           0        1.479933   -0.758824    0.894769
 ---------------------------------------------------------------------
 Rotational constants (GHZ):          52.5266356           7.8467093           7.4800550
 Standard basis: def2SVPP (5D, 7F)
 There are    57 symmetry adapted cartesian basis functions of A   symmetry.
 There are    54 symmetry adapted basis functions of A   symmetry.
    54 basis functions,    99 primitive gaussians,    57 cartesian basis functions
    13 alpha electrons       11 beta electrons
       nuclear repulsion energy        68.0773925917 Hartrees.
 NAtoms=    9 NActive=    9 NUniq=    9 SFac= 1.00D+00 NAtFMM=   60 NAOKFM=F Big=F
 Integral buffers will be    131072 words long.
 Raffenetti 2 integral format.
 Two-electron integral symmetry is turned on.
 Nuclear repulsion after empirical dispersion term =       68.0699348040 Hartrees.
 One-electron integrals computed using PRISM.
   1 Symmetry operations used in ECPInt.
 ECPInt:  NShTT=     465 NPrTT=    1887 LenC2=     466 LenP2D=    1657.
 LDataN:  DoStor=T MaxTD1= 4 Len=   56
 NBasis=    54 RedAO= T EigKep=  4.17D-03  NBF=    54
 NBsUse=    54 1.00D-06 EigRej= -1.00D+00 NBFU=    54
 Initial guess from the checkpoint file:  "/home/software/g16tmp/Gau-42403.chk"
 B after Tr=    -0.000000   -0.000000   -0.000000
         Rot=    0.996133    0.087861   -0.000504    0.000027 Ang=  10.08 deg.
 Initial guess <Sx>= 0.0000 <Sy>= 0.0000 <Sz>= 1.0000 <S**2>= 2.0065 S= 1.0022
 ExpMin= 1.22D-01 ExpMax= 1.24D+03 ExpMxC= 1.86D+02 IAcc=3 IRadAn=         5 AccDes= 0.00D+00
 Harris functional with IExCor=  402 and IRadAn=       5 diagonalized for initial guess.
 HarFok:  IExCor=  402 AccDes= 0.00D+00 IRadAn=         5 IDoV= 1 UseB2=F ITyADJ=14
 ICtDFT=  3500011 ScaDFX=  1.000000  1.000000  1.000000  1.000000
 FoFCou: FMM=F IPFlag=           0 FMFlag=      100000 FMFlg1=           0
         NFxFlg=           0 DoJE=T BraDBF=F KetDBF=T FulRan=T
         wScrn=  0.000000 ICntrl=       500 IOpCl=  0 I1Cent=   200000004 NGrid=           0
         NMat0=    1 NMatS0=      1 NMatT0=    0 NMatD0=    1 NMtDS0=    0 NMtDT0=    0
 Petite list used in FoFCou.
 Keep R1 and R2 ints in memory in canonical form, NReq=16304564.
 Requested convergence on RMS density matrix=1.00D-08 within 128 cycles.
 Requested convergence on MAX density matrix=1.00D-06.
 Requested convergence on             energy=1.00D-06.
 No special actions if energy rises.
 Integral accuracy reduced to 1.0D-05 until final iterations.
 Initial convergence to 1.0D-05 achieved.  Increase integral accuracy.
 SCF Done:  E(UB3LYP) =  -117.709753454     A.U. after   12 cycles
            NFock= 12  Conv=0.33D-08     -V/T= 2.0114
 <Sx>= 0.0000 <Sy>= 0.0000 <Sz>= 1.0000 <S**2>= 2.0064 S= 1.0021
 <L.S>=  0.00000000000    
 Annihilation of the first spin contaminant:
 S**2 before annihilation     2.0064,   after     2.0000
   1 Symmetry operations used in ECPInt.
 ECPInt:  NShTT=     465 NPrTT=    1887 LenC2=     466 LenP2D=    1657.
 LDataN:  DoStor=T MaxTD1= 5 Len=  102
 Calling FoFJK, ICntrl=      2127 FMM=F ISym2X=0 I1Cent= 0 IOpClX= 1 NMat=1 NMatS=1 NMatT=0.
 ***** Axes restored to original set *****
 -------------------------------------------------------------------
 Center     Atomic                   Forces (Hartrees/Bohr)
 Number     Number              X              Y              Z
 -------------------------------------------------------------------
      1        6          -0.002013298    0.002277482    0.003096600
      2        6          -0.002422352   -0.002557558   -0.002864515
      3        6           0.004063827   -0.001255802    0.002566695
      4        1          -0.000073515   -0.000390404   -0.000773666
      5        1           0.000012152    0.000488489   -0.000687197
      6        1           0.001357810    0.000129106    0.000094410
      7        1          -0.000519293   -0.000093048   -0.000806497
      8        1          -0.000359184    0.001325449    0.000462129
      9        1          -0.000046147    0.000076286   -0.001087959
 -------------------------------------------------------------------
 Cartesian Forces:  Max     0.004063827 RMS     0.001629355

 GradGradGradGradGradGradGradGradGradGradGradGradGradGradGradGradGradGrad
 Berny optimization.
 Using GEDIIS/GDIIS optimizer.
 FormGI is forming the generalized inverse of G from B-inverse, IUseBI=4.
 Internal  Forces:  Max     0.004887180 RMS     0.001374927
 Search for a local minimum.
 Step number   9 out of a maximum of   41
 All quantities printed in internal units (Hartrees-Bohrs-Radians)
 Mixed Optimization -- RFO/linear search
 Update second derivatives using D2CorX and points    6    7    8    9
 DE= -1.56D-04 DEPred=-3.12D-04 R= 5.00D-01
 TightC=F SS=  1.41D+00  RLast= 2.79D-01 DXNew= 9.0507D-01 8.3759D-01
 Trust test= 5.00D-01 RLast= 2.79D-01 DXMaxT set to 8.38D-01
 ITU=  1  1  1  0 -1  0  1  1  0
 Use linear search instead of GDIIS.
     Eigenvalues ---    0.00233   0.00799   0.03545   0.03949   0.05649
     Eigenvalues ---    0.06753   0.08518   0.14728   0.15450   0.15997
     Eigenvalues ---    0.16000   0.16011   0.19371   0.31709   0.34322
     Eigenvalues ---    0.34345   0.34367   0.34462   0.35423   0.36779
     Eigenvalues ---    0.41245
 RFO step:  Lambda=-4.51701983D-04 EMin= 2.33226692D-03
 Quartic linear search produced a step of -0.31512.
 Iteration  1 RMS(Cart)=  0.04436481 RMS(Int)=  0.00121162
 Iteration  2 RMS(Cart)=  0.00168936 RMS(Int)=  0.00055396
 Iteration  3 RMS(Cart)=  0.00000119 RMS(Int)=  0.00055396
 Iteration  4 RMS(Cart)=  0.00000000 RMS(Int)=  0.00055396
 Variable       Old X    -DE/DX   Delta X   Delta X   Delta X     New X
                                 (Linear)    (Quad)   (Total)
    R1        2.77577   0.00152   0.00421  -0.01900  -0.01481   2.76096
    R2        2.09278  -0.00059   0.00016  -0.00049  -0.00033   2.09245
    R3        2.10958  -0.00111  -0.00303   0.00881   0.00580   2.11538
    R4        2.10817  -0.00079  -0.00082   0.00037  -0.00045   2.10772
    R5        2.77570   0.00134   0.00416  -0.01904  -0.01488   2.76082
    R6        2.09273  -0.00054   0.00029  -0.00076  -0.00046   2.09227
    R7        2.10806  -0.00085  -0.00091   0.00052  -0.00039   2.10767
    R8        2.10983  -0.00079  -0.00309   0.00930   0.00621   2.11604
    A1        1.95126   0.00048   0.00109  -0.00790  -0.00636   1.94491
    A2        1.94221   0.00127  -0.00490   0.03681   0.03192   1.97413
    A3        1.97579  -0.00152  -0.00082  -0.00850  -0.00961   1.96618
    A4        1.85963  -0.00065   0.00467  -0.01286  -0.00738   1.85225
    A5        1.86762   0.00058  -0.00095  -0.00911  -0.00996   1.85765
    A6        1.86063  -0.00016   0.00137   0.00006  -0.00009   1.86055
    A7        1.94946   0.00086   0.00126  -0.00633  -0.00470   1.94476
    A8        1.97671  -0.00183  -0.00068  -0.01075  -0.01179   1.96492
    A9        1.94240   0.00060  -0.00493   0.03582   0.03109   1.97350
   A10        1.86888   0.00049  -0.00116  -0.00933  -0.01049   1.85839
   A11        1.85586   0.00026   0.00409  -0.00626  -0.00145   1.85442
   A12        1.86378  -0.00031   0.00184  -0.00431  -0.00386   1.85992
   A13        2.44522   0.00489  -0.00947   0.05434   0.04471   2.48994
   A14        2.41976   0.00377   0.05735   0.00849   0.06528   2.48505
    D1       -0.08833   0.00003   0.01404  -0.01705  -0.00299  -0.09132
    D2       -2.32741   0.00087  -0.01720   0.03241   0.01549  -2.31192
    D3        2.05988   0.00073  -0.01761   0.02279   0.00445   2.06433
    D4       -2.21110  -0.00033   0.03952  -0.04568  -0.00545  -2.21655
    D5        1.83301   0.00052   0.00828   0.00379   0.01303   1.84604
    D6       -0.06289   0.00037   0.00787  -0.00583   0.00199  -0.06090
    D7        2.18090  -0.00095   0.03971  -0.06175  -0.02233   2.15857
    D8       -0.05818  -0.00011   0.00847  -0.01229  -0.00385  -0.06203
    D9       -1.95408  -0.00025   0.00806  -0.02191  -0.01489  -1.96897
         Item               Value     Threshold  Converged?
 Maximum Force            0.004887     0.000450     NO 
 RMS     Force            0.001375     0.000300     NO 
 Maximum Displacement     0.088319     0.001800     NO 
 RMS     Displacement     0.043785     0.001200     NO 
 Predicted change in Energy=-2.740202D-04
 GradGradGradGradGradGradGradGradGradGradGradGradGradGradGradGradGradGrad

                          Input orientation:                          
 ---------------------------------------------------------------------
 Center     Atomic      Atomic             Coordinates (Angstroms)
 Number     Number       Type             X           Y           Z
 ---------------------------------------------------------------------
      1          6           0        0.918456    0.141762   -0.048629
      2          6           0        2.340200   -0.144096   -0.226280
      3          6           0        3.123562   -1.349921   -0.484634
      4          1           0        0.754150    1.183970    0.287329
      5          1           0        0.431201   -0.512487    0.717937
      6          1           0        0.334409    0.018106   -0.990764
      7          1           0        4.210099   -1.137818   -0.467277
      8          1           0        2.904474   -1.797356   -1.482513
      9          1           0        2.949668   -2.156722    0.272131
 ---------------------------------------------------------------------
                    Distance matrix (angstroms):
                    1          2          3          4          5
     1  C    0.000000
     2  C    1.461037   0.000000
     3  C    2.697723   1.460965   0.000000
     4  H    1.107277   2.131457   3.553962   0.000000
     5  H    1.119412   2.161374   3.065336   1.779799   0.000000
     6  H    1.115356   2.152659   3.147545   1.780152   1.791803
     7  H    3.556333   2.131217   1.107182   4.231279   4.009470
     8  H    3.124175   2.151696   1.115330   4.079772   3.551049
     9  H    3.084110   2.161141   1.119759   3.997593   3.040547
                    6          7          8          9
     6  H    0.000000
     7  H    4.078134   0.000000
     8  H    3.184800   1.780548   0.000000
     9  H    3.628272   1.781453   1.791637   0.000000
 Stoichiometry    C3H6(3)
 Framework group  C1[X(C3H6)]
 Deg. of freedom    21
 Full point group                 C1      NOp   1
 Largest Abelian subgroup         C1      NOp   1
 Largest concise Abelian subgroup C1      NOp   1
                         Standard orientation:                         
 ---------------------------------------------------------------------
 Center     Atomic      Atomic             Coordinates (Angstroms)
 Number     Number       Type             X           Y           Z
 ---------------------------------------------------------------------
      1          6           0       -1.348758   -0.100736   -0.001115
      2          6           0        0.000144    0.460575    0.003843
      3          6           0        1.348966   -0.100739   -0.001031
      4          1           0       -2.113643    0.682657    0.164141
      5          1           0       -1.509194   -0.865856    0.800094
      6          1           0       -1.605484   -0.593427   -0.968258
      7          1           0        2.117008    0.691315    0.091772
      8          1           0        1.578595   -0.655506   -0.940959
      9          1           0        1.530604   -0.813783    0.843028
 ---------------------------------------------------------------------
 Rotational constants (GHZ):          55.3581536           7.6938988           7.3944047
 Standard basis: def2SVPP (5D, 7F)
 There are    57 symmetry adapted cartesian basis functions of A   symmetry.
 There are    54 symmetry adapted basis functions of A   symmetry.
    54 basis functions,    99 primitive gaussians,    57 cartesian basis functions
    13 alpha electrons       11 beta electrons
       nuclear repulsion energy        68.0487244014 Hartrees.
 NAtoms=    9 NActive=    9 NUniq=    9 SFac= 1.00D+00 NAtFMM=   60 NAOKFM=F Big=F
 Integral buffers will be    131072 words long.
 Raffenetti 2 integral format.
 Two-electron integral symmetry is turned on.
 Nuclear repulsion after empirical dispersion term =       68.0413310785 Hartrees.
 One-electron integrals computed using PRISM.
   1 Symmetry operations used in ECPInt.
 ECPInt:  NShTT=     465 NPrTT=    1887 LenC2=     466 LenP2D=    1654.
 LDataN:  DoStor=T MaxTD1= 4 Len=   56
 NBasis=    54 RedAO= T EigKep=  4.09D-03  NBF=    54
 NBsUse=    54 1.00D-06 EigRej= -1.00D+00 NBFU=    54
 Initial guess from the checkpoint file:  "/home/software/g16tmp/Gau-42403.chk"
 B after Tr=    -0.000000    0.000000    0.000000
         Rot=    0.999463   -0.032764   -0.000059    0.000143 Ang=  -3.76 deg.
 Initial guess <Sx>= 0.0000 <Sy>= 0.0000 <Sz>= 1.0000 <S**2>= 2.0064 S= 1.0021
 ExpMin= 1.22D-01 ExpMax= 1.24D+03 ExpMxC= 1.86D+02 IAcc=3 IRadAn=         5 AccDes= 0.00D+00
 Harris functional with IExCor=  402 and IRadAn=       5 diagonalized for initial guess.
 HarFok:  IExCor=  402 AccDes= 0.00D+00 IRadAn=         5 IDoV= 1 UseB2=F ITyADJ=14
 ICtDFT=  3500011 ScaDFX=  1.000000  1.000000  1.000000  1.000000
 FoFCou: FMM=F IPFlag=           0 FMFlag=      100000 FMFlg1=           0
         NFxFlg=           0 DoJE=T BraDBF=F KetDBF=T FulRan=T
         wScrn=  0.000000 ICntrl=       500 IOpCl=  0 I1Cent=   200000004 NGrid=           0
         NMat0=    1 NMatS0=      1 NMatT0=    0 NMatD0=    1 NMtDS0=    0 NMtDT0=    0
 Petite list used in FoFCou.
 Keep R1 and R2 ints in memory in canonical form, NReq=16304564.
 Requested convergence on RMS density matrix=1.00D-08 within 128 cycles.
 Requested convergence on MAX density matrix=1.00D-06.
 Requested convergence on             energy=1.00D-06.
 No special actions if energy rises.
 Integral accuracy reduced to 1.0D-05 until final iterations.
 Initial convergence to 1.0D-05 achieved.  Increase integral accuracy.
 SCF Done:  E(UB3LYP) =  -117.709777159     A.U. after   12 cycles
            NFock= 12  Conv=0.33D-08     -V/T= 2.0114
 <Sx>= 0.0000 <Sy>= 0.0000 <Sz>= 1.0000 <S**2>= 2.0067 S= 1.0022
 <L.S>=  0.00000000000    
 Annihilation of the first spin contaminant:
 S**2 before annihilation     2.0067,   after     2.0000
   1 Symmetry operations used in ECPInt.
 ECPInt:  NShTT=     465 NPrTT=    1887 LenC2=     466 LenP2D=    1654.
 LDataN:  DoStor=T MaxTD1= 5 Len=  102
 Calling FoFJK, ICntrl=      2127 FMM=F ISym2X=0 I1Cent= 0 IOpClX= 1 NMat=1 NMatS=1 NMatT=0.
 ***** Axes restored to original set *****
 -------------------------------------------------------------------
 Center     Atomic                   Forces (Hartrees/Bohr)
 Number     Number              X              Y              Z
 -------------------------------------------------------------------
      1        6          -0.006542801    0.001380441    0.001549901
      2        6           0.001576604    0.001532618    0.002692070
      3        6           0.003619758   -0.005667309   -0.000386831
      4        1           0.000110890    0.000131204   -0.000477513
      5        1           0.002429825    0.000438635   -0.001889147
      6        1          -0.000102616   -0.000382243    0.000147205
      7        1          -0.000094924    0.000110040   -0.000288408
      8        1          -0.000192649   -0.000197134    0.000094137
      9        1          -0.000804086    0.002653748   -0.001441414
 -------------------------------------------------------------------
 Cartesian Forces:  Max     0.006542801 RMS     0.002148432

 GradGradGradGradGradGradGradGradGradGradGradGradGradGradGradGradGradGrad
 Berny optimization.
 Using GEDIIS/GDIIS optimizer.
 FormGI is forming the generalized inverse of G from B-inverse, IUseBI=4.
 Internal  Forces:  Max     0.004261110 RMS     0.001522125
 Search for a local minimum.
 Step number  10 out of a maximum of   41
 All quantities printed in internal units (Hartrees-Bohrs-Radians)
 Mixed Optimization -- RFO/linear search
 Update second derivatives using D2CorX and points    4    6    7    8    9
                                                     10
 DE= -2.37D-05 DEPred=-2.74D-04 R= 8.65D-02
 Trust test= 8.65D-02 RLast= 1.03D-01 DXMaxT set to 4.19D-01
 ITU= -1  1  1  1  0 -1  0  1  1  0
 Use linear search instead of GDIIS.
     Eigenvalues ---    0.00193   0.00391   0.03714   0.05421   0.06000
     Eigenvalues ---    0.07058   0.11404   0.14992   0.15857   0.16000
     Eigenvalues ---    0.16001   0.16683   0.19038   0.32867   0.34302
     Eigenvalues ---    0.34360   0.34421   0.34463   0.36627   0.36801
     Eigenvalues ---    0.44605
 RFO step:  Lambda=-1.15101284D-04 EMin= 1.93346631D-03
 Quartic linear search produced a step of -0.48372.
 Iteration  1 RMS(Cart)=  0.02666271 RMS(Int)=  0.00056262
 Iteration  2 RMS(Cart)=  0.00050018 RMS(Int)=  0.00021847
 Iteration  3 RMS(Cart)=  0.00000010 RMS(Int)=  0.00021847
 Variable       Old X    -DE/DX   Delta X   Delta X   Delta X     New X
                                 (Linear)    (Quad)   (Total)
    R1        2.76096   0.00419   0.00717   0.00974   0.01691   2.77787
    R2        2.09245  -0.00004   0.00016   0.00051   0.00067   2.09312
    R3        2.11538  -0.00255  -0.00281  -0.00495  -0.00776   2.10762
    R4        2.10772  -0.00003   0.00022  -0.00051  -0.00029   2.10742
    R5        2.76082   0.00426   0.00720   0.00968   0.01688   2.77770
    R6        2.09227  -0.00008   0.00022   0.00064   0.00086   2.09313
    R7        2.10767   0.00003   0.00019  -0.00059  -0.00040   2.10727
    R8        2.11604  -0.00276  -0.00300  -0.00509  -0.00809   2.10795
    A1        1.94491   0.00077   0.00307   0.00315   0.00612   1.95102
    A2        1.97413  -0.00292  -0.01544  -0.01003  -0.02531   1.94882
    A3        1.96618   0.00015   0.00465  -0.00210   0.00231   1.96849
    A4        1.85225   0.00156   0.00357   0.00908   0.01288   1.86512
    A5        1.85765   0.00035   0.00482   0.00037   0.00485   1.86251
    A6        1.86055   0.00031   0.00004   0.00059   0.00093   1.86148
    A7        1.94476   0.00060   0.00227   0.00310   0.00523   1.94999
    A8        1.96492   0.00023   0.00570  -0.00194   0.00349   1.96841
    A9        1.97350  -0.00236  -0.01504  -0.00941  -0.02417   1.94933
   A10        1.85839   0.00035   0.00507   0.00007   0.00475   1.86314
   A11        1.85442   0.00098   0.00070   0.00737   0.00829   1.86271
   A12        1.85992   0.00037   0.00187   0.00172   0.00396   1.86388
   A13        2.48994   0.00007  -0.02163  -0.00631  -0.02758   2.46236
   A14        2.48505  -0.00144  -0.03158   0.04552   0.01366   2.49871
    D1       -0.09132   0.00001   0.00145   0.01972   0.02120  -0.07012
    D2       -2.31192  -0.00018  -0.00749  -0.00543  -0.01324  -2.32516
    D3        2.06433   0.00018  -0.00215  -0.00533  -0.00753   2.05679
    D4       -2.21655  -0.00039   0.00264   0.03624   0.03889  -2.17766
    D5        1.84604  -0.00058  -0.00630   0.01109   0.00445   1.85048
    D6       -0.06090  -0.00022  -0.00096   0.01119   0.01016  -0.05074
    D7        2.15857   0.00030   0.01080   0.03817   0.04930   2.20787
    D8       -0.06203   0.00011   0.00186   0.01302   0.01486  -0.04717
    D9       -1.96897   0.00047   0.00720   0.01312   0.02057  -1.94840
         Item               Value     Threshold  Converged?
 Maximum Force            0.004261     0.000450     NO 
 RMS     Force            0.001522     0.000300     NO 
 Maximum Displacement     0.075138     0.001800     NO 
 RMS     Displacement     0.026686     0.001200     NO 
 Predicted change in Energy=-1.672027D-04
 GradGradGradGradGradGradGradGradGradGradGradGradGradGradGradGradGradGrad

                          Input orientation:                          
 ---------------------------------------------------------------------
 Center     Atomic      Atomic             Coordinates (Angstroms)
 Number     Number       Type             X           Y           Z
 ---------------------------------------------------------------------
      1          6           0        0.918354    0.146224   -0.050062
      2          6           0        2.350348   -0.124048   -0.242949
      3          6           0        3.125505   -1.348307   -0.489759
      4          1           0        0.738559    1.183354    0.294734
      5          1           0        0.470962   -0.531139    0.714744
      6          1           0        0.323704    0.011023   -0.983757
      7          1           0        4.215978   -1.157822   -0.451691
      8          1           0        2.912847   -1.800404   -1.486693
      9          1           0        2.909961   -2.133440    0.272735
 ---------------------------------------------------------------------
                    Distance matrix (angstroms):
                    1          2          3          4          5
     1  C    0.000000
     2  C    1.469986   0.000000
     3  C    2.701568   1.469896   0.000000
     4  H    1.107632   2.143890   3.566826   0.000000
     5  H    1.115306   2.148253   3.027407   1.785357   0.000000
     6  H    1.115201   2.162019   3.153078   1.783536   1.789003
     7  H    3.568776   2.143091   1.107639   4.258016   3.972209
     8  H    3.135486   2.161822   1.115120   4.099246   3.524225
     9  H    3.044267   2.148663   1.115477   3.964415   2.951518
                    6          7          8          9
     6  H    0.000000
     7  H    4.098669   0.000000
     8  H    3.199668   1.783898   0.000000
     9  H    3.586951   1.783901   1.790673   0.000000
 Stoichiometry    C3H6(3)
 Framework group  C1[X(C3H6)]
 Deg. of freedom    21
 Full point group                 C1      NOp   1
 Largest Abelian subgroup         C1      NOp   1
 Largest concise Abelian subgroup C1      NOp   1
                         Standard orientation:                         
 ---------------------------------------------------------------------
 Center     Atomic      Atomic             Coordinates (Angstroms)
 Number     Number       Type             X           Y           Z
 ---------------------------------------------------------------------
      1          6           0       -1.350849   -0.103366   -0.000686
      2          6           0        0.000044    0.476242   -0.002040
      3          6           0        1.350719   -0.103647   -0.001099
      4          1           0       -2.127499    0.664638    0.183256
      5          1           0       -1.466077   -0.876951    0.794421
      6          1           0       -1.610112   -0.596748   -0.966621
      7          1           0        2.130150    0.672693    0.127934
      8          1           0        1.589140   -0.644361   -0.946760
      9          1           0        1.484914   -0.834645    0.830720
 ---------------------------------------------------------------------
 Rotational constants (GHZ):          54.3393192           7.6923617           7.3729200
 Standard basis: def2SVPP (5D, 7F)
 There are    57 symmetry adapted cartesian basis functions of A   symmetry.
 There are    54 symmetry adapted basis functions of A   symmetry.
    54 basis functions,    99 primitive gaussians,    57 cartesian basis functions
    13 alpha electrons       11 beta electrons
       nuclear repulsion energy        67.9079629981 Hartrees.
 NAtoms=    9 NActive=    9 NUniq=    9 SFac= 1.00D+00 NAtFMM=   60 NAOKFM=F Big=F
 Integral buffers will be    131072 words long.
 Raffenetti 2 integral format.
 Two-electron integral symmetry is turned on.
 Nuclear repulsion after empirical dispersion term =       67.9005557569 Hartrees.
 One-electron integrals computed using PRISM.
   1 Symmetry operations used in ECPInt.
 ECPInt:  NShTT=     465 NPrTT=    1887 LenC2=     466 LenP2D=    1656.
 LDataN:  DoStor=T MaxTD1= 4 Len=   56
 NBasis=    54 RedAO= T EigKep=  4.19D-03  NBF=    54
 NBsUse=    54 1.00D-06 EigRej= -1.00D+00 NBFU=    54
 Initial guess from the checkpoint file:  "/home/software/g16tmp/Gau-42403.chk"
 B after Tr=    -0.000000   -0.000000   -0.000000
         Rot=    0.999988   -0.004970    0.000236   -0.000099 Ang=  -0.57 deg.
 Initial guess <Sx>= 0.0000 <Sy>= 0.0000 <Sz>= 1.0000 <S**2>= 2.0068 S= 1.0023
 ExpMin= 1.22D-01 ExpMax= 1.24D+03 ExpMxC= 1.86D+02 IAcc=3 IRadAn=         5 AccDes= 0.00D+00
 Harris functional with IExCor=  402 and IRadAn=       5 diagonalized for initial guess.
 HarFok:  IExCor=  402 AccDes= 0.00D+00 IRadAn=         5 IDoV= 1 UseB2=F ITyADJ=14
 ICtDFT=  3500011 ScaDFX=  1.000000  1.000000  1.000000  1.000000
 FoFCou: FMM=F IPFlag=           0 FMFlag=      100000 FMFlg1=           0
         NFxFlg=           0 DoJE=T BraDBF=F KetDBF=T FulRan=T
         wScrn=  0.000000 ICntrl=       500 IOpCl=  0 I1Cent=   200000004 NGrid=           0
         NMat0=    1 NMatS0=      1 NMatT0=    0 NMatD0=    1 NMtDS0=    0 NMtDT0=    0
 Petite list used in FoFCou.
 Keep R1 and R2 ints in memory in canonical form, NReq=16304564.
 Requested convergence on RMS density matrix=1.00D-08 within 128 cycles.
 Requested convergence on MAX density matrix=1.00D-06.
 Requested convergence on             energy=1.00D-06.
 No special actions if energy rises.
 Integral accuracy reduced to 1.0D-05 until final iterations.
 Initial convergence to 1.0D-05 achieved.  Increase integral accuracy.
 SCF Done:  E(UB3LYP) =  -117.709919666     A.U. after   11 cycles
            NFock= 11  Conv=0.39D-08     -V/T= 2.0115
 <Sx>= 0.0000 <Sy>= 0.0000 <Sz>= 1.0000 <S**2>= 2.0066 S= 1.0022
 <L.S>=  0.00000000000    
 Annihilation of the first spin contaminant:
 S**2 before annihilation     2.0066,   after     2.0000
   1 Symmetry operations used in ECPInt.
 ECPInt:  NShTT=     465 NPrTT=    1887 LenC2=     466 LenP2D=    1656.
 LDataN:  DoStor=T MaxTD1= 5 Len=  102
 Calling FoFJK, ICntrl=      2127 FMM=F ISym2X=0 I1Cent= 0 IOpClX= 1 NMat=1 NMatS=1 NMatT=0.
 ***** Axes restored to original set *****
 -------------------------------------------------------------------
 Center     Atomic                   Forces (Hartrees/Bohr)
 Number     Number              X              Y              Z
 -------------------------------------------------------------------
      1        6          -0.000595946    0.000247203    0.000255316
      2        6          -0.000172593   -0.000260195    0.000281272
      3        6           0.000768843   -0.000354785    0.000416164
      4        1           0.000330791   -0.000574230   -0.000392092
      5        1           0.000187057    0.000364323   -0.000222219
      6        1           0.000380896   -0.000062056    0.000143392
      7        1          -0.000760941    0.000166618   -0.000227283
      8        1          -0.000166078    0.000252201    0.000249763
      9        1           0.000027971    0.000220920   -0.000504313
 -------------------------------------------------------------------
 Cartesian Forces:  Max     0.000768843 RMS     0.000367356

 GradGradGradGradGradGradGradGradGradGradGradGradGradGradGradGradGradGrad
 Berny optimization.
 Using GEDIIS/GDIIS optimizer.
 FormGI is forming the generalized inverse of G from B-inverse, IUseBI=4.
 Internal  Forces:  Max     0.000728295 RMS     0.000321925
 Search for a local minimum.
 Step number  11 out of a maximum of   41
 All quantities printed in internal units (Hartrees-Bohrs-Radians)
 Mixed Optimization -- En-DIIS/RFO-DIIS
 Update second derivatives using D2CorX and points    4    6    7    8    9
                                                     10   11
 DE= -1.43D-04 DEPred=-1.67D-04 R= 8.52D-01
 TightC=F SS=  1.41D+00  RLast= 9.30D-02 DXNew= 7.0433D-01 2.7887D-01
 Trust test= 8.52D-01 RLast= 9.30D-02 DXMaxT set to 4.19D-01
 ITU=  1 -1  1  1  1  0 -1  0  1  1  0
 Use linear search instead of GDIIS.
     Eigenvalues ---    0.00223   0.00568   0.03647   0.05528   0.05816
     Eigenvalues ---    0.07194   0.11304   0.11402   0.15591   0.16000
     Eigenvalues ---    0.16002   0.16183   0.18445   0.29887   0.34277
     Eigenvalues ---    0.34355   0.34382   0.34463   0.35409   0.36778
     Eigenvalues ---    0.38407
 RFO step:  Lambda=-1.47170145D-04 EMin= 2.23142673D-03
 Quartic linear search produced a step of -0.14371.
 Iteration  1 RMS(Cart)=  0.04943035 RMS(Int)=  0.00163107
 Iteration  2 RMS(Cart)=  0.00247241 RMS(Int)=  0.00027947
 Iteration  3 RMS(Cart)=  0.00000441 RMS(Int)=  0.00027945
 Iteration  4 RMS(Cart)=  0.00000000 RMS(Int)=  0.00027945
 Variable       Old X    -DE/DX   Delta X   Delta X   Delta X     New X
                                 (Linear)    (Quad)   (Total)
    R1        2.77787  -0.00033  -0.00243   0.00288   0.00046   2.77833
    R2        2.09312  -0.00071  -0.00010  -0.00501  -0.00511   2.08802
    R3        2.10762  -0.00045   0.00111  -0.00215  -0.00105   2.10658
    R4        2.10742  -0.00032   0.00004  -0.00225  -0.00221   2.10521
    R5        2.77770  -0.00029  -0.00243   0.00282   0.00040   2.77810
    R6        2.09313  -0.00073  -0.00012  -0.00505  -0.00518   2.08796
    R7        2.10727  -0.00029   0.00006  -0.00226  -0.00221   2.10507
    R8        2.10795  -0.00051   0.00116  -0.00192  -0.00075   2.10719
    A1        1.95102  -0.00017  -0.00088  -0.00173  -0.00283   1.94819
    A2        1.94882  -0.00001   0.00364   0.00527   0.00890   1.95773
    A3        1.96849  -0.00022  -0.00033  -0.01164  -0.01196   1.95652
    A4        1.86512   0.00002  -0.00185   0.00168  -0.00041   1.86471
    A5        1.86251   0.00041  -0.00070   0.01006   0.00920   1.87170
    A6        1.86148   0.00000  -0.00013  -0.00288  -0.00233   1.85914
    A7        1.94999  -0.00022  -0.00075  -0.00027  -0.00129   1.94870
    A8        1.96841  -0.00023  -0.00050  -0.01425  -0.01481   1.95359
    A9        1.94933   0.00010   0.00347   0.00583   0.00931   1.95864
   A10        1.86314   0.00042  -0.00068   0.00928   0.00831   1.87145
   A11        1.86271   0.00002  -0.00119   0.00636   0.00496   1.86767
   A12        1.86388  -0.00006  -0.00057  -0.00601  -0.00580   1.85808
   A13        2.46236   0.00053   0.00396   0.03442   0.03858   2.50094
   A14        2.49871  -0.00045  -0.00196  -0.08267  -0.08455   2.41416
    D1       -0.07012  -0.00004  -0.00305  -0.01701  -0.02002  -0.09014
    D2       -2.32516   0.00025   0.00190   0.04385   0.04545  -2.27971
    D3        2.05679   0.00028   0.00108   0.05066   0.05205   2.10885
    D4       -2.17766  -0.00029  -0.00559  -0.07170  -0.07754  -2.25520
    D5        1.85048   0.00000  -0.00064  -0.01084  -0.01207   1.83842
    D6       -0.05074   0.00004  -0.00146  -0.00403  -0.00547  -0.05621
    D7        2.20787  -0.00030  -0.00709  -0.06941  -0.07623   2.13164
    D8       -0.04717  -0.00001  -0.00214  -0.00855  -0.01075  -0.05792
    D9       -1.94840   0.00003  -0.00296  -0.00174  -0.00416  -1.95255
         Item               Value     Threshold  Converged?
 Maximum Force            0.000728     0.000450     NO 
 RMS     Force            0.000322     0.000300     NO 
 Maximum Displacement     0.136954     0.001800     NO 
 RMS     Displacement     0.049390     0.001200     NO 
 Predicted change in Energy=-7.854605D-05
 GradGradGradGradGradGradGradGradGradGradGradGradGradGradGradGradGradGrad

                          Input orientation:                          
 ---------------------------------------------------------------------
 Center     Atomic      Atomic             Coordinates (Angstroms)
 Number     Number       Type             X           Y           Z
 ---------------------------------------------------------------------
      1          6           0        0.918115    0.145594   -0.043752
      2          6           0        2.355073   -0.138411   -0.170476
      3          6           0        3.128420   -1.349572   -0.480696
      4          1           0        0.735286    1.190693    0.264817
      5          1           0        0.425864   -0.505996    0.715057
      6          1           0        0.372848   -0.016052   -1.001677
      7          1           0        4.214694   -1.147874   -0.492173
      8          1           0        2.860522   -1.770576   -1.476627
      9          1           0        2.955399   -2.162367    0.262828
 ---------------------------------------------------------------------
                    Distance matrix (angstroms):
                    1          2          3          4          5
     1  C    0.000000
     2  C    1.470227   0.000000
     3  C    2.704051   1.470107   0.000000
     4  H    1.104931   2.140025   3.568729   0.000000
     5  H    1.114752   2.154330   3.073313   1.782473   0.000000
     6  H    1.114031   2.152924   3.105298   1.786506   1.786066
     7  H    3.569534   2.140256   1.104900   4.260071   4.027983
     8  H    3.081848   2.150691   1.113953   4.039600   3.511439
     9  H    3.093736   2.155120   1.115078   4.021432   3.057225
                    6          7          8          9
     6  H    0.000000
     7  H    4.037375   0.000000
     8  H    3.080983   1.786250   0.000000
     9  H    3.588204   1.784669   1.785554   0.000000
 Stoichiometry    C3H6(3)
 Framework group  C1[X(C3H6)]
 Deg. of freedom    21
 Full point group                 C1      NOp   1
 Largest Abelian subgroup         C1      NOp   1
 Largest concise Abelian subgroup C1      NOp   1
                         Standard orientation:                         
 ---------------------------------------------------------------------
 Center     Atomic      Atomic             Coordinates (Angstroms)
 Number     Number       Type             X           Y           Z
 ---------------------------------------------------------------------
      1          6           0       -1.351933   -0.102824   -0.000152
      2          6           0        0.000147    0.474626   -0.000778
      3          6           0        1.352118   -0.102771    0.000109
      4          1           0       -2.129133    0.680343    0.058854
      5          1           0       -1.516699   -0.787094    0.864312
      6          1           0       -1.553366   -0.699320   -0.919219
      7          1           0        2.130358    0.681458   -0.011460
      8          1           0        1.526955   -0.754135   -0.886485
      9          1           0        1.539894   -0.735439    0.898925
 ---------------------------------------------------------------------
 Rotational constants (GHZ):          54.4569322           7.6900787           7.3702963
 Standard basis: def2SVPP (5D, 7F)
 There are    57 symmetry adapted cartesian basis functions of A   symmetry.
 There are    54 symmetry adapted basis functions of A   symmetry.
    54 basis functions,    99 primitive gaussians,    57 cartesian basis functions
    13 alpha electrons       11 beta electrons
       nuclear repulsion energy        67.9315261930 Hartrees.
 NAtoms=    9 NActive=    9 NUniq=    9 SFac= 1.00D+00 NAtFMM=   60 NAOKFM=F Big=F
 Integral buffers will be    131072 words long.
 Raffenetti 2 integral format.
 Two-electron integral symmetry is turned on.
 Nuclear repulsion after empirical dispersion term =       67.9241169934 Hartrees.
 One-electron integrals computed using PRISM.
   1 Symmetry operations used in ECPInt.
 ECPInt:  NShTT=     465 NPrTT=    1887 LenC2=     466 LenP2D=    1654.
 LDataN:  DoStor=T MaxTD1= 4 Len=   56
 NBasis=    54 RedAO= T EigKep=  4.20D-03  NBF=    54
 NBsUse=    54 1.00D-06 EigRej= -1.00D+00 NBFU=    54
 Initial guess from the checkpoint file:  "/home/software/g16tmp/Gau-42403.chk"
 B after Tr=     0.000000    0.000000    0.000000
         Rot=    0.998933    0.046180   -0.000204    0.000107 Ang=   5.29 deg.
 Initial guess <Sx>= 0.0000 <Sy>= 0.0000 <Sz>= 1.0000 <S**2>= 2.0066 S= 1.0022
 ExpMin= 1.22D-01 ExpMax= 1.24D+03 ExpMxC= 1.86D+02 IAcc=3 IRadAn=         5 AccDes= 0.00D+00
 Harris functional with IExCor=  402 and IRadAn=       5 diagonalized for initial guess.
 HarFok:  IExCor=  402 AccDes= 0.00D+00 IRadAn=         5 IDoV= 1 UseB2=F ITyADJ=14
 ICtDFT=  3500011 ScaDFX=  1.000000  1.000000  1.000000  1.000000
 FoFCou: FMM=F IPFlag=           0 FMFlag=      100000 FMFlg1=           0
         NFxFlg=           0 DoJE=T BraDBF=F KetDBF=T FulRan=T
         wScrn=  0.000000 ICntrl=       500 IOpCl=  0 I1Cent=   200000004 NGrid=           0
         NMat0=    1 NMatS0=      1 NMatT0=    0 NMatD0=    1 NMtDS0=    0 NMtDT0=    0
 Petite list used in FoFCou.
 Keep R1 and R2 ints in memory in canonical form, NReq=16304564.
 Requested convergence on RMS density matrix=1.00D-08 within 128 cycles.
 Requested convergence on MAX density matrix=1.00D-06.
 Requested convergence on             energy=1.00D-06.
 No special actions if energy rises.
 Integral accuracy reduced to 1.0D-05 until final iterations.
 Initial convergence to 1.0D-05 achieved.  Increase integral accuracy.
 SCF Done:  E(UB3LYP) =  -117.709985588     A.U. after   11 cycles
            NFock= 11  Conv=0.43D-08     -V/T= 2.0114
 <Sx>= 0.0000 <Sy>= 0.0000 <Sz>= 1.0000 <S**2>= 2.0066 S= 1.0022
 <L.S>=  0.00000000000    
 Annihilation of the first spin contaminant:
 S**2 before annihilation     2.0066,   after     2.0000
   1 Symmetry operations used in ECPInt.
 ECPInt:  NShTT=     465 NPrTT=    1887 LenC2=     466 LenP2D=    1654.
 LDataN:  DoStor=T MaxTD1= 5 Len=  102
 Calling FoFJK, ICntrl=      2127 FMM=F ISym2X=0 I1Cent= 0 IOpClX= 1 NMat=1 NMatS=1 NMatT=0.
 ***** Axes restored to original set *****
 -------------------------------------------------------------------
 Center     Atomic                   Forces (Hartrees/Bohr)
 Number     Number              X              Y              Z
 -------------------------------------------------------------------
      1        6           0.000672967   -0.001562984   -0.000062511
      2        6           0.000111598    0.000067064    0.000724200
      3        6          -0.001918489   -0.000114462    0.000364137
      4        1          -0.000264211    0.000840698   -0.000213485
      5        1           0.000270894    0.000030036    0.000215491
      6        1          -0.000401033    0.000504814   -0.000311168
      7        1           0.000751496    0.000008519   -0.000218345
      8        1           0.000551484   -0.000121276   -0.000643234
      9        1           0.000225295    0.000347591    0.000144915
 -------------------------------------------------------------------
 Cartesian Forces:  Max     0.001918489 RMS     0.000616455

 GradGradGradGradGradGradGradGradGradGradGradGradGradGradGradGradGradGrad
 Berny optimization.
 Using GEDIIS/GDIIS optimizer.
 FormGI is forming the generalized inverse of G from B-inverse, IUseBI=4.
 Internal  Forces:  Max     0.000779275 RMS     0.000369152
 Search for a local minimum.
 Step number  12 out of a maximum of   41
 All quantities printed in internal units (Hartrees-Bohrs-Radians)
 Mixed Optimization -- En-DIIS/RFO-DIIS
 Swapping is turned off.
 Update second derivatives using D2CorX and points    7    8    9   10   11
                                                     12
 DE= -6.59D-05 DEPred=-7.85D-05 R= 8.39D-01
 TightC=F SS=  1.41D+00  RLast= 1.64D-01 DXNew= 7.0433D-01 4.9081D-01
 Trust test= 8.39D-01 RLast= 1.64D-01 DXMaxT set to 4.91D-01
 ITU=  1  1 -1  1  1  1  0 -1  0  1  1  0
     Eigenvalues ---    0.00229   0.00461   0.03663   0.05620   0.06114
     Eigenvalues ---    0.07198   0.11008   0.13290   0.15854   0.16001
     Eigenvalues ---    0.16004   0.16379   0.18297   0.31687   0.34193
     Eigenvalues ---    0.34358   0.34380   0.34464   0.34880   0.36802
     Eigenvalues ---    0.38589
 En-DIIS/RFO-DIIS/Sim-DIIS IScMMF=       -3 using points:    12   11
 RFO step:  Lambda=-3.18209140D-05.
 DidBck=F Rises=F RFO-DIIS coefs:    1.10342   -0.10342
 Iteration  1 RMS(Cart)=  0.00643826 RMS(Int)=  0.00004203
 Iteration  2 RMS(Cart)=  0.00004310 RMS(Int)=  0.00002886
 Iteration  3 RMS(Cart)=  0.00000000 RMS(Int)=  0.00002886
 Variable       Old X    -DE/DX   Delta X   Delta X   Delta X     New X
                                 (Linear)    (Quad)   (Total)
    R1        2.77833  -0.00036   0.00005  -0.00132  -0.00127   2.77705
    R2        2.08802   0.00078  -0.00053   0.00316   0.00263   2.09065
    R3        2.10658   0.00004  -0.00011   0.00042   0.00031   2.10689
    R4        2.10521   0.00039  -0.00023   0.00170   0.00147   2.10669
    R5        2.77810  -0.00023   0.00004  -0.00100  -0.00096   2.77714
    R6        2.08796   0.00074  -0.00054   0.00308   0.00254   2.09050
    R7        2.10507   0.00049  -0.00023   0.00196   0.00173   2.10680
    R8        2.10719  -0.00019  -0.00008  -0.00021  -0.00029   2.10690
    A1        1.94819   0.00001  -0.00029  -0.00020  -0.00052   1.94768
    A2        1.95773  -0.00035   0.00092  -0.00105  -0.00014   1.95759
    A3        1.95652   0.00061  -0.00124   0.00393   0.00269   1.95921
    A4        1.86471   0.00016  -0.00004   0.00093   0.00087   1.86558
    A5        1.87170  -0.00064   0.00095  -0.00697  -0.00605   1.86566
    A6        1.85914   0.00019  -0.00024   0.00312   0.00295   1.86209
    A7        1.94870  -0.00008  -0.00013  -0.00122  -0.00139   1.94732
    A8        1.95359   0.00072  -0.00153   0.00548   0.00392   1.95752
    A9        1.95864  -0.00008   0.00096  -0.00015   0.00083   1.95946
   A10        1.87145  -0.00066   0.00086  -0.00671  -0.00590   1.86555
   A11        1.86767  -0.00015   0.00051  -0.00246  -0.00196   1.86572
   A12        1.85808   0.00021  -0.00060   0.00471   0.00418   1.86226
   A13        2.50094  -0.00024   0.00399   0.00176   0.00578   2.50672
   A14        2.41416  -0.00036  -0.00874  -0.00807  -0.01682   2.39734
    D1       -0.09014   0.00007  -0.00207   0.01386   0.01179  -0.07835
    D2       -2.27971   0.00024   0.00470   0.01682   0.02149  -2.25822
    D3        2.10885  -0.00012   0.00538   0.01029   0.01569   2.12454
    D4       -2.25520   0.00009  -0.00802   0.00937   0.00133  -2.25387
    D5        1.83842   0.00026  -0.00125   0.01234   0.01103   1.84944
    D6       -0.05621  -0.00009  -0.00057   0.00580   0.00523  -0.05099
    D7        2.13164  -0.00012  -0.00788   0.00535  -0.00249   2.12915
    D8       -0.05792   0.00005  -0.00111   0.00832   0.00720  -0.05072
    D9       -1.95255  -0.00030  -0.00043   0.00178   0.00140  -1.95115
         Item               Value     Threshold  Converged?
 Maximum Force            0.000779     0.000450     NO 
 RMS     Force            0.000369     0.000300     NO 
 Maximum Displacement     0.019021     0.001800     NO 
 RMS     Displacement     0.006435     0.001200     NO 
 Predicted change in Energy=-1.593971D-05
 GradGradGradGradGradGradGradGradGradGradGradGradGradGradGradGradGradGrad

                          Input orientation:                          
 ---------------------------------------------------------------------
 Center     Atomic      Atomic             Coordinates (Angstroms)
 Number     Number       Type             X           Y           Z
 ---------------------------------------------------------------------
      1          6           0        0.918296    0.144024   -0.042265
      2          6           0        2.355094   -0.141000   -0.160411
      3          6           0        3.126401   -1.350342   -0.480255
      4          1           0        0.734566    1.193367    0.256184
      5          1           0        0.422861   -0.501095    0.720233
      6          1           0        0.375072   -0.019718   -1.001901
      7          1           0        4.213798   -1.147474   -0.493960
      8          1           0        2.861768   -1.765543   -1.480512
      9          1           0        2.958364   -2.166779    0.260186
 ---------------------------------------------------------------------
                    Distance matrix (angstroms):
                    1          2          3          4          5
     1  C    0.000000
     2  C    1.469554   0.000000
     3  C    2.701980   1.469599   0.000000
     4  H    1.106322   2.140140   3.568427   0.000000
     5  H    1.114916   2.153771   3.077584   1.784294   0.000000
     6  H    1.114812   2.154833   3.100401   1.784262   1.788786
     7  H    3.568240   2.139866   1.106245   4.259966   4.032776
     8  H    3.080923   2.153724   1.114870   4.036862   3.519997
     9  H    3.097284   2.155137   1.114926   4.029376   3.068375
                    6          7          8          9
     6  H    0.000000
     7  H    4.033071   0.000000
     8  H    3.075815   1.784175   0.000000
     9  H    3.588333   1.784330   1.788952   0.000000
 Stoichiometry    C3H6(3)
 Framework group  C1[X(C3H6)]
 Deg. of freedom    21
 Full point group                 C1      NOp   1
 Largest Abelian subgroup         C1      NOp   1
 Largest concise Abelian subgroup C1      NOp   1
                         Standard orientation:                         
 ---------------------------------------------------------------------
 Center     Atomic      Atomic             Coordinates (Angstroms)
 Number     Number       Type             X           Y           Z
 ---------------------------------------------------------------------
      1          6           0       -1.350984   -0.103469   -0.000037
      2          6           0       -0.000014    0.474864    0.000109
      3          6           0        1.350996   -0.103489    0.000008
      4          1           0       -2.129857    0.681368    0.036505
      5          1           0       -1.522690   -0.771265    0.876093
      6          1           0       -1.548789   -0.714008   -0.911585
      7          1           0        2.129665    0.681894   -0.024965
      8          1           0        1.526517   -0.761761   -0.882491
      9          1           0        1.545170   -0.723660    0.905957
 ---------------------------------------------------------------------
 Rotational constants (GHZ):          54.4006936           7.6944519           7.3755611
 Standard basis: def2SVPP (5D, 7F)
 There are    57 symmetry adapted cartesian basis functions of A   symmetry.
 There are    54 symmetry adapted basis functions of A   symmetry.
    54 basis functions,    99 primitive gaussians,    57 cartesian basis functions
    13 alpha electrons       11 beta electrons
       nuclear repulsion energy        67.9313171217 Hartrees.
 NAtoms=    9 NActive=    9 NUniq=    9 SFac= 1.00D+00 NAtFMM=   60 NAOKFM=F Big=F
 Integral buffers will be    131072 words long.
 Raffenetti 2 integral format.
 Two-electron integral symmetry is turned on.
 Nuclear repulsion after empirical dispersion term =       67.9239089244 Hartrees.
 One-electron integrals computed using PRISM.
   1 Symmetry operations used in ECPInt.
 ECPInt:  NShTT=     465 NPrTT=    1887 LenC2=     466 LenP2D=    1654.
 LDataN:  DoStor=T MaxTD1= 4 Len=   56
 NBasis=    54 RedAO= T EigKep=  4.20D-03  NBF=    54
 NBsUse=    54 1.00D-06 EigRej= -1.00D+00 NBFU=    54
 Initial guess from the checkpoint file:  "/home/software/g16tmp/Gau-42403.chk"
 B after Tr=    -0.000000   -0.000000    0.000000
         Rot=    0.999984    0.005711    0.000098   -0.000075 Ang=   0.65 deg.
 Initial guess <Sx>= 0.0000 <Sy>= 0.0000 <Sz>= 1.0000 <S**2>= 2.0066 S= 1.0022
 Keep R1 and R2 ints in memory in canonical form, NReq=16304564.
 Requested convergence on RMS density matrix=1.00D-08 within 128 cycles.
 Requested convergence on MAX density matrix=1.00D-06.
 Requested convergence on             energy=1.00D-06.
 No special actions if energy rises.
 SCF Done:  E(UB3LYP) =  -117.710003552     A.U. after    9 cycles
            NFock=  9  Conv=0.54D-08     -V/T= 2.0114
 <Sx>= 0.0000 <Sy>= 0.0000 <Sz>= 1.0000 <S**2>= 2.0066 S= 1.0022
 <L.S>=  0.00000000000    
 Annihilation of the first spin contaminant:
 S**2 before annihilation     2.0066,   after     2.0000
   1 Symmetry operations used in ECPInt.
 ECPInt:  NShTT=     465 NPrTT=    1887 LenC2=     466 LenP2D=    1654.
 LDataN:  DoStor=T MaxTD1= 5 Len=  102
 Calling FoFJK, ICntrl=      2127 FMM=F ISym2X=0 I1Cent= 0 IOpClX= 1 NMat=1 NMatS=1 NMatT=0.
 ***** Axes restored to original set *****
 -------------------------------------------------------------------
 Center     Atomic                   Forces (Hartrees/Bohr)
 Number     Number              X              Y              Z
 -------------------------------------------------------------------
      1        6          -0.000090311   -0.000163068    0.000010839
      2        6          -0.000033622   -0.000101791    0.000084020
      3        6          -0.000157040   -0.000088859   -0.000098385
      4        1          -0.000043824    0.000011209   -0.000053943
      5        1           0.000107525    0.000132152   -0.000010598
      6        1           0.000025862    0.000056854    0.000048877
      7        1           0.000065657   -0.000062004    0.000026525
      8        1           0.000094910    0.000072528    0.000049116
      9        1           0.000030844    0.000142978   -0.000056451
 -------------------------------------------------------------------
 Cartesian Forces:  Max     0.000163068 RMS     0.000083035

 GradGradGradGradGradGradGradGradGradGradGradGradGradGradGradGradGradGrad
 Berny optimization.
 Using GEDIIS/GDIIS optimizer.
 FormGI is forming the generalized inverse of G from B-inverse, IUseBI=4.
 Internal  Forces:  Max     0.000146824 RMS     0.000057767
 Search for a local minimum.
 Step number  13 out of a maximum of   41
 All quantities printed in internal units (Hartrees-Bohrs-Radians)
 Mixed Optimization -- En-DIIS/RFO-DIIS
 Swapping is turned off.
 Update second derivatives using D2CorX and points    7    8    9   10   11
                                                     12   13
 DE= -1.80D-05 DEPred=-1.59D-05 R= 1.13D+00
 TightC=F SS=  1.41D+00  RLast= 3.90D-02 DXNew= 8.2544D-01 1.1708D-01
 Trust test= 1.13D+00 RLast= 3.90D-02 DXMaxT set to 4.91D-01
 ITU=  1  1  1 -1  1  1  1  0 -1  0  1  1  0
     Eigenvalues ---    0.00204   0.00451   0.03659   0.05503   0.05900
     Eigenvalues ---    0.07179   0.10998   0.13093   0.15789   0.15994
     Eigenvalues ---    0.16003   0.16541   0.18325   0.32443   0.33963
     Eigenvalues ---    0.34306   0.34384   0.34509   0.34644   0.36839
     Eigenvalues ---    0.39245
 En-DIIS/RFO-DIIS/Sim-DIIS IScMMF=       -3 using points:    13   12   11
 RFO step:  Lambda=-2.87291913D-06.
 DidBck=F Rises=F RFO-DIIS coefs:    1.85739   -0.93980    0.08241
 Iteration  1 RMS(Cart)=  0.00464899 RMS(Int)=  0.00003027
 Iteration  2 RMS(Cart)=  0.00001397 RMS(Int)=  0.00002754
 Iteration  3 RMS(Cart)=  0.00000000 RMS(Int)=  0.00002754
 Variable       Old X    -DE/DX   Delta X   Delta X   Delta X     New X
                                 (Linear)    (Quad)   (Total)
    R1        2.77705   0.00001  -0.00113   0.00120   0.00007   2.77713
    R2        2.09065   0.00000   0.00267  -0.00250   0.00018   2.09082
    R3        2.10689  -0.00013   0.00035  -0.00080  -0.00044   2.10644
    R4        2.10669  -0.00006   0.00145  -0.00153  -0.00008   2.10661
    R5        2.77714  -0.00002  -0.00086   0.00087   0.00001   2.77715
    R6        2.09050   0.00005   0.00260  -0.00227   0.00034   2.09084
    R7        2.10680  -0.00009   0.00167  -0.00183  -0.00016   2.10664
    R8        2.10690  -0.00015  -0.00019  -0.00036  -0.00055   2.10636
    A1        1.94768   0.00004  -0.00021   0.00017  -0.00002   1.94766
    A2        1.95759  -0.00003  -0.00085   0.00099   0.00014   1.95773
    A3        1.95921   0.00003   0.00329  -0.00331  -0.00001   1.95921
    A4        1.86558  -0.00003   0.00078  -0.00083  -0.00005   1.86553
    A5        1.86566  -0.00005  -0.00594   0.00492  -0.00100   1.86466
    A6        1.86209   0.00003   0.00272  -0.00173   0.00092   1.86301
    A7        1.94732   0.00008  -0.00108   0.00128   0.00022   1.94754
    A8        1.95752   0.00005   0.00458  -0.00427   0.00032   1.95784
    A9        1.95946  -0.00006  -0.00006  -0.00008  -0.00016   1.95931
   A10        1.86555  -0.00007  -0.00574   0.00474  -0.00097   1.86458
   A11        1.86572  -0.00003  -0.00209   0.00171  -0.00037   1.86535
   A12        1.86226   0.00003   0.00406  -0.00306   0.00091   1.86317
   A13        2.50672   0.00009   0.00178   0.00173   0.00348   2.51020
   A14        2.39734  -0.00003  -0.00745   0.00008  -0.00737   2.38998
    D1       -0.07835   0.00004   0.01176   0.00223   0.01399  -0.06435
    D2       -2.25822   0.00004   0.01468  -0.00018   0.01453  -2.24369
    D3        2.12454  -0.00000   0.00916   0.00428   0.01342   2.13796
    D4       -2.25387   0.00005   0.00753   0.00195   0.00950  -2.24437
    D5        1.84944   0.00005   0.01045  -0.00047   0.01004   1.85948
    D6       -0.05099   0.00001   0.00493   0.00400   0.00893  -0.04206
    D7        2.12915   0.00000   0.00415   0.00426   0.00837   2.13752
    D8       -0.05072   0.00001   0.00706   0.00184   0.00891  -0.04181
    D9       -1.95115  -0.00004   0.00155   0.00630   0.00780  -1.94335
         Item               Value     Threshold  Converged?
 Maximum Force            0.000147     0.000450     YES
 RMS     Force            0.000058     0.000300     YES
 Maximum Displacement     0.010419     0.001800     NO 
 RMS     Displacement     0.004648     0.001200     NO 
 Predicted change in Energy=-1.435796D-06
 GradGradGradGradGradGradGradGradGradGradGradGradGradGradGradGradGradGrad

                          Input orientation:                          
 ---------------------------------------------------------------------
 Center     Atomic      Atomic             Coordinates (Angstroms)
 Number     Number       Type             X           Y           Z
 ---------------------------------------------------------------------
      1          6           0        0.918075    0.143569   -0.041248
      2          6           0        2.354949   -0.141966   -0.157706
      3          6           0        3.126262   -1.350462   -0.480746
      4          1           0        0.734204    1.194820    0.250671
      5          1           0        0.422760   -0.496660    0.725097
      6          1           0        0.375068   -0.024975   -1.000126
      7          1           0        4.214026   -1.148389   -0.491257
      8          1           0        2.864515   -1.761161   -1.483521
      9          1           0        2.956363   -2.169336    0.256135
 ---------------------------------------------------------------------
                    Distance matrix (angstroms):
                    1          2          3          4          5
     1  C    0.000000
     2  C    1.469592   0.000000
     3  C    2.702106   1.469606   0.000000
     4  H    1.106415   2.140230   3.568666   0.000000
     5  H    1.114681   2.153719   3.080902   1.784148   0.000000
     6  H    1.114769   2.154829   3.097699   1.783640   1.789177
     7  H    3.568607   2.140166   1.106424   4.260311   4.034596
     8  H    3.081684   2.153889   1.114784   4.035278   3.526915
     9  H    3.097190   2.154807   1.114636   4.031820   3.071957
                    6          7          8          9
     6  H    0.000000
     7  H    4.032196   0.000000
     8  H    3.073330   1.783607   0.000000
     9  H    3.583233   1.783996   1.789259   0.000000
 Stoichiometry    C3H6(3)
 Framework group  C1[X(C3H6)]
 Deg. of freedom    21
 Full point group                 C1      NOp   1
 Largest Abelian subgroup         C1      NOp   1
 Largest concise Abelian subgroup C1      NOp   1
                         Standard orientation:                         
 ---------------------------------------------------------------------
 Center     Atomic      Atomic             Coordinates (Angstroms)
 Number     Number       Type             X           Y           Z
 ---------------------------------------------------------------------
      1          6           0       -1.351062   -0.103560    0.000011
      2          6           0       -0.000013    0.474685    0.000213
      3          6           0        1.351044   -0.103577    0.000025
      4          1           0       -2.130050    0.681716    0.025979
      5          1           0       -1.526502   -0.762960    0.881445
      6          1           0       -1.545660   -0.721541   -0.907150
      7          1           0        2.129961    0.681827   -0.024554
      8          1           0        1.527325   -0.760795   -0.882999
      9          1           0        1.545105   -0.723541    0.905784
 ---------------------------------------------------------------------
 Rotational constants (GHZ):          54.4205706           7.6930836           7.3749386
 Standard basis: def2SVPP (5D, 7F)
 There are    57 symmetry adapted cartesian basis functions of A   symmetry.
 There are    54 symmetry adapted basis functions of A   symmetry.
    54 basis functions,    99 primitive gaussians,    57 cartesian basis functions
    13 alpha electrons       11 beta electrons
       nuclear repulsion energy        67.9307815190 Hartrees.
 NAtoms=    9 NActive=    9 NUniq=    9 SFac= 1.00D+00 NAtFMM=   60 NAOKFM=F Big=F
 Integral buffers will be    131072 words long.
 Raffenetti 2 integral format.
 Two-electron integral symmetry is turned on.
 Nuclear repulsion after empirical dispersion term =       67.9233738761 Hartrees.
 One-electron integrals computed using PRISM.
   1 Symmetry operations used in ECPInt.
 ECPInt:  NShTT=     465 NPrTT=    1887 LenC2=     466 LenP2D=    1654.
 LDataN:  DoStor=T MaxTD1= 4 Len=   56
 NBasis=    54 RedAO= T EigKep=  4.21D-03  NBF=    54
 NBsUse=    54 1.00D-06 EigRej= -1.00D+00 NBFU=    54
 Initial guess from the checkpoint file:  "/home/software/g16tmp/Gau-42403.chk"
 B after Tr=     0.000000    0.000000   -0.000000
         Rot=    0.999999    0.001716    0.000160    0.000005 Ang=   0.20 deg.
 Initial guess <Sx>= 0.0000 <Sy>= 0.0000 <Sz>= 1.0000 <S**2>= 2.0066 S= 1.0022
 Keep R1 and R2 ints in memory in canonical form, NReq=16304564.
 Requested convergence on RMS density matrix=1.00D-08 within 128 cycles.
 Requested convergence on MAX density matrix=1.00D-06.
 Requested convergence on             energy=1.00D-06.
 No special actions if energy rises.
 SCF Done:  E(UB3LYP) =  -117.710005797     A.U. after    8 cycles
            NFock=  8  Conv=0.32D-08     -V/T= 2.0114
 <Sx>= 0.0000 <Sy>= 0.0000 <Sz>= 1.0000 <S**2>= 2.0066 S= 1.0022
 <L.S>=  0.00000000000    
 Annihilation of the first spin contaminant:
 S**2 before annihilation     2.0066,   after     2.0000
   1 Symmetry operations used in ECPInt.
 ECPInt:  NShTT=     465 NPrTT=    1887 LenC2=     466 LenP2D=    1654.
 LDataN:  DoStor=T MaxTD1= 5 Len=  102
 Calling FoFJK, ICntrl=      2127 FMM=F ISym2X=0 I1Cent= 0 IOpClX= 1 NMat=1 NMatS=1 NMatT=0.
 ***** Axes restored to original set *****
 -------------------------------------------------------------------
 Center     Atomic                   Forces (Hartrees/Bohr)
 Number     Number              X              Y              Z
 -------------------------------------------------------------------
      1        6          -0.000006943    0.000051004   -0.000035494
      2        6          -0.000036545   -0.000064108   -0.000005117
      3        6           0.000067705    0.000070390   -0.000143856
      4        1           0.000002589   -0.000040272   -0.000002844
      5        1           0.000000025    0.000042786    0.000026370
      6        1           0.000026418   -0.000039689    0.000042704
      7        1          -0.000034615   -0.000026804    0.000070916
      8        1          -0.000003037    0.000024153    0.000047966
      9        1          -0.000015595   -0.000017459   -0.000000647
 -------------------------------------------------------------------
 Cartesian Forces:  Max     0.000143856 RMS     0.000046452

 GradGradGradGradGradGradGradGradGradGradGradGradGradGradGradGradGradGrad
 Berny optimization.
 Using GEDIIS/GDIIS optimizer.
 FormGI is forming the generalized inverse of G from B-inverse, IUseBI=4.
 Internal  Forces:  Max     0.000071762 RMS     0.000028101
 Search for a local minimum.
 Step number  14 out of a maximum of   41
 All quantities printed in internal units (Hartrees-Bohrs-Radians)
 Mixed Optimization -- En-DIIS/RFO-DIIS
 Swapping is turned off.
 Update second derivatives using D2CorX and points    7    8    9   10   11
                                                     12   13   14
 DE= -2.24D-06 DEPred=-1.44D-06 R= 1.56D+00
 TightC=F SS=  1.41D+00  RLast= 3.38D-02 DXNew= 8.2544D-01 1.0125D-01
 Trust test= 1.56D+00 RLast= 3.38D-02 DXMaxT set to 4.91D-01
 ITU=  1  1  1  1 -1  1  1  1  0 -1  0  1  1  0
     Eigenvalues ---    0.00069   0.00492   0.03669   0.05492   0.06514
     Eigenvalues ---    0.07263   0.11144   0.13781   0.15891   0.15986
     Eigenvalues ---    0.16038   0.17883   0.18307   0.32013   0.34236
     Eigenvalues ---    0.34378   0.34443   0.34524   0.36815   0.37798
     Eigenvalues ---    0.39676
 En-DIIS/RFO-DIIS/Sim-DIIS IScMMF=       -3 using points:    14   13   12   11
 RFO step:  Lambda=-3.73752759D-06.
 DidBck=F Rises=F RFO-DIIS coefs:    2.76276   -2.00000    0.20905    0.02819
 Iteration  1 RMS(Cart)=  0.01153517 RMS(Int)=  0.00007365
 Iteration  2 RMS(Cart)=  0.00007903 RMS(Int)=  0.00000647
 Iteration  3 RMS(Cart)=  0.00000000 RMS(Int)=  0.00000647
 Variable       Old X    -DE/DX   Delta X   Delta X   Delta X     New X
                                 (Linear)    (Quad)   (Total)
    R1        2.77713  -0.00001   0.00042  -0.00040   0.00002   2.77715
    R2        2.09082  -0.00004  -0.00017   0.00027   0.00010   2.09092
    R3        2.10644  -0.00001  -0.00083   0.00046  -0.00036   2.10608
    R4        2.10661  -0.00004  -0.00043   0.00026  -0.00017   2.10644
    R5        2.77715  -0.00003   0.00024  -0.00029  -0.00005   2.77710
    R6        2.09084  -0.00004   0.00014   0.00002   0.00016   2.09100
    R7        2.10664  -0.00005  -0.00064   0.00041  -0.00023   2.10641
    R8        2.10636   0.00001  -0.00087   0.00053  -0.00035   2.10601
    A1        1.94766   0.00001   0.00016  -0.00017  -0.00000   1.94765
    A2        1.95773   0.00003   0.00002   0.00040   0.00042   1.95815
    A3        1.95921  -0.00003  -0.00031  -0.00008  -0.00040   1.95881
    A4        1.86553  -0.00004  -0.00028  -0.00008  -0.00035   1.86518
    A5        1.86466   0.00004  -0.00059   0.00016  -0.00043   1.86423
    A6        1.86301  -0.00001   0.00099  -0.00023   0.00075   1.86376
    A7        1.94754   0.00002   0.00075  -0.00053   0.00023   1.94777
    A8        1.95784  -0.00001   0.00005   0.00038   0.00043   1.95827
    A9        1.95931  -0.00002  -0.00074   0.00028  -0.00046   1.95885
   A10        1.86458   0.00003  -0.00054   0.00013  -0.00040   1.86418
   A11        1.86535  -0.00001  -0.00033  -0.00015  -0.00047   1.86487
   A12        1.86317  -0.00001   0.00078  -0.00013   0.00064   1.86381
   A13        2.51020   0.00007   0.00367   0.00281   0.00647   2.51667
   A14        2.38998  -0.00000  -0.00661  -0.00616  -0.01277   2.37721
    D1       -0.06435   0.00003   0.02243   0.01397   0.03640  -0.02795
    D2       -2.24369   0.00000   0.01924   0.01292   0.03217  -2.21152
    D3        2.13796   0.00001   0.01847   0.01288   0.03135   2.16931
    D4       -2.24437   0.00003   0.01861   0.01008   0.02870  -2.21567
    D5        1.85948   0.00001   0.01542   0.00904   0.02447   1.88395
    D6       -0.04206   0.00001   0.01465   0.00900   0.02365  -0.01841
    D7        2.13752   0.00003   0.01749   0.01024   0.02773   2.16525
    D8       -0.04181   0.00001   0.01430   0.00920   0.02350  -0.01832
    D9       -1.94335   0.00002   0.01353   0.00916   0.02268  -1.92067
         Item               Value     Threshold  Converged?
 Maximum Force            0.000072     0.000450     YES
 RMS     Force            0.000028     0.000300     YES
 Maximum Displacement     0.025449     0.001800     NO 
 RMS     Displacement     0.011533     0.001200     NO 
 Predicted change in Energy=-1.708240D-06
 GradGradGradGradGradGradGradGradGradGradGradGradGradGradGradGradGradGrad

                          Input orientation:                          
 ---------------------------------------------------------------------
 Center     Atomic      Atomic             Coordinates (Angstroms)
 Number     Number       Type             X           Y           Z
 ---------------------------------------------------------------------
      1          6           0        0.917841    0.142922   -0.039145
      2          6           0        2.354650   -0.143046   -0.155482
      3          6           0        3.126221   -1.350253   -0.482574
      4          1           0        0.733866    1.197971    0.238875
      5          1           0        0.424776   -0.486726    0.737074
      6          1           0        0.373021   -0.038442   -0.994542
      7          1           0        4.214597   -1.150760   -0.481505
      8          1           0        2.873035   -1.751499   -1.491223
      9          1           0        2.948213   -2.174727    0.245823
 ---------------------------------------------------------------------
                    Distance matrix (angstroms):
                    1          2          3          4          5
     1  C    0.000000
     2  C    1.469603   0.000000
     3  C    2.702433   1.469577   0.000000
     4  H    1.106467   2.140277   3.568935   0.000000
     5  H    1.114489   2.153877   3.087236   1.783800   0.000000
     6  H    1.114678   2.154488   3.092422   1.783324   1.789450
     7  H    3.569019   2.140370   1.106508   4.260396   4.035917
     8  H    3.085473   2.154076   1.114664   4.033442   3.543858
     9  H    3.094368   2.154318   1.114453   4.034659   3.075453
                    6          7          8          9
     6  H    0.000000
     7  H    4.032142   0.000000
     8  H    3.071047   1.783313   0.000000
     9  H    3.568450   1.783603   1.789441   0.000000
 Stoichiometry    C3H6(3)
 Framework group  C1[X(C3H6)]
 Deg. of freedom    21
 Full point group                 C1      NOp   1
 Largest Abelian subgroup         C1      NOp   1
 Largest concise Abelian subgroup C1      NOp   1
                         Standard orientation:                         
 ---------------------------------------------------------------------
 Center     Atomic      Atomic             Coordinates (Angstroms)
 Number     Number       Type             X           Y           Z
 ---------------------------------------------------------------------
      1          6           0       -1.351234   -0.103569    0.000047
      2          6           0       -0.000003    0.474280    0.000134
      3          6           0        1.351199   -0.103569    0.000032
      4          1           0       -2.130140    0.682257    0.007304
      5          1           0       -1.533619   -0.747885    0.890933
      6          1           0       -1.539481   -0.735821   -0.898467
      7          1           0        2.130200    0.682116   -0.014687
      8          1           0        1.531500   -0.752948   -0.887816
      9          1           0        1.541767   -0.730566    0.901456
 ---------------------------------------------------------------------
 Rotational constants (GHZ):          54.4563632           7.6909674           7.3738321
 Standard basis: def2SVPP (5D, 7F)
 There are    57 symmetry adapted cartesian basis functions of A   symmetry.
 There are    54 symmetry adapted basis functions of A   symmetry.
    54 basis functions,    99 primitive gaussians,    57 cartesian basis functions
    13 alpha electrons       11 beta electrons
       nuclear repulsion energy        67.9304257596 Hartrees.
 NAtoms=    9 NActive=    9 NUniq=    9 SFac= 1.00D+00 NAtFMM=   60 NAOKFM=F Big=F
 Integral buffers will be    131072 words long.
 Raffenetti 2 integral format.
 Two-electron integral symmetry is turned on.
 Nuclear repulsion after empirical dispersion term =       67.9230188543 Hartrees.
 One-electron integrals computed using PRISM.
   1 Symmetry operations used in ECPInt.
 ECPInt:  NShTT=     465 NPrTT=    1887 LenC2=     466 LenP2D=    1654.
 LDataN:  DoStor=T MaxTD1= 4 Len=   56
 NBasis=    54 RedAO= T EigKep=  4.21D-03  NBF=    54
 NBsUse=    54 1.00D-06 EigRej= -1.00D+00 NBFU=    54
 Initial guess from the checkpoint file:  "/home/software/g16tmp/Gau-42403.chk"
 B after Tr=    -0.000000    0.000000   -0.000000
         Rot=    0.999999    0.001658    0.000426    0.000006 Ang=   0.20 deg.
 Initial guess <Sx>= 0.0000 <Sy>= 0.0000 <Sz>= 1.0000 <S**2>= 2.0066 S= 1.0022
 ExpMin= 1.22D-01 ExpMax= 1.24D+03 ExpMxC= 1.86D+02 IAcc=3 IRadAn=         5 AccDes= 0.00D+00
 Harris functional with IExCor=  402 and IRadAn=       5 diagonalized for initial guess.
 HarFok:  IExCor=  402 AccDes= 0.00D+00 IRadAn=         5 IDoV= 1 UseB2=F ITyADJ=14
 ICtDFT=  3500011 ScaDFX=  1.000000  1.000000  1.000000  1.000000
 FoFCou: FMM=F IPFlag=           0 FMFlag=      100000 FMFlg1=           0
         NFxFlg=           0 DoJE=T BraDBF=F KetDBF=T FulRan=T
         wScrn=  0.000000 ICntrl=       500 IOpCl=  0 I1Cent=   200000004 NGrid=           0
         NMat0=    1 NMatS0=      1 NMatT0=    0 NMatD0=    1 NMtDS0=    0 NMtDT0=    0
 Petite list used in FoFCou.
 Keep R1 and R2 ints in memory in canonical form, NReq=16304564.
 Requested convergence on RMS density matrix=1.00D-08 within 128 cycles.
 Requested convergence on MAX density matrix=1.00D-06.
 Requested convergence on             energy=1.00D-06.
 No special actions if energy rises.
 Integral accuracy reduced to 1.0D-05 until final iterations.
 Initial convergence to 1.0D-05 achieved.  Increase integral accuracy.
 SCF Done:  E(UB3LYP) =  -117.710008788     A.U. after    8 cycles
            NFock=  8  Conv=0.98D-08     -V/T= 2.0114
 <Sx>= 0.0000 <Sy>= 0.0000 <Sz>= 1.0000 <S**2>= 2.0066 S= 1.0022
 <L.S>=  0.00000000000    
 Annihilation of the first spin contaminant:
 S**2 before annihilation     2.0066,   after     2.0000
   1 Symmetry operations used in ECPInt.
 ECPInt:  NShTT=     465 NPrTT=    1887 LenC2=     466 LenP2D=    1654.
 LDataN:  DoStor=T MaxTD1= 5 Len=  102
 Calling FoFJK, ICntrl=      2127 FMM=F ISym2X=0 I1Cent= 0 IOpClX= 1 NMat=1 NMatS=1 NMatT=0.
 ***** Axes restored to original set *****
 -------------------------------------------------------------------
 Center     Atomic                   Forces (Hartrees/Bohr)
 Number     Number              X              Y              Z
 -------------------------------------------------------------------
      1        6           0.000078915    0.000178846   -0.000048874
      2        6          -0.000005471    0.000020078   -0.000057896
      3        6           0.000176619    0.000151787   -0.000093964
      4        1           0.000040327   -0.000062405    0.000022237
      5        1          -0.000087633   -0.000055336    0.000047946
      6        1          -0.000001922   -0.000089461    0.000015165
      7        1          -0.000086061    0.000017666    0.000065589
      8        1          -0.000067244   -0.000030149    0.000016700
      9        1          -0.000047530   -0.000131028    0.000033097
 -------------------------------------------------------------------
 Cartesian Forces:  Max     0.000178846 RMS     0.000080045

 GradGradGradGradGradGradGradGradGradGradGradGradGradGradGradGradGradGrad
 Berny optimization.
 Using GEDIIS/GDIIS optimizer.
 FormGI is forming the generalized inverse of G from B-inverse, IUseBI=4.
 Internal  Forces:  Max     0.000126164 RMS     0.000048009
 Search for a local minimum.
 Step number  15 out of a maximum of   41
 All quantities printed in internal units (Hartrees-Bohrs-Radians)
 Mixed Optimization -- En-DIIS/RFO-DIIS
 Swapping is turned off.
 Update second derivatives using D2CorX and points    7    8    9   10   11
                                                     12   13   14   15
 DE= -2.99D-06 DEPred=-1.71D-06 R= 1.75D+00
 TightC=F SS=  1.41D+00  RLast= 8.58D-02 DXNew= 8.2544D-01 2.5750D-01
 Trust test= 1.75D+00 RLast= 8.58D-02 DXMaxT set to 4.91D-01
 ITU=  1  1  1  1  1 -1  1  1  1  0 -1  0  1  1  0
     Eigenvalues ---    0.00038   0.00476   0.03676   0.05548   0.06737
     Eigenvalues ---    0.07424   0.11025   0.13796   0.15889   0.15983
     Eigenvalues ---    0.16063   0.17063   0.18821   0.32072   0.34186
     Eigenvalues ---    0.34381   0.34414   0.34540   0.36804   0.39376
     Eigenvalues ---    0.40965
 En-DIIS/RFO-DIIS/Sim-DIIS IScMMF=       -3 using points:    15   14   13   12   11
 RFO step:  Lambda=-1.37011489D-06.
 DIIS inversion failure, remove point   5.
 DIIS inversion failure, remove point   4.
 RFO-DIIS uses    3 points instead of    5
 DidBck=F Rises=F RFO-DIIS coefs:    1.71909   -2.00000    1.28091    0.00000    0.00000
 Iteration  1 RMS(Cart)=  0.00827455 RMS(Int)=  0.00003772
 Iteration  2 RMS(Cart)=  0.00003928 RMS(Int)=  0.00000238
 Iteration  3 RMS(Cart)=  0.00000000 RMS(Int)=  0.00000238
 Variable       Old X    -DE/DX   Delta X   Delta X   Delta X     New X
                                 (Linear)    (Quad)   (Total)
    R1        2.77715  -0.00003  -0.00008  -0.00001  -0.00009   2.77706
    R2        2.09092  -0.00006  -0.00016  -0.00002  -0.00017   2.09075
    R3        2.10608   0.00010   0.00031  -0.00002   0.00029   2.10637
    R4        2.10644   0.00000  -0.00002  -0.00000  -0.00003   2.10641
    R5        2.77710  -0.00002  -0.00006  -0.00001  -0.00007   2.77703
    R6        2.09100  -0.00008  -0.00032   0.00008  -0.00024   2.09076
    R7        2.10641   0.00001   0.00005  -0.00004   0.00000   2.10641
    R8        2.10601   0.00013   0.00045  -0.00009   0.00036   2.10637
    A1        1.94765  -0.00003   0.00003  -0.00003  -0.00000   1.94765
    A2        1.95815   0.00005   0.00013   0.00015   0.00028   1.95843
    A3        1.95881  -0.00005  -0.00028   0.00000  -0.00027   1.95854
    A4        1.86518  -0.00002  -0.00019   0.00000  -0.00019   1.86499
    A5        1.86423   0.00008   0.00097  -0.00026   0.00072   1.86495
    A6        1.86376  -0.00004  -0.00064   0.00011  -0.00053   1.86323
    A7        1.94777  -0.00004  -0.00012   0.00002  -0.00009   1.94768
    A8        1.95827  -0.00004  -0.00010   0.00033   0.00023   1.95851
    A9        1.95885   0.00003  -0.00013  -0.00020  -0.00033   1.95852
   A10        1.86418   0.00008   0.00095  -0.00020   0.00075   1.86493
   A11        1.86487   0.00002   0.00013  -0.00005   0.00008   1.86495
   A12        1.86381  -0.00004  -0.00071   0.00009  -0.00062   1.86319
   A13        2.51667  -0.00001   0.00020   0.00222   0.00242   2.51909
   A14        2.37721   0.00001   0.00025  -0.00539  -0.00513   2.37208
    D1       -0.02795   0.00001   0.00825   0.01768   0.02592  -0.00203
    D2       -2.21152  -0.00003   0.00452   0.01498   0.01950  -2.19202
    D3        2.16931   0.00002   0.00535   0.01487   0.02021   2.18952
    D4       -2.21567   0.00000   0.00847   0.01433   0.02281  -2.19286
    D5        1.88395  -0.00003   0.00474   0.01164   0.01638   1.90033
    D6       -0.01841   0.00001   0.00557   0.01152   0.01710  -0.00131
    D7        2.16525   0.00004   0.00922   0.01419   0.02340   2.18865
    D8       -0.01832   0.00001   0.00549   0.01149   0.01698  -0.00134
    D9       -1.92067   0.00005   0.00632   0.01138   0.01769  -1.90298
         Item               Value     Threshold  Converged?
 Maximum Force            0.000126     0.000450     YES
 RMS     Force            0.000048     0.000300     YES
 Maximum Displacement     0.017758     0.001800     NO 
 RMS     Displacement     0.008275     0.001200     NO 
 Predicted change in Energy=-4.948194D-07
 GradGradGradGradGradGradGradGradGradGradGradGradGradGradGradGradGradGrad

                          Input orientation:                          
 ---------------------------------------------------------------------
 Center     Atomic      Atomic             Coordinates (Angstroms)
 Number     Number       Type             X           Y           Z
 ---------------------------------------------------------------------
      1          6           0        0.918015    0.142738   -0.037997
      2          6           0        2.354691   -0.142591   -0.156930
      3          6           0        3.126273   -1.349711   -0.484151
      4          1           0        0.733827    1.199739    0.231986
      5          1           0        0.427993   -0.480982    0.745122
      6          1           0        0.370264   -0.047839   -0.989903
      7          1           0        4.214899   -1.152615   -0.472892
      8          1           0        2.880012   -1.745709   -1.496583
      9          1           0        2.940246   -2.177591    0.238648
 ---------------------------------------------------------------------
                    Distance matrix (angstroms):
                    1          2          3          4          5
     1  C    0.000000
     2  C    1.469556   0.000000
     3  C    2.702381   1.469542   0.000000
     4  H    1.106375   2.140164   3.568802   0.000000
     5  H    1.114641   2.154152   3.089744   1.783723   0.000000
     6  H    1.114664   2.154245   3.089699   1.783716   1.789206
     7  H    3.568826   2.140177   1.106382   4.260080   4.034267
     8  H    3.089197   2.154210   1.114664   4.033574   3.554880
     9  H    3.090288   2.154201   1.114643   4.034190   3.073501
                    6          7          8          9
     6  H    0.000000
     7  H    4.033491   0.000000
     8  H    3.072185   1.783712   0.000000
     9  H    3.556682   1.783706   1.789183   0.000000
 Stoichiometry    C3H6(3)
 Framework group  C1[X(C3H6)]
 Deg. of freedom    21
 Full point group                 C1      NOp   1
 Largest Abelian subgroup         C1      NOp   1
 Largest concise Abelian subgroup C1      NOp   1
                         Standard orientation:                         
 ---------------------------------------------------------------------
 Center     Atomic      Atomic             Coordinates (Angstroms)
 Number     Number       Type             X           Y           Z
 ---------------------------------------------------------------------
      1          6           0       -1.351196   -0.103500    0.000005
      2          6           0        0.000002    0.474308   -0.000017
      3          6           0        1.351186   -0.103494    0.000003
      4          1           0       -2.130032    0.682300   -0.000267
      5          1           0       -1.536443   -0.741860    0.894769
      6          1           0       -1.536383   -0.742370   -0.894437
      7          1           0        2.130048    0.682286   -0.001866
      8          1           0        1.535801   -0.743617   -0.893661
      9          1           0        1.537058   -0.740623    0.895519
 ---------------------------------------------------------------------
 Rotational constants (GHZ):          54.4515439           7.6916545           7.3741812
 Standard basis: def2SVPP (5D, 7F)
 There are    57 symmetry adapted cartesian basis functions of A   symmetry.
 There are    54 symmetry adapted basis functions of A   symmetry.
    54 basis functions,    99 primitive gaussians,    57 cartesian basis functions
    13 alpha electrons       11 beta electrons
       nuclear repulsion energy        67.9315051306 Hartrees.
 NAtoms=    9 NActive=    9 NUniq=    9 SFac= 1.00D+00 NAtFMM=   60 NAOKFM=F Big=F
 Integral buffers will be    131072 words long.
 Raffenetti 2 integral format.
 Two-electron integral symmetry is turned on.
 Nuclear repulsion after empirical dispersion term =       67.9240979616 Hartrees.
 One-electron integrals computed using PRISM.
   1 Symmetry operations used in ECPInt.
 ECPInt:  NShTT=     465 NPrTT=    1887 LenC2=     466 LenP2D=    1654.
 LDataN:  DoStor=T MaxTD1= 4 Len=   56
 NBasis=    54 RedAO= T EigKep=  4.21D-03  NBF=    54
 NBsUse=    54 1.00D-06 EigRej= -1.00D+00 NBFU=    54
 Initial guess from the checkpoint file:  "/home/software/g16tmp/Gau-42403.chk"
 B after Tr=    -0.000000   -0.000000   -0.000000
         Rot=    1.000000   -0.000781    0.000306    0.000001 Ang=  -0.10 deg.
 Initial guess <Sx>= 0.0000 <Sy>= 0.0000 <Sz>= 1.0000 <S**2>= 2.0066 S= 1.0022
 Keep R1 and R2 ints in memory in canonical form, NReq=16304564.
 Requested convergence on RMS density matrix=1.00D-08 within 128 cycles.
 Requested convergence on MAX density matrix=1.00D-06.
 Requested convergence on             energy=1.00D-06.
 No special actions if energy rises.
 SCF Done:  E(UB3LYP) =  -117.710009824     A.U. after    8 cycles
            NFock=  8  Conv=0.32D-08     -V/T= 2.0114
 <Sx>= 0.0000 <Sy>= 0.0000 <Sz>= 1.0000 <S**2>= 2.0066 S= 1.0022
 <L.S>=  0.00000000000    
 Annihilation of the first spin contaminant:
 S**2 before annihilation     2.0066,   after     2.0000
   1 Symmetry operations used in ECPInt.
 ECPInt:  NShTT=     465 NPrTT=    1887 LenC2=     466 LenP2D=    1654.
 LDataN:  DoStor=T MaxTD1= 5 Len=  102
 Calling FoFJK, ICntrl=      2127 FMM=F ISym2X=0 I1Cent= 0 IOpClX= 1 NMat=1 NMatS=1 NMatT=0.
 ***** Axes restored to original set *****
 -------------------------------------------------------------------
 Center     Atomic                   Forces (Hartrees/Bohr)
 Number     Number              X              Y              Z
 -------------------------------------------------------------------
      1        6           0.000028288    0.000035013    0.000007501
      2        6           0.000004081    0.000020372   -0.000016800
      3        6           0.000033993    0.000026852    0.000003456
      4        1           0.000012093   -0.000010225   -0.000000442
      5        1          -0.000025284   -0.000021150    0.000007169
      6        1          -0.000007577   -0.000019148   -0.000005911
      7        1          -0.000017393    0.000008980    0.000006483
      8        1          -0.000015759   -0.000010754   -0.000006507
      9        1          -0.000012441   -0.000029940    0.000005050
 -------------------------------------------------------------------
 Cartesian Forces:  Max     0.000035013 RMS     0.000017681

 GradGradGradGradGradGradGradGradGradGradGradGradGradGradGradGradGradGrad
 Berny optimization.
 Using GEDIIS/GDIIS optimizer.
 FormGI is forming the generalized inverse of G from B-inverse, IUseBI=4.
 Internal  Forces:  Max     0.000028772 RMS     0.000012236
 Search for a local minimum.
 Step number  16 out of a maximum of   41
 All quantities printed in internal units (Hartrees-Bohrs-Radians)
 Mixed Optimization -- En-DIIS/RFO-DIIS
 Swapping is turned off.
 Update second derivatives using D2CorX and points    7    8    9   10   11
                                                     12   13   14   15   16
 DE= -1.04D-06 DEPred=-4.95D-07 R= 2.09D+00
 TightC=F SS=  1.41D+00  RLast= 6.10D-02 DXNew= 8.2544D-01 1.8310D-01
 Trust test= 2.09D+00 RLast= 6.10D-02 DXMaxT set to 4.91D-01
 ITU=  1  1  1  1  1  1 -1  1  1  1  0 -1  0  1  1  0
     Eigenvalues ---    0.00036   0.00443   0.03671   0.05560   0.06101
     Eigenvalues ---    0.07209   0.10944   0.13415   0.15827   0.15984
     Eigenvalues ---    0.16018   0.16500   0.18466   0.32307   0.34057
     Eigenvalues ---    0.34377   0.34389   0.34517   0.35464   0.36875
     Eigenvalues ---    0.40776
 En-DIIS/RFO-DIIS/Sim-DIIS IScMMF=       -3 using points:    16   15   14   13   12   11
 RFO step:  Lambda=-4.09571264D-08.
 DIIS inversion failure, remove point   6.
 DIIS inversion failure, remove point   5.
 DIIS inversion failure, remove point   4.
 RFO-DIIS uses    3 points instead of    6
 DidBck=F Rises=F RFO-DIIS coefs:    1.19510   -0.27738    0.08228    0.00000    0.00000
                  RFO-DIIS coefs:    0.00000
 Iteration  1 RMS(Cart)=  0.00073814 RMS(Int)=  0.00000048
 Iteration  2 RMS(Cart)=  0.00000035 RMS(Int)=  0.00000035
 Variable       Old X    -DE/DX   Delta X   Delta X   Delta X     New X
                                 (Linear)    (Quad)   (Total)
    R1        2.77706  -0.00001  -0.00002  -0.00001  -0.00003   2.77703
    R2        2.09075  -0.00001  -0.00004  -0.00000  -0.00004   2.09070
    R3        2.10637   0.00003   0.00009   0.00001   0.00009   2.10646
    R4        2.10641   0.00001   0.00001   0.00003   0.00004   2.10645
    R5        2.77703  -0.00000  -0.00001   0.00000  -0.00000   2.77703
    R6        2.09076  -0.00002  -0.00006   0.00000  -0.00005   2.09070
    R7        2.10641   0.00001   0.00002   0.00002   0.00004   2.10645
    R8        2.10637   0.00003   0.00010  -0.00001   0.00009   2.10646
    A1        1.94765  -0.00001  -0.00000  -0.00001  -0.00001   1.94764
    A2        1.95843   0.00001   0.00002   0.00003   0.00005   1.95848
    A3        1.95854  -0.00001  -0.00002  -0.00001  -0.00003   1.95851
    A4        1.86499   0.00000  -0.00001   0.00007   0.00006   1.86505
    A5        1.86495   0.00001   0.00018  -0.00004   0.00014   1.86508
    A6        1.86323  -0.00001  -0.00017  -0.00003  -0.00020   1.86303
    A7        1.94768  -0.00001  -0.00004  -0.00000  -0.00004   1.94764
    A8        1.95851  -0.00001   0.00001  -0.00001   0.00000   1.95851
    A9        1.95852   0.00001  -0.00003   0.00001  -0.00002   1.95850
   A10        1.86493   0.00001   0.00018  -0.00004   0.00014   1.86508
   A11        1.86495   0.00001   0.00005   0.00005   0.00010   1.86505
   A12        1.86319  -0.00001  -0.00017  -0.00001  -0.00018   1.86301
   A13        2.51909  -0.00002  -0.00006  -0.00013  -0.00019   2.51890
   A14        2.37208   0.00000   0.00005   0.00005   0.00010   2.37218
    D1       -0.00203   0.00000   0.00206   0.00003   0.00209   0.00006
    D2       -2.19202  -0.00000   0.00116   0.00004   0.00120  -2.19082
    D3        2.18952   0.00001   0.00136   0.00006   0.00143   2.19095
    D4       -2.19286  -0.00000   0.00209  -0.00006   0.00203  -2.19083
    D5        1.90033  -0.00001   0.00118  -0.00004   0.00114   1.90147
    D6       -0.00131   0.00000   0.00139  -0.00002   0.00137   0.00006
    D7        2.18865   0.00001   0.00228  -0.00001   0.00227   2.19092
    D8       -0.00134   0.00000   0.00138   0.00000   0.00138   0.00004
    D9       -1.90298   0.00001   0.00159   0.00003   0.00161  -1.90137
         Item               Value     Threshold  Converged?
 Maximum Force            0.000029     0.000450     YES
 RMS     Force            0.000012     0.000300     YES
 Maximum Displacement     0.001822     0.001800     NO 
 RMS     Displacement     0.000738     0.001200     YES
 Predicted change in Energy=-1.993543D-08
 GradGradGradGradGradGradGradGradGradGradGradGradGradGradGradGradGradGrad

                          Input orientation:                          
 ---------------------------------------------------------------------
 Center     Atomic      Atomic             Coordinates (Angstroms)
 Number     Number       Type             X           Y           Z
 ---------------------------------------------------------------------
      1          6           0        0.918095    0.142744   -0.037929
      2          6           0        2.354757   -0.142350   -0.157423
      3          6           0        3.126272   -1.349607   -0.484291
      4          1           0        0.733844    1.199826    0.231602
      5          1           0        0.428494   -0.480754    0.745700
      6          1           0        0.369911   -0.048581   -0.989458
      7          1           0        4.214909   -1.152795   -0.472020
      8          1           0        2.880656   -1.745365   -1.496996
      9          1           0        2.939282   -2.177677    0.238115
 ---------------------------------------------------------------------
                    Distance matrix (angstroms):
                    1          2          3          4          5
     1  C    0.000000
     2  C    1.469543   0.000000
     3  C    2.702295   1.469540   0.000000
     4  H    1.106353   2.140126   3.568729   0.000000
     5  H    1.114690   2.154215   3.089626   1.783784   0.000000
     6  H    1.114684   2.154226   3.089562   1.783803   1.789127
     7  H    3.568731   2.140125   1.106353   4.260015   4.033785
     8  H    3.089576   2.154225   1.114686   4.033733   3.555563
     9  H    3.089620   2.154223   1.114691   4.033798   3.072661
                    6          7          8          9
     6  H    0.000000
     7  H    4.033738   0.000000
     8  H    3.072542   1.783801   0.000000
     9  H    3.555510   1.783789   1.789118   0.000000
 Stoichiometry    C3H6(3)
 Framework group  C1[X(C3H6)]
 Deg. of freedom    21
 Full point group                 C1      NOp   1
 Largest Abelian subgroup         C1      NOp   1
 Largest concise Abelian subgroup C1      NOp   1
                         Standard orientation:                         
 ---------------------------------------------------------------------
 Center     Atomic      Atomic             Coordinates (Angstroms)
 Number     Number       Type             X           Y           Z
 ---------------------------------------------------------------------
      1          6           0       -1.351148   -0.103492   -0.000002
      2          6           0        0.000000    0.474395   -0.000010
      3          6           0        1.351147   -0.103490   -0.000001
      4          1           0       -2.130008    0.682252   -0.000121
      5          1           0       -1.536335   -0.742117    0.894647
      6          1           0       -1.536263   -0.742368   -0.894480
      7          1           0        2.130007    0.682254   -0.000074
      8          1           0        1.536279   -0.742326   -0.894505
      9          1           0        1.536326   -0.742169    0.894612
 ---------------------------------------------------------------------
 Rotational constants (GHZ):          54.4438659           7.6922202           7.3745042
 Standard basis: def2SVPP (5D, 7F)
 There are    57 symmetry adapted cartesian basis functions of A   symmetry.
 There are    54 symmetry adapted basis functions of A   symmetry.
    54 basis functions,    99 primitive gaussians,    57 cartesian basis functions
    13 alpha electrons       11 beta electrons
       nuclear repulsion energy        67.9319119027 Hartrees.
 NAtoms=    9 NActive=    9 NUniq=    9 SFac= 1.00D+00 NAtFMM=   60 NAOKFM=F Big=F
 Integral buffers will be    131072 words long.
 Raffenetti 2 integral format.
 Two-electron integral symmetry is turned on.
 Nuclear repulsion after empirical dispersion term =       67.9245045400 Hartrees.
 One-electron integrals computed using PRISM.
   1 Symmetry operations used in ECPInt.
 ECPInt:  NShTT=     465 NPrTT=    1887 LenC2=     466 LenP2D=    1654.
 LDataN:  DoStor=T MaxTD1= 4 Len=   56
 NBasis=    54 RedAO= T EigKep=  4.21D-03  NBF=    54
 NBsUse=    54 1.00D-06 EigRej= -1.00D+00 NBFU=    54
 Initial guess from the checkpoint file:  "/home/software/g16tmp/Gau-42403.chk"
 B after Tr=     0.000000   -0.000000    0.000000
         Rot=    1.000000   -0.000354    0.000025   -0.000000 Ang=  -0.04 deg.
 Initial guess <Sx>= 0.0000 <Sy>= 0.0000 <Sz>= 1.0000 <S**2>= 2.0066 S= 1.0022
 Keep R1 and R2 ints in memory in canonical form, NReq=16304564.
 Requested convergence on RMS density matrix=1.00D-08 within 128 cycles.
 Requested convergence on MAX density matrix=1.00D-06.
 Requested convergence on             energy=1.00D-06.
 No special actions if energy rises.
 SCF Done:  E(UB3LYP) =  -117.710009848     A.U. after    7 cycles
            NFock=  7  Conv=0.19D-08     -V/T= 2.0114
 <Sx>= 0.0000 <Sy>= 0.0000 <Sz>= 1.0000 <S**2>= 2.0066 S= 1.0022
 <L.S>=  0.00000000000    
 Annihilation of the first spin contaminant:
 S**2 before annihilation     2.0066,   after     2.0000
   1 Symmetry operations used in ECPInt.
 ECPInt:  NShTT=     465 NPrTT=    1887 LenC2=     466 LenP2D=    1654.
 LDataN:  DoStor=T MaxTD1= 5 Len=  102
 Calling FoFJK, ICntrl=      2127 FMM=F ISym2X=0 I1Cent= 0 IOpClX= 1 NMat=1 NMatS=1 NMatT=0.
 ***** Axes restored to original set *****
 -------------------------------------------------------------------
 Center     Atomic                   Forces (Hartrees/Bohr)
 Number     Number              X              Y              Z
 -------------------------------------------------------------------
      1        6           0.000003718    0.000000131    0.000007044
      2        6           0.000000618    0.000003711   -0.000002290
      3        6           0.000001216   -0.000000691    0.000004668
      4        1           0.000001031   -0.000000075   -0.000001773
      5        1          -0.000001993   -0.000001733   -0.000001218
      6        1          -0.000001713   -0.000000997   -0.000002765
      7        1          -0.000001046    0.000001076   -0.000000879
      8        1          -0.000000808   -0.000000579   -0.000002602
      9        1          -0.000001023   -0.000000845   -0.000000183
 -------------------------------------------------------------------
 Cartesian Forces:  Max     0.000007044 RMS     0.000002305

 GradGradGradGradGradGradGradGradGradGradGradGradGradGradGradGradGradGrad
 Berny optimization.
 Using GEDIIS/GDIIS optimizer.
 FormGI is forming the generalized inverse of G from B-inverse, IUseBI=4.
 Internal  Forces:  Max     0.000004858 RMS     0.000001432
 Search for a local minimum.
 Step number  17 out of a maximum of   41
 All quantities printed in internal units (Hartrees-Bohrs-Radians)
 Mixed Optimization -- En-DIIS/RFO-DIIS
 Swapping is turned off.
 Update second derivatives using D2CorX and points    7    8    9   10   11
                                                     12   13   14   15   16
                                                     17
 DE= -2.37D-08 DEPred=-1.99D-08 R= 1.19D+00
 Trust test= 1.19D+00 RLast= 5.00D-03 DXMaxT set to 4.91D-01
 ITU=  0  1  1  1  1  1  1 -1  1  1  1  0 -1  0  1  1  0
     Eigenvalues ---    0.00035   0.00453   0.03671   0.05088   0.05861
     Eigenvalues ---    0.07179   0.11005   0.13342   0.15854   0.15947
     Eigenvalues ---    0.15990   0.16466   0.17968   0.31942   0.33249
     Eigenvalues ---    0.34254   0.34389   0.34420   0.34702   0.36829
     Eigenvalues ---    0.41188
 En-DIIS/RFO-DIIS/Sim-DIIS IScMMF=       -3 using points:    17   16   15   14   13   12   11
 RFO step:  Lambda=-3.10405002D-10.
 DIIS inversion failure, remove point   7.
 DIIS inversion failure, remove point   6.
 DIIS inversion failure, remove point   5.
 DIIS inversion failure, remove point   4.
 RFO-DIIS uses    3 points instead of    7
 DidBck=F Rises=F RFO-DIIS coefs:    1.10664   -0.11741    0.01077    0.00000    0.00000
                  RFO-DIIS coefs:    0.00000    0.00000
 Iteration  1 RMS(Cart)=  0.00003696 RMS(Int)=  0.00000001
 Iteration  2 RMS(Cart)=  0.00000000 RMS(Int)=  0.00000001
 Variable       Old X    -DE/DX   Delta X   Delta X   Delta X     New X
                                 (Linear)    (Quad)   (Total)
    R1        2.77703  -0.00000  -0.00000  -0.00000  -0.00000   2.77703
    R2        2.09070  -0.00000  -0.00000   0.00000  -0.00000   2.09070
    R3        2.10646   0.00000   0.00001  -0.00000   0.00000   2.10646
    R4        2.10645   0.00000   0.00000   0.00001   0.00001   2.10646
    R5        2.77703  -0.00000   0.00000   0.00000   0.00000   2.77703
    R6        2.09070  -0.00000  -0.00000   0.00000  -0.00000   2.09070
    R7        2.10645   0.00000   0.00000   0.00000   0.00001   2.10646
    R8        2.10646   0.00000   0.00001  -0.00000   0.00000   2.10646
    A1        1.94764  -0.00000  -0.00000  -0.00000  -0.00000   1.94764
    A2        1.95848   0.00000   0.00000   0.00001   0.00001   1.95849
    A3        1.95851  -0.00000  -0.00000  -0.00001  -0.00001   1.95850
    A4        1.86505   0.00000   0.00001   0.00001   0.00002   1.86507
    A5        1.86508  -0.00000   0.00001  -0.00001  -0.00001   1.86508
    A6        1.86303  -0.00000  -0.00002  -0.00000  -0.00002   1.86301
    A7        1.94764  -0.00000  -0.00000   0.00000  -0.00000   1.94764
    A8        1.95851  -0.00000  -0.00000  -0.00000  -0.00001   1.95850
    A9        1.95850   0.00000   0.00000  -0.00000  -0.00000   1.95850
   A10        1.86508  -0.00000   0.00001  -0.00001  -0.00000   1.86508
   A11        1.86505   0.00000   0.00001   0.00001   0.00002   1.86507
   A12        1.86301   0.00000  -0.00001   0.00001  -0.00001   1.86301
   A13        2.51890  -0.00000  -0.00005  -0.00002  -0.00007   2.51883
   A14        2.37218   0.00000   0.00007   0.00001   0.00008   2.37226
    D1        0.00006   0.00000  -0.00006   0.00001  -0.00005   0.00001
    D2       -2.19082   0.00000  -0.00008   0.00002  -0.00006  -2.19089
    D3        2.19095   0.00000  -0.00007   0.00001  -0.00005   2.19090
    D4       -2.19083  -0.00000  -0.00003  -0.00001  -0.00004  -2.19088
    D5        1.90147  -0.00000  -0.00005  -0.00001  -0.00006   1.90141
    D6        0.00006  -0.00000  -0.00004  -0.00001  -0.00005   0.00001
    D7        2.19092  -0.00000  -0.00001  -0.00001  -0.00002   2.19091
    D8        0.00004   0.00000  -0.00004   0.00000  -0.00003   0.00001
    D9       -1.90137   0.00000  -0.00002  -0.00000  -0.00002  -1.90139
         Item               Value     Threshold  Converged?
 Maximum Force            0.000005     0.000450     YES
 RMS     Force            0.000001     0.000300     YES
 Maximum Displacement     0.000095     0.001800     YES
 RMS     Displacement     0.000037     0.001200     YES
 Predicted change in Energy=-2.527616D-10
 Optimization completed.
    -- Stationary point found.
                           ----------------------------
                           !   Optimized Parameters   !
                           ! (Angstroms and Degrees)  !
 --------------------------                            --------------------------
 ! Name  Definition              Value          Derivative Info.                !
 --------------------------------------------------------------------------------
 ! R1    R(1,2)                  1.4695         -DE/DX =    0.0                 !
 ! R2    R(1,4)                  1.1064         -DE/DX =    0.0                 !
 ! R3    R(1,5)                  1.1147         -DE/DX =    0.0                 !
 ! R4    R(1,6)                  1.1147         -DE/DX =    0.0                 !
 ! R5    R(2,3)                  1.4695         -DE/DX =    0.0                 !
 ! R6    R(3,7)                  1.1064         -DE/DX =    0.0                 !
 ! R7    R(3,8)                  1.1147         -DE/DX =    0.0                 !
 ! R8    R(3,9)                  1.1147         -DE/DX =    0.0                 !
 ! A1    A(2,1,4)              111.5914         -DE/DX =    0.0                 !
 ! A2    A(2,1,5)              112.2128         -DE/DX =    0.0                 !
 ! A3    A(2,1,6)              112.2142         -DE/DX =    0.0                 !
 ! A4    A(4,1,5)              106.8593         -DE/DX =    0.0                 !
 ! A5    A(4,1,6)              106.8614         -DE/DX =    0.0                 !
 ! A6    A(5,1,6)              106.7438         -DE/DX =    0.0                 !
 ! A7    A(2,3,7)              111.5916         -DE/DX =    0.0                 !
 ! A8    A(2,3,8)              112.2142         -DE/DX =    0.0                 !
 ! A9    A(2,3,9)              112.2137         -DE/DX =    0.0                 !
 ! A10   A(7,3,8)              106.8611         -DE/DX =    0.0                 !
 ! A11   A(7,3,9)              106.8597         -DE/DX =    0.0                 !
 ! A12   A(8,3,9)              106.7427         -DE/DX =    0.0                 !
 ! A13   L(1,2,3,5,-1)         144.3223         -DE/DX =    0.0                 !
 ! A14   L(1,2,3,5,-2)         135.9159         -DE/DX =    0.0                 !
 ! D1    D(4,1,3,7)              0.0033         -DE/DX =    0.0                 !
 ! D2    D(4,1,3,8)           -125.525          -DE/DX =    0.0                 !
 ! D3    D(4,1,3,9)            125.5323         -DE/DX =    0.0                 !
 ! D4    D(5,1,3,7)           -125.5256         -DE/DX =    0.0                 !
 ! D5    D(5,1,3,8)            108.9462         -DE/DX =    0.0                 !
 ! D6    D(5,1,3,9)              0.0035         -DE/DX =    0.0                 !
 ! D7    D(6,1,3,7)            125.5307         -DE/DX =    0.0                 !
 ! D8    D(6,1,3,8)              0.0025         -DE/DX =    0.0                 !
 ! D9    D(6,1,3,9)           -108.9402         -DE/DX =    0.0                 !
 --------------------------------------------------------------------------------
 GradGradGradGradGradGradGradGradGradGradGradGradGradGradGradGradGradGrad

                          Input orientation:                          
 ---------------------------------------------------------------------
 Center     Atomic      Atomic             Coordinates (Angstroms)
 Number     Number       Type             X           Y           Z
 ---------------------------------------------------------------------
      1          6           0        0.918095    0.142744   -0.037929
      2          6           0        2.354757   -0.142350   -0.157423
      3          6           0        3.126272   -1.349607   -0.484291
      4          1           0        0.733844    1.199826    0.231602
      5          1           0        0.428494   -0.480754    0.745700
      6          1           0        0.369911   -0.048581   -0.989458
      7          1           0        4.214909   -1.152795   -0.472020
      8          1           0        2.880656   -1.745365   -1.496996
      9          1           0        2.939282   -2.177677    0.238115
 ---------------------------------------------------------------------
                    Distance matrix (angstroms):
                    1          2          3          4          5
     1  C    0.000000
     2  C    1.469543   0.000000
     3  C    2.702295   1.469540   0.000000
     4  H    1.106353   2.140126   3.568729   0.000000
     5  H    1.114690   2.154215   3.089626   1.783784   0.000000
     6  H    1.114684   2.154226   3.089562   1.783803   1.789127
     7  H    3.568731   2.140125   1.106353   4.260015   4.033785
     8  H    3.089576   2.154225   1.114686   4.033733   3.555563
     9  H    3.089620   2.154223   1.114691   4.033798   3.072661
                    6          7          8          9
     6  H    0.000000
     7  H    4.033738   0.000000
     8  H    3.072542   1.783801   0.000000
     9  H    3.555510   1.783789   1.789118   0.000000
 Stoichiometry    C3H6(3)
 Framework group  C1[X(C3H6)]
 Deg. of freedom    21
 Full point group                 C1      NOp   1
 Largest Abelian subgroup         C1      NOp   1
 Largest concise Abelian subgroup C1      NOp   1
                         Standard orientation:                         
 ---------------------------------------------------------------------
 Center     Atomic      Atomic             Coordinates (Angstroms)
 Number     Number       Type             X           Y           Z
 ---------------------------------------------------------------------
      1          6           0       -1.351148   -0.103492   -0.000002
      2          6           0        0.000000    0.474395   -0.000010
      3          6           0        1.351147   -0.103490   -0.000001
      4          1           0       -2.130008    0.682252   -0.000121
      5          1           0       -1.536335   -0.742117    0.894647
      6          1           0       -1.536263   -0.742368   -0.894480
      7          1           0        2.130007    0.682254   -0.000074
      8          1           0        1.536279   -0.742326   -0.894505
      9          1           0        1.536326   -0.742169    0.894612
 ---------------------------------------------------------------------
 Rotational constants (GHZ):          54.4438659           7.6922202           7.3745042

 **********************************************************************

            Population analysis using the SCF Density.

 **********************************************************************

 Orbital symmetries:
 Alpha Orbitals:
       Occupied  (A) (A) (A) (A) (A) (A) (A) (A) (A) (A) (A) (A)
                 (A)
       Virtual   (A) (A) (A) (A) (A) (A) (A) (A) (A) (A) (A) (A)
                 (A) (A) (A) (A) (A) (A) (A) (A) (A) (A) (A) (A)
                 (A) (A) (A) (A) (A) (A) (A) (A) (A) (A) (A) (A)
                 (A) (A) (A) (A) (A)
 Beta  Orbitals:
       Occupied  (A) (A) (A) (A) (A) (A) (A) (A) (A) (A) (A)
       Virtual   (A) (A) (A) (A) (A) (A) (A) (A) (A) (A) (A) (A)
                 (A) (A) (A) (A) (A) (A) (A) (A) (A) (A) (A) (A)
                 (A) (A) (A) (A) (A) (A) (A) (A) (A) (A) (A) (A)
                 (A) (A) (A) (A) (A) (A) (A)
 The electronic state is 3-A.
 Alpha  occ. eigenvalues --  -10.19777 -10.18701 -10.18700  -0.77619  -0.69710
 Alpha  occ. eigenvalues --   -0.53873  -0.43794  -0.43637  -0.42062  -0.39741
 Alpha  occ. eigenvalues --   -0.37958  -0.22582  -0.18489
 Alpha virt. eigenvalues --    0.06208   0.09408   0.12066   0.13015   0.14053
 Alpha virt. eigenvalues --    0.14109   0.21834   0.29101   0.37915   0.43024
 Alpha virt. eigenvalues --    0.45477   0.46820   0.48753   0.52974   0.60837
 Alpha virt. eigenvalues --    0.63183   0.65529   0.66729   0.67410   0.67696
 Alpha virt. eigenvalues --    0.69436   0.69997   0.70088   0.72296   0.87919
 Alpha virt. eigenvalues --    0.92791   1.41214   1.47767   1.55007   1.64605
 Alpha virt. eigenvalues --    1.82295   1.97949   1.98193   2.01427   2.04115
 Alpha virt. eigenvalues --    2.12135   2.15727   2.28197   2.41605   2.58220
 Alpha virt. eigenvalues --    2.72003
  Beta  occ. eigenvalues --  -10.18771 -10.18770 -10.16941  -0.74703  -0.69088
  Beta  occ. eigenvalues --   -0.49828  -0.41726  -0.41687  -0.40669  -0.38871
  Beta  occ. eigenvalues --   -0.37075
  Beta virt. eigenvalues --   -0.05279  -0.02028   0.06608   0.09692   0.12798
  Beta virt. eigenvalues --    0.13858   0.14341   0.14620   0.24254   0.30462
  Beta virt. eigenvalues --    0.38868   0.46773   0.46980   0.47632   0.53228
  Beta virt. eigenvalues --    0.58243   0.65400   0.65434   0.66545   0.67686
  Beta virt. eigenvalues --    0.68045   0.68192   0.69859   0.70277   0.71269
  Beta virt. eigenvalues --    0.74007   0.88853   0.93349   1.43835   1.54783
  Beta virt. eigenvalues --    1.60781   1.65840   1.88882   1.99040   1.99540
  Beta virt. eigenvalues --    2.02915   2.08532   2.14486   2.16302   2.31035
  Beta virt. eigenvalues --    2.45234   2.61619   2.75280
          Condensed to atoms (all electrons):
               1          2          3          4          5          6
     1  C    4.843384   0.400944  -0.072197   0.369753   0.352274   0.352275
     2  C    0.400944   5.488709   0.400945  -0.022206  -0.025060  -0.025056
     3  C   -0.072197   0.400945   4.843386   0.007545  -0.003940  -0.003942
     4  H    0.369753  -0.022206   0.007545   0.582030  -0.024901  -0.024897
     5  H    0.352274  -0.025060  -0.003940  -0.024901   0.628646  -0.034432
     6  H    0.352275  -0.025056  -0.003942  -0.024897  -0.034432   0.628636
     7  H    0.007545  -0.022206   0.369753  -0.000236  -0.000292  -0.000292
     8  H   -0.003942  -0.025056   0.352274  -0.000292  -0.001116   0.006034
     9  H   -0.003940  -0.025060   0.352274  -0.000292   0.006033  -0.001116
               7          8          9
     1  C    0.007545  -0.003942  -0.003940
     2  C   -0.022206  -0.025056  -0.025060
     3  C    0.369753   0.352274   0.352274
     4  H   -0.000236  -0.000292  -0.000292
     5  H   -0.000292  -0.001116   0.006033
     6  H   -0.000292   0.006034  -0.001116
     7  H    0.582029  -0.024898  -0.024901
     8  H   -0.024898   0.628639  -0.034434
     9  H   -0.024901  -0.034434   0.628647
          Atomic-Atomic Spin Densities.
               1          2          3          4          5          6
     1  C   -0.068944  -0.090424   0.019589   0.029231  -0.005600  -0.005605
     2  C   -0.090424   2.242721  -0.090424  -0.026088  -0.028202  -0.028196
     3  C    0.019589  -0.090424  -0.068946   0.001602  -0.003208  -0.003209
     4  H    0.029231  -0.026088   0.001602   0.045089  -0.010607  -0.010602
     5  H   -0.005600  -0.028202  -0.003208  -0.010607   0.134539  -0.016885
     6  H   -0.005605  -0.028196  -0.003209  -0.010602  -0.016885   0.134530
     7  H    0.001602  -0.026088   0.029232   0.000169  -0.000304  -0.000304
     8  H   -0.003209  -0.028197  -0.005603  -0.000304  -0.001234   0.006469
     9  H   -0.003208  -0.028200  -0.005602  -0.000304   0.006468  -0.001234
               7          8          9
     1  C    0.001602  -0.003209  -0.003208
     2  C   -0.026088  -0.028197  -0.028200
     3  C    0.029232  -0.005603  -0.005602
     4  H    0.000169  -0.000304  -0.000304
     5  H   -0.000304  -0.001234   0.006468
     6  H   -0.000304   0.006469  -0.001234
     7  H    0.045089  -0.010603  -0.010606
     8  H   -0.010603   0.134533  -0.016886
     9  H   -0.010606  -0.016886   0.134541
 Mulliken charges and spin densities:
               1          2
     1  C   -0.246097  -0.126568
     2  C   -0.145953   1.896902
     3  C   -0.246098  -0.126570
     4  H    0.113496   0.028184
     5  H    0.102789   0.074967
     6  H    0.102790   0.074964
     7  H    0.113496   0.028185
     8  H    0.102789   0.074966
     9  H    0.102788   0.074969
 Sum of Mulliken charges =  -0.00000   2.00000
 Mulliken charges and spin densities with hydrogens summed into heavy atoms:
               1          2
     1  C    0.072978   0.051548
     2  C   -0.145953   1.896902
     3  C    0.072975   0.051550
 Electronic spatial extent (au):  <R**2>=            217.4750
 Charge=             -0.0000 electrons
 Dipole moment (field-independent basis, Debye):
    X=             -0.0000    Y=             -0.7223    Z=              0.0000  Tot=              0.7223
 Quadrupole moment (field-independent basis, Debye-Ang):
   XX=            -18.9613   YY=            -21.1380   ZZ=            -20.7229
   XY=             -0.0000   XZ=              0.0000   YZ=              0.0001
 Traceless Quadrupole moment (field-independent basis, Debye-Ang):
   XX=              1.3128   YY=             -0.8639   ZZ=             -0.4489
   XY=             -0.0000   XZ=              0.0000   YZ=              0.0001
 Octapole moment (field-independent basis, Debye-Ang**2):
  XXX=              0.0000  YYY=             -1.8419  ZZZ=              0.0003  XYY=              0.0000
  XXY=              1.4074  XXZ=             -0.0001  XZZ=             -0.0001  YZZ=             -1.5901
  YYZ=             -0.0003  XYZ=              0.0000
 Hexadecapole moment (field-independent basis, Debye-Ang**3):
 XXXX=           -219.3612 YYYY=            -47.0946 ZZZZ=            -36.6367 XXXY=             -0.0000
 XXXZ=              0.0001 YYYX=             -0.0000 YYYZ=              0.0003 ZZZX=             -0.0001
 ZZZY=              0.0000 XXYY=            -42.5731 XXZZ=            -42.9299 YYZZ=            -13.4937
 XXYZ=             -0.0001 YYXZ=              0.0001 ZZXY=              0.0000
 N-N= 6.792450453999D+01 E-N=-4.073842972112D+02  KE= 1.163787472623D+02
                          Isotropic Fermi Contact Couplings
        Atom                 a.u.       MegaHertz       Gauss      10(-4) cm-1
     1  C(13)             -0.01221      -6.86129      -2.44828      -2.28868
     2  C(13)              0.67567     379.79292     135.51956     126.68528
     3  C(13)             -0.01221      -6.86150      -2.44835      -2.28875
     4  H(1)               0.01567      35.01092      12.49277      11.67839
     5  H(1)               0.02869      64.12474      22.88130      21.38971
     6  H(1)               0.02869      64.12037      22.87974      21.38825
     7  H(1)               0.01567      35.01119      12.49286      11.67848
     8  H(1)               0.02869      64.12216      22.88038      21.38885
     9  H(1)               0.02869      64.12559      22.88161      21.39000
 --------------------------------------------------------
       Center         ----  Spin Dipole Couplings  ----
                      3XX-RR        3YY-RR        3ZZ-RR
 --------------------------------------------------------
     1   Atom        0.054476      0.000328     -0.054805
     2   Atom       -1.032441      0.369711      0.662730
     3   Atom        0.054478      0.000328     -0.054805
     4   Atom        0.041342     -0.020992     -0.020350
     5   Atom        0.007931     -0.000958     -0.006973
     6   Atom        0.007928     -0.000952     -0.006977
     7   Atom        0.041342     -0.020992     -0.020350
     8   Atom        0.007929     -0.000953     -0.006976
     9   Atom        0.007931     -0.000957     -0.006974
 --------------------------------------------------------
                        XY            XZ            YZ
 --------------------------------------------------------
     1   Atom        0.061990     -0.000001     -0.000003
     2   Atom        0.000000     -0.000004      0.000005
     3   Atom       -0.061990      0.000001     -0.000002
     4   Atom       -0.003349      0.000003     -0.000000
     5   Atom        0.021643     -0.011377     -0.011517
     6   Atom        0.021644      0.011372      0.011517
     7   Atom        0.003349     -0.000002     -0.000000
     8   Atom       -0.021644     -0.011372      0.011517
     9   Atom       -0.021643      0.011376     -0.011517
 --------------------------------------------------------


 ---------------------------------------------------------------------------------
              Anisotropic Spin Dipole Couplings in Principal Axis System
 ---------------------------------------------------------------------------------

       Atom             a.u.   MegaHertz   Gauss  10(-4) cm-1        Axes

              Baa    -0.0548    -7.354    -2.624    -2.453 -0.0001  0.0001  1.0000
     1 C(13)  Bbb    -0.0402    -5.400    -1.927    -1.801 -0.5476  0.8367 -0.0001
              Bcc     0.0950    12.754     4.551     4.254  0.8367  0.5476 -0.0000
 
              Baa    -1.0324  -138.544   -49.436   -46.213  1.0000 -0.0000  0.0000
     2 C(13)  Bbb     0.3697    49.612    17.703    16.549  0.0000  1.0000 -0.0000
              Bcc     0.6627    88.932    31.733    29.665 -0.0000  0.0000  1.0000
 
              Baa    -0.0548    -7.354    -2.624    -2.453  0.0000  0.0001  1.0000
     3 C(13)  Bbb    -0.0402    -5.400    -1.927    -1.801  0.5476  0.8367 -0.0001
              Bcc     0.0950    12.754     4.551     4.254  0.8367 -0.5476  0.0000
 
              Baa    -0.0212   -11.296    -4.031    -3.768  0.0535  0.9986 -0.0002
     4 H(1)   Bbb    -0.0203   -10.858    -3.874    -3.622 -0.0000  0.0002  1.0000
              Bcc     0.0415    22.154     7.905     7.390  0.9986 -0.0535  0.0001
 
              Baa    -0.0191   -10.183    -3.634    -3.397 -0.5329  0.8040  0.2639
     5 H(1)   Bbb    -0.0131    -6.999    -2.498    -2.335  0.4628  0.0158  0.8863
              Bcc     0.0322    17.182     6.131     5.731  0.7084  0.5945 -0.3805
 
              Baa    -0.0191   -10.183    -3.633    -3.397 -0.5329  0.8039 -0.2642
     6 H(1)   Bbb    -0.0131    -6.999    -2.497    -2.335 -0.4629 -0.0155  0.8863
              Bcc     0.0322    17.182     6.131     5.731  0.7084  0.5946  0.3804
 
              Baa    -0.0212   -11.296    -4.031    -3.768 -0.0535  0.9986 -0.0001
     7 H(1)   Bbb    -0.0203   -10.858    -3.874    -3.622  0.0000  0.0001  1.0000
              Bcc     0.0415    22.154     7.905     7.390  0.9986  0.0535 -0.0000
 
              Baa    -0.0191   -10.183    -3.633    -3.397  0.5329  0.8039 -0.2641
     8 H(1)   Bbb    -0.0131    -6.999    -2.497    -2.335  0.4629 -0.0156  0.8863
              Bcc     0.0322    17.182     6.131     5.731  0.7084 -0.5946 -0.3804
 
              Baa    -0.0191   -10.183    -3.633    -3.397  0.5329  0.8039  0.2640
     9 H(1)   Bbb    -0.0131    -6.999    -2.498    -2.335 -0.4628  0.0158  0.8863
              Bcc     0.0322    17.182     6.131     5.731  0.7084 -0.5945  0.3805
 

 ---------------------------------------------------------------------------------

 Unable to Open any file for archive entry.
 1\1\GINC-NODE06\FOpt\UB3LYP\def2SVPP\C3H6(3)\XUHJ\19-Dec-2023\0\\#N op
 t freq B3LYP/def2SVPP symm=veryloose em=gd3bj scale=0.961 press=0.987\
 \C[C]C_1\\0,3\C,0.9180951562,0.1427443146,-0.0379285977\C,2.3547574959
 ,-0.1423502031,-0.1574227443\C,3.1262720922,-1.3496074305,-0.484290719
 3\H,0.7338435589,1.1998258365,0.2316016707\H,0.4284935142,-0.480754295
 ,0.7456995533\H,0.3699107425,-0.0485813116,-0.9894578108\H,4.214909436
 3,-1.1527946749,-0.4720198272\H,2.8806563979,-1.745364913,-1.496996377
 3\H,2.9392816058,-2.1776773229,0.2381148526\\Version=ES64L-G16RevC.01\
 State=3-A\HF=-117.7100098\S2=2.006575\S2-1=0.\S2A=2.000022\RMSD=1.869e
 -09\RMSF=2.305e-06\Dipole=-0.163546,-0.2267402,-0.0509853\Quadrupole=0
 .4386238,-0.1307283,-0.3078955,-0.7327523,-0.2086184,0.0753317\PG=C01 
 [X(C3H6)]\\@
 The archive entry for this job was punched.


 The arm of the moral universe is long, but it bends toward justice.
 -- Martin Luther King, Jr.
 Job cpu time:       0 days  0 hours  6 minutes 34.8 seconds.
 Elapsed time:       0 days  0 hours  0 minutes 28.5 seconds.
 File lengths (MBytes):  RWF=     17 Int=      0 D2E=      0 Chk=      2 Scr=      2
 Normal termination of Gaussian 16 at Tue Dec 19 21:29:06 2023.
 Link1:  Proceeding to internal job step number  2.
 --------------------------------------------------------------------
 #N Geom=AllCheck Guess=TCheck SCRF=Check GenChk UB3LYP/def2SVPP Freq
 --------------------------------------------------------------------
 1/10=4,29=7,30=1,38=1,40=1,113=-987000,114=961000/1,3;
 2/12=2,17=2,18=2,40=1/2;
 3/5=43,7=202,11=2,14=-4,25=1,30=1,70=2,71=2,74=-5,116=2,124=41,140=1/1,2,3;
 4/5=101/1;
 5/5=2,38=6,98=1/2;
 8/6=4,10=90,11=11/1;
 11/6=1,8=1,9=11,15=111,16=1/1,2,10;
 10/6=1/2;
 6/7=2,8=2,9=2,10=2,28=1/1;
 7/8=1,10=1,25=1/1,2,3,16;
 1/10=4,30=1/3;
 99//99;
 Structure from the checkpoint file:  "/home/software/g16tmp/Gau-42403.chk"
 -------
 C[C]C_1
 -------
 Charge =  0 Multiplicity = 3
 Redundant internal coordinates found in file.  (old form).
 C,0,0.9180951562,0.1427443146,-0.0379285977
 C,0,2.3547574959,-0.1423502031,-0.1574227443
 C,0,3.1262720922,-1.3496074305,-0.4842907193
 H,0,0.7338435589,1.1998258365,0.2316016707
 H,0,0.4284935142,-0.480754295,0.7456995533
 H,0,0.3699107425,-0.0485813116,-0.9894578108
 H,0,4.2149094363,-1.1527946749,-0.4720198272
 H,0,2.8806563979,-1.745364913,-1.4969963773
 H,0,2.9392816058,-2.1776773229,0.2381148526
 Recover connectivity data from disk.

 GradGradGradGradGradGradGradGradGradGradGradGradGradGradGradGradGradGrad
 Berny optimization.
 Initialization pass.
                           ----------------------------
                           !    Initial Parameters    !
                           ! (Angstroms and Degrees)  !
 --------------------------                            --------------------------
 ! Name  Definition              Value          Derivative Info.                !
 --------------------------------------------------------------------------------
 ! R1    R(1,2)                  1.4695         calculate D2E/DX2 analytically  !
 ! R2    R(1,4)                  1.1064         calculate D2E/DX2 analytically  !
 ! R3    R(1,5)                  1.1147         calculate D2E/DX2 analytically  !
 ! R4    R(1,6)                  1.1147         calculate D2E/DX2 analytically  !
 ! R5    R(2,3)                  1.4695         calculate D2E/DX2 analytically  !
 ! R6    R(3,7)                  1.1064         calculate D2E/DX2 analytically  !
 ! R7    R(3,8)                  1.1147         calculate D2E/DX2 analytically  !
 ! R8    R(3,9)                  1.1147         calculate D2E/DX2 analytically  !
 ! A1    A(2,1,4)              111.5914         calculate D2E/DX2 analytically  !
 ! A2    A(2,1,5)              112.2128         calculate D2E/DX2 analytically  !
 ! A3    A(2,1,6)              112.2142         calculate D2E/DX2 analytically  !
 ! A4    A(4,1,5)              106.8593         calculate D2E/DX2 analytically  !
 ! A5    A(4,1,6)              106.8614         calculate D2E/DX2 analytically  !
 ! A6    A(5,1,6)              106.7438         calculate D2E/DX2 analytically  !
 ! A7    A(2,3,7)              111.5916         calculate D2E/DX2 analytically  !
 ! A8    A(2,3,8)              112.2142         calculate D2E/DX2 analytically  !
 ! A9    A(2,3,9)              112.2137         calculate D2E/DX2 analytically  !
 ! A10   A(7,3,8)              106.8611         calculate D2E/DX2 analytically  !
 ! A11   A(7,3,9)              106.8597         calculate D2E/DX2 analytically  !
 ! A12   A(8,3,9)              106.7427         calculate D2E/DX2 analytically  !
 ! A13   L(1,2,3,5,-1)         144.3223         calculate D2E/DX2 analytically  !
 ! A14   L(1,2,3,5,-2)         135.9159         calculate D2E/DX2 analytically  !
 ! D1    D(4,1,3,7)              0.0033         calculate D2E/DX2 analytically  !
 ! D2    D(4,1,3,8)           -125.525          calculate D2E/DX2 analytically  !
 ! D3    D(4,1,3,9)            125.5323         calculate D2E/DX2 analytically  !
 ! D4    D(5,1,3,7)           -125.5256         calculate D2E/DX2 analytically  !
 ! D5    D(5,1,3,8)            108.9462         calculate D2E/DX2 analytically  !
 ! D6    D(5,1,3,9)              0.0035         calculate D2E/DX2 analytically  !
 ! D7    D(6,1,3,7)            125.5307         calculate D2E/DX2 analytically  !
 ! D8    D(6,1,3,8)              0.0025         calculate D2E/DX2 analytically  !
 ! D9    D(6,1,3,9)           -108.9402         calculate D2E/DX2 analytically  !
 --------------------------------------------------------------------------------
 Trust Radius=3.00D-01 FncErr=1.00D-07 GrdErr=1.00D-07 EigMax=2.50D+02 EigMin=1.00D-04
 Number of steps in this run=      2 maximum allowed number of steps=      2.
 GradGradGradGradGradGradGradGradGradGradGradGradGradGradGradGradGradGrad

                          Input orientation:                          
 ---------------------------------------------------------------------
 Center     Atomic      Atomic             Coordinates (Angstroms)
 Number     Number       Type             X           Y           Z
 ---------------------------------------------------------------------
      1          6           0        0.918095    0.142744   -0.037929
      2          6           0        2.354757   -0.142350   -0.157423
      3          6           0        3.126272   -1.349607   -0.484291
      4          1           0        0.733844    1.199826    0.231602
      5          1           0        0.428494   -0.480754    0.745700
      6          1           0        0.369911   -0.048581   -0.989458
      7          1           0        4.214909   -1.152795   -0.472020
      8          1           0        2.880656   -1.745365   -1.496996
      9          1           0        2.939282   -2.177677    0.238115
 ---------------------------------------------------------------------
                    Distance matrix (angstroms):
                    1          2          3          4          5
     1  C    0.000000
     2  C    1.469543   0.000000
     3  C    2.702295   1.469540   0.000000
     4  H    1.106353   2.140126   3.568729   0.000000
     5  H    1.114690   2.154215   3.089626   1.783784   0.000000
     6  H    1.114684   2.154226   3.089562   1.783803   1.789127
     7  H    3.568731   2.140125   1.106353   4.260015   4.033785
     8  H    3.089576   2.154225   1.114686   4.033733   3.555563
     9  H    3.089620   2.154223   1.114691   4.033798   3.072661
                    6          7          8          9
     6  H    0.000000
     7  H    4.033738   0.000000
     8  H    3.072542   1.783801   0.000000
     9  H    3.555510   1.783789   1.789118   0.000000
 Stoichiometry    C3H6(3)
 Framework group  C2V[C2(C),SGV(C2H2),X(H4)]
 Deg. of freedom     7
 Full point group                 C2V     NOp   4
 Largest Abelian subgroup         C2V     NOp   4
 Largest concise Abelian subgroup C2V     NOp   4
                         Standard orientation:                         
 ---------------------------------------------------------------------
 Center     Atomic      Atomic             Coordinates (Angstroms)
 Number     Number       Type             X           Y           Z
 ---------------------------------------------------------------------
      1          6           0       -0.000000    1.351148   -0.103492
      2          6           0       -0.000000    0.000000    0.474395
      3          6           0       -0.000000   -1.351148   -0.103492
      4          1           0       -0.000000    2.130008    0.682252
      5          1           0       -0.894647    1.536335   -0.742117
      6          1           0        0.894647    1.536335   -0.742117
      7          1           0       -0.000000   -2.130008    0.682252
      8          1           0        0.894647   -1.536335   -0.742117
      9          1           0       -0.894647   -1.536335   -0.742117
 ---------------------------------------------------------------------
 Rotational constants (GHZ):          54.4449238           7.6920912           7.3745389
 Standard basis: def2SVPP (5D, 7F)
 There are    23 symmetry adapted cartesian basis functions of A1  symmetry.
 There are     7 symmetry adapted cartesian basis functions of A2  symmetry.
 There are     9 symmetry adapted cartesian basis functions of B1  symmetry.
 There are    18 symmetry adapted cartesian basis functions of B2  symmetry.
 There are    21 symmetry adapted basis functions of A1  symmetry.
 There are     7 symmetry adapted basis functions of A2  symmetry.
 There are     9 symmetry adapted basis functions of B1  symmetry.
 There are    17 symmetry adapted basis functions of B2  symmetry.
    54 basis functions,    99 primitive gaussians,    57 cartesian basis functions
    13 alpha electrons       11 beta electrons
       nuclear repulsion energy        67.9318432076 Hartrees.
 NAtoms=    9 NActive=    9 NUniq=    4 SFac= 4.00D+00 NAtFMM=   60 NAOKFM=F Big=F
 Integral buffers will be    131072 words long.
 Raffenetti 2 integral format.
 Two-electron integral symmetry is turned on.
 Nuclear repulsion after empirical dispersion term =       67.9244358887 Hartrees.
 One-electron integrals computed using PRISM.
   4 Symmetry operations used in ECPInt.
 ECPInt:  NShTT=     465 NPrTT=    1887 LenC2=     466 LenP2D=    1654.
 LDataN:  DoStor=T MaxTD1= 4 Len=   56
 NBasis=    54 RedAO= T EigKep=  4.21D-03  NBF=    21     7     9    17
 NBsUse=    54 1.00D-06 EigRej= -1.00D+00 NBFU=    21     7     9    17
 Initial guess from the checkpoint file:  "/home/software/g16tmp/Gau-42403.chk"
 B after Tr=    -0.000000    0.000000    0.000039
         Rot=   -0.499977    0.500024   -0.500023   -0.499976 Ang= 240.00 deg.
 Initial guess orbital symmetries:
 Alpha Orbitals:
       Occupied  (A1) (B2) (A1) (A1) (B2) (A1) (B1) (A1) (B2) (A2)
                 (B2) (A1) (B1)
       Virtual   (A1) (B2) (A1) (B1) (A2) (B2) (A1) (B2) (A1) (A1)
                 (B2) (A2) (B1) (A1) (B1) (A1) (B2) (A1) (B2) (B1)
                 (B2) (A2) (A1) (B2) (A1) (B2) (A2) (B1) (A1) (B2)
                 (A1) (A1) (A2) (B2) (B1) (B1) (B2) (A1) (A2) (B2)
                 (A1)
 Beta  Orbitals:
       Occupied  (B2) (A1) (A1) (A1) (B2) (A1) (A1) (B1) (B2) (A2)
                 (B2)
       Virtual   (A1) (B1) (A1) (B2) (A1) (B1) (B2) (A2) (A1) (B2)
                 (A1) (A1) (B2) (A2) (B1) (A1) (A1) (B1) (B2) (A1)
                 (B2) (B1) (B2) (A2) (A1) (B2) (A1) (B2) (A2) (B1)
                 (A1) (B2) (A1) (A1) (A2) (B2) (B1) (B1) (B2) (A1)
                 (A2) (B2) (A1)
 Initial guess <Sx>= 0.0000 <Sy>= 0.0000 <Sz>= 1.0000 <S**2>= 2.0066 S= 1.0022
 Keep R1 and R2 ints in memory in symmetry-blocked form, NReq=15205788.
 Requested convergence on RMS density matrix=1.00D-08 within 128 cycles.
 Requested convergence on MAX density matrix=1.00D-06.
 Requested convergence on             energy=1.00D-06.
 No special actions if energy rises.
 SCF Done:  E(UB3LYP) =  -117.710009835     A.U. after    5 cycles
            NFock=  5  Conv=0.77D-08     -V/T= 2.0114
 <Sx>= 0.0000 <Sy>= 0.0000 <Sz>= 1.0000 <S**2>= 2.0066 S= 1.0022
 <L.S>=  0.00000000000    
 Annihilation of the first spin contaminant:
 S**2 before annihilation     2.0066,   after     2.0000
 DoSCS=F DFT=T ScalE2(SS,OS)=  1.000000  1.000000
 Range of M.O.s used for correlation:     1    54
 NBasis=    54 NAE=    13 NBE=    11 NFC=     0 NFV=     0
 NROrb=     54 NOA=    13 NOB=    11 NVA=    41 NVB=    43
   4 Symmetry operations used in ECPInt.
 ECPInt:  NShTT=     465 NPrTT=    1887 LenC2=     466 LenP2D=    1654.
 LDataN:  DoStor=T MaxTD1= 5 Len=  102
 Symmetrizing basis deriv contribution to polar:
 IMax=3 JMax=2 DiffMx= 0.00D+00
 G2DrvN: will do    10 centers at a time, making    1 passes.
 Calling FoFCou, ICntrl=  3107 FMM=F I1Cent=   0 AccDes= 0.00D+00.
 End of G2Drv F.D. properties file   721 does not exist.
 End of G2Drv F.D. properties file   722 does not exist.
 End of G2Drv F.D. properties file   788 does not exist.
          IDoAtm=111111111
          Differentiating once with respect to electric field.
                with respect to dipole field.
          Differentiating once with respect to nuclear coordinates.
 Keep R1 and R2 ints in memory in symmetry-blocked form, NReq=15158261.
          There are    15 degrees of freedom in the 1st order CPHF.  IDoFFX=4 NUNeed=    15.
     15 vectors produced by pass  0 Test12= 6.71D-15 6.67D-09 XBig12= 4.96D+01 2.73D+00.
 AX will form    15 AO Fock derivatives at one time.
     15 vectors produced by pass  1 Test12= 6.71D-15 6.67D-09 XBig12= 2.95D+00 6.03D-01.
     15 vectors produced by pass  2 Test12= 6.71D-15 6.67D-09 XBig12= 1.23D-01 1.50D-01.
     15 vectors produced by pass  3 Test12= 6.71D-15 6.67D-09 XBig12= 2.08D-03 8.37D-03.
     15 vectors produced by pass  4 Test12= 6.71D-15 6.67D-09 XBig12= 1.56D-05 7.46D-04.
     15 vectors produced by pass  5 Test12= 6.71D-15 6.67D-09 XBig12= 6.54D-08 5.19D-05.
     11 vectors produced by pass  6 Test12= 6.71D-15 6.67D-09 XBig12= 2.62D-10 3.14D-06.
      5 vectors produced by pass  7 Test12= 6.71D-15 6.67D-09 XBig12= 9.60D-13 2.03D-07.
      3 vectors produced by pass  8 Test12= 6.71D-15 6.67D-09 XBig12= 2.39D-15 7.82D-09.
 InvSVY:  IOpt=1 It=  1 EMax= 1.78D-15
 Solved reduced A of dimension   109 with    15 vectors.
 Isotropic polarizability for W=    0.000000       32.67 Bohr**3.
 End of Minotr F.D. properties file   721 does not exist.
 End of Minotr F.D. properties file   722 does not exist.
 End of Minotr F.D. properties file   788 does not exist.

 **********************************************************************

            Population analysis using the SCF Density.

 **********************************************************************

 Orbital symmetries:
 Alpha Orbitals:
       Occupied  (A1) (B2) (A1) (A1) (B2) (A1) (B1) (A1) (B2) (A2)
                 (B2) (A1) (B1)
       Virtual   (A1) (B2) (A1) (B1) (A2) (B2) (A1) (B2) (A1) (A1)
                 (B2) (A2) (B1) (A1) (B1) (A1) (B2) (A1) (B2) (B1)
                 (B2) (A2) (A1) (B2) (A1) (B2) (A2) (B1) (A1) (B2)
                 (A1) (A1) (A2) (B2) (B1) (B1) (B2) (A1) (A2) (B2)
                 (A1)
 Beta  Orbitals:
       Occupied  (B2) (A1) (A1) (A1) (B2) (A1) (A1) (B1) (B2) (A2)
                 (B2)
       Virtual   (A1) (B1) (A1) (B2) (A1) (B1) (B2) (A2) (A1) (B2)
                 (A1) (A1) (B2) (A2) (B1) (A1) (A1) (B1) (B2) (A1)
                 (B2) (B1) (B2) (A2) (A1) (B2) (A1) (B2) (A2) (B1)
                 (A1) (B2) (A1) (A1) (A2) (B2) (B1) (B1) (B2) (A1)
                 (A2) (B2) (A1)
 The electronic state is 3-B1.
 Alpha  occ. eigenvalues --  -10.19777 -10.18701 -10.18700  -0.77619  -0.69710
 Alpha  occ. eigenvalues --   -0.53873  -0.43796  -0.43635  -0.42060  -0.39743
 Alpha  occ. eigenvalues --   -0.37958  -0.22581  -0.18489
 Alpha virt. eigenvalues --    0.06208   0.09408   0.12066   0.13015   0.14053
 Alpha virt. eigenvalues --    0.14108   0.21834   0.29100   0.37913   0.43023
 Alpha virt. eigenvalues --    0.45475   0.46824   0.48757   0.52972   0.60840
 Alpha virt. eigenvalues --    0.63182   0.65528   0.66730   0.67410   0.67697
 Alpha virt. eigenvalues --    0.69435   0.69997   0.70089   0.72295   0.87917
 Alpha virt. eigenvalues --    0.92791   1.41216   1.47766   1.55008   1.64603
 Alpha virt. eigenvalues --    1.82296   1.97951   1.98191   2.01430   2.04114
 Alpha virt. eigenvalues --    2.12134   2.15727   2.28197   2.41604   2.58220
 Alpha virt. eigenvalues --    2.72003
  Beta  occ. eigenvalues --  -10.18771 -10.18770 -10.16941  -0.74702  -0.69088
  Beta  occ. eigenvalues --   -0.49828  -0.41724  -0.41689  -0.40667  -0.38874
  Beta  occ. eigenvalues --   -0.37075
  Beta virt. eigenvalues --   -0.05279  -0.02028   0.06608   0.09692   0.12798
  Beta virt. eigenvalues --    0.13857   0.14341   0.14620   0.24254   0.30461
  Beta virt. eigenvalues --    0.38866   0.46771   0.46978   0.47636   0.53233
  Beta virt. eigenvalues --    0.58241   0.65399   0.65436   0.66545   0.67686
  Beta virt. eigenvalues --    0.68045   0.68193   0.69858   0.70278   0.71270
  Beta virt. eigenvalues --    0.74006   0.88851   0.93348   1.43837   1.54782
  Beta virt. eigenvalues --    1.60782   1.65837   1.88882   1.99042   1.99538
  Beta virt. eigenvalues --    2.02919   2.08533   2.14484   2.16302   2.31035
  Beta virt. eigenvalues --    2.45233   2.61618   2.75280
          Condensed to atoms (all electrons):
               1          2          3          4          5          6
     1  C    4.843381   0.400943  -0.072200   0.369749   0.352276   0.352276
     2  C    0.400943   5.488739   0.400943  -0.022207  -0.025058  -0.025058
     3  C   -0.072200   0.400943   4.843381   0.007546  -0.003940  -0.003940
     4  H    0.369749  -0.022207   0.007546   0.582057  -0.024905  -0.024905
     5  H    0.352276  -0.025058  -0.003940  -0.024905   0.628621  -0.034414
     6  H    0.352276  -0.025058  -0.003940  -0.024905  -0.034414   0.628621
     7  H    0.007546  -0.022207   0.369749  -0.000236  -0.000292  -0.000292
     8  H   -0.003940  -0.025058   0.352276  -0.000292  -0.001115   0.006033
     9  H   -0.003940  -0.025058   0.352276  -0.000292   0.006033  -0.001115
               7          8          9
     1  C    0.007546  -0.003940  -0.003940
     2  C   -0.022207  -0.025058  -0.025058
     3  C    0.369749   0.352276   0.352276
     4  H   -0.000236  -0.000292  -0.000292
     5  H   -0.000292  -0.001115   0.006033
     6  H   -0.000292   0.006033  -0.001115
     7  H    0.582057  -0.024905  -0.024905
     8  H   -0.024905   0.628621  -0.034414
     9  H   -0.024905  -0.034414   0.628621
          Atomic-Atomic Spin Densities.
               1          2          3          4          5          6
     1  C   -0.068941  -0.090428   0.019588   0.029234  -0.005603  -0.005603
     2  C   -0.090428   2.242737  -0.090428  -0.026091  -0.028198  -0.028198
     3  C    0.019588  -0.090428  -0.068941   0.001602  -0.003208  -0.003208
     4  H    0.029234  -0.026091   0.001602   0.045100  -0.010608  -0.010608
     5  H   -0.005603  -0.028198  -0.003208  -0.010608   0.134523  -0.016875
     6  H   -0.005603  -0.028198  -0.003208  -0.010608  -0.016875   0.134523
     7  H    0.001602  -0.026091   0.029234   0.000169  -0.000304  -0.000304
     8  H   -0.003208  -0.028198  -0.005603  -0.000304  -0.001233   0.006467
     9  H   -0.003208  -0.028198  -0.005603  -0.000304   0.006467  -0.001233
               7          8          9
     1  C    0.001602  -0.003208  -0.003208
     2  C   -0.026091  -0.028198  -0.028198
     3  C    0.029234  -0.005603  -0.005603
     4  H    0.000169  -0.000304  -0.000304
     5  H   -0.000304  -0.001233   0.006467
     6  H   -0.000304   0.006467  -0.001233
     7  H    0.045100  -0.010608  -0.010608
     8  H   -0.010608   0.134523  -0.016875
     9  H   -0.010608  -0.016875   0.134523
 Mulliken charges and spin densities:
               1          2
     1  C   -0.246089  -0.126566
     2  C   -0.145977   1.896910
     3  C   -0.246089  -0.126566
     4  H    0.113485   0.028190
     5  H    0.102796   0.074961
     6  H    0.102796   0.074961
     7  H    0.113485   0.028190
     8  H    0.102796   0.074961
     9  H    0.102796   0.074961
 Sum of Mulliken charges =   0.00000   2.00000
 Mulliken charges and spin densities with hydrogens summed into heavy atoms:
               1          2
     1  C    0.072988   0.051545
     2  C   -0.145977   1.896910
     3  C    0.072988   0.051545
 APT charges:
               1
     1  C    0.087626
     2  C   -0.057605
     3  C    0.087626
     4  H    0.010739
     5  H   -0.034781
     6  H   -0.034781
     7  H    0.010739
     8  H   -0.034781
     9  H   -0.034781
 Sum of APT charges =   0.00000
 APT charges with hydrogens summed into heavy atoms:
               1
     1  C    0.028803
     2  C   -0.057605
     3  C    0.028803
 Electronic spatial extent (au):  <R**2>=            217.4760
 Charge=              0.0000 electrons
 Dipole moment (field-independent basis, Debye):
    X=              0.0000    Y=             -0.0000    Z=             -0.7222  Tot=              0.7222
 Quadrupole moment (field-independent basis, Debye-Ang):
   XX=            -20.7220   YY=            -18.9611   ZZ=            -21.1389
   XY=              0.0000   XZ=             -0.0000   YZ=             -0.0000
 Traceless Quadrupole moment (field-independent basis, Debye-Ang):
   XX=             -0.4480   YY=              1.3129   ZZ=             -0.8649
   XY=              0.0000   XZ=             -0.0000   YZ=             -0.0000
 Octapole moment (field-independent basis, Debye-Ang**2):
  XXX=              0.0000  YYY=              0.0000  ZZZ=             -1.8425  XYY=              0.0000
  XXY=             -0.0000  XXZ=             -1.5907  XZZ=              0.0000  YZZ=             -0.0000
  YYZ=              1.4070  XYZ=              0.0000
 Hexadecapole moment (field-independent basis, Debye-Ang**3):
 XXXX=            -36.6371 YYYY=           -219.3629 ZZZZ=            -47.0929 XXXY=             -0.0000
 XXXZ=              0.0000 YYYX=             -0.0000 YYYZ=             -0.0000 ZZZX=              0.0000
 ZZZY=             -0.0000 XXYY=            -42.9282 XXZZ=            -13.4937 YYZZ=            -42.5752
 XXYZ=             -0.0000 YYXZ=             -0.0000 ZZXY=             -0.0000
 N-N= 6.792443588872D+01 E-N=-4.073841844193D+02  KE= 1.163787464757D+02
 Symmetry A1   KE= 7.220985508579D+01
 Symmetry A2   KE= 1.968780794074D+00
 Symmetry B1   KE= 3.101573834678D+00
 Symmetry B2   KE= 3.909853676118D+01
 Symmetry A1   SP= 1.000000000000D+00
 Symmetry A2   SP=-3.339817029706D-15
 Symmetry B1   SP= 1.000000000000D+00
 Symmetry B2   SP= 2.192961524178D-15
  Exact polarizability:      27.743       0.000      41.383       0.000      -0.000      28.890
 Approx polarizability:      36.182      -0.000      47.074      -0.000       0.000      38.278
                          Isotropic Fermi Contact Couplings
        Atom                 a.u.       MegaHertz       Gauss      10(-4) cm-1
     1  C(13)             -0.01221      -6.86348      -2.44906      -2.28941
     2  C(13)              0.67566     379.78282     135.51595     126.68191
     3  C(13)             -0.01221      -6.86348      -2.44906      -2.28941
     4  H(1)               0.01567      35.01733      12.49505      11.68052
     5  H(1)               0.02869      64.11826      22.87899      21.38755
     6  H(1)               0.02869      64.11826      22.87899      21.38755
     7  H(1)               0.01567      35.01733      12.49505      11.68052
     8  H(1)               0.02869      64.11826      22.87899      21.38755
     9  H(1)               0.02869      64.11826      22.87899      21.38755
 --------------------------------------------------------
       Center         ----  Spin Dipole Couplings  ----
                      3XX-RR        3YY-RR        3ZZ-RR
 --------------------------------------------------------
     1   Atom       -0.054799      0.054474      0.000325
     2   Atom        0.662758     -1.032445      0.369687
     3   Atom       -0.054799      0.054474      0.000325
     4   Atom       -0.020350      0.041342     -0.020993
     5   Atom       -0.006974      0.007931     -0.000958
     6   Atom       -0.006974      0.007931     -0.000958
     7   Atom       -0.020350      0.041342     -0.020993
     8   Atom       -0.006974      0.007931     -0.000958
     9   Atom       -0.006974      0.007931     -0.000958
 --------------------------------------------------------
                        XY            XZ            YZ
 --------------------------------------------------------
     1   Atom        0.000000     -0.000000     -0.061994
     2   Atom        0.000000      0.000000     -0.000000
     3   Atom        0.000000      0.000000      0.061994
     4   Atom       -0.000000     -0.000000      0.003349
     5   Atom       -0.011376      0.011517     -0.021644
     6   Atom        0.011376     -0.011517     -0.021644
     7   Atom        0.000000     -0.000000     -0.003349
     8   Atom       -0.011376     -0.011517      0.021644
     9   Atom        0.011376      0.011517      0.021644
 --------------------------------------------------------


 ---------------------------------------------------------------------------------
              Anisotropic Spin Dipole Couplings in Principal Axis System
 ---------------------------------------------------------------------------------

       Atom             a.u.   MegaHertz   Gauss  10(-4) cm-1        Axes

              Baa    -0.0548    -7.353    -2.624    -2.453  1.0000  0.0000  0.0000
     1 C(13)  Bbb    -0.0402    -5.401    -1.927    -1.802 -0.0000  0.5476  0.8367
              Bcc     0.0950    12.754     4.551     4.254  0.0000  0.8367 -0.5476
 
              Baa    -1.0324  -138.544   -49.436   -46.213 -0.0000  1.0000  0.0000
     2 C(13)  Bbb     0.3697    49.609    17.702    16.548 -0.0000 -0.0000  1.0000
              Bcc     0.6628    88.936    31.734    29.666  1.0000  0.0000  0.0000
 
              Baa    -0.0548    -7.353    -2.624    -2.453  1.0000  0.0000 -0.0000
     3 C(13)  Bbb    -0.0402    -5.401    -1.927    -1.802  0.0000 -0.5476  0.8367
              Bcc     0.0950    12.754     4.551     4.254  0.0000  0.8367  0.5476
 
              Baa    -0.0212   -11.297    -4.031    -3.768  0.0000 -0.0535  0.9986
     4 H(1)   Bbb    -0.0203   -10.858    -3.874    -3.622  1.0000  0.0000 -0.0000
              Bcc     0.0415    22.154     7.905     7.390 -0.0000  0.9986  0.0535
 
              Baa    -0.0191   -10.183    -3.634    -3.397 -0.2640  0.5329  0.8039
     5 H(1)   Bbb    -0.0131    -6.999    -2.498    -2.335  0.8863  0.4628 -0.0157
              Bcc     0.0322    17.183     6.131     5.731 -0.3805  0.7084 -0.5945
 
              Baa    -0.0191   -10.183    -3.634    -3.397  0.2640  0.5329  0.8039
     6 H(1)   Bbb    -0.0131    -6.999    -2.498    -2.335  0.8863 -0.4628  0.0157
              Bcc     0.0322    17.183     6.131     5.731  0.3805  0.7084 -0.5945
 
              Baa    -0.0212   -11.297    -4.031    -3.768  0.0000  0.0535  0.9986
     7 H(1)   Bbb    -0.0203   -10.858    -3.874    -3.622  1.0000 -0.0000 -0.0000
              Bcc     0.0415    22.154     7.905     7.390  0.0000  0.9986 -0.0535
 
              Baa    -0.0191   -10.183    -3.634    -3.397  0.2640 -0.5329  0.8039
     8 H(1)   Bbb    -0.0131    -6.999    -2.498    -2.335  0.8863  0.4628  0.0157
              Bcc     0.0322    17.183     6.131     5.731 -0.3805  0.7084  0.5945
 
              Baa    -0.0191   -10.183    -3.634    -3.397 -0.2640 -0.5329  0.8039
     9 H(1)   Bbb    -0.0131    -6.999    -2.498    -2.335  0.8863 -0.4628 -0.0157
              Bcc     0.0322    17.183     6.131     5.731  0.3805  0.7084  0.5945
 

 ---------------------------------------------------------------------------------

   4 Symmetry operations used in ECPInt.
 ECPInt:  NShTT=     465 NPrTT=    1887 LenC2=     466 LenP2D=    1654.
 LDataN:  DoStor=T MaxTD1= 6 Len=  172
 Calling FoFJK, ICntrl=    100127 FMM=F ISym2X=1 I1Cent= 0 IOpClX= 1 NMat=1 NMatS=1 NMatT=0.
 Full mass-weighted force constant matrix:
 Low frequencies ---   -5.2223   -4.7203   -0.6445   -0.0010   -0.0003    0.0043
 Low frequencies ---  125.8070  135.2375  302.9458
 Diagonal vibrational polarizability:
        7.3993296       0.3586390       0.9106506
 Harmonic frequencies (cm**-1), IR intensities (KM/Mole), Raman scattering
 activities (A**4/AMU), depolarization ratios for plane and unpolarized
 incident light, reduced masses (AMU), force constants (mDyne/A),
 and normal coordinates:
                      1                      2                      3
                     A2                     B1                     A1
 Frequencies --    125.8069               135.2374               302.9458
 Red. masses --      1.0188                 1.5611                 2.2052
 Frc consts  --      0.0095                 0.0168                 0.1192
 IR Inten    --      0.0000                 4.7186                 1.6237
  Atom  AN      X      Y      Z        X      Y      Z        X      Y      Z
     1   6    -0.02  -0.00  -0.00    -0.06   0.00  -0.00    -0.00  -0.14  -0.07
     2   6    -0.00  -0.00   0.00     0.21  -0.00  -0.00     0.00   0.00   0.25
     3   6     0.02   0.00  -0.00    -0.06  -0.00   0.00     0.00   0.14  -0.07
     4   1     0.38   0.00  -0.00    -0.48  -0.00   0.00    -0.00   0.13  -0.34
     5   1    -0.23   0.14   0.33     0.00  -0.30  -0.18     0.00  -0.37  -0.14
     6   1    -0.23  -0.14  -0.33     0.00   0.30   0.18    -0.00  -0.37  -0.14
     7   1    -0.38  -0.00  -0.00    -0.48  -0.00  -0.00     0.00  -0.13  -0.34
     8   1     0.23  -0.14   0.33     0.00  -0.30   0.18    -0.00   0.37  -0.14
     9   1     0.23   0.14  -0.33     0.00   0.30  -0.18     0.00   0.37  -0.14
                      4                      5                      6
                     A1                     B2                     A2
 Frequencies --    849.6814               933.0966               945.1988
 Red. masses --      3.1038                 1.2326                 1.2192
 Frc consts  --      1.3203                 0.6323                 0.6418
 IR Inten    --      5.0382                 0.1028                 0.0000
  Atom  AN      X      Y      Z        X      Y      Z        X      Y      Z
     1   6     0.00   0.28  -0.05    -0.00   0.02   0.10    -0.10   0.00  -0.00
     2   6    -0.00  -0.00   0.19     0.00   0.01   0.00     0.00   0.00   0.00
     3   6    -0.00  -0.28  -0.05    -0.00   0.02  -0.10     0.10  -0.00  -0.00
     4   1    -0.00   0.52  -0.30     0.00   0.40  -0.28     0.20   0.00  -0.00
     5   1     0.02   0.09  -0.12     0.04  -0.35  -0.06     0.15   0.39  -0.22
     6   1    -0.02   0.09  -0.12    -0.04  -0.35  -0.06     0.15  -0.39   0.22
     7   1     0.00  -0.52  -0.30     0.00   0.40   0.28    -0.20  -0.00  -0.00
     8   1    -0.02  -0.09  -0.12     0.04  -0.35   0.06    -0.15  -0.39  -0.22
     9   1     0.02  -0.09  -0.12    -0.04  -0.35   0.06    -0.15   0.39   0.22
                      7                      8                      9
                     B1                     A1                     B2
 Frequencies --   1056.4002              1112.0944              1318.3349
 Red. masses --      1.4499                 1.7732                 2.5818
 Frc consts  --      0.9534                 1.2921                 2.6438
 IR Inten    --      1.7303                 2.3163                 2.0263
  Atom  AN      X      Y      Z        X      Y      Z        X      Y      Z
     1   6    -0.11   0.00  -0.00     0.00  -0.01  -0.13    -0.00  -0.10   0.02
     2   6     0.13  -0.00  -0.00     0.00  -0.00   0.19     0.00   0.35  -0.00
     3   6    -0.11   0.00   0.00    -0.00   0.01  -0.13    -0.00  -0.10  -0.02
     4   1     0.23  -0.00   0.00    -0.00  -0.38   0.25     0.00  -0.33   0.26
     5   1     0.15   0.37  -0.24    -0.08   0.34   0.10    -0.13  -0.30   0.13
     6   1     0.15  -0.37   0.24     0.08   0.34   0.10     0.13  -0.30   0.13
     7   1     0.23  -0.00  -0.00     0.00   0.38   0.25     0.00  -0.33  -0.26
     8   1     0.15   0.37   0.24     0.08  -0.34   0.10    -0.13  -0.30  -0.13
     9   1     0.15  -0.37  -0.24    -0.08  -0.34   0.10     0.13  -0.30  -0.13
                     10                     11                     12
                     B2                     A1                     A2
 Frequencies --   1392.0404              1394.8503              1432.6153
 Red. masses --      1.6901                 1.2176                 1.0454
 Frc consts  --      1.9296                 1.3958                 1.2642
 IR Inten    --      0.8405                 0.7338                 0.0000
  Atom  AN      X      Y      Z        X      Y      Z        X      Y      Z
     1   6     0.00   0.14  -0.06    -0.00  -0.09   0.03    -0.04   0.00   0.00
     2   6    -0.00  -0.12  -0.00    -0.00   0.00   0.00    -0.00   0.00   0.00
     3   6     0.00   0.14   0.06     0.00   0.09   0.03     0.04  -0.00   0.00
     4   1    -0.00  -0.25   0.32     0.00   0.27  -0.32     0.51  -0.00   0.00
     5   1    -0.15  -0.36   0.05     0.14   0.37  -0.04     0.04  -0.30  -0.17
     6   1     0.15  -0.36   0.05    -0.14   0.37  -0.04     0.04   0.30   0.17
     7   1    -0.00  -0.25  -0.32    -0.00  -0.27  -0.32    -0.51   0.00   0.00
     8   1    -0.15  -0.36  -0.05    -0.14  -0.37  -0.04    -0.04   0.30  -0.17
     9   1     0.15  -0.36  -0.05     0.14  -0.37  -0.04    -0.04  -0.30   0.17
                     13                     14                     15
                     B2                     B1                     A1
 Frequencies --   1434.3962              1443.4858              1445.8222
 Red. masses --      1.0458                 1.0414                 1.0401
 Frc consts  --      1.2678                 1.2784                 1.2810
 IR Inten    --     10.8131                16.5283                 4.1766
  Atom  AN      X      Y      Z        X      Y      Z        X      Y      Z
     1   6     0.00  -0.01  -0.04    -0.04   0.00  -0.00    -0.00  -0.01  -0.03
     2   6     0.00  -0.02   0.00    -0.02  -0.00  -0.00     0.00  -0.00  -0.03
     3   6     0.00  -0.01   0.04    -0.04   0.00   0.00     0.00   0.01  -0.03
     4   1    -0.00   0.18  -0.22     0.51   0.00  -0.00     0.00   0.18  -0.21
     5   1    -0.27   0.03   0.37     0.03  -0.31  -0.16    -0.27  -0.01   0.37
     6   1     0.27   0.03   0.37     0.03   0.31   0.16     0.27  -0.01   0.37
     7   1    -0.00   0.18   0.22     0.51   0.00   0.00    -0.00  -0.18  -0.21
     8   1    -0.27   0.03  -0.37     0.03  -0.31   0.16     0.27   0.01   0.37
     9   1     0.27   0.03  -0.37     0.03   0.31  -0.16    -0.27   0.01   0.37
                     16                     17                     18
                     B2                     A1                     B1
 Frequencies --   2906.2351              2914.3686              2954.0618
 Red. masses --      1.0411                 1.0415                 1.0993
 Frc consts  --      5.1811                 5.2119                 5.6522
 IR Inten    --     46.9046                28.2455                65.2083
  Atom  AN      X      Y      Z        X      Y      Z        X      Y      Z
     1   6    -0.00   0.02  -0.03    -0.00   0.02  -0.03    -0.06   0.00   0.00
     2   6    -0.00   0.00  -0.00    -0.00  -0.00  -0.00    -0.00   0.00  -0.00
     3   6    -0.00   0.02   0.03     0.00  -0.02  -0.03    -0.06   0.00  -0.00
     4   1    -0.00  -0.12  -0.13    -0.00  -0.11  -0.12    -0.01  -0.00  -0.00
     5   1     0.40  -0.07   0.27     0.40  -0.08   0.27     0.40  -0.08   0.29
     6   1    -0.40  -0.07   0.27    -0.40  -0.08   0.27     0.40   0.08  -0.29
     7   1    -0.00  -0.12   0.13     0.00   0.11  -0.12    -0.01  -0.00   0.00
     8   1     0.40  -0.07  -0.27    -0.40   0.08   0.27     0.40  -0.08  -0.29
     9   1    -0.40  -0.07  -0.27     0.40   0.08   0.27     0.40   0.08   0.29
                     19                     20                     21
                     A2                     B2                     A1
 Frequencies --   2954.6978              3053.3796              3053.9065
 Red. masses --      1.1014                 1.0920                 1.0933
 Frc consts  --      5.6655                 5.9985                 6.0076
 IR Inten    --      0.0000                 7.4612                14.8718
  Atom  AN      X      Y      Z        X      Y      Z        X      Y      Z
     1   6    -0.07   0.00   0.00    -0.00  -0.04  -0.05    -0.00  -0.04  -0.05
     2   6    -0.00  -0.00  -0.00     0.00  -0.00   0.00     0.00  -0.00  -0.00
     3   6     0.07  -0.00   0.00    -0.00  -0.04   0.05     0.00   0.04  -0.05
     4   1    -0.02  -0.00  -0.00    -0.00   0.48   0.49     0.00   0.48   0.49
     5   1     0.40  -0.08   0.29     0.09  -0.02   0.06     0.09  -0.02   0.05
     6   1     0.40   0.08  -0.29    -0.09  -0.02   0.06    -0.09  -0.02   0.05
     7   1     0.02   0.00  -0.00    -0.00   0.48  -0.49    -0.00  -0.48   0.49
     8   1    -0.40   0.08   0.29     0.09  -0.02  -0.06    -0.09   0.02   0.05
     9   1    -0.40  -0.08  -0.29    -0.09  -0.02  -0.06     0.09   0.02   0.05

 -------------------
 - Thermochemistry -
 -------------------
 Temperature   298.150 Kelvin.  Pressure   0.98700 Atm.
 Thermochemistry will use frequencies scaled by 0.9610.
 Atom     1 has atomic number  6 and mass  12.00000
 Atom     2 has atomic number  6 and mass  12.00000
 Atom     3 has atomic number  6 and mass  12.00000
 Atom     4 has atomic number  1 and mass   1.00783
 Atom     5 has atomic number  1 and mass   1.00783
 Atom     6 has atomic number  1 and mass   1.00783
 Atom     7 has atomic number  1 and mass   1.00783
 Atom     8 has atomic number  1 and mass   1.00783
 Atom     9 has atomic number  1 and mass   1.00783
 Molecular mass:    42.04695 amu.
 Principal axes and moments of inertia in atomic units:
                           1         2         3
     Eigenvalues --    33.14802 234.62296 244.72597
           X            0.00000  -0.00000   1.00000
           Y            1.00000  -0.00000  -0.00000
           Z            0.00000   1.00000   0.00000
 This molecule is an asymmetric top.
 Rotational symmetry number  2.
 Rotational temperatures (Kelvin)      2.61294     0.36916     0.35392
 Rotational constants (GHZ):          54.44492     7.69209     7.37454
 Zero-point vibrational energy     190597.8 (Joules/Mol)
                                   45.55397 (Kcal/Mol)
 Warning -- explicit consideration of   3 degrees of freedom as
           vibrations may cause significant error
 Vibrational temperatures:    173.95   186.99   418.87  1174.82  1290.16
          (Kelvin)           1306.89  1460.65  1537.65  1822.82  1924.73
                             1928.61  1980.83  1983.29  1995.86  1999.09
                             4018.35  4029.59  4084.48  4085.36  4221.80
                             4222.53
 
 Zero-point correction=                           0.072595 (Hartree/Particle)
 Thermal correction to Energy=                    0.077541
 Thermal correction to Enthalpy=                  0.078485
 Thermal correction to Gibbs Free Energy=         0.045976
 Sum of electronic and zero-point Energies=           -117.637415
 Sum of electronic and thermal Energies=              -117.632469
 Sum of electronic and thermal Enthalpies=            -117.631525
 Sum of electronic and thermal Free Energies=         -117.664034
 
                     E (Thermal)             CV                S
                      KCal/Mol        Cal/Mol-Kelvin    Cal/Mol-Kelvin
 Total                   48.657             14.669             68.421
 Electronic               0.000              0.000              2.183
 Translational            0.889              2.981             37.161
 Rotational               0.889              2.981             20.792
 Vibrational             46.880              8.707              8.285
 Vibration     1          0.609              1.932              3.086
 Vibration     2          0.612              1.923              2.947
 Vibration     3          0.687              1.690              1.467
                       Q            Log10(Q)             Ln(Q)
 Total Bot       0.712385D-21        -21.147285        -48.693423
 Total V=0       0.175393D+13         12.244012         28.192879
 Vib (Bot)       0.280082D-32        -32.552714        -74.955395
 Vib (Bot)    1  0.168994D+01          0.227871          0.524693
 Vib (Bot)    2  0.156865D+01          0.195527          0.450217
 Vib (Bot)    3  0.656457D+00         -0.182794         -0.420898
 Vib (V=0)       0.689576D+01          0.838582          1.930907
 Vib (V=0)    1  0.226236D+01          0.354561          0.816406
 Vib (V=0)    2  0.214641D+01          0.331713          0.763797
 Vib (V=0)    3  0.132519D+01          0.122278          0.281555
 Electronic      0.300000D+01          0.477121          1.098612
 Translational   0.108577D+08          7.035738         16.200387
 Rotational      0.780854D+04          3.892570          8.962973
 ***** Axes restored to original set *****
 -------------------------------------------------------------------
 Center     Atomic                   Forces (Hartrees/Bohr)
 Number     Number              X              Y              Z
 -------------------------------------------------------------------
      1        6           0.000009115    0.000021351    0.000005014
      2        6           0.000003249    0.000004504    0.000001013
      3        6           0.000017567    0.000015640    0.000003305
      4        1           0.000007369    0.000003996    0.000000747
      5        1          -0.000009272   -0.000010806   -0.000015749
      6        1          -0.000008424   -0.000017073    0.000009398
      7        1           0.000001337    0.000008073    0.000001967
      8        1          -0.000010046   -0.000015976    0.000009725
      9        1          -0.000010894   -0.000009710   -0.000015421
 -------------------------------------------------------------------
 Cartesian Forces:  Max     0.000021351 RMS     0.000010723
 FormGI is forming the generalized inverse of G from B-inverse, IUseBI=4.

 GradGradGradGradGradGradGradGradGradGradGradGradGradGradGradGradGradGrad
 Berny optimization.
 Internal  Forces:  Max     0.000015682 RMS     0.000007268
 Search for a local minimum.
 Step number   1 out of a maximum of    2
 All quantities printed in internal units (Hartrees-Bohrs-Radians)
 Second derivative matrix not updated -- analytic derivatives used.
 ITU=  0
     Eigenvalues ---    0.00035   0.00437   0.03010   0.04396   0.05186
     Eigenvalues ---    0.06136   0.09776   0.11783   0.12059   0.13177
     Eigenvalues ---    0.13616   0.14677   0.15974   0.29730   0.30204
     Eigenvalues ---    0.30379   0.30573   0.32488   0.32699   0.34664
     Eigenvalues ---    0.35630
 Angle between quadratic step and forces=  20.44 degrees.
 Linear search not attempted -- first point.
 Iteration  1 RMS(Cart)=  0.00010158 RMS(Int)=  0.00000001
 Iteration  2 RMS(Cart)=  0.00000001 RMS(Int)=  0.00000001
 ClnCor:  largest displacement from symmetrization is 1.90D-08 for atom     6.
 Variable       Old X    -DE/DX   Delta X   Delta X   Delta X     New X
                                 (Linear)    (Quad)   (Total)
    R1        2.77703   0.00000   0.00000  -0.00000  -0.00000   2.77703
    R2        2.09070   0.00000   0.00000  -0.00000  -0.00000   2.09070
    R3        2.10645  -0.00000   0.00000   0.00001   0.00001   2.10646
    R4        2.10645  -0.00000   0.00000   0.00001   0.00001   2.10646
    R5        2.77703   0.00000   0.00000  -0.00000  -0.00000   2.77703
    R6        2.09070   0.00000   0.00000  -0.00000  -0.00000   2.09070
    R7        2.10645  -0.00000   0.00000   0.00001   0.00001   2.10646
    R8        2.10645  -0.00000   0.00000   0.00001   0.00001   2.10646
    A1        1.94764  -0.00001   0.00000  -0.00000  -0.00000   1.94764
    A2        1.95848   0.00000   0.00000   0.00002   0.00002   1.95850
    A3        1.95848   0.00000   0.00000   0.00002   0.00002   1.95850
    A4        1.86496   0.00001   0.00000   0.00012   0.00012   1.86507
    A5        1.86496   0.00001   0.00000   0.00012   0.00012   1.86507
    A6        1.86328  -0.00001   0.00000  -0.00027  -0.00027   1.86301
    A7        1.94764  -0.00001   0.00000  -0.00000  -0.00000   1.94764
    A8        1.95848   0.00000   0.00000   0.00002   0.00002   1.95850
    A9        1.95848   0.00000   0.00000   0.00002   0.00002   1.95850
   A10        1.86496   0.00001   0.00000   0.00012   0.00012   1.86507
   A11        1.86496   0.00001   0.00000   0.00012   0.00012   1.86507
   A12        1.86328  -0.00001   0.00000  -0.00027  -0.00027   1.86301
   A13        2.51890   0.00000   0.00000  -0.00008  -0.00008   2.51882
   A14        2.37217   0.00000   0.00000   0.00010   0.00010   2.37227
    D1        0.00000   0.00000   0.00000   0.00000  -0.00000   0.00000
    D2       -2.19074  -0.00001   0.00000  -0.00015  -0.00015  -2.19089
    D3        2.19074   0.00001   0.00000   0.00015   0.00015   2.19089
    D4       -2.19074  -0.00001   0.00000  -0.00015  -0.00015  -2.19089
    D5        1.90170  -0.00002   0.00000  -0.00030  -0.00030   1.90140
    D6       -0.00000   0.00000   0.00000   0.00000  -0.00000  -0.00000
    D7        2.19074   0.00001   0.00000   0.00015   0.00015   2.19089
    D8       -0.00000  -0.00000   0.00000   0.00000   0.00000   0.00000
    D9       -1.90170   0.00002   0.00000   0.00030   0.00030  -1.90140
         Item               Value     Threshold  Converged?
 Maximum Force            0.000016     0.000450     YES
 RMS     Force            0.000007     0.000300     YES
 Maximum Displacement     0.000220     0.001800     YES
 RMS     Displacement     0.000102     0.001200     YES
 Predicted change in Energy=-1.328438D-08
 Optimization completed.
    -- Stationary point found.
                           ----------------------------
                           !   Optimized Parameters   !
                           ! (Angstroms and Degrees)  !
 --------------------------                            --------------------------
 ! Name  Definition              Value          Derivative Info.                !
 --------------------------------------------------------------------------------
 ! R1    R(1,2)                  1.4695         -DE/DX =    0.0                 !
 ! R2    R(1,4)                  1.1064         -DE/DX =    0.0                 !
 ! R3    R(1,5)                  1.1147         -DE/DX =    0.0                 !
 ! R4    R(1,6)                  1.1147         -DE/DX =    0.0                 !
 ! R5    R(2,3)                  1.4695         -DE/DX =    0.0                 !
 ! R6    R(3,7)                  1.1064         -DE/DX =    0.0                 !
 ! R7    R(3,8)                  1.1147         -DE/DX =    0.0                 !
 ! R8    R(3,9)                  1.1147         -DE/DX =    0.0                 !
 ! A1    A(2,1,4)              111.5914         -DE/DX =    0.0                 !
 ! A2    A(2,1,5)              112.2126         -DE/DX =    0.0                 !
 ! A3    A(2,1,6)              112.2126         -DE/DX =    0.0                 !
 ! A4    A(4,1,5)              106.8542         -DE/DX =    0.0                 !
 ! A5    A(4,1,6)              106.8542         -DE/DX =    0.0                 !
 ! A6    A(5,1,6)              106.758          -DE/DX =    0.0                 !
 ! A7    A(2,3,7)              111.5914         -DE/DX =    0.0                 !
 ! A8    A(2,3,8)              112.2126         -DE/DX =    0.0                 !
 ! A9    A(2,3,9)              112.2126         -DE/DX =    0.0                 !
 ! A10   A(7,3,8)              106.8542         -DE/DX =    0.0                 !
 ! A11   A(7,3,9)              106.8542         -DE/DX =    0.0                 !
 ! A12   A(8,3,9)              106.758          -DE/DX =    0.0                 !
 ! A13   L(1,2,3,5,-1)         144.3226         -DE/DX =    0.0                 !
 ! A14   L(1,2,3,5,-2)         135.9153         -DE/DX =    0.0                 !
 ! D1    D(4,1,3,7)              0.0            -DE/DX =    0.0                 !
 ! D2    D(4,1,3,8)           -125.5203         -DE/DX =    0.0                 !
 ! D3    D(4,1,3,9)            125.5203         -DE/DX =    0.0                 !
 ! D4    D(5,1,3,7)           -125.5203         -DE/DX =    0.0                 !
 ! D5    D(5,1,3,8)            108.9594         -DE/DX =    0.0                 !
 ! D6    D(5,1,3,9)              0.0            -DE/DX =    0.0                 !
 ! D7    D(6,1,3,7)            125.5203         -DE/DX =    0.0                 !
 ! D8    D(6,1,3,8)              0.0            -DE/DX =    0.0                 !
 ! D9    D(6,1,3,9)           -108.9594         -DE/DX =    0.0                 !
 --------------------------------------------------------------------------------
 GradGradGradGradGradGradGradGradGradGradGradGradGradGradGradGradGradGrad


 ----------------------------------------------------------------------

 Electric dipole moment (input orientation):
 (Debye = 10**-18 statcoulomb cm , SI units = C m)
                  (au)            (Debye)         (10**-30 SI)
   Tot        0.284121D+00      0.722164D+00      0.240888D+01
   x         -0.163512D+00     -0.415605D+00     -0.138631D+01
   y         -0.226693D+00     -0.576195D+00     -0.192198D+01
   z         -0.509827D-01     -0.129585D+00     -0.432249D+00

 Dipole polarizability, Alpha (input orientation).
 (esu units = cm**3 , SI units = C**2 m**2 J**-1)
 Alpha(0;0):
               (au)            (10**-24 esu)      (10**-40 SI)
   iso        0.326718D+02      0.484147D+01      0.538686D+01
   aniso      0.131038D+02      0.194179D+01      0.216053D+01
   xx         0.372305D+02      0.551699D+01      0.613848D+01
   yx        -0.562852D+01     -0.834060D+00     -0.928017D+00
   yy         0.326330D+02      0.483572D+01      0.538046D+01
   zx        -0.172258D+01     -0.255260D+00     -0.284015D+00
   zy         0.140845D+01      0.208711D+00      0.232222D+00
   zz         0.281520D+02      0.417170D+01      0.464164D+01

 ----------------------------------------------------------------------

 Dipole orientation:
     6          1.18398531          0.49410945         -1.20082511
     6          3.47620174          1.61886980         -2.29287367
     6          5.76841817          2.74363015         -1.20082511
     1         -0.13734553         -0.15425016         -2.68566755
     1          0.12506916          1.85771597          0.00599967
     1          1.61456372         -1.17781412          0.00599967
     1          7.08974902          3.39198976         -2.68566755
     1          6.82733433          1.38002363          0.00599967
     1          5.33783977          4.41555372          0.00599967

 Electric dipole moment (dipole orientation):
 (Debye = 10**-18 statcoulomb cm , SI units = C m)
                  (au)            (Debye)         (10**-30 SI)
   Tot        0.284121D+00      0.722164D+00      0.240888D+01
   x          0.000000D+00      0.000000D+00      0.000000D+00
   y          0.000000D+00      0.000000D+00      0.000000D+00
   z          0.284121D+00      0.722164D+00      0.240888D+01

 Dipole polarizability, Alpha (dipole orientation).
 (esu units = cm**3 , SI units = C**2 m**2 J**-1)
 Alpha(0;0):
               (au)            (10**-24 esu)      (10**-40 SI)
   iso        0.326718D+02      0.484147D+01      0.538686D+01
   aniso      0.131038D+02      0.194179D+01      0.216053D+01
   xx         0.387358D+02      0.574006D+01      0.638667D+01
   yx         0.539406D+01      0.799317D+00      0.889360D+00
   yy         0.303897D+02      0.450329D+01      0.501059D+01
   zx         0.000000D+00      0.000000D+00      0.000000D+00
   zy         0.000000D+00      0.000000D+00      0.000000D+00
   zz         0.288900D+02      0.428106D+01      0.476332D+01

 ----------------------------------------------------------------------
 Unable to Open any file for archive entry.
 1\1\GINC-NODE06\Freq\UB3LYP\def2SVPP\C3H6(3)\XUHJ\19-Dec-2023\0\\#N Ge
 om=AllCheck Guess=TCheck SCRF=Check GenChk UB3LYP/def2SVPP Freq\\C[C]C
 _1\\0,3\C,0.9180952328,0.1427437483,-0.0379263256\C,2.3547575078,-0.14
 2352502,-0.1574125605\C,3.126272153,-1.3496101644,-0.4842908462\H,0.73
 38475271,1.199796504,0.2317193701\H,0.4284935142,-0.480754295,0.745699
 5533\H,0.3699906283,-0.0482998866,-0.9895632537\H,4.214911353,-1.15281
 35489,-0.4719486068\H,2.8808180531,-1.7451943234,-1.497106046\H,2.9393
 20939,-2.1776487319,0.238156761\\Version=ES64L-G16RevC.01\State=3-B1\H
 F=-117.7100098\S2=2.006575\S2-1=0.\S2A=2.000022\RMSD=7.695e-09\RMSF=1.
 072e-05\ZeroPoint=0.0725949\Thermal=0.0775406\ETot=-117.6324693\HTot=-
 117.6315251\GTot=-117.6640342\Dipole=-0.1635116,-0.2266927,-0.0509827\
 DipoleDeriv=0.0726357,0.0770933,0.0222015,0.0273498,0.0376194,-0.03174
 09,0.0098047,-0.0334179,0.1526237,0.0541327,-0.1076565,-0.0354211,-0.1
 076565,-0.0384263,0.0440707,-0.0354211,0.0440707,-0.1885227,-0.0004555
 ,0.0013816,0.0057972,0.0511251,0.1061038,-0.015475,0.018194,-0.013798,
 0.1572305,0.0396858,0.0343148,0.0103507,0.0500745,-0.088468,-0.0469237
 ,0.0142783,-0.0463924,0.0810004,-0.0652293,-0.000058,0.0704822,-0.0776
 995,0.0040321,0.1039092,0.0832055,0.075538,-0.0431472,-0.076255,0.0296
 657,-0.0635247,-0.0345739,0.0679941,-0.0438007,-0.1116069,-0.0202129,-
 0.0960835,-0.1122133,-0.0038929,0.0059499,-0.0196527,0.0538572,-0.0091
 033,0.0020223,-0.0096346,0.0905742,0.0415532,-0.0062859,-0.0597867,0.0
 568528,-0.0233062,-0.0809023,-0.008024,-0.0990443,-0.1225913,0.0461458
 ,-0.024562,0.043951,0.0541803,-0.119406,0.079966,0.0275473,0.1028914,-
 0.0310842\Polar=37.2304759,-5.6285155,32.6330443,-1.7225774,1.4084505,
 28.152022\Quadrupole=0.4384494,-0.1311147,-0.3073347,-0.733125,-0.2087
 174,0.0750482\PG=C02V [C2(C1),SGV(C2H2),X(H4)]\NImag=0\\0.46807398,-0.
 01178328,0.52789633,-0.00239560,0.01130705,0.48701847,-0.24102597,0.02
 321881,0.01234266,0.43242987,0.05161093,-0.07390952,-0.00855540,-0.155
 92417,0.29931995,0.01941842,-0.00759818,-0.04911045,-0.05079519,0.0603
 1836,0.09512538,-0.00749260,0.03082563,0.00802901,-0.12037701,0.066083
 60,0.01895766,0.53126422,-0.00566132,0.00209620,0.00001713,0.09447572,
 -0.18695429,-0.03817306,0.01066727,0.46868881,-0.00106411,-0.00121299,
 0.00252690,0.02603342,-0.03721584,-0.05671465,0.00106902,-0.00420529,0
 .48303575,-0.04878977,0.03944699,0.01001397,-0.00777611,0.03017663,0.0
 0774287,-0.00493023,-0.00011232,0.00015446,0.05665427,0.03541257,-0.28
 332650,-0.06099811,0.00672592,-0.00306434,-0.00069639,-0.00035444,0.00
 108371,0.00016204,-0.04396520,0.30428882,0.00900853,-0.06113413,-0.058
 89595,0.00189859,-0.00148701,-0.00161450,0.00009412,0.00015388,0.00051
 663,-0.01143371,0.06672185,0.05952255,-0.08141970,-0.05932209,0.072209
 27,-0.02591539,-0.01557972,0.02224052,0.00289440,-0.00022679,-0.001963
 05,0.00231291,0.00220811,-0.00402601,0.09600360,-0.05127380,-0.1210326
 3,0.09362816,-0.00079522,0.00620053,-0.00533982,-0.00058399,0.00057032
 ,-0.00044497,-0.01205271,-0.01526681,0.02159184,0.06226881,0.12603717,
 0.06489261,0.09656859,-0.16250742,0.00763675,-0.00188005,0.00124650,-0
 .00059402,0.00016493,0.00062943,-0.00416435,-0.00425180,0.00599691,-0.
 07881452,-0.10565667,0.17380166,-0.09236659,-0.02143660,-0.09991884,-0
 .02793983,-0.00362781,-0.02492334,0.00303402,-0.00109533,0.00147545,0.
 00266900,0.00010705,0.00446905,0.00672283,0.00288046,0.01039712,0.1084
 7490,-0.01758922,-0.05192059,-0.03504330,0.00277125,0.00210748,0.00521
 245,-0.00072958,0.00043769,0.00043176,-0.01416100,-0.00360860,-0.02566
 363,0.00848593,0.00330733,0.01570342,0.02134437,0.04960964,-0.08963761
 ,-0.03758268,-0.22067257,-0.00504030,0.00246687,0.00736400,0.00010854,
 -0.00017786,0.00062244,-0.00250245,-0.00078181,-0.00601739,-0.00937586
 ,-0.00439900,-0.01875010,0.10722016,0.03971011,0.23775789,0.00056139,0
 .00159665,0.00039522,-0.01606703,0.00378028,0.00144401,-0.29472246,-0.
 05196367,-0.00447557,-0.00047821,0.00001466,0.00003046,0.00007238,-0.0
 0013544,0.00010210,0.00007910,-0.00007955,-0.00015337,0.31979050,0.001
 83877,-0.00406178,-0.00119424,0.02723099,0.00470402,0.00054830,-0.0479
 2925,-0.05289432,-0.00076104,0.00093306,-0.00009138,-0.00013322,-0.000
 11359,0.00008356,-0.00013146,-0.00021818,0.00007644,0.00012769,0.04952
 320,0.05773740,0.00045555,-0.00118607,0.00017051,0.00728829,0.00133892
 ,-0.00109194,-0.00347013,-0.00062502,-0.04339544,0.00025934,-0.0001022
 6,0.00028272,-0.00026757,0.00011148,0.00011020,0.00018719,-0.00011919,
 0.00011060,0.00299364,0.00212553,0.04293774,0.00121428,-0.00121926,-0.
 00051563,0.00395301,0.00821868,0.01637936,-0.05748292,-0.01710799,-0.0
 4789758,0.00016838,-0.00003158,-0.00020279,-0.00008939,0.00013402,0.00
 006320,-0.00057521,-0.00019382,-0.00061245,-0.00544395,-0.00952413,-0.
 02808689,0.05695118,-0.00115110,0.00163748,0.00211119,-0.00071752,-0.0
 1810789,-0.02635295,-0.02193564,-0.06784158,-0.07408786,-0.00016716,-0
 .00003124,0.00014989,0.00016254,0.00003255,-0.00001161,0.00182993,0.00
 000215,0.00047752,-0.00147968,-0.00196441,-0.00511641,0.01783317,0.077
 88890,-0.00059943,0.00057426,0.00124238,0.00497888,-0.01105607,-0.0043
 1347,-0.05490142,-0.06669904,-0.23963526,0.00012756,-0.00011209,0.0001
 2900,0.00013489,0.00007888,-0.00032015,0.00114839,-0.00030342,-0.00014
 762,-0.00030769,0.00079010,0.00045137,0.05493223,0.08279650,0.26100235
 ,0.00124498,-0.00132685,-0.00016006,0.00271845,0.01526158,-0.01046432,
 -0.05218741,-0.02897558,0.02666797,0.00016976,-0.00011709,0.00016176,-
 0.00058164,-0.00044212,0.00048109,-0.00009822,0.00015164,-0.00000667,-
 0.00379172,-0.02174087,0.02064056,0.00130464,0.00562546,-0.00551342,0.
 05122114,-0.00140355,0.00262103,-0.00127249,0.00301422,-0.03029594,0.0
 1208130,-0.03604360,-0.16518654,0.11733418,-0.00009829,0.00001634,-0.0
 0019949,0.00211680,0.00006799,-0.00050535,0.00021611,-0.00001153,0.000
 15916,-0.00125645,-0.00358952,0.00357302,0.00189092,0.00838403,-0.0060
 6913,0.03156385,0.18799415,-0.00007838,0.00026416,0.00022814,-0.004343
 12,-0.00392978,0.00910913,0.03070722,0.10954431,-0.14758581,-0.0001977
 0,0.00005856,0.00008004,-0.00013768,0.00043010,-0.00020703,-0.00005518
 ,0.00007180,-0.00026724,-0.00002880,-0.00137167,0.00042425,0.00594055,
 0.02003373,-0.01840861,-0.03180691,-0.12510122,0.15662714\\-0.00000911
 ,-0.00002135,-0.00000501,-0.00000325,-0.00000450,-0.00000101,-0.000017
 57,-0.00001564,-0.00000331,-0.00000737,-0.00000400,-0.00000075,0.00000
 927,0.00001081,0.00001575,0.00000842,0.00001707,-0.00000940,-0.0000013
 4,-0.00000807,-0.00000197,0.00001005,0.00001598,-0.00000973,0.00001089
 ,0.00000971,0.00001542\\\@
 The archive entry for this job was punched.


 DIATOMIC MOLECULES ARE PECULIAR BECAUSE THEY ONLY HAVE TWO ENDS,
 AND THESE ENDS ARE VERY CLOSE TOGETHER.
 KLAUS RUEDENBERG, REV.MOD.PHYS. PG 176, 32, (1960)
 Job cpu time:       0 days  0 hours  0 minutes 51.7 seconds.
 Elapsed time:       0 days  0 hours  0 minutes  3.5 seconds.
 File lengths (MBytes):  RWF=     22 Int=      0 D2E=      0 Chk=      2 Scr=      2
 Normal termination of Gaussian 16 at Tue Dec 19 21:29:09 2023.
