%nprocshared=8
%mem=10400MB
#N opt freq B3LYP/def2SVPP symm=veryloose em=gd3bj scale=0.961 press=0.987

c1ccc2cc3cc4c(ccc5ccc6ccccc6c54)cc3cc2c1_2

0 1
C          6.54580        0.50160       -0.48780
C          6.07490        1.77350       -0.17700
C          4.71010        1.98000        0.02960
C          3.79880        0.91580       -0.07230
C          2.42180        1.10580        0.13130
C          1.50890        0.04140        0.02310
C          0.12440        0.22700        0.21700
C         -0.84330       -0.80470        0.08700
C         -0.30350       -2.10010       -0.12300
C         -1.13390       -3.21490       -0.08430
C         -2.48080       -3.07620        0.21390
C         -3.05580       -1.81510        0.38220
C         -4.41160       -1.76970        0.71380
C         -5.07220       -0.56010        0.86510
C         -4.41880        0.63610        0.59140
C         -5.15580        1.83170        0.66320
C         -4.59020        3.04770        0.30020
C         -3.29030        3.07040       -0.17090
C         -2.54900        1.88390       -0.22760
C         -3.04890        0.62870        0.21020
C         -2.29180       -0.62630        0.22170
C          1.07300       -2.29800       -0.33450
C          1.98660       -1.23960       -0.27860
C          3.36370       -1.43660       -0.48400
C          4.27630       -0.37360       -0.38700
C          5.65270       -0.56590       -0.59190
H          7.60820        0.33850       -0.64890
H          6.76870        2.60610       -0.09490
H          4.36130        2.98140        0.27190
H          2.05290        2.10110        0.37280
H         -0.18880        1.21270        0.54670
H         -0.73340       -4.21590       -0.22940
H         -3.08390       -3.97840        0.30100
H         -4.97620       -2.68690        0.87210
H         -6.12340       -0.57130        1.14490
H         -6.19600        1.82010        0.98360
H         -5.17510        3.96160        0.34840
H         -2.84920        4.00220       -0.51490
H         -1.57300        1.95740       -0.69630
H          1.44610       -3.30380       -0.52280
H          3.73090       -2.43430       -0.71720
H          6.03990       -1.55290       -0.83480

