 Entering Gaussian System, Link 0=g16
 Initial command:
 /home/software/g16/l1.exe "/home/software/g16tmp/Gau-34675.inp" -scrdir="/home/software/g16tmp/"
 Default is to use a total of   8 processors:
                                8 via shared-memory
                                1 via Linda
 Entering Link 1 = /home/software/g16/l1.exe PID=     34676.
  
 Copyright (c) 1988-2019, Gaussian, Inc.  All Rights Reserved.
  
 This is part of the Gaussian(R) 16 program.  It is based on
 the Gaussian(R) 09 system (copyright 2009, Gaussian, Inc.),
 the Gaussian(R) 03 system (copyright 2003, Gaussian, Inc.),
 the Gaussian(R) 98 system (copyright 1998, Gaussian, Inc.),
 the Gaussian(R) 94 system (copyright 1995, Gaussian, Inc.),
 the Gaussian 92(TM) system (copyright 1992, Gaussian, Inc.),
 the Gaussian 90(TM) system (copyright 1990, Gaussian, Inc.),
 the Gaussian 88(TM) system (copyright 1988, Gaussian, Inc.),
 the Gaussian 86(TM) system (copyright 1986, Carnegie Mellon
 University), and the Gaussian 82(TM) system (copyright 1983,
 Carnegie Mellon University). Gaussian is a federally registered
 trademark of Gaussian, Inc.
  
 This software contains proprietary and confidential information,
 including trade secrets, belonging to Gaussian, Inc.
  
 This software is provided under written license and may be
 used, copied, transmitted, or stored only in accord with that
 written license.
  
 The following legend is applicable only to US Government
 contracts under FAR:
  
                    RESTRICTED RIGHTS LEGEND
  
 Use, reproduction and disclosure by the US Government is
 subject to restrictions as set forth in subparagraphs (a)
 and (c) of the Commercial Computer Software - Restricted
 Rights clause in FAR 52.227-19.
  
 Gaussian, Inc.
 340 Quinnipiac St., Bldg. 40, Wallingford CT 06492
  
  
 ---------------------------------------------------------------
 Warning -- This program may not be used in any manner that
 competes with the business of Gaussian, Inc. or will provide
 assistance to any competitor of Gaussian, Inc.  The licensee
 of this program is prohibited from giving any competitor of
 Gaussian, Inc. access to this program.  By using this program,
 the user acknowledges that Gaussian, Inc. is engaged in the
 business of creating and licensing software in the field of
 computational chemistry and represents and warrants to the
 licensee that it is not a competitor of Gaussian, Inc. and that
 it will not use this program in any manner prohibited above.
 ---------------------------------------------------------------
  

 Cite this work as:
 Gaussian 16, Revision C.01,
 M. J. Frisch, G. W. Trucks, H. B. Schlegel, G. E. Scuseria, 
 M. A. Robb, J. R. Cheeseman, G. Scalmani, V. Barone, 
 G. A. Petersson, H. Nakatsuji, X. Li, M. Caricato, A. V. Marenich, 
 J. Bloino, B. G. Janesko, R. Gomperts, B. Mennucci, H. P. Hratchian, 
 J. V. Ortiz, A. F. Izmaylov, J. L. Sonnenberg, D. Williams-Young, 
 F. Ding, F. Lipparini, F. Egidi, J. Goings, B. Peng, A. Petrone, 
 T. Henderson, D. Ranasinghe, V. G. Zakrzewski, J. Gao, N. Rega, 
 G. Zheng, W. Liang, M. Hada, M. Ehara, K. Toyota, R. Fukuda, 
 J. Hasegawa, M. Ishida, T. Nakajima, Y. Honda, O. Kitao, H. Nakai, 
 T. Vreven, K. Throssell, J. A. Montgomery, Jr., J. E. Peralta, 
 F. Ogliaro, M. J. Bearpark, J. J. Heyd, E. N. Brothers, K. N. Kudin, 
 V. N. Staroverov, T. A. Keith, R. Kobayashi, J. Normand, 
 K. Raghavachari, A. P. Rendell, J. C. Burant, S. S. Iyengar, 
 J. Tomasi, M. Cossi, J. M. Millam, M. Klene, C. Adamo, R. Cammi, 
 J. W. Ochterski, R. L. Martin, K. Morokuma, O. Farkas, 
 J. B. Foresman, and D. J. Fox, Gaussian, Inc., Wallingford CT, 2019.
 
 ******************************************
 Gaussian 16:  ES64L-G16RevC.01  3-Jul-2019
                19-Dec-2023 
 ******************************************
 %nprocshared=16
 Will use up to   16 processors via shared memory.
 %mem=960MB
 ----------------------------------------------------------------------
 #N opt freq B3LYP/def2SVPP symm=veryloose em=gd3bj scale=0.961 press=0
 .987
 ----------------------------------------------------------------------
 1/18=20,19=15,26=3,38=1,113=-987000,114=961000/1,3;
 2/9=110,12=2,17=2,18=2,40=1/2;
 3/5=43,7=202,11=2,25=1,30=1,71=1,74=-5,124=41/1,2,3;
 4//1;
 5/5=2,38=5/2;
 6/7=2,8=2,9=2,10=2,28=1/1;
 7//1,2,3,16;
 1/18=20,19=15,26=3/3(2);
 2/9=110/2;
 99//99;
 2/9=110/2;
 3/5=43,7=202,11=2,25=1,30=1,71=1,74=-5,124=41/1,2,3;
 4/5=5,16=3,69=1/1;
 5/5=2,38=5/2;
 7//1,2,3,16;
 1/18=20,19=15,26=3/3(-5);
 2/9=110/2;
 6/7=2,8=2,9=2,10=2,19=2,28=1/1;
 99/9=1/99;
 -------
 C=C=C_1
 -------
 Symbolic Z-matrix:
 Charge =  0 Multiplicity = 1
 C                     1.12843  -0.03248  -0.05977 
 C                     2.4337   -0.03248  -0.05977 
 C                     3.73897  -0.03248  -0.05977 
 H                     0.58623   0.48213  -0.84535 
 H                     0.58623  -0.54708   0.72582 
 H                     4.28117   0.84737   0.26861 
 H                     4.28117  -0.91232  -0.38814 
 

 GradGradGradGradGradGradGradGradGradGradGradGradGradGradGradGradGradGrad
 Berny optimization.
 Initialization pass.
                           ----------------------------
                           !    Initial Parameters    !
                           ! (Angstroms and Degrees)  !
 --------------------------                            --------------------------
 ! Name  Definition              Value          Derivative Info.                !
 --------------------------------------------------------------------------------
 ! R1    R(1,2)                  1.3053         estimate D2E/DX2                !
 ! R2    R(1,4)                  1.0844         estimate D2E/DX2                !
 ! R3    R(1,5)                  1.0844         estimate D2E/DX2                !
 ! R4    R(2,3)                  1.3053         estimate D2E/DX2                !
 ! R5    R(3,6)                  1.0844         estimate D2E/DX2                !
 ! R6    R(3,7)                  1.0844         estimate D2E/DX2                !
 ! A1    A(2,1,4)              119.9998         estimate D2E/DX2                !
 ! A2    A(2,1,5)              119.9997         estimate D2E/DX2                !
 ! A3    A(4,1,5)              120.0006         estimate D2E/DX2                !
 ! A4    A(2,3,6)              119.9996         estimate D2E/DX2                !
 ! A5    A(2,3,7)              120.0            estimate D2E/DX2                !
 ! A6    A(6,3,7)              120.0004         estimate D2E/DX2                !
 ! A7    L(1,2,3,6,-1)         180.0            estimate D2E/DX2                !
 ! A8    L(1,2,3,6,-2)         180.0            estimate D2E/DX2                !
 ! D1    D(4,1,3,6)             77.2391         estimate D2E/DX2                !
 ! D2    D(4,1,3,7)           -102.7613         estimate D2E/DX2                !
 ! D3    D(5,1,3,6)           -102.76           estimate D2E/DX2                !
 ! D4    D(5,1,3,7)             77.2396         estimate D2E/DX2                !
 --------------------------------------------------------------------------------
 Trust Radius=3.00D-01 FncErr=1.00D-07 GrdErr=1.00D-06 EigMax=2.50D+02 EigMin=1.00D-04
 Number of steps in this run=     28 maximum allowed number of steps=    100.
 GradGradGradGradGradGradGradGradGradGradGradGradGradGradGradGradGradGrad

                          Input orientation:                          
 ---------------------------------------------------------------------
 Center     Atomic      Atomic             Coordinates (Angstroms)
 Number     Number       Type             X           Y           Z
 ---------------------------------------------------------------------
      1          6           0        1.128430   -0.032480   -0.059770
      2          6           0        2.433700   -0.032480   -0.059770
      3          6           0        3.738970   -0.032480   -0.059770
      4          1           0        0.586230    0.482130   -0.845350
      5          1           0        0.586230   -0.547080    0.725820
      6          1           0        4.281170    0.847370    0.268610
      7          1           0        4.281170   -0.912320   -0.388140
 ---------------------------------------------------------------------
                    Distance matrix (angstroms):
                    1          2          3          4          5
     1  C    0.000000
     2  C    1.305270   0.000000
     3  C    2.610540   1.305270   0.000000
     4  H    1.084408   2.072463   3.289640   0.000000
     5  H    1.084410   2.072465   3.289640   1.878257   0.000000
     6  H    3.289641   2.072466   1.084412   3.876453   3.975690
     7  H    3.289637   2.072460   1.084401   3.975690   3.876453
                    6          7
     6  H    0.000000
     7  H    1.878252   0.000000
 Stoichiometry    C3H4
 Framework group  D2[O(C),C2"(C.C),X(H4)]
 Deg. of freedom     4
 Full point group                 D2      NOp   4
 Largest Abelian subgroup         D2      NOp   4
 Largest concise Abelian subgroup D2      NOp   4
                         Standard orientation:                         
 ---------------------------------------------------------------------
 Center     Atomic      Atomic             Coordinates (Angstroms)
 Number     Number       Type             X           Y           Z
 ---------------------------------------------------------------------
      1          6           0       -1.305270    0.000000   -0.000000
      2          6           0       -0.000000    0.000000    0.000000
      3          6           0        1.305270   -0.000000   -0.000000
      4          1           0       -1.847470   -0.733753    0.586146
      5          1           0       -1.847470    0.733753   -0.586146
      6          1           0        1.847470   -0.733753   -0.586146
      7          1           0        1.847470    0.733753    0.586146
 ---------------------------------------------------------------------
 Rotational constants (GHZ):         142.1422661           9.0191576           8.8944872
 Standard basis: def2SVPP (5D, 7F)
 There are    17 symmetry adapted cartesian basis functions of A   symmetry.
 There are    11 symmetry adapted cartesian basis functions of B1  symmetry.
 There are    11 symmetry adapted cartesian basis functions of B2  symmetry.
 There are    14 symmetry adapted cartesian basis functions of B3  symmetry.
 There are    15 symmetry adapted basis functions of A   symmetry.
 There are    11 symmetry adapted basis functions of B1  symmetry.
 There are    11 symmetry adapted basis functions of B2  symmetry.
 There are    13 symmetry adapted basis functions of B3  symmetry.
    50 basis functions,    91 primitive gaussians,    53 cartesian basis functions
    11 alpha electrons       11 beta electrons
       nuclear repulsion energy        59.2906056810 Hartrees.
 NAtoms=    7 NActive=    7 NUniq=    3 SFac= 4.00D+00 NAtFMM=   60 NAOKFM=F Big=F
 Integral buffers will be    131072 words long.
 Raffenetti 2 integral format.
 Two-electron integral symmetry is turned on.
 Nuclear repulsion after empirical dispersion term =       59.2846940521 Hartrees.
 One-electron integrals computed using PRISM.
   4 Symmetry operations used in ECPInt.
 ECPInt:  NShTT=     351 NPrTT=    1429 LenC2=     352 LenP2D=    1264.
 LDataN:  DoStor=T MaxTD1= 4 Len=   56
 NBasis=    50 RedAO= T EigKep=  1.48D-03  NBF=    15    11    11    13
 NBsUse=    50 1.00D-06 EigRej= -1.00D+00 NBFU=    15    11    11    13
 ExpMin= 1.22D-01 ExpMax= 1.24D+03 ExpMxC= 1.86D+02 IAcc=3 IRadAn=         5 AccDes= 0.00D+00
 Harris functional with IExCor=  402 and IRadAn=       5 diagonalized for initial guess.
 HarFok:  IExCor=  402 AccDes= 0.00D+00 IRadAn=         5 IDoV= 1 UseB2=F ITyADJ=14
 ICtDFT=  3500011 ScaDFX=  1.000000  1.000000  1.000000  1.000000
 FoFCou: FMM=F IPFlag=           0 FMFlag=      100000 FMFlg1=           0
         NFxFlg=           0 DoJE=T BraDBF=F KetDBF=T FulRan=T
         wScrn=  0.000000 ICntrl=       500 IOpCl=  0 I1Cent=   200000004 NGrid=           0
         NMat0=    1 NMatS0=      1 NMatT0=    0 NMatD0=    1 NMtDS0=    0 NMtDT0=    0
 Petite list used in FoFCou.
 Initial guess orbital symmetries:
       Occupied  (B3) (A) (A) (A) (B3) (A) (B3) (B2) (B1) (B1)
                 (B2)
       Virtual   (B2) (B1) (A) (B3) (B1) (B2) (A) (B3) (A) (B3)
                 (B1) (B2) (A) (B2) (B1) (B3) (B1) (B2) (A) (B1)
                 (A) (B3) (B2) (B3) (A) (B2) (B3) (B1) (B3) (A)
                 (B1) (A) (A) (B2) (B3) (B3) (B2) (B1) (A)
 The electronic state of the initial guess is 1-A.
 Keep R1 ints in memory in symmetry-blocked form, NReq=14848069.
 Requested convergence on RMS density matrix=1.00D-08 within 128 cycles.
 Requested convergence on MAX density matrix=1.00D-06.
 Requested convergence on             energy=1.00D-06.
 No special actions if energy rises.
 Integral accuracy reduced to 1.0D-05 until final iterations.
 Initial convergence to 1.0D-05 achieved.  Increase integral accuracy.
 SCF Done:  E(RB3LYP) =  -116.566789228     A.U. after   11 cycles
            NFock= 11  Conv=0.13D-08     -V/T= 2.0107

 **********************************************************************

            Population analysis using the SCF Density.

 **********************************************************************

 Orbital symmetries:
       Occupied  (A) (B3) (A) (A) (B3) (A) (B2) (B3) (B1) (B1)
                 (B2)
       Virtual   (B2) (B1) (A) (B3) (B1) (B2) (B3) (A) (A) (B3)
                 (B1) (B2) (A) (B2) (B1) (B3) (B1) (A) (B2) (B1)
                 (A) (B2) (B3) (B3) (A) (B2) (B3) (B1) (B3) (A)
                 (B1) (A) (A) (B2) (B3) (B3) (B2) (B1) (A)
 The electronic state is 1-A.
 Alpha  occ. eigenvalues --  -10.20649 -10.18812 -10.18800  -0.78510  -0.70044
 Alpha  occ. eigenvalues --   -0.51756  -0.45453  -0.45324  -0.44641  -0.28371
 Alpha  occ. eigenvalues --   -0.25879
 Alpha virt. eigenvalues --   -0.00375   0.02725   0.08551   0.10064   0.15389
 Alpha virt. eigenvalues --    0.15420   0.28937   0.29217   0.34212   0.44963
 Alpha virt. eigenvalues --    0.47806   0.49085   0.49108   0.59677   0.60503
 Alpha virt. eigenvalues --    0.66873   0.68102   0.68110   0.69847   0.76074
 Alpha virt. eigenvalues --    0.80444   0.81770   0.89914   1.04870   1.48315
 Alpha virt. eigenvalues --    1.55201   1.59196   1.60912   1.68270   1.90330
 Alpha virt. eigenvalues --    2.02180   2.03288   2.06458   2.06982   2.14843
 Alpha virt. eigenvalues --    2.43168   2.77896   2.79819   3.26259
          Condensed to atoms (all electrons):
               1          2          3          4          5          6
     1  C    5.290254   0.646544  -0.251967   0.336541   0.336541   0.003185
     2  C    0.646544   4.483708   0.646544   0.001767   0.001767   0.001767
     3  C   -0.251967   0.646544   5.290254   0.003185   0.003185   0.336541
     4  H    0.336541   0.001767   0.003185   0.567320  -0.036590  -0.000010
     5  H    0.336541   0.001767   0.003185  -0.036590   0.567320  -0.000320
     6  H    0.003185   0.001767   0.336541  -0.000010  -0.000320   0.567320
     7  H    0.003185   0.001767   0.336541  -0.000320  -0.000010  -0.036590
               7
     1  C    0.003185
     2  C    0.001767
     3  C    0.336541
     4  H   -0.000320
     5  H   -0.000010
     6  H   -0.036590
     7  H    0.567320
 Mulliken charges:
               1
     1  C   -0.364283
     2  C    0.216136
     3  C   -0.364283
     4  H    0.128108
     5  H    0.128108
     6  H    0.128108
     7  H    0.128108
 Sum of Mulliken charges =   0.00000
 Mulliken charges with hydrogens summed into heavy atoms:
               1
     1  C   -0.108068
     2  C    0.216136
     3  C   -0.108068
 Electronic spatial extent (au):  <R**2>=            174.7610
 Charge=              0.0000 electrons
 Dipole moment (field-independent basis, Debye):
    X=              0.0000    Y=              0.0000    Z=              0.0000  Tot=              0.0000
 Quadrupole moment (field-independent basis, Debye-Ang):
   XX=            -16.1520   YY=            -18.5773   ZZ=            -19.6087
   XY=              0.0000   XZ=              0.0000   YZ=             -0.0000
 Traceless Quadrupole moment (field-independent basis, Debye-Ang):
   XX=              1.9607   YY=             -0.4646   ZZ=             -1.4961
   XY=              0.0000   XZ=              0.0000   YZ=             -0.0000
 Octapole moment (field-independent basis, Debye-Ang**2):
  XXX=              0.0000  YYY=              0.0000  ZZZ=             -0.0000  XYY=             -0.0000
  XXY=              0.0000  XXZ=              0.0000  XZZ=             -0.0000  YZZ=              0.0000
  YYZ=             -0.0000  XYZ=              3.0868
 Hexadecapole moment (field-independent basis, Debye-Ang**3):
 XXXX=           -177.9995 YYYY=            -28.8594 ZZZZ=            -27.4556 XXXY=              0.0000
 XXXZ=              0.0000 YYYX=              0.0000 YYYZ=              0.0000 ZZZX=             -0.0000
 ZZZY=              0.0000 XXYY=            -32.6518 XXZZ=            -35.2409 YYZZ=             -8.8461
 XXYZ=              0.0000 YYXZ=              0.0000 ZZXY=              0.0000
 N-N= 5.928469405209D+01 E-N=-3.877837615949D+02  KE= 1.153341119022D+02
 Symmetry A    KE= 6.943099763109D+01
 Symmetry B1   KE= 4.147261285679D+00
 Symmetry B2   KE= 4.175792686203D+00
 Symmetry B3   KE= 3.758006029919D+01
   4 Symmetry operations used in ECPInt.
 ECPInt:  NShTT=     351 NPrTT=    1429 LenC2=     352 LenP2D=    1264.
 LDataN:  DoStor=T MaxTD1= 5 Len=  102
 Calling FoFJK, ICntrl=      2127 FMM=F ISym2X=1 I1Cent= 0 IOpClX= 0 NMat=1 NMatS=1 NMatT=0.
 ***** Axes restored to original set *****
 -------------------------------------------------------------------
 Center     Atomic                   Forces (Hartrees/Bohr)
 Number     Number              X              Y              Z
 -------------------------------------------------------------------
      1        6           0.006312923   -0.000000000    0.000000000
      2        6           0.000000000    0.000000000   -0.000000000
      3        6          -0.006312923   -0.000000000    0.000000000
      4        1          -0.007927471   -0.001227811   -0.008709259
      5        1          -0.007927471    0.001227811    0.008709259
      6        1           0.007927471    0.004167408    0.007745413
      7        1           0.007927471   -0.004167408   -0.007745413
 -------------------------------------------------------------------
 Cartesian Forces:  Max     0.008709259 RMS     0.005522767

 GradGradGradGradGradGradGradGradGradGradGradGradGradGradGradGradGradGrad
 Berny optimization.
 FormGI is forming the generalized inverse of G from B-inverse, IUseBI=4.
 Internal  Forces:  Max     0.009690319 RMS     0.006388218
 Search for a local minimum.
 Step number   1 out of a maximum of   28
 All quantities printed in internal units (Hartrees-Bohrs-Radians)
 Mixed Optimization -- RFO/linear search
 Second derivative matrix not updated -- first step.
 The second derivative matrix:
                          R1        R2        R3        R4        R5
           R1           0.65751
           R2           0.00000   0.35467
           R3           0.00000   0.00000   0.35467
           R4           0.00000   0.00000   0.00000   0.65751
           R5           0.00000   0.00000   0.00000   0.00000   0.35467
           R6           0.00000   0.00000   0.00000   0.00000   0.00000
           A1           0.00000   0.00000   0.00000   0.00000   0.00000
           A2           0.00000   0.00000   0.00000   0.00000   0.00000
           A3           0.00000   0.00000   0.00000   0.00000   0.00000
           A4           0.00000   0.00000   0.00000   0.00000   0.00000
           A5           0.00000   0.00000   0.00000   0.00000   0.00000
           A6           0.00000   0.00000   0.00000   0.00000   0.00000
           A7           0.00000   0.00000   0.00000   0.00000   0.00000
           A8           0.00000   0.00000   0.00000   0.00000   0.00000
           D1           0.00000   0.00000   0.00000   0.00000   0.00000
           D2           0.00000   0.00000   0.00000   0.00000   0.00000
           D3           0.00000   0.00000   0.00000   0.00000   0.00000
           D4           0.00000   0.00000   0.00000   0.00000   0.00000
                          R6        A1        A2        A3        A4
           R6           0.35467
           A1           0.00000   0.16000
           A2           0.00000   0.00000   0.16000
           A3           0.00000   0.00000   0.00000   0.16000
           A4           0.00000   0.00000   0.00000   0.00000   0.16000
           A5           0.00000   0.00000   0.00000   0.00000   0.00000
           A6           0.00000   0.00000   0.00000   0.00000   0.00000
           A7           0.00000   0.00000   0.00000   0.00000   0.00000
           A8           0.00000   0.00000   0.00000   0.00000   0.00000
           D1           0.00000   0.00000   0.00000   0.00000   0.00000
           D2           0.00000   0.00000   0.00000   0.00000   0.00000
           D3           0.00000   0.00000   0.00000   0.00000   0.00000
           D4           0.00000   0.00000   0.00000   0.00000   0.00000
                          A5        A6        A7        A8        D1
           A5           0.16000
           A6           0.00000   0.16000
           A7           0.00000   0.00000   0.03342
           A8           0.00000   0.00000   0.00000   0.03342
           D1           0.00000   0.00000   0.00000   0.00000   0.00230
           D2           0.00000   0.00000   0.00000   0.00000   0.00000
           D3           0.00000   0.00000   0.00000   0.00000   0.00000
           D4           0.00000   0.00000   0.00000   0.00000   0.00000
                          D2        D3        D4
           D2           0.00230
           D3           0.00000   0.00230
           D4           0.00000   0.00000   0.00230
 ITU=  0
     Eigenvalues ---    0.00230   0.00230   0.00230   0.03342   0.03342
     Eigenvalues ---    0.16000   0.16000   0.16000   0.16000   0.35467
     Eigenvalues ---    0.35467   0.35467   0.35467   0.65751   0.65751
 RFO step:  Lambda=-1.01960050D-02 EMin= 2.30000000D-03
 Linear search not attempted -- first point.
 Iteration  1 RMS(Cart)=  0.08751897 RMS(Int)=  0.10068850
 Iteration  2 RMS(Cart)=  0.08443238 RMS(Int)=  0.00750747
 Iteration  3 RMS(Cart)=  0.00704864 RMS(Int)=  0.00003242
 Iteration  4 RMS(Cart)=  0.00003172 RMS(Int)=  0.00000000
 Iteration  5 RMS(Cart)=  0.00000000 RMS(Int)=  0.00000000
 ClnCor:  largest displacement from symmetrization is 2.80D-09 for atom     5.
 Variable       Old X    -DE/DX   Delta X   Delta X   Delta X     New X
                                 (Linear)    (Quad)   (Total)
    R1        2.46660   0.00954   0.00000   0.01429   0.01429   2.48089
    R2        2.04923   0.00969   0.00000   0.02656   0.02656   2.07579
    R3        2.04923   0.00969   0.00000   0.02656   0.02656   2.07579
    R4        2.46660   0.00954   0.00000   0.01429   0.01429   2.48089
    R5        2.04923   0.00969   0.00000   0.02656   0.02656   2.07579
    R6        2.04923   0.00969   0.00000   0.02656   0.02656   2.07579
    A1        2.09439   0.00243   0.00000   0.01428   0.01428   2.10868
    A2        2.09439   0.00243   0.00000   0.01428   0.01428   2.10868
    A3        2.09440  -0.00486   0.00000  -0.02857  -0.02857   2.06583
    A4        2.09439   0.00243   0.00000   0.01428   0.01428   2.10868
    A5        2.09439   0.00243   0.00000   0.01428   0.01428   2.10868
    A6        2.09440  -0.00486   0.00000  -0.02857  -0.02857   2.06583
    A7        3.14159  -0.00000   0.00000  -0.00000  -0.00000   3.14159
    A8        3.14159  -0.00000   0.00000  -0.00000   0.00000   3.14159
    D1        1.34806   0.00515   0.00000   0.41182   0.41182   1.75988
    D2       -1.79354   0.00515   0.00000   0.41182   0.41182  -1.38172
    D3       -1.79354   0.00515   0.00000   0.41182   0.41182  -1.38172
    D4        1.34806   0.00515   0.00000   0.41182   0.41182   1.75988
         Item               Value     Threshold  Converged?
 Maximum Force            0.009690     0.000450     NO 
 RMS     Force            0.006388     0.000300     NO 
 Maximum Displacement     0.331106     0.001800     NO 
 RMS     Displacement     0.174264     0.001200     NO 
 Predicted change in Energy=-8.585361D-03
 GradGradGradGradGradGradGradGradGradGradGradGradGradGradGradGradGradGrad

                          Input orientation:                          
 ---------------------------------------------------------------------
 Center     Atomic      Atomic             Coordinates (Angstroms)
 Number     Number       Type             X           Y           Z
 ---------------------------------------------------------------------
      1          6           0        1.120868   -0.032479   -0.059769
      2          6           0        2.433700   -0.032479   -0.059769
      3          6           0        3.746532   -0.032479   -0.059769
      4          1           0        0.558108    0.312186   -0.937908
      5          1           0        0.558108   -0.377144    0.818369
      6          1           0        4.309292    0.765227    0.443805
      7          1           0        4.309292   -0.830185   -0.563343
 ---------------------------------------------------------------------
                    Distance matrix (angstroms):
                    1          2          3          4          5
     1  C    0.000000
     2  C    1.312832   0.000000
     3  C    2.625665   1.312832   0.000000
     4  H    1.098462   2.099468   3.325052   0.000000
     5  H    1.098462   2.099468   3.325052   1.886712   0.000000
     6  H    3.325052   2.099468   1.098462   4.023152   3.939123
     7  H    3.325052   2.099468   1.098462   3.939123   4.023152
                    6          7
     6  H    0.000000
     7  H    1.886712   0.000000
 Stoichiometry    C3H4
 Framework group  D2[O(C),C2(C.C),X(H4)]
 Deg. of freedom     4
 Full point group                 D2      NOp   4
 Omega: Change in point group or standard orientation.

 Old FWG=D02  [O(C1),C2"(C1.C1),X(H4)]
 New FWG=D02  [O(C1),C2(C1.C1),X(H4)]
 Largest Abelian subgroup         D2      NOp   4
 Largest concise Abelian subgroup D2      NOp   4
                         Standard orientation:                         
 ---------------------------------------------------------------------
 Center     Atomic      Atomic             Coordinates (Angstroms)
 Number     Number       Type             X           Y           Z
 ---------------------------------------------------------------------
      1          6           0        0.000000   -0.000000   -1.312832
      2          6           0        0.000000    0.000000    0.000000
      3          6           0       -0.000000   -0.000000    1.312832
      4          1           0       -0.601105    0.727044   -1.875592
      5          1           0        0.601105   -0.727044   -1.875592
      6          1           0       -0.601105   -0.727044    1.875592
      7          1           0        0.601105    0.727044    1.875592
 ---------------------------------------------------------------------
 Rotational constants (GHZ):         140.8706937           8.8658627           8.7622121
 Standard basis: def2SVPP (5D, 7F)
 There are    17 symmetry adapted cartesian basis functions of A   symmetry.
 There are    14 symmetry adapted cartesian basis functions of B1  symmetry.
 There are    11 symmetry adapted cartesian basis functions of B2  symmetry.
 There are    11 symmetry adapted cartesian basis functions of B3  symmetry.
 There are    15 symmetry adapted basis functions of A   symmetry.
 There are    13 symmetry adapted basis functions of B1  symmetry.
 There are    11 symmetry adapted basis functions of B2  symmetry.
 There are    11 symmetry adapted basis functions of B3  symmetry.
    50 basis functions,    91 primitive gaussians,    53 cartesian basis functions
    11 alpha electrons       11 beta electrons
       nuclear repulsion energy        58.8006305251 Hartrees.
 NAtoms=    7 NActive=    7 NUniq=    3 SFac= 4.00D+00 NAtFMM=   60 NAOKFM=F Big=F
 Integral buffers will be    131072 words long.
 Raffenetti 2 integral format.
 Two-electron integral symmetry is turned on.
 Nuclear repulsion after empirical dispersion term =       58.7947569093 Hartrees.
 One-electron integrals computed using PRISM.
   4 Symmetry operations used in ECPInt.
 ECPInt:  NShTT=     351 NPrTT=    1429 LenC2=     352 LenP2D=    1262.
 LDataN:  DoStor=T MaxTD1= 4 Len=   56
 NBasis=    50 RedAO= T EigKep=  1.55D-03  NBF=    15    13    11    11
 NBsUse=    50 1.00D-06 EigRej= -1.00D+00 NBFU=    15    13    11    11
 Initial guess from the checkpoint file:  "/home/software/g16tmp/Gau-34676.chk"
 B after Tr=    -0.000000   -0.000000   -0.000000
         Rot=    0.500000    0.500000    0.500000    0.500000 Ang= 120.00 deg.
 Initial guess orbital symmetries:
       Occupied  (A) (B1) (A) (A) (B1) (A) (B3) (B1) (B2) (B2)
                 (B3)
       Virtual   (B3) (B2) (A) (B1) (B2) (B3) (B1) (A) (A) (B1)
                 (B2) (B3) (A) (B3) (B2) (B1) (B2) (A) (B3) (B2)
                 (A) (B3) (B1) (B1) (A) (B3) (B1) (B2) (B1) (A)
                 (B2) (A) (A) (B3) (B1) (B1) (B3) (B2) (A)
 ExpMin= 1.22D-01 ExpMax= 1.24D+03 ExpMxC= 1.86D+02 IAcc=3 IRadAn=         5 AccDes= 0.00D+00
 Harris functional with IExCor=  402 and IRadAn=       5 diagonalized for initial guess.
 HarFok:  IExCor=  402 AccDes= 0.00D+00 IRadAn=         5 IDoV= 1 UseB2=F ITyADJ=14
 ICtDFT=  3500011 ScaDFX=  1.000000  1.000000  1.000000  1.000000
 FoFCou: FMM=F IPFlag=           0 FMFlag=      100000 FMFlg1=           0
         NFxFlg=           0 DoJE=T BraDBF=F KetDBF=T FulRan=T
         wScrn=  0.000000 ICntrl=       500 IOpCl=  0 I1Cent=   200000004 NGrid=           0
         NMat0=    1 NMatS0=      1 NMatT0=    0 NMatD0=    1 NMtDS0=    0 NMtDT0=    0
 Petite list used in FoFCou.
 Keep R1 ints in memory in symmetry-blocked form, NReq=14848069.
 Requested convergence on RMS density matrix=1.00D-08 within 128 cycles.
 Requested convergence on MAX density matrix=1.00D-06.
 Requested convergence on             energy=1.00D-06.
 No special actions if energy rises.
 Integral accuracy reduced to 1.0D-05 until final iterations.
 Initial convergence to 1.0D-05 achieved.  Increase integral accuracy.
 SCF Done:  E(RB3LYP) =  -116.568327433     A.U. after   11 cycles
            NFock= 11  Conv=0.59D-08     -V/T= 2.0118
   4 Symmetry operations used in ECPInt.
 ECPInt:  NShTT=     351 NPrTT=    1429 LenC2=     352 LenP2D=    1262.
 LDataN:  DoStor=T MaxTD1= 5 Len=  102
 Calling FoFJK, ICntrl=      2127 FMM=F ISym2X=1 I1Cent= 0 IOpClX= 0 NMat=1 NMatS=1 NMatT=0.
 ***** Axes restored to original set *****
 -------------------------------------------------------------------
 Center     Atomic                   Forces (Hartrees/Bohr)
 Number     Number              X              Y              Z
 -------------------------------------------------------------------
      1        6           0.004656180    0.000000000    0.000000000
      2        6          -0.000000000    0.000000000    0.000000000
      3        6          -0.004656180   -0.000000000   -0.000000000
      4        1          -0.001202330    0.004235842    0.002428572
      5        1          -0.001202330   -0.004235842   -0.002428572
      6        1           0.001202330    0.001975496   -0.004465169
      7        1           0.001202330   -0.001975496    0.004465169
 -------------------------------------------------------------------
 Cartesian Forces:  Max     0.004656180 RMS     0.002623190

 GradGradGradGradGradGradGradGradGradGradGradGradGradGradGradGradGradGrad
 Berny optimization.
 Using GEDIIS/GDIIS optimizer.
 FormGI is forming the generalized inverse of G from B-inverse, IUseBI=4.
 Internal  Forces:  Max     0.004305456 RMS     0.002303536
 Search for a local minimum.
 Step number   2 out of a maximum of   28
 All quantities printed in internal units (Hartrees-Bohrs-Radians)
 Mixed Optimization -- RFO/linear search
 Update second derivatives using D2CorX and points    1    2
 DE= -1.54D-03 DEPred=-8.59D-03 R= 1.79D-01
 Trust test= 1.79D-01 RLast= 8.27D-01 DXMaxT set to 3.00D-01
 The second derivative matrix:
                          R1        R2        R3        R4        R5
           R1           0.63819
           R2          -0.02083   0.33259
           R3          -0.02083  -0.02208   0.33259
           R4          -0.01932  -0.02083  -0.02083   0.63819
           R5          -0.02083  -0.02208  -0.02208  -0.02083   0.33259
           R6          -0.02083  -0.02208  -0.02208  -0.02083  -0.02208
           A1          -0.00566  -0.00586  -0.00586  -0.00566  -0.00586
           A2          -0.00566  -0.00586  -0.00586  -0.00566  -0.00586
           A3           0.01132   0.01172   0.01172   0.01132   0.01172
           A4          -0.00566  -0.00586  -0.00586  -0.00566  -0.00586
           A5          -0.00566  -0.00586  -0.00586  -0.00566  -0.00586
           A6           0.01132   0.01172   0.01172   0.01132   0.01172
           A7          -0.00000  -0.00000  -0.00000  -0.00000  -0.00000
           A8          -0.00000  -0.00000  -0.00000  -0.00000  -0.00000
           D1           0.00372   0.00256   0.00256   0.00372   0.00256
           D2           0.00372   0.00256   0.00256   0.00372   0.00256
           D3           0.00372   0.00256   0.00256   0.00372   0.00256
           D4           0.00372   0.00256   0.00256   0.00372   0.00256
                          R6        A1        A2        A3        A4
           R6           0.33259
           A1          -0.00586   0.15850
           A2          -0.00586  -0.00150   0.15850
           A3           0.01172   0.00299   0.00299   0.15401
           A4          -0.00586  -0.00150  -0.00150   0.00299   0.15850
           A5          -0.00586  -0.00150  -0.00150   0.00299  -0.00150
           A6           0.01172   0.00299   0.00299  -0.00599   0.00299
           A7          -0.00000  -0.00000  -0.00000   0.00000  -0.00000
           A8          -0.00000  -0.00000  -0.00000   0.00000  -0.00000
           D1           0.00256   0.00013   0.00013  -0.00027   0.00013
           D2           0.00256   0.00013   0.00013  -0.00027   0.00013
           D3           0.00256   0.00013   0.00013  -0.00027   0.00013
           D4           0.00256   0.00013   0.00013  -0.00027   0.00013
                          A5        A6        A7        A8        D1
           A5           0.15850
           A6           0.00299   0.15401
           A7          -0.00000   0.00000   0.03342
           A8          -0.00000   0.00000   0.00000   0.03342
           D1           0.00013  -0.00027  -0.00000  -0.00000   0.00722
           D2           0.00013  -0.00027  -0.00000  -0.00000   0.00492
           D3           0.00013  -0.00027  -0.00000  -0.00000   0.00492
           D4           0.00013  -0.00027  -0.00000  -0.00000   0.00492
                          D2        D3        D4
           D2           0.00722
           D3           0.00492   0.00722
           D4           0.00492   0.00492   0.00722
 ITU=  0  0
 Use linear search instead of GDIIS.
     Eigenvalues ---    0.00230   0.00230   0.02115   0.03342   0.03342
     Eigenvalues ---    0.12625   0.16000   0.16000   0.16000   0.27232
     Eigenvalues ---    0.35467   0.35467   0.35467   0.62949   0.65751
 RFO step:  Lambda=-7.55170750D-04 EMin= 2.30000000D-03
 Quartic linear search produced a step of -0.41220.
 Iteration  1 RMS(Cart)=  0.08496684 RMS(Int)=  0.00468309
 Iteration  2 RMS(Cart)=  0.00473290 RMS(Int)=  0.00001314
 Iteration  3 RMS(Cart)=  0.00001268 RMS(Int)=  0.00000000
 Iteration  4 RMS(Cart)=  0.00000000 RMS(Int)=  0.00000000
 ClnCor:  largest displacement from symmetrization is 1.39D-08 for atom     5.
 Variable       Old X    -DE/DX   Delta X   Delta X   Delta X     New X
                                 (Linear)    (Quad)   (Total)
    R1        2.48089  -0.00225  -0.00589   0.00967   0.00378   2.48468
    R2        2.07579   0.00000  -0.01095   0.02185   0.01091   2.08670
    R3        2.07579   0.00000  -0.01095   0.02185   0.01091   2.08670
    R4        2.48089  -0.00225  -0.00589   0.00967   0.00378   2.48468
    R5        2.07579   0.00000  -0.01095   0.02185   0.01091   2.08670
    R6        2.07579   0.00000  -0.01095   0.02185   0.01091   2.08670
    A1        2.10868   0.00097  -0.00589   0.01547   0.00958   2.11826
    A2        2.10868   0.00097  -0.00589   0.01547   0.00958   2.11826
    A3        2.06583  -0.00193   0.01178  -0.03094  -0.01916   2.04667
    A4        2.10868   0.00097  -0.00589   0.01547   0.00958   2.11826
    A5        2.10868   0.00097  -0.00589   0.01547   0.00958   2.11826
    A6        2.06583  -0.00193   0.01178  -0.03094  -0.01916   2.04667
    A7        3.14159   0.00000   0.00000   0.00000  -0.00000   3.14159
    A8        3.14159   0.00000  -0.00000   0.00000  -0.00000   3.14159
    D1        1.75988  -0.00431  -0.16975  -0.03459  -0.20434   1.55554
    D2       -1.38172  -0.00431  -0.16975  -0.03459  -0.20434  -1.58606
    D3       -1.38172  -0.00431  -0.16975  -0.03459  -0.20434  -1.58606
    D4        1.75988  -0.00431  -0.16975  -0.03459  -0.20434   1.55554
         Item               Value     Threshold  Converged?
 Maximum Force            0.004305     0.000450     NO 
 RMS     Force            0.002304     0.000300     NO 
 Maximum Displacement     0.165416     0.001800     NO 
 RMS     Displacement     0.086715     0.001200     NO 
 Predicted change in Energy=-1.795580D-03
 GradGradGradGradGradGradGradGradGradGradGradGradGradGradGradGradGradGrad

                          Input orientation:                          
 ---------------------------------------------------------------------
 Center     Atomic      Atomic             Coordinates (Angstroms)
 Number     Number       Type             X           Y           Z
 ---------------------------------------------------------------------
      1          6           0        1.118865   -0.032479   -0.059769
      2          6           0        2.433700   -0.032479   -0.059769
      3          6           0        3.748535   -0.032479   -0.059769
      4          1           0        0.544089    0.399720   -0.897725
      5          1           0        0.544089   -0.464678    0.778186
      6          1           0        4.323311    0.811974    0.359593
      7          1           0        4.323311   -0.876932   -0.479131
 ---------------------------------------------------------------------
                    Distance matrix (angstroms):
                    1          2          3          4          5
     1  C    0.000000
     2  C    1.314835   0.000000
     3  C    2.629670   1.314835   0.000000
     4  H    1.104234   2.111775   3.340275   0.000000
     5  H    1.104234   2.111775   3.340275   1.885699   0.000000
     6  H    3.340275   2.111775   1.104234   4.004162   4.010932
     7  H    3.340275   2.111775   1.104234   4.010932   4.004162
                    6          7
     6  H    0.000000
     7  H    1.885699   0.000000
 Stoichiometry    C3H4
 Framework group  D2[O(C),C2(C.C),X(H4)]
 Deg. of freedom     4
 Full point group                 D2      NOp   4
 Largest Abelian subgroup         D2      NOp   4
 Largest concise Abelian subgroup D2      NOp   4
                         Standard orientation:                         
 ---------------------------------------------------------------------
 Center     Atomic      Atomic             Coordinates (Angstroms)
 Number     Number       Type             X           Y           Z
 ---------------------------------------------------------------------
      1          6           0        0.000000    0.000000   -1.314835
      2          6           0        0.000000    0.000000    0.000000
      3          6           0        0.000000    0.000000    1.314835
      4          1           0       -0.661589   -0.671763   -1.889611
      5          1           0        0.661589    0.671763   -1.889611
      6          1           0        0.661589   -0.671763    1.889611
      7          1           0       -0.661589    0.671763    1.889611
 ---------------------------------------------------------------------
 Rotational constants (GHZ):         141.0220723           8.7663695           8.7580617
 Standard basis: def2SVPP (5D, 7F)
 There are    17 symmetry adapted cartesian basis functions of A   symmetry.
 There are    14 symmetry adapted cartesian basis functions of B1  symmetry.
 There are    11 symmetry adapted cartesian basis functions of B2  symmetry.
 There are    11 symmetry adapted cartesian basis functions of B3  symmetry.
 There are    15 symmetry adapted basis functions of A   symmetry.
 There are    13 symmetry adapted basis functions of B1  symmetry.
 There are    11 symmetry adapted basis functions of B2  symmetry.
 There are    11 symmetry adapted basis functions of B3  symmetry.
    50 basis functions,    91 primitive gaussians,    53 cartesian basis functions
    11 alpha electrons       11 beta electrons
       nuclear repulsion energy        58.6290256240 Hartrees.
 NAtoms=    7 NActive=    7 NUniq=    3 SFac= 4.00D+00 NAtFMM=   60 NAOKFM=F Big=F
 Integral buffers will be    131072 words long.
 Raffenetti 2 integral format.
 Two-electron integral symmetry is turned on.
 Nuclear repulsion after empirical dispersion term =       58.6231680724 Hartrees.
 One-electron integrals computed using PRISM.
   4 Symmetry operations used in ECPInt.
 ECPInt:  NShTT=     351 NPrTT=    1429 LenC2=     352 LenP2D=    1262.
 LDataN:  DoStor=T MaxTD1= 4 Len=   56
 NBasis=    50 RedAO= T EigKep=  1.58D-03  NBF=    15    13    11    11
 NBsUse=    50 1.00D-06 EigRej= -1.00D+00 NBFU=    15    13    11    11
 Initial guess from the checkpoint file:  "/home/software/g16tmp/Gau-34676.chk"
 B after Tr=     0.000000    0.000000    0.000000
         Rot=    0.707107   -0.000000   -0.000000   -0.707107 Ang= -90.00 deg.
 Initial guess orbital symmetries:
       Occupied  (A) (B1) (A) (A) (B1) (A) (B1) (B3) (B2) (B2)
                 (B3)
       Virtual   (B3) (B2) (A) (B1) (B2) (B3) (B1) (A) (A) (B1)
                 (B2) (A) (B3) (B3) (B2) (B1) (B2) (A) (B3) (B2)
                 (A) (B3) (B1) (B1) (A) (B3) (B2) (B1) (B1) (A)
                 (A) (B2) (A) (B3) (B1) (B1) (B3) (B2) (A)
 ExpMin= 1.22D-01 ExpMax= 1.24D+03 ExpMxC= 1.86D+02 IAcc=3 IRadAn=         5 AccDes= 0.00D+00
 Harris functional with IExCor=  402 and IRadAn=       5 diagonalized for initial guess.
 HarFok:  IExCor=  402 AccDes= 0.00D+00 IRadAn=         5 IDoV= 1 UseB2=F ITyADJ=14
 ICtDFT=  3500011 ScaDFX=  1.000000  1.000000  1.000000  1.000000
 FoFCou: FMM=F IPFlag=           0 FMFlag=      100000 FMFlg1=           0
         NFxFlg=           0 DoJE=T BraDBF=F KetDBF=T FulRan=T
         wScrn=  0.000000 ICntrl=       500 IOpCl=  0 I1Cent=   200000004 NGrid=           0
         NMat0=    1 NMatS0=      1 NMatT0=    0 NMatD0=    1 NMtDS0=    0 NMtDT0=    0
 Petite list used in FoFCou.
 Keep R1 ints in memory in symmetry-blocked form, NReq=14848069.
 Requested convergence on RMS density matrix=1.00D-08 within 128 cycles.
 Requested convergence on MAX density matrix=1.00D-06.
 Requested convergence on             energy=1.00D-06.
 No special actions if energy rises.
 Integral accuracy reduced to 1.0D-05 until final iterations.
 Initial convergence to 1.0D-05 achieved.  Increase integral accuracy.
 SCF Done:  E(RB3LYP) =  -116.569882939     A.U. after   10 cycles
            NFock= 10  Conv=0.21D-08     -V/T= 2.0122
   4 Symmetry operations used in ECPInt.
 ECPInt:  NShTT=     351 NPrTT=    1429 LenC2=     352 LenP2D=    1262.
 LDataN:  DoStor=T MaxTD1= 5 Len=  102
 Calling FoFJK, ICntrl=      2127 FMM=F ISym2X=1 I1Cent= 0 IOpClX= 0 NMat=1 NMatS=1 NMatT=0.
 ***** Axes restored to original set *****
 -------------------------------------------------------------------
 Center     Atomic                   Forces (Hartrees/Bohr)
 Number     Number              X              Y              Z
 -------------------------------------------------------------------
      1        6           0.002304820   -0.000000000    0.000000000
      2        6           0.000000000    0.000000000    0.000000000
      3        6          -0.002304820   -0.000000000   -0.000000000
      4        1           0.001944337   -0.001800762    0.002644491
      5        1           0.001944337    0.001800762   -0.002644491
      6        1          -0.001944337   -0.003016988   -0.001064829
      7        1          -0.001944337    0.003016988    0.001064829
 -------------------------------------------------------------------
 Cartesian Forces:  Max     0.003016988 RMS     0.001782060

 GradGradGradGradGradGradGradGradGradGradGradGradGradGradGradGradGradGrad
 Berny optimization.
 Using GEDIIS/GDIIS optimizer.
 FormGI is forming the generalized inverse of G from B-inverse, IUseBI=4.
 Internal  Forces:  Max     0.006193494 RMS     0.002714780
 Search for a local minimum.
 Step number   3 out of a maximum of   28
 All quantities printed in internal units (Hartrees-Bohrs-Radians)
 Mixed Optimization -- RFO/linear search
 Update second derivatives using D2CorX and points    1    2    3
 DE= -1.56D-03 DEPred=-1.80D-03 R= 8.66D-01
 TightC=F SS=  1.41D+00  RLast= 4.11D-01 DXNew= 5.0454D-01 1.2319D+00
 Trust test= 8.66D-01 RLast= 4.11D-01 DXMaxT set to 5.05D-01
 The second derivative matrix:
                          R1        R2        R3        R4        R5
           R1           0.65791
           R2          -0.00255   0.34676
           R3          -0.00255  -0.00791   0.34676
           R4           0.00041  -0.00255  -0.00255   0.65791
           R5          -0.00255  -0.00791  -0.00791  -0.00255   0.34676
           R6          -0.00255  -0.00791  -0.00791  -0.00255  -0.00791
           A1          -0.00141  -0.00374  -0.00374  -0.00141  -0.00374
           A2          -0.00141  -0.00374  -0.00374  -0.00141  -0.00374
           A3           0.00282   0.00747   0.00747   0.00282   0.00747
           A4          -0.00141  -0.00374  -0.00374  -0.00141  -0.00374
           A5          -0.00141  -0.00374  -0.00374  -0.00141  -0.00374
           A6           0.00282   0.00747   0.00747   0.00282   0.00747
           A7          -0.00000  -0.00000  -0.00000  -0.00000  -0.00000
           A8          -0.00000   0.00000   0.00000  -0.00000   0.00000
           D1          -0.00211  -0.00080  -0.00080  -0.00211  -0.00080
           D2          -0.00211  -0.00080  -0.00080  -0.00211  -0.00080
           D3          -0.00211  -0.00080  -0.00080  -0.00211  -0.00080
           D4          -0.00211  -0.00080  -0.00080  -0.00211  -0.00080
                          R6        A1        A2        A3        A4
           R6           0.34676
           A1          -0.00374   0.15822
           A2          -0.00374  -0.00178   0.15822
           A3           0.00747   0.00355   0.00355   0.15290
           A4          -0.00374  -0.00178  -0.00178   0.00355   0.15822
           A5          -0.00374  -0.00178  -0.00178   0.00355  -0.00178
           A6           0.00747   0.00355   0.00355  -0.00710   0.00355
           A7          -0.00000  -0.00000  -0.00000   0.00000  -0.00000
           A8           0.00000   0.00000   0.00000  -0.00000   0.00000
           D1          -0.00080   0.00022   0.00022  -0.00045   0.00022
           D2          -0.00080   0.00022   0.00022  -0.00045   0.00022
           D3          -0.00080   0.00022   0.00022  -0.00045   0.00022
           D4          -0.00080   0.00022   0.00022  -0.00045   0.00022
                          A5        A6        A7        A8        D1
           A5           0.15822
           A6           0.00355   0.15290
           A7          -0.00000   0.00000   0.03342
           A8           0.00000  -0.00000   0.00000   0.03342
           D1           0.00022  -0.00045  -0.00000  -0.00000   0.00738
           D2           0.00022  -0.00045  -0.00000  -0.00000   0.00508
           D3           0.00022  -0.00045  -0.00000  -0.00000   0.00508
           D4           0.00022  -0.00045  -0.00000  -0.00000   0.00508
                          D2        D3        D4
           D2           0.00738
           D3           0.00508   0.00738
           D4           0.00508   0.00508   0.00738
 ITU=  1  0  0
 Use linear search instead of GDIIS.
     Eigenvalues ---    0.00230   0.00230   0.02254   0.03342   0.03342
     Eigenvalues ---    0.13501   0.16000   0.16000   0.16000   0.32653
     Eigenvalues ---    0.35467   0.35467   0.35467   0.65751   0.65861
 RFO step:  Lambda=-2.49773867D-04 EMin= 2.30000000D-03
 Quartic linear search produced a step of -0.12073.
 Iteration  1 RMS(Cart)=  0.01127812 RMS(Int)=  0.00003240
 Iteration  2 RMS(Cart)=  0.00003236 RMS(Int)=  0.00000000
 Iteration  3 RMS(Cart)=  0.00000000 RMS(Int)=  0.00000000
 ClnCor:  largest displacement from symmetrization is 6.72D-09 for atom     5.
 Variable       Old X    -DE/DX   Delta X   Delta X   Delta X     New X
                                 (Linear)    (Quad)   (Total)
    R1        2.48468  -0.00619  -0.00046  -0.00901  -0.00947   2.47521
    R2        2.08670  -0.00372  -0.00132  -0.01045  -0.01177   2.07493
    R3        2.08670  -0.00372  -0.00132  -0.01045  -0.01177   2.07493
    R4        2.48468  -0.00619  -0.00046  -0.00901  -0.00947   2.47521
    R5        2.08670  -0.00372  -0.00132  -0.01045  -0.01177   2.07493
    R6        2.08670  -0.00372  -0.00132  -0.01045  -0.01177   2.07493
    A1        2.11826  -0.00000  -0.00116  -0.00042  -0.00158   2.11668
    A2        2.11826  -0.00000  -0.00116  -0.00042  -0.00158   2.11668
    A3        2.04667   0.00001   0.00231   0.00084   0.00315   2.04983
    A4        2.11826  -0.00000  -0.00116  -0.00042  -0.00158   2.11668
    A5        2.11826  -0.00000  -0.00116  -0.00042  -0.00158   2.11668
    A6        2.04667   0.00001   0.00231   0.00084   0.00315   2.04983
    A7        3.14159   0.00000   0.00000   0.00000   0.00000   3.14159
    A8        3.14159   0.00000   0.00000  -0.00000   0.00000   3.14159
    D1        1.55554   0.00035   0.02467  -0.01233   0.01234   1.56788
    D2       -1.58606   0.00035   0.02467  -0.01233   0.01234  -1.57371
    D3       -1.58606   0.00035   0.02467  -0.01233   0.01234  -1.57371
    D4        1.55554   0.00035   0.02467  -0.01233   0.01234   1.56788
         Item               Value     Threshold  Converged?
 Maximum Force            0.006193     0.000450     NO 
 RMS     Force            0.002715     0.000300     NO 
 Maximum Displacement     0.018387     0.001800     NO 
 RMS     Displacement     0.011283     0.001200     NO 
 Predicted change in Energy=-1.547592D-04
 GradGradGradGradGradGradGradGradGradGradGradGradGradGradGradGradGradGrad

                          Input orientation:                          
 ---------------------------------------------------------------------
 Center     Atomic      Atomic             Coordinates (Angstroms)
 Number     Number       Type             X           Y           Z
 ---------------------------------------------------------------------
      1          6           0        1.123876   -0.032479   -0.059769
      2          6           0        2.433700   -0.032479   -0.059769
      3          6           0        3.743524   -0.032479   -0.059769
      4          1           0        0.553820    0.392541   -0.896438
      5          1           0        0.553820   -0.457499    0.776900
      6          1           0        4.313580    0.805427    0.362807
      7          1           0        4.313580   -0.870385   -0.482346
 ---------------------------------------------------------------------
                    Distance matrix (angstroms):
                    1          2          3          4          5
     1  C    0.000000
     2  C    1.309824   0.000000
     3  C    2.619648   1.309824   0.000000
     4  H    1.098008   2.101097   3.324887   0.000000
     5  H    1.098008   2.101097   3.324887   1.876867   0.000000
     6  H    3.324887   2.101097   1.098008   3.986474   3.987763
     7  H    3.324887   2.101097   1.098008   3.987763   3.986474
                    6          7
     6  H    0.000000
     7  H    1.876867   0.000000
 Stoichiometry    C3H4
 Framework group  D2[O(C),C2(C.C),X(H4)]
 Deg. of freedom     4
 Full point group                 D2      NOp   4
 Largest Abelian subgroup         D2      NOp   4
 Largest concise Abelian subgroup D2      NOp   4
                         Standard orientation:                         
 ---------------------------------------------------------------------
 Center     Atomic      Atomic             Coordinates (Angstroms)
 Number     Number       Type             X           Y           Z
 ---------------------------------------------------------------------
      1          6           0       -0.000000    0.000000   -1.309824
      2          6           0        0.000000    0.000000    0.000000
      3          6           0        0.000000    0.000000    1.309824
      4          1           0       -0.662604   -0.664540   -1.879880
      5          1           0        0.662604    0.664540   -1.879880
      6          1           0        0.662604   -0.664540    1.879880
      7          1           0       -0.662604    0.664540    1.879880
 ---------------------------------------------------------------------
 Rotational constants (GHZ):         142.3525134           8.8365852           8.8349848
 Standard basis: def2SVPP (5D, 7F)
 There are    17 symmetry adapted cartesian basis functions of A   symmetry.
 There are    14 symmetry adapted cartesian basis functions of B1  symmetry.
 There are    11 symmetry adapted cartesian basis functions of B2  symmetry.
 There are    11 symmetry adapted cartesian basis functions of B3  symmetry.
 There are    15 symmetry adapted basis functions of A   symmetry.
 There are    13 symmetry adapted basis functions of B1  symmetry.
 There are    11 symmetry adapted basis functions of B2  symmetry.
 There are    11 symmetry adapted basis functions of B3  symmetry.
    50 basis functions,    91 primitive gaussians,    53 cartesian basis functions
    11 alpha electrons       11 beta electrons
       nuclear repulsion energy        58.8863217077 Hartrees.
 NAtoms=    7 NActive=    7 NUniq=    3 SFac= 4.00D+00 NAtFMM=   60 NAOKFM=F Big=F
 Integral buffers will be    131072 words long.
 Raffenetti 2 integral format.
 Two-electron integral symmetry is turned on.
 Nuclear repulsion after empirical dispersion term =       58.8804476382 Hartrees.
 One-electron integrals computed using PRISM.
   4 Symmetry operations used in ECPInt.
 ECPInt:  NShTT=     351 NPrTT=    1429 LenC2=     352 LenP2D=    1262.
 LDataN:  DoStor=T MaxTD1= 4 Len=   56
 NBasis=    50 RedAO= T EigKep=  1.54D-03  NBF=    15    13    11    11
 NBsUse=    50 1.00D-06 EigRej= -1.00D+00 NBFU=    15    13    11    11
 Initial guess from the checkpoint file:  "/home/software/g16tmp/Gau-34676.chk"
 B after Tr=    -0.000000   -0.000000   -0.000000
         Rot=    1.000000   -0.000000   -0.000000    0.000000 Ang=   0.00 deg.
 Initial guess orbital symmetries:
       Occupied  (A) (B1) (A) (A) (B1) (A) (B1) (B2) (B3) (B3)
                 (B2)
       Virtual   (B2) (B3) (A) (B1) (B3) (B2) (B1) (A) (A) (B1)
                 (B3) (B2) (A) (B2) (B3) (B1) (A) (B3) (B2) (B3)
                 (B2) (A) (B1) (B1) (A) (B2) (B3) (B1) (B1) (A)
                 (A) (B3) (B2) (A) (B1) (B1) (B2) (B3) (A)
 Keep R1 ints in memory in symmetry-blocked form, NReq=14848069.
 Requested convergence on RMS density matrix=1.00D-08 within 128 cycles.
 Requested convergence on MAX density matrix=1.00D-06.
 Requested convergence on             energy=1.00D-06.
 No special actions if energy rises.
 SCF Done:  E(RB3LYP) =  -116.570021717     A.U. after    8 cycles
            NFock=  8  Conv=0.11D-08     -V/T= 2.0117
   4 Symmetry operations used in ECPInt.
 ECPInt:  NShTT=     351 NPrTT=    1429 LenC2=     352 LenP2D=    1262.
 LDataN:  DoStor=T MaxTD1= 5 Len=  102
 Calling FoFJK, ICntrl=      2127 FMM=F ISym2X=1 I1Cent= 0 IOpClX= 0 NMat=1 NMatS=1 NMatT=0.
 ***** Axes restored to original set *****
 -------------------------------------------------------------------
 Center     Atomic                   Forces (Hartrees/Bohr)
 Number     Number              X              Y              Z
 -------------------------------------------------------------------
      1        6           0.000219524   -0.000000000    0.000000000
      2        6           0.000000000    0.000000000    0.000000000
      3        6          -0.000219524    0.000000000   -0.000000000
      4        1          -0.000465354    0.000030214   -0.000225421
      5        1          -0.000465354   -0.000030214    0.000225421
      6        1           0.000465354    0.000157823    0.000163766
      7        1           0.000465354   -0.000157823   -0.000163766
 -------------------------------------------------------------------
 Cartesian Forces:  Max     0.000465354 RMS     0.000235989

 GradGradGradGradGradGradGradGradGradGradGradGradGradGradGradGradGradGrad
 Berny optimization.
 Using GEDIIS/GDIIS optimizer.
 FormGI is forming the generalized inverse of G from B-inverse, IUseBI=4.
 Internal  Forces:  Max     0.000711185 RMS     0.000351387
 Search for a local minimum.
 Step number   4 out of a maximum of   28
 All quantities printed in internal units (Hartrees-Bohrs-Radians)
 Mixed Optimization -- En-DIIS/RFO-DIIS
 Update second derivatives using D2CorX and points    1    2    3    4
 DE= -1.39D-04 DEPred=-1.55D-04 R= 8.97D-01
 TightC=F SS=  1.41D+00  RLast= 3.70D-02 DXNew= 8.4853D-01 1.1113D-01
 Trust test= 8.97D-01 RLast= 3.70D-02 DXMaxT set to 5.05D-01
 The second derivative matrix:
                          R1        R2        R3        R4        R5
           R1           0.67056
           R2           0.00697   0.35209
           R3           0.00697  -0.00258   0.35209
           R4           0.01306   0.00697   0.00697   0.67056
           R5           0.00697  -0.00258  -0.00258   0.00697   0.35209
           R6           0.00697  -0.00258  -0.00258   0.00697  -0.00258
           A1           0.00436  -0.00152  -0.00152   0.00436  -0.00152
           A2           0.00436  -0.00152  -0.00152   0.00436  -0.00152
           A3          -0.00871   0.00304   0.00304  -0.00871   0.00304
           A4           0.00436  -0.00152  -0.00152   0.00436  -0.00152
           A5           0.00436  -0.00152  -0.00152   0.00436  -0.00152
           A6          -0.00871   0.00304   0.00304  -0.00871   0.00304
           A7           0.00000   0.00000   0.00000   0.00000   0.00000
           A8           0.00000   0.00000   0.00000   0.00000   0.00000
           D1          -0.00042   0.00012   0.00012  -0.00042   0.00012
           D2          -0.00042   0.00012   0.00012  -0.00042   0.00012
           D3          -0.00042   0.00012   0.00012  -0.00042   0.00012
           D4          -0.00042   0.00012   0.00012  -0.00042   0.00012
                          R6        A1        A2        A3        A4
           R6           0.35209
           A1          -0.00152   0.15738
           A2          -0.00152  -0.00262   0.15738
           A3           0.00304   0.00523   0.00523   0.14953
           A4          -0.00152  -0.00262  -0.00262   0.00523   0.15738
           A5          -0.00152  -0.00262  -0.00262   0.00523  -0.00262
           A6           0.00304   0.00523   0.00523  -0.01047   0.00523
           A7           0.00000  -0.00000  -0.00000   0.00000  -0.00000
           A8           0.00000   0.00000   0.00000  -0.00000   0.00000
           D1           0.00012   0.00022   0.00022  -0.00043   0.00022
           D2           0.00012   0.00022   0.00022  -0.00043   0.00022
           D3           0.00012   0.00022   0.00022  -0.00043   0.00022
           D4           0.00012   0.00022   0.00022  -0.00043   0.00022
                          A5        A6        A7        A8        D1
           A5           0.15738
           A6           0.00523   0.14953
           A7          -0.00000   0.00000   0.03342
           A8           0.00000  -0.00000  -0.00000   0.03342
           D1           0.00022  -0.00043  -0.00000  -0.00000   0.00742
           D2           0.00022  -0.00043  -0.00000  -0.00000   0.00512
           D3           0.00022  -0.00043  -0.00000  -0.00000   0.00512
           D4           0.00022  -0.00043  -0.00000  -0.00000   0.00512
                          D2        D3        D4
           D2           0.00742
           D3           0.00512   0.00742
           D4           0.00512   0.00512   0.00742
 ITU=  1  1  0  0
 Use linear search instead of GDIIS.
     Eigenvalues ---    0.00230   0.00230   0.02273   0.03342   0.03342
     Eigenvalues ---    0.12721   0.16000   0.16000   0.16000   0.34383
     Eigenvalues ---    0.35467   0.35467   0.35467   0.65751   0.68553
 RFO step:  Lambda=-4.53793643D-06 EMin= 2.30000000D-03
 Quartic linear search produced a step of -0.09737.
 Iteration  1 RMS(Cart)=  0.00237203 RMS(Int)=  0.00000225
 Iteration  2 RMS(Cart)=  0.00000240 RMS(Int)=  0.00000000
 Iteration  3 RMS(Cart)=  0.00000000 RMS(Int)=  0.00000000
 ClnCor:  largest displacement from symmetrization is 1.02D-08 for atom     5.
 Variable       Old X    -DE/DX   Delta X   Delta X   Delta X     New X
                                 (Linear)    (Quad)   (Total)
    R1        2.47521   0.00071   0.00092  -0.00005   0.00088   2.47608
    R2        2.07493   0.00043   0.00115   0.00012   0.00126   2.07620
    R3        2.07493   0.00043   0.00115   0.00012   0.00126   2.07620
    R4        2.47521   0.00071   0.00092  -0.00005   0.00088   2.47608
    R5        2.07493   0.00043   0.00115   0.00012   0.00126   2.07620
    R6        2.07493   0.00043   0.00115   0.00012   0.00126   2.07620
    A1        2.11668   0.00020   0.00015   0.00136   0.00152   2.11820
    A2        2.11668   0.00020   0.00015   0.00136   0.00152   2.11820
    A3        2.04983  -0.00040  -0.00031  -0.00273  -0.00303   2.04679
    A4        2.11668   0.00020   0.00015   0.00136   0.00152   2.11820
    A5        2.11668   0.00020   0.00015   0.00136   0.00152   2.11820
    A6        2.04983  -0.00040  -0.00031  -0.00273  -0.00303   2.04679
    A7        3.14159   0.00000   0.00000   0.00000   0.00000   3.14159
    A8        3.14159   0.00000  -0.00000  -0.00000   0.00000   3.14159
    D1        1.56788   0.00007  -0.00120   0.00415   0.00295   1.57082
    D2       -1.57371   0.00007  -0.00120   0.00415   0.00295  -1.57077
    D3       -1.57371   0.00007  -0.00120   0.00415   0.00295  -1.57077
    D4        1.56788   0.00007  -0.00120   0.00415   0.00295   1.57082
         Item               Value     Threshold  Converged?
 Maximum Force            0.000711     0.000450     NO 
 RMS     Force            0.000351     0.000300     NO 
 Maximum Displacement     0.004221     0.001800     NO 
 RMS     Displacement     0.002372     0.001200     NO 
 Predicted change in Energy=-3.883827D-06
 GradGradGradGradGradGradGradGradGradGradGradGradGradGradGradGradGradGrad

                          Input orientation:                          
 ---------------------------------------------------------------------
 Center     Atomic      Atomic             Coordinates (Angstroms)
 Number     Number       Type             X           Y           Z
 ---------------------------------------------------------------------
      1          6           0        1.123413   -0.032479   -0.059769
      2          6           0        2.433700   -0.032479   -0.059769
      3          6           0        3.743987   -0.032479   -0.059769
      4          1           0        0.551586    0.391175   -0.896801
      5          1           0        0.551586   -0.456133    0.777263
      6          1           0        4.315814    0.804541    0.363908
      7          1           0        4.315814   -0.869499   -0.483446
 ---------------------------------------------------------------------
                    Distance matrix (angstroms):
                    1          2          3          4          5
     1  C    0.000000
     2  C    1.310287   0.000000
     3  C    2.620574   1.310287   0.000000
     4  H    1.098677   2.102964   3.327391   0.000000
     5  H    1.098677   2.102964   3.327391   1.876278   0.000000
     6  H    3.327391   2.102964   1.098677   3.991199   3.991186
     7  H    3.327391   2.102964   1.098677   3.991186   3.991199
                    6          7
     6  H    0.000000
     7  H    1.876278   0.000000
 Stoichiometry    C3H4
 Framework group  D2[O(C),C2(C.C),X(H4)]
 Deg. of freedom     4
 Full point group                 D2      NOp   4
 Largest Abelian subgroup         D2      NOp   4
 Largest concise Abelian subgroup D2      NOp   4
                         Standard orientation:                         
 ---------------------------------------------------------------------
 Center     Atomic      Atomic             Coordinates (Angstroms)
 Number     Number       Type             X           Y           Z
 ---------------------------------------------------------------------
      1          6           0        0.000000   -0.000000   -1.310287
      2          6           0        0.000000    0.000000    0.000000
      3          6           0       -0.000000    0.000000    1.310287
      4          1           0       -0.663355    0.663374   -1.882114
      5          1           0        0.663355   -0.663374   -1.882114
      6          1           0       -0.663355   -0.663374    1.882114
      7          1           0        0.663355    0.663374    1.882114
 ---------------------------------------------------------------------
 Rotational constants (GHZ):         142.4418928           8.8262429           8.8262275
 Standard basis: def2SVPP (5D, 7F)
 There are    17 symmetry adapted cartesian basis functions of A   symmetry.
 There are    14 symmetry adapted cartesian basis functions of B1  symmetry.
 There are    11 symmetry adapted cartesian basis functions of B2  symmetry.
 There are    11 symmetry adapted cartesian basis functions of B3  symmetry.
 There are    15 symmetry adapted basis functions of A   symmetry.
 There are    13 symmetry adapted basis functions of B1  symmetry.
 There are    11 symmetry adapted basis functions of B2  symmetry.
 There are    11 symmetry adapted basis functions of B3  symmetry.
    50 basis functions,    91 primitive gaussians,    53 cartesian basis functions
    11 alpha electrons       11 beta electrons
       nuclear repulsion energy        58.8578222246 Hartrees.
 NAtoms=    7 NActive=    7 NUniq=    3 SFac= 4.00D+00 NAtFMM=   60 NAOKFM=F Big=F
 Integral buffers will be    131072 words long.
 Raffenetti 2 integral format.
 Two-electron integral symmetry is turned on.
 Nuclear repulsion after empirical dispersion term =       58.8519507853 Hartrees.
 One-electron integrals computed using PRISM.
   4 Symmetry operations used in ECPInt.
 ECPInt:  NShTT=     351 NPrTT=    1429 LenC2=     352 LenP2D=    1262.
 LDataN:  DoStor=T MaxTD1= 4 Len=   56
 NBasis=    50 RedAO= T EigKep=  1.55D-03  NBF=    15    13    11    11
 NBsUse=    50 1.00D-06 EigRej= -1.00D+00 NBFU=    15    13    11    11
 Initial guess from the checkpoint file:  "/home/software/g16tmp/Gau-34676.chk"
 B after Tr=    -0.000000    0.000000    0.000000
         Rot=    0.707107   -0.000000    0.000000    0.707107 Ang=  90.00 deg.
 Initial guess orbital symmetries:
       Occupied  (A) (B1) (A) (A) (B1) (A) (B1) (B3) (B2) (B2)
                 (B3)
       Virtual   (B3) (B2) (A) (B1) (B2) (B3) (B1) (A) (A) (B1)
                 (B2) (B3) (A) (B3) (B2) (B1) (A) (B2) (B3) (B2)
                 (B3) (A) (B1) (B1) (A) (B3) (B2) (B1) (B1) (A)
                 (A) (B2) (B3) (A) (B1) (B1) (B3) (B2) (A)
 Keep R1 ints in memory in symmetry-blocked form, NReq=14848069.
 Requested convergence on RMS density matrix=1.00D-08 within 128 cycles.
 Requested convergence on MAX density matrix=1.00D-06.
 Requested convergence on             energy=1.00D-06.
 No special actions if energy rises.
 SCF Done:  E(RB3LYP) =  -116.570025946     A.U. after    7 cycles
            NFock=  7  Conv=0.21D-08     -V/T= 2.0117
   4 Symmetry operations used in ECPInt.
 ECPInt:  NShTT=     351 NPrTT=    1429 LenC2=     352 LenP2D=    1262.
 LDataN:  DoStor=T MaxTD1= 5 Len=  102
 Calling FoFJK, ICntrl=      2127 FMM=F ISym2X=1 I1Cent= 0 IOpClX= 0 NMat=1 NMatS=1 NMatT=0.
 ***** Axes restored to original set *****
 -------------------------------------------------------------------
 Center     Atomic                   Forces (Hartrees/Bohr)
 Number     Number              X              Y              Z
 -------------------------------------------------------------------
      1        6           0.000134695   -0.000000000    0.000000000
      2        6           0.000000000    0.000000000   -0.000000000
      3        6          -0.000134695    0.000000000    0.000000000
      4        1          -0.000050024   -0.000014978    0.000031193
      5        1          -0.000050024    0.000014978   -0.000031193
      6        1           0.000050024   -0.000030540   -0.000016268
      7        1           0.000050024    0.000030540    0.000016268
 -------------------------------------------------------------------
 Cartesian Forces:  Max     0.000134695 RMS     0.000049321

 GradGradGradGradGradGradGradGradGradGradGradGradGradGradGradGradGradGrad
 Berny optimization.
 Using GEDIIS/GDIIS optimizer.
 FormGI is forming the generalized inverse of G from B-inverse, IUseBI=4.
 Internal  Forces:  Max     0.000084045 RMS     0.000036242
 Search for a local minimum.
 Step number   5 out of a maximum of   28
 All quantities printed in internal units (Hartrees-Bohrs-Radians)
 Mixed Optimization -- En-DIIS/RFO-DIIS
 Swapping is turned off.
 Update second derivatives using D2CorX and points    1    2    3    4    5
 DE= -4.23D-06 DEPred=-3.88D-06 R= 1.09D+00
 TightC=F SS=  1.41D+00  RLast= 8.38D-03 DXNew= 8.4853D-01 2.5140D-02
 Trust test= 1.09D+00 RLast= 8.38D-03 DXMaxT set to 5.05D-01
 The second derivative matrix:
                          R1        R2        R3        R4        R5
           R1           0.67638
           R2           0.01066   0.35413
           R3           0.01066  -0.00053   0.35413
           R4           0.01888   0.01066   0.01066   0.67638
           R5           0.01066  -0.00053  -0.00053   0.01066   0.35413
           R6           0.01066  -0.00053  -0.00053   0.01066  -0.00053
           A1           0.00450  -0.00214  -0.00214   0.00450  -0.00214
           A2           0.00450  -0.00214  -0.00214   0.00450  -0.00214
           A3          -0.00899   0.00428   0.00428  -0.00899   0.00428
           A4           0.00450  -0.00214  -0.00214   0.00450  -0.00214
           A5           0.00450  -0.00214  -0.00214   0.00450  -0.00214
           A6          -0.00899   0.00428   0.00428  -0.00899   0.00428
           A7           0.00000   0.00000   0.00000   0.00000   0.00000
           A8          -0.00000  -0.00000  -0.00000  -0.00000  -0.00000
           D1           0.00013   0.00029   0.00029   0.00013   0.00029
           D2           0.00013   0.00029   0.00029   0.00013   0.00029
           D3           0.00013   0.00029   0.00029   0.00013   0.00029
           D4           0.00013   0.00029   0.00029   0.00013   0.00029
                          R6        A1        A2        A3        A4
           R6           0.35413
           A1          -0.00214   0.15545
           A2          -0.00214  -0.00455   0.15545
           A3           0.00428   0.00910   0.00910   0.14180
           A4          -0.00214  -0.00455  -0.00455   0.00910   0.15545
           A5          -0.00214  -0.00455  -0.00455   0.00910  -0.00455
           A6           0.00428   0.00910   0.00910  -0.01820   0.00910
           A7           0.00000   0.00000   0.00000  -0.00000   0.00000
           A8          -0.00000  -0.00000  -0.00000   0.00000  -0.00000
           D1           0.00029  -0.00008  -0.00008   0.00015  -0.00008
           D2           0.00029  -0.00008  -0.00008   0.00015  -0.00008
           D3           0.00029  -0.00008  -0.00008   0.00015  -0.00008
           D4           0.00029  -0.00008  -0.00008   0.00015  -0.00008
                          A5        A6        A7        A8        D1
           A5           0.15545
           A6           0.00910   0.14180
           A7           0.00000  -0.00000   0.03342
           A8          -0.00000   0.00000   0.00000   0.03342
           D1          -0.00008   0.00015   0.00000  -0.00000   0.00741
           D2          -0.00008   0.00015   0.00000  -0.00000   0.00511
           D3          -0.00008   0.00015   0.00000  -0.00000   0.00511
           D4          -0.00008   0.00015   0.00000  -0.00000   0.00511
                          D2        D3        D4
           D2           0.00741
           D3           0.00511   0.00741
           D4           0.00511   0.00511   0.00741
 ITU=  1  1  1  0  0
     Eigenvalues ---    0.00230   0.00230   0.02273   0.03342   0.03342
     Eigenvalues ---    0.10356   0.16000   0.16000   0.16000   0.35103
     Eigenvalues ---    0.35467   0.35467   0.35467   0.65751   0.69861
 En-DIIS/RFO-DIIS/Sim-DIIS IScMMF=       -3 using points:     5    4
 RFO step:  Lambda=-2.11042462D-07.
 DidBck=F Rises=F RFO-DIIS coefs:    1.10335   -0.10335
 Iteration  1 RMS(Cart)=  0.00036684 RMS(Int)=  0.00000008
 Iteration  2 RMS(Cart)=  0.00000008 RMS(Int)=  0.00000000
 ClnCor:  largest displacement from symmetrization is 5.70D-09 for atom     5.
 Variable       Old X    -DE/DX   Delta X   Delta X   Delta X     New X
                                 (Linear)    (Quad)   (Total)
    R1        2.47608  -0.00003   0.00009  -0.00017  -0.00008   2.47600
    R2        2.07620  -0.00000   0.00013  -0.00011   0.00002   2.07622
    R3        2.07620  -0.00000   0.00013  -0.00011   0.00002   2.07622
    R4        2.47608  -0.00003   0.00009  -0.00017  -0.00008   2.47600
    R5        2.07620  -0.00000   0.00013  -0.00011   0.00002   2.07622
    R6        2.07620  -0.00000   0.00013  -0.00011   0.00002   2.07622
    A1        2.11820   0.00004   0.00016   0.00025   0.00041   2.11860
    A2        2.11820   0.00004   0.00016   0.00025   0.00041   2.11860
    A3        2.04679  -0.00008  -0.00031  -0.00050  -0.00082   2.04598
    A4        2.11820   0.00004   0.00016   0.00025   0.00041   2.11860
    A5        2.11820   0.00004   0.00016   0.00025   0.00041   2.11860
    A6        2.04679  -0.00008  -0.00031  -0.00050  -0.00082   2.04598
    A7        3.14159   0.00000   0.00000  -0.00000  -0.00000   3.14159
    A8        3.14159  -0.00000   0.00000   0.00000   0.00000   3.14159
    D1        1.57082  -0.00000   0.00030  -0.00032  -0.00001   1.57081
    D2       -1.57077  -0.00000   0.00030  -0.00032  -0.00001  -1.57078
    D3       -1.57077  -0.00000   0.00030  -0.00032  -0.00001  -1.57078
    D4        1.57082  -0.00000   0.00030  -0.00032  -0.00001   1.57081
         Item               Value     Threshold  Converged?
 Maximum Force            0.000084     0.000450     YES
 RMS     Force            0.000036     0.000300     YES
 Maximum Displacement     0.000653     0.001800     YES
 RMS     Displacement     0.000367     0.001200     YES
 Predicted change in Energy=-1.055214D-07
 Optimization completed.
    -- Stationary point found.
                           ----------------------------
                           !   Optimized Parameters   !
                           ! (Angstroms and Degrees)  !
 --------------------------                            --------------------------
 ! Name  Definition              Value          Derivative Info.                !
 --------------------------------------------------------------------------------
 ! R1    R(1,2)                  1.3103         -DE/DX =    0.0                 !
 ! R2    R(1,4)                  1.0987         -DE/DX =    0.0                 !
 ! R3    R(1,5)                  1.0987         -DE/DX =    0.0                 !
 ! R4    R(2,3)                  1.3103         -DE/DX =    0.0                 !
 ! R5    R(3,6)                  1.0987         -DE/DX =    0.0                 !
 ! R6    R(3,7)                  1.0987         -DE/DX =    0.0                 !
 ! A1    A(2,1,4)              121.3637         -DE/DX =    0.0                 !
 ! A2    A(2,1,5)              121.3637         -DE/DX =    0.0                 !
 ! A3    A(4,1,5)              117.2726         -DE/DX =   -0.0001              !
 ! A4    A(2,3,6)              121.3637         -DE/DX =    0.0                 !
 ! A5    A(2,3,7)              121.3637         -DE/DX =    0.0                 !
 ! A6    A(6,3,7)              117.2726         -DE/DX =   -0.0001              !
 ! A7    L(1,2,3,6,-1)         180.0            -DE/DX =    0.0                 !
 ! A8    L(1,2,3,6,-2)         180.0            -DE/DX =    0.0                 !
 ! D1    D(4,1,3,6)             90.0016         -DE/DX =    0.0                 !
 ! D2    D(4,1,3,7)            -89.9984         -DE/DX =    0.0                 !
 ! D3    D(5,1,3,6)            -89.9984         -DE/DX =    0.0                 !
 ! D4    D(5,1,3,7)             90.0016         -DE/DX =    0.0                 !
 --------------------------------------------------------------------------------
 GradGradGradGradGradGradGradGradGradGradGradGradGradGradGradGradGradGrad

                          Input orientation:                          
 ---------------------------------------------------------------------
 Center     Atomic      Atomic             Coordinates (Angstroms)
 Number     Number       Type             X           Y           Z
 ---------------------------------------------------------------------
      1          6           0        1.123413   -0.032479   -0.059769
      2          6           0        2.433700   -0.032479   -0.059769
      3          6           0        3.743987   -0.032479   -0.059769
      4          1           0        0.551586    0.391175   -0.896801
      5          1           0        0.551586   -0.456133    0.777263
      6          1           0        4.315814    0.804541    0.363908
      7          1           0        4.315814   -0.869499   -0.483446
 ---------------------------------------------------------------------
                    Distance matrix (angstroms):
                    1          2          3          4          5
     1  C    0.000000
     2  C    1.310287   0.000000
     3  C    2.620574   1.310287   0.000000
     4  H    1.098677   2.102964   3.327391   0.000000
     5  H    1.098677   2.102964   3.327391   1.876278   0.000000
     6  H    3.327391   2.102964   1.098677   3.991199   3.991186
     7  H    3.327391   2.102964   1.098677   3.991186   3.991199
                    6          7
     6  H    0.000000
     7  H    1.876278   0.000000
 Stoichiometry    C3H4
 Framework group  D2[O(C),C2(C.C),X(H4)]
 Deg. of freedom     4
 Full point group                 D2      NOp   4
 Largest Abelian subgroup         D2      NOp   4
 Largest concise Abelian subgroup D2      NOp   4
                         Standard orientation:                         
 ---------------------------------------------------------------------
 Center     Atomic      Atomic             Coordinates (Angstroms)
 Number     Number       Type             X           Y           Z
 ---------------------------------------------------------------------
      1          6           0       -0.000000   -0.000000   -1.310287
      2          6           0        0.000000    0.000000    0.000000
      3          6           0       -0.000000   -0.000000    1.310287
      4          1           0       -0.663355    0.663374   -1.882114
      5          1           0        0.663355   -0.663374   -1.882114
      6          1           0       -0.663355   -0.663374    1.882114
      7          1           0        0.663355    0.663374    1.882114
 ---------------------------------------------------------------------
 Rotational constants (GHZ):         142.4418928           8.8262429           8.8262275

 **********************************************************************

            Population analysis using the SCF Density.

 **********************************************************************

 Orbital symmetries:
       Occupied  (A) (B1) (A) (A) (B1) (A) (B1) (B2) (B3) (B3)
                 (B2)
       Virtual   (B2) (B3) (A) (B1) (B3) (B2) (B1) (A) (A) (B1)
                 (B3) (B2) (A) (B2) (B3) (B1) (A) (B3) (B2) (B3)
                 (B2) (A) (B1) (B1) (A) (B2) (B3) (B1) (B1) (A)
                 (A) (B3) (B2) (A) (B1) (B1) (B2) (B3) (A)
 The electronic state is 1-A.
 Alpha  occ. eigenvalues --  -10.20852 -10.19256 -10.19244  -0.78246  -0.69752
 Alpha  occ. eigenvalues --   -0.51929  -0.45576  -0.44400  -0.44400  -0.27120
 Alpha  occ. eigenvalues --   -0.27120
 Alpha virt. eigenvalues --    0.00855   0.00855   0.08369   0.09747   0.15447
 Alpha virt. eigenvalues --    0.15447   0.28693   0.29027   0.34167   0.46201
 Alpha virt. eigenvalues --    0.48189   0.48189   0.49101   0.59352   0.59352
 Alpha virt. eigenvalues --    0.65821   0.67565   0.67755   0.67755   0.77918
 Alpha virt. eigenvalues --    0.77919   0.80169   0.89439   1.04378   1.48327
 Alpha virt. eigenvalues --    1.57038   1.57039   1.60878   1.66183   1.92159
 Alpha virt. eigenvalues --    1.99421   2.04011   2.04011   2.05785   2.13681
 Alpha virt. eigenvalues --    2.41862   2.78471   2.78471   3.24883
          Condensed to atoms (all electrons):
               1          2          3          4          5          6
     1  C    5.291769   0.645438  -0.242224   0.337416   0.337416   0.002817
     2  C    0.645438   4.477637   0.645438   0.000830   0.000830   0.000830
     3  C   -0.242224   0.645438   5.291769   0.002817   0.002817   0.337416
     4  H    0.337416   0.000830   0.002817   0.566007  -0.037450  -0.000152
     5  H    0.337416   0.000830   0.002817  -0.037450   0.566007  -0.000152
     6  H    0.002817   0.000830   0.337416  -0.000152  -0.000152   0.566007
     7  H    0.002817   0.000830   0.337416  -0.000152  -0.000152  -0.037450
               7
     1  C    0.002817
     2  C    0.000830
     3  C    0.337416
     4  H   -0.000152
     5  H   -0.000152
     6  H   -0.037450
     7  H    0.566007
 Mulliken charges:
               1
     1  C   -0.375450
     2  C    0.228167
     3  C   -0.375450
     4  H    0.130683
     5  H    0.130683
     6  H    0.130683
     7  H    0.130683
 Sum of Mulliken charges =  -0.00000
 Mulliken charges with hydrogens summed into heavy atoms:
               1
     1  C   -0.114084
     2  C    0.228167
     3  C   -0.114084
 Electronic spatial extent (au):  <R**2>=            177.1097
 Charge=             -0.0000 electrons
 Dipole moment (field-independent basis, Debye):
    X=             -0.0000    Y=              0.0000    Z=             -0.0000  Tot=              0.0000
 Quadrupole moment (field-independent basis, Debye-Ang):
   XX=            -19.2144   YY=            -19.2143   ZZ=            -15.8653
   XY=              0.0000   XZ=              0.0000   YZ=             -0.0000
 Traceless Quadrupole moment (field-independent basis, Debye-Ang):
   XX=             -1.1164   YY=             -1.1163   ZZ=              2.2327
   XY=              0.0000   XZ=              0.0000   YZ=             -0.0000
 Octapole moment (field-independent basis, Debye-Ang**2):
  XXX=              0.0000  YYY=              0.0000  ZZZ=             -0.0000  XYY=              0.0000
  XXY=             -0.0000  XXZ=              0.0000  XZZ=             -0.0000  YZZ=              0.0000
  YYZ=              0.0000  XYZ=              3.1793
 Hexadecapole moment (field-independent basis, Debye-Ang**3):
 XXXX=            -28.5138 YYYY=            -28.5139 ZZZZ=           -179.1621 XXXY=              0.0000
 XXXZ=              0.0000 YYYX=              0.0000 YYYZ=             -0.0000 ZZZX=              0.0000
 ZZZY=             -0.0000 XXYY=             -8.9003 XXZZ=            -34.5488 YYZZ=            -34.5484
 XXYZ=             -0.0000 YYXZ=              0.0000 ZZXY=             -0.0000
 N-N= 5.885195078525D+01 E-N=-3.868331865211D+02  KE= 1.152202954955D+02
 Symmetry A    KE= 6.939521570353D+01
 Symmetry B1   KE= 3.754628973529D+01
 Symmetry B2   KE= 4.139396829279D+00
 Symmetry B3   KE= 4.139393227453D+00
 Unable to Open any file for archive entry.
 1\1\GINC-NODE01\FOpt\RB3LYP\def2SVPP\C3H4\XUHJ\19-Dec-2023\0\\#N opt f
 req B3LYP/def2SVPP symm=veryloose em=gd3bj scale=0.961 press=0.987\\C=
 C=C_1\\0,1\C,1.1234128063,-0.0324790909,-0.0597690909\C,2.4337,-0.0324
 790909,-0.0597690909\C,3.7439871937,-0.0324790909,-0.0597690909\H,0.55
 15862243,0.3911747417,-0.8968008151\H,0.5515862243,-0.4561329236,0.777
 2626333\H,4.3158137757,0.8045407481,0.363908223\H,4.3158137757,-0.8694
 989299,-0.4834464048\\Version=ES64L-G16RevC.01\State=1-A\HF=-116.57002
 59\RMSD=2.111e-09\RMSF=4.932e-05\Dipole=0.,0.,0.\Quadrupole=1.6599563,
 -0.8300164,-0.8299399,0.,0.,0.0000281\PG=D02 [O(C1),C2(C1.C1),X(H4)]\\
 @
 The archive entry for this job was punched.


            THE IRISH PIG
 'TWAS AN EVENING IN NOVEMBER,
 AS I VERY WELL REMEMBER
 I WAS STROLLING DOWN THE STREET IN DRUNKEN PRIDE,
 BUT MY KNEES WERE ALL A'FLUTTER
 SO I LANDED IN THE GUTTER,
 AND A PIG CAME UP AND LAY DOWN BY MY SIDE.

 YES, I LAY THERE IN THE GUTTER
 THINKING THOUGHTS I COULD NOT UTTER
 WHEN A COLLEEN PASSING BY DID SOFTLY SAY,
 'YE CAN TELL A MAN THAT BOOZES
 BY THE COMPANY THAT HE CHOOSES.' -
 AT THAT, THE PIG GOT UP AND WALKED AWAY!
     -- THE ECONOMIST, AUGUST 23, 1986
 Job cpu time:       0 days  0 hours  1 minutes 41.4 seconds.
 Elapsed time:       0 days  0 hours  0 minutes  8.1 seconds.
 File lengths (MBytes):  RWF=      6 Int=      0 D2E=      0 Chk=      1 Scr=      1
 Normal termination of Gaussian 16 at Tue Dec 19 12:51:49 2023.
 Link1:  Proceeding to internal job step number  2.
 --------------------------------------------------------------------
 #N Geom=AllCheck Guess=TCheck SCRF=Check GenChk RB3LYP/def2SVPP Freq
 --------------------------------------------------------------------
 1/10=4,29=7,30=1,38=1,40=1,113=-987000,114=961000/1,3;
 2/12=2,17=2,18=2,40=1/2;
 3/5=43,7=202,11=2,14=-4,25=1,30=1,70=2,71=2,74=-5,116=1,124=41,140=1/1,2,3;
 4/5=101/1;
 5/5=2,38=6,98=1/2;
 8/6=4,10=90,11=11/1;
 11/6=1,8=1,9=11,15=111,16=1/1,2,10;
 10/6=1/2;
 6/7=2,8=2,9=2,10=2,28=1/1;
 7/8=1,10=1,25=1/1,2,3,16;
 1/10=4,30=1/3;
 99//99;
 Structure from the checkpoint file:  "/home/software/g16tmp/Gau-34676.chk"
 -------
 C=C=C_1
 -------
 Charge =  0 Multiplicity = 1
 Redundant internal coordinates found in file.  (old form).
 C,0,1.1234128063,-0.0324790909,-0.0597690909
 C,0,2.4337,-0.0324790909,-0.0597690909
 C,0,3.7439871937,-0.0324790909,-0.0597690909
 H,0,0.5515862243,0.3911747417,-0.8968008151
 H,0,0.5515862243,-0.4561329236,0.7772626333
 H,0,4.3158137757,0.8045407481,0.363908223
 H,0,4.3158137757,-0.8694989299,-0.4834464048
 Recover connectivity data from disk.

 GradGradGradGradGradGradGradGradGradGradGradGradGradGradGradGradGradGrad
 Berny optimization.
 Initialization pass.
                           ----------------------------
                           !    Initial Parameters    !
                           ! (Angstroms and Degrees)  !
 --------------------------                            --------------------------
 ! Name  Definition              Value          Derivative Info.                !
 --------------------------------------------------------------------------------
 ! R1    R(1,2)                  1.3103         calculate D2E/DX2 analytically  !
 ! R2    R(1,4)                  1.0987         calculate D2E/DX2 analytically  !
 ! R3    R(1,5)                  1.0987         calculate D2E/DX2 analytically  !
 ! R4    R(2,3)                  1.3103         calculate D2E/DX2 analytically  !
 ! R5    R(3,6)                  1.0987         calculate D2E/DX2 analytically  !
 ! R6    R(3,7)                  1.0987         calculate D2E/DX2 analytically  !
 ! A1    A(2,1,4)              121.3637         calculate D2E/DX2 analytically  !
 ! A2    A(2,1,5)              121.3637         calculate D2E/DX2 analytically  !
 ! A3    A(4,1,5)              117.2726         calculate D2E/DX2 analytically  !
 ! A4    A(2,3,6)              121.3637         calculate D2E/DX2 analytically  !
 ! A5    A(2,3,7)              121.3637         calculate D2E/DX2 analytically  !
 ! A6    A(6,3,7)              117.2726         calculate D2E/DX2 analytically  !
 ! A7    L(1,2,3,6,-1)         180.0            calculate D2E/DX2 analytically  !
 ! A8    L(1,2,3,6,-2)         180.0            calculate D2E/DX2 analytically  !
 ! D1    D(4,1,3,6)             90.0016         calculate D2E/DX2 analytically  !
 ! D2    D(4,1,3,7)            -89.9984         calculate D2E/DX2 analytically  !
 ! D3    D(5,1,3,6)            -89.9984         calculate D2E/DX2 analytically  !
 ! D4    D(5,1,3,7)             90.0016         calculate D2E/DX2 analytically  !
 --------------------------------------------------------------------------------
 Trust Radius=3.00D-01 FncErr=1.00D-07 GrdErr=1.00D-07 EigMax=2.50D+02 EigMin=1.00D-04
 Number of steps in this run=      2 maximum allowed number of steps=      2.
 GradGradGradGradGradGradGradGradGradGradGradGradGradGradGradGradGradGrad

                          Input orientation:                          
 ---------------------------------------------------------------------
 Center     Atomic      Atomic             Coordinates (Angstroms)
 Number     Number       Type             X           Y           Z
 ---------------------------------------------------------------------
      1          6           0        1.123413   -0.032479   -0.059769
      2          6           0        2.433700   -0.032479   -0.059769
      3          6           0        3.743987   -0.032479   -0.059769
      4          1           0        0.551586    0.391175   -0.896801
      5          1           0        0.551586   -0.456133    0.777263
      6          1           0        4.315814    0.804541    0.363908
      7          1           0        4.315814   -0.869499   -0.483446
 ---------------------------------------------------------------------
                    Distance matrix (angstroms):
                    1          2          3          4          5
     1  C    0.000000
     2  C    1.310287   0.000000
     3  C    2.620574   1.310287   0.000000
     4  H    1.098677   2.102964   3.327391   0.000000
     5  H    1.098677   2.102964   3.327391   1.876278   0.000000
     6  H    3.327391   2.102964   1.098677   3.991199   3.991186
     7  H    3.327391   2.102964   1.098677   3.991186   3.991199
                    6          7
     6  H    0.000000
     7  H    1.876278   0.000000
 Stoichiometry    C3H4
 Framework group  D2D[O(C),C2(C.C),2SGD(H2)]
 Deg. of freedom     3
 Full point group                 D2D     NOp   8
 Largest Abelian subgroup         C2V     NOp   4
 Largest concise Abelian subgroup C2V     NOp   4
                         Standard orientation:                         
 ---------------------------------------------------------------------
 Center     Atomic      Atomic             Coordinates (Angstroms)
 Number     Number       Type             X           Y           Z
 ---------------------------------------------------------------------
      1          6           0       -0.000000    0.000000   -1.310287
      2          6           0        0.000000    0.000000    0.000000
      3          6           0       -0.000000    0.000000    1.310287
      4          1           0       -0.000000    0.938139   -1.882114
      5          1           0        0.000000   -0.938139   -1.882114
      6          1           0       -0.938139   -0.000000    1.882114
      7          1           0        0.938139    0.000000    1.882114
 ---------------------------------------------------------------------
 Rotational constants (GHZ):         142.4418929           8.8262352           8.8262352
 Standard basis: def2SVPP (5D, 7F)
 There are    28 symmetry adapted cartesian basis functions of A1  symmetry.
 There are     3 symmetry adapted cartesian basis functions of A2  symmetry.
 There are    11 symmetry adapted cartesian basis functions of B1  symmetry.
 There are    11 symmetry adapted cartesian basis functions of B2  symmetry.
 There are    25 symmetry adapted basis functions of A1  symmetry.
 There are     3 symmetry adapted basis functions of A2  symmetry.
 There are    11 symmetry adapted basis functions of B1  symmetry.
 There are    11 symmetry adapted basis functions of B2  symmetry.
    50 basis functions,    91 primitive gaussians,    53 cartesian basis functions
    11 alpha electrons       11 beta electrons
       nuclear repulsion energy        58.8578222288 Hartrees.
 NAtoms=    7 NActive=    7 NUniq=    3 SFac= 4.00D+00 NAtFMM=   60 NAOKFM=F Big=F
 Integral buffers will be    131072 words long.
 Raffenetti 2 integral format.
 Two-electron integral symmetry is turned on.
 Nuclear repulsion after empirical dispersion term =       58.8519507894 Hartrees.
 One-electron integrals computed using PRISM.
   8 Symmetry operations used in ECPInt.
 ECPInt:  NShTT=     351 NPrTT=    1429 LenC2=     352 LenP2D=    1262.
 LDataN:  DoStor=T MaxTD1= 4 Len=   56
 NBasis=    50 RedAO= T EigKep=  1.55D-03  NBF=    25     3    11    11
 NBsUse=    50 1.00D-06 EigRej= -1.00D+00 NBFU=    25     3    11    11
 Initial guess from the checkpoint file:  "/home/software/g16tmp/Gau-34676.chk"
 B after Tr=    -0.000000    0.000000    0.000000
         Rot=    0.923880   -0.000000    0.000000    0.382683 Ang=  45.00 deg.
 Initial guess orbital symmetries:
       Occupied  (A1) (B2) (A1) (A1) (B2) (A1) (B2) (B2) (B2) (B2)
                 (B2)
       Virtual   (B2) (B2) (A1) (B2) (B2) (B2) (B2) (A1) (A1) (B2)
                 (B2) (B2) (A1) (B2) (B2) (B2) (A1) (B2) (B2) (B2)
                 (B2) (A1) (B2) (B2) (B1) (B2) (B2) (B2) (A2) (B1)
                 (A1) (B2) (B2) (A1) (B2) (B2) (B2) (B2) (A1)
 Keep R1 ints in memory in symmetry-blocked form, NReq=14848685.
 Requested convergence on RMS density matrix=1.00D-08 within 128 cycles.
 Requested convergence on MAX density matrix=1.00D-06.
 Requested convergence on             energy=1.00D-06.
 No special actions if energy rises.
 An orbital has undefined symmetry, so N**3 symmetry is turned off.
 SCF Done:  E(RB3LYP) =  -116.570025995     A.U. after    3 cycles
            NFock=  3  Conv=0.37D-08     -V/T= 2.0117
 DoSCS=F DFT=T ScalE2(SS,OS)=  1.000000  1.000000
 Range of M.O.s used for correlation:     1    50
 NBasis=    50 NAE=    11 NBE=    11 NFC=     0 NFV=     0
 NROrb=     50 NOA=    11 NOB=    11 NVA=    39 NVB=    39

 **** Warning!!: The largest alpha MO coefficient is  0.10350258D+02

   8 Symmetry operations used in ECPInt.
 ECPInt:  NShTT=     351 NPrTT=    1429 LenC2=     352 LenP2D=    1262.
 LDataN:  DoStor=T MaxTD1= 5 Len=  102
 Symmetrizing basis deriv contribution to polar:
 IMax=3 JMax=2 DiffMx= 0.00D+00
 G2DrvN: will do     8 centers at a time, making    1 passes.
 Calling FoFCou, ICntrl=  3107 FMM=F I1Cent=   0 AccDes= 0.00D+00.
 End of G2Drv F.D. properties file   721 does not exist.
 End of G2Drv F.D. properties file   722 does not exist.
 End of G2Drv F.D. properties file   788 does not exist.
          IDoAtm=1111111
          Differentiating once with respect to electric field.
                with respect to dipole field.
          Differentiating once with respect to nuclear coordinates.
 Keep R1 ints in memory in symmetry-blocked form, NReq=14799102.
          There are    12 degrees of freedom in the 1st order CPHF.  IDoFFX=4 NUNeed=    12.
     12 vectors produced by pass  0 Test12= 3.57D-15 8.33D-09 XBig12= 7.51D+01 5.47D+00.
 AX will form    12 AO Fock derivatives at one time.
     12 vectors produced by pass  1 Test12= 3.57D-15 8.33D-09 XBig12= 1.22D+01 1.25D+00.
     12 vectors produced by pass  2 Test12= 3.57D-15 8.33D-09 XBig12= 2.90D-01 1.48D-01.
     12 vectors produced by pass  3 Test12= 3.57D-15 8.33D-09 XBig12= 1.98D-03 1.39D-02.
     12 vectors produced by pass  4 Test12= 3.57D-15 8.33D-09 XBig12= 6.13D-06 6.89D-04.
     11 vectors produced by pass  5 Test12= 3.57D-15 8.33D-09 XBig12= 4.40D-09 1.52D-05.
      4 vectors produced by pass  6 Test12= 3.57D-15 8.33D-09 XBig12= 2.62D-12 4.31D-07.
      1 vectors produced by pass  7 Test12= 3.57D-15 8.33D-09 XBig12= 1.38D-15 9.54D-09.
 InvSVY:  IOpt=1 It=  1 EMax= 1.78D-15
 Solved reduced A of dimension    76 with    12 vectors.
 Isotropic polarizability for W=    0.000000       32.41 Bohr**3.
 End of Minotr F.D. properties file   721 does not exist.
 End of Minotr F.D. properties file   722 does not exist.
 End of Minotr F.D. properties file   788 does not exist.

 **********************************************************************

            Population analysis using the SCF Density.

 **********************************************************************

 Orbital symmetries:
       Occupied  (A1) (B2) (A1) (A1) (B2) (A1) (B2) (B2) (B2) (B2)
                 (B2)
       Virtual   (B2) (B2) (A1) (B2) (B2) (B2) (B2) (A1) (A1) (B2)
                 (B2) (B2) (A1) (B2) (B2) (B2) (A1) (B2) (B2) (B2)
                 (B2) (A1) (B2) (B2) (B1) (B2) (B2) (B2) (A2) (B1)
                 (A1) (B2) (B2) (A1) (B2) (B2) (B2) (B2) (A1)
 Unable to determine electronic state:  partially filled degenerate orbitals.
 Alpha  occ. eigenvalues --  -10.20852 -10.19256 -10.19244  -0.78246  -0.69752
 Alpha  occ. eigenvalues --   -0.51929  -0.45576  -0.44400  -0.44400  -0.27120
 Alpha  occ. eigenvalues --   -0.27120
 Alpha virt. eigenvalues --    0.00855   0.00855   0.08369   0.09747   0.15447
 Alpha virt. eigenvalues --    0.15447   0.28693   0.29027   0.34167   0.46201
 Alpha virt. eigenvalues --    0.48189   0.48189   0.49101   0.59352   0.59352
 Alpha virt. eigenvalues --    0.65821   0.67565   0.67755   0.67755   0.77919
 Alpha virt. eigenvalues --    0.77919   0.80169   0.89439   1.04378   1.48327
 Alpha virt. eigenvalues --    1.57039   1.57039   1.60878   1.66183   1.92159
 Alpha virt. eigenvalues --    1.99421   2.04011   2.04011   2.05785   2.13681
 Alpha virt. eigenvalues --    2.41862   2.78471   2.78471   3.24883
          Condensed to atoms (all electrons):
               1          2          3          4          5          6
     1  C    5.291770   0.645438  -0.242224   0.337416   0.337416   0.002817
     2  C    0.645438   4.477634   0.645438   0.000830   0.000830   0.000830
     3  C   -0.242224   0.645438   5.291770   0.002817   0.002817   0.337416
     4  H    0.337416   0.000830   0.002817   0.566007  -0.037450  -0.000152
     5  H    0.337416   0.000830   0.002817  -0.037450   0.566007  -0.000152
     6  H    0.002817   0.000830   0.337416  -0.000152  -0.000152   0.566007
     7  H    0.002817   0.000830   0.337416  -0.000152  -0.000152  -0.037450
               7
     1  C    0.002817
     2  C    0.000830
     3  C    0.337416
     4  H   -0.000152
     5  H   -0.000152
     6  H   -0.037450
     7  H    0.566007
 Mulliken charges:
               1
     1  C   -0.375451
     2  C    0.228169
     3  C   -0.375451
     4  H    0.130683
     5  H    0.130683
     6  H    0.130683
     7  H    0.130683
 Sum of Mulliken charges =  -0.00000
 Mulliken charges with hydrogens summed into heavy atoms:
               1
     1  C   -0.114085
     2  C    0.228169
     3  C   -0.114085
 APT charges:
               1
     1  C   -0.194033
     2  C    0.173245
     3  C   -0.194033
     4  H    0.053705
     5  H    0.053705
     6  H    0.053705
     7  H    0.053705
 Sum of APT charges =   0.00000
 APT charges with hydrogens summed into heavy atoms:
               1
     1  C   -0.086623
     2  C    0.173245
     3  C   -0.086623
 Electronic spatial extent (au):  <R**2>=            177.1097
 Charge=             -0.0000 electrons
 Dipole moment (field-independent basis, Debye):
    X=             -0.0000    Y=              0.0000    Z=              0.0000  Tot=              0.0000
 Quadrupole moment (field-independent basis, Debye-Ang):
   XX=            -19.2144   YY=            -19.2144   ZZ=            -15.8653
   XY=              0.0000   XZ=             -0.0000   YZ=             -0.0000
 Traceless Quadrupole moment (field-independent basis, Debye-Ang):
   XX=             -1.1163   YY=             -1.1163   ZZ=              2.2327
   XY=              0.0000   XZ=             -0.0000   YZ=             -0.0000
 Octapole moment (field-independent basis, Debye-Ang**2):
  XXX=              0.0000  YYY=             -0.0000  ZZZ=              0.0000  XYY=              0.0000
  XXY=             -0.0000  XXZ=              3.1793  XZZ=             -0.0000  YZZ=              0.0000
  YYZ=             -3.1793  XYZ=              0.0000
 Hexadecapole moment (field-independent basis, Debye-Ang**3):
 XXXX=            -27.6074 YYYY=            -27.6074 ZZZZ=           -179.1621 XXXY=             -0.0000
 XXXZ=              0.0000 YYYX=             -0.0000 YYYZ=             -0.0000 ZZZX=              0.0000
 ZZZY=             -0.0000 XXYY=             -9.8068 XXZZ=            -34.5486 YYZZ=            -34.5486
 XXYZ=             -0.0000 YYXZ=              0.0000 ZZXY=              0.0000
 N-N= 5.885195078940D+01 E-N=-3.868331870064D+02  KE= 1.152202960337D+02
 Symmetry A1   KE= 1.069415056553D+02
 Symmetry A2   KE= 2.110676213661D-30
 Symmetry B1   KE= 4.139395189198D+00
 Symmetry B2   KE= 4.139395189198D+00
  Exact polarizability:      19.317       0.000      19.317      -0.000      -0.000      58.588
 Approx polarizability:      24.485       0.000      24.485      -0.000      -0.000      94.403
   8 Symmetry operations used in ECPInt.
 ECPInt:  NShTT=     351 NPrTT=    1429 LenC2=     352 LenP2D=    1262.
 LDataN:  DoStor=T MaxTD1= 6 Len=  172
 Calling FoFJK, ICntrl=    100127 FMM=F ISym2X=1 I1Cent= 0 IOpClX= 0 NMat=1 NMatS=1 NMatT=0.
 Full mass-weighted force constant matrix:
 Low frequencies ---   -0.0010   -0.0006    0.0002    2.8827    2.8827   21.9619
 Low frequencies ---  372.3671  372.3671  860.2486
 Diagonal vibrational polarizability:
        2.9573189       2.9573189       0.4441002
 Harmonic frequencies (cm**-1), IR intensities (KM/Mole), Raman scattering
 activities (A**4/AMU), depolarization ratios for plane and unpolarized
 incident light, reduced masses (AMU), force constants (mDyne/A),
 and normal coordinates:
                      1                      2                      3
                      E                      E                      E
 Frequencies --    372.3671               372.3671               860.2486
 Red. masses --      2.4724                 2.4724                 1.3100
 Frc consts  --      0.2020                 0.2020                 0.5712
 IR Inten    --      5.0248                 5.0248                54.4246
  Atom  AN      X      Y      Z        X      Y      Z        X      Y      Z
     1   6    -0.14   0.00   0.00    -0.00  -0.07   0.00    -0.16   0.00   0.00
     2   6     0.33  -0.00  -0.00     0.00   0.33  -0.00     0.03   0.00   0.00
     3   6    -0.07   0.00   0.00    -0.00  -0.14  -0.00     0.01  -0.00  -0.00
     4   1    -0.31   0.00   0.00    -0.00  -0.36  -0.46     0.70  -0.00  -0.00
     5   1    -0.31   0.00  -0.00    -0.00  -0.36   0.46     0.70  -0.00   0.00
     6   1    -0.36   0.00  -0.46    -0.00  -0.31  -0.00    -0.01   0.00  -0.03
     7   1    -0.36   0.00   0.46    -0.00  -0.31   0.00    -0.01   0.00   0.03
                      4                      5                      6
                      E                     A2                      E
 Frequencies --    860.2486               872.8207              1010.8589
 Red. masses --      1.3100                 1.0078                 1.5379
 Frc consts  --      0.5712                 0.4524                 0.9259
 IR Inten    --     54.4246                 0.0000                 0.0379
  Atom  AN      X      Y      Z        X      Y      Z        X      Y      Z
     1   6     0.00   0.01   0.00     0.00  -0.00  -0.00    -0.02  -0.00  -0.00
     2   6    -0.00   0.03  -0.00    -0.00  -0.00   0.00     0.15   0.00  -0.00
     3   6    -0.00  -0.16  -0.00    -0.00   0.00   0.00    -0.16  -0.00   0.00
     4   1    -0.00  -0.01  -0.03     0.50   0.00   0.00    -0.02   0.00   0.01
     5   1    -0.00  -0.01   0.03    -0.50   0.00  -0.00    -0.02   0.00  -0.01
     6   1     0.00   0.70   0.00     0.00  -0.50   0.00     0.24  -0.00   0.65
     7   1     0.00   0.70  -0.00     0.00   0.50  -0.00     0.24  -0.00  -0.65
                      7                      8                      9
                      E                     B2                     ?A
 Frequencies --   1010.8589              1112.3820              1408.8031
 Red. masses --      1.5379                 2.2378                 1.0802
 Frc consts  --      0.9259                 1.6315                 1.2631
 IR Inten    --      0.0379                 0.0000                 2.6506
  Atom  AN      X      Y      Z        X      Y      Z        X      Y      Z
     1   6     0.00  -0.16   0.00     0.00   0.00   0.24     0.00   0.00  -0.05
     2   6    -0.00   0.15   0.00     0.00  -0.00   0.00    -0.00  -0.00  -0.05
     3   6     0.00  -0.02  -0.00    -0.00   0.00  -0.24     0.00   0.00  -0.05
     4   1     0.00   0.24   0.65    -0.00   0.11   0.46    -0.00   0.27   0.42
     5   1     0.00   0.24  -0.65    -0.00  -0.11   0.46    -0.00  -0.27   0.42
     6   1    -0.00  -0.02  -0.01    -0.11  -0.00  -0.46     0.27  -0.00   0.42
     7   1    -0.00  -0.02   0.01     0.11  -0.00  -0.46    -0.27  -0.00   0.42
                     10                     11                     12
                     B2                     ?A                     ?A
 Frequencies --   1477.0421              2071.4147              3112.9089
 Red. masses --      1.4775                 9.3757                 1.0595
 Frc consts  --      1.8992                23.7022                 6.0490
 IR Inten    --      0.0000                64.2914                 1.7758
  Atom  AN      X      Y      Z        X      Y      Z        X      Y      Z
     1   6     0.00   0.00   0.15    -0.00   0.00  -0.34    -0.00   0.00   0.05
     2   6    -0.00  -0.00   0.00     0.00   0.00   0.72    -0.00   0.00  -0.01
     3   6     0.00   0.00  -0.15    -0.00  -0.00  -0.34    -0.00   0.00   0.05
     4   1    -0.00  -0.32  -0.37    -0.00   0.22  -0.11     0.00   0.43  -0.25
     5   1    -0.00   0.32  -0.37    -0.00  -0.22  -0.11     0.00  -0.43  -0.25
     6   1     0.32  -0.00   0.37     0.22   0.00  -0.11     0.43  -0.00  -0.25
     7   1    -0.32  -0.00   0.37    -0.22   0.00  -0.11    -0.43  -0.00  -0.25
                     13                     14                     15
                     B2                      E                      E
 Frequencies --   3116.8672              3185.1964              3185.1964
 Red. masses --      1.0592                 1.1166                 1.1166
 Frc consts  --      6.0625                 6.6744                 6.6744
 IR Inten    --      0.0000                 0.7235                 0.7235
  Atom  AN      X      Y      Z        X      Y      Z        X      Y      Z
     1   6    -0.00   0.00   0.05    -0.00  -0.00   0.00     0.00  -0.10   0.00
     2   6     0.00   0.00   0.00    -0.00  -0.00   0.00     0.00  -0.00  -0.00
     3   6     0.00  -0.00  -0.05    -0.10  -0.00  -0.00     0.00  -0.00  -0.00
     4   1    -0.00   0.43  -0.25    -0.00   0.00  -0.00     0.00   0.60  -0.37
     5   1    -0.00  -0.43  -0.25    -0.00   0.00   0.00     0.00   0.60   0.37
     6   1    -0.43  -0.00   0.25     0.60  -0.00  -0.37    -0.00  -0.00   0.00
     7   1     0.43  -0.00   0.25     0.60  -0.00   0.37    -0.00  -0.00  -0.00

 -------------------
 - Thermochemistry -
 -------------------
 Temperature   298.150 Kelvin.  Pressure   0.98700 Atm.
 Thermochemistry will use frequencies scaled by 0.9610.
 Atom     1 has atomic number  6 and mass  12.00000
 Atom     2 has atomic number  6 and mass  12.00000
 Atom     3 has atomic number  6 and mass  12.00000
 Atom     4 has atomic number  1 and mass   1.00783
 Atom     5 has atomic number  1 and mass   1.00783
 Atom     6 has atomic number  1 and mass   1.00783
 Atom     7 has atomic number  1 and mass   1.00783
 Molecular mass:    40.03130 amu.
 Principal axes and moments of inertia in atomic units:
                           1         2         3
     Eigenvalues --    12.67002 204.47463 204.47463
           X           -0.00000   0.79072  -0.61218
           Y            0.00000   0.61218   0.79072
           Z            1.00000   0.00000  -0.00000
 This molecule is a prolate symmetric top.
 Rotational symmetry number  4.
 Rotational temperatures (Kelvin)      6.83613     0.42359     0.42359
 Rotational constants (GHZ):         142.44189     8.82624     8.82624
 Zero-point vibrational energy     138123.4 (Joules/Mol)
                                   33.01228 (Kcal/Mol)
 Warning -- explicit consideration of   2 degrees of freedom as
           vibrations may cause significant error
 Vibrational temperatures:    514.86   514.86  1189.44  1189.44  1206.82
          (Kelvin)           1397.68  1397.68  1538.05  1947.90  2042.25
                             2864.07  4304.11  4309.58  4404.06  4404.06
 
 Zero-point correction=                           0.052608 (Hartree/Particle)
 Thermal correction to Energy=                    0.056483
 Thermal correction to Enthalpy=                  0.057427
 Thermal correction to Gibbs Free Energy=         0.029730
 Sum of electronic and zero-point Energies=           -116.517418
 Sum of electronic and thermal Energies=              -116.513543
 Sum of electronic and thermal Enthalpies=            -116.512599
 Sum of electronic and thermal Free Energies=         -116.540296
 
                     E (Thermal)             CV                S
                      KCal/Mol        Cal/Mol-Kelvin    Cal/Mol-Kelvin
 Total                   35.444             12.247             58.294
 Electronic               0.000              0.000              0.000
 Translational            0.889              2.981             37.015
 Rotational               0.889              2.981             18.144
 Vibrational             33.666              6.285              3.135
 Vibration     1          0.733              1.559              1.131
 Vibration     2          0.733              1.559              1.131
                       Q            Log10(Q)             Ln(Q)
 Total Bot       0.211354D-13        -13.674989        -31.487826
 Total V=0       0.333567D+11         10.523183         24.230524
 Vib (Bot)       0.101733D-23        -23.992539        -55.244863
 Vib (Bot)    1  0.512940D+00         -0.289934         -0.667597
 Vib (Bot)    2  0.512940D+00         -0.289934         -0.667597
 Vib (V=0)       0.160558D+01          0.205633          0.473487
 Vib (V=0)    1  0.121632D+01          0.085046          0.195826
 Vib (V=0)    2  0.121632D+01          0.085046          0.195826
 Electronic      0.100000D+01          0.000000          0.000000
 Translational   0.100864D+08          7.003736         16.126699
 Rotational      0.205975D+04          3.313814          7.630338
 ***** Axes restored to original set *****
 -------------------------------------------------------------------
 Center     Atomic                   Forces (Hartrees/Bohr)
 Number     Number              X              Y              Z
 -------------------------------------------------------------------
      1        6           0.000135070    0.000000000   -0.000000000
      2        6           0.000000000   -0.000000000    0.000000000
      3        6          -0.000135070   -0.000000000   -0.000000000
      4        1          -0.000050165   -0.000015658    0.000030935
      5        1          -0.000050165    0.000015658   -0.000030935
      6        1           0.000050165   -0.000030935   -0.000015658
      7        1           0.000050165    0.000030935    0.000015658
 -------------------------------------------------------------------
 Cartesian Forces:  Max     0.000135070 RMS     0.000049455
 FormGI is forming the generalized inverse of G from B-inverse, IUseBI=4.

 GradGradGradGradGradGradGradGradGradGradGradGradGradGradGradGradGradGrad
 Berny optimization.
 Internal  Forces:  Max     0.000084267 RMS     0.000036336
 Search for a local minimum.
 Step number   1 out of a maximum of    2
 All quantities printed in internal units (Hartrees-Bohrs-Radians)
 Second derivative matrix not updated -- analytic derivatives used.
 The second derivative matrix:
                          R1        R2        R3        R4        R5
           R1           0.68858
           R2           0.01044   0.35030
           R3           0.01044   0.00368   0.35030
           R4           0.01936  -0.00322  -0.00322   0.68858
           R5          -0.00322  -0.00003  -0.00003   0.01044   0.35030
           R6          -0.00322  -0.00003  -0.00003   0.01044   0.00368
           A1           0.01199   0.00556  -0.01120  -0.00025  -0.00003
           A2           0.01199  -0.01120   0.00556  -0.00025  -0.00003
           A3          -0.02399   0.00564   0.00564   0.00049   0.00005
           A4          -0.00025  -0.00003  -0.00003   0.01199   0.00556
           A5          -0.00025  -0.00003  -0.00003   0.01199  -0.01120
           A6           0.00049   0.00005   0.00005  -0.02399   0.00564
           A7           0.00000   0.00000   0.00000  -0.00000  -0.00103
           A8          -0.00000   0.00046  -0.00046   0.00000   0.00000
           D1          -0.00000  -0.00016   0.00016   0.00000  -0.00016
           D2           0.00000   0.00016  -0.00016  -0.00000  -0.00016
           D3          -0.00000  -0.00016   0.00016   0.00000   0.00016
           D4           0.00000   0.00016  -0.00016  -0.00000   0.00016
                          R6        A1        A2        A3        A4
           R6           0.35030
           A1          -0.00003   0.07062
           A2          -0.00003  -0.03699   0.07062
           A3           0.00005  -0.03363  -0.03363   0.06725
           A4          -0.01120  -0.00000  -0.00000   0.00001   0.07062
           A5           0.00556  -0.00000  -0.00000   0.00001  -0.03699
           A6           0.00564   0.00001   0.00001  -0.00002  -0.03363
           A7           0.00103  -0.00000  -0.00000   0.00000  -0.01047
           A8           0.00000   0.00467  -0.00467   0.00000   0.00000
           D1           0.00016  -0.00087   0.00087   0.00000  -0.00087
           D2           0.00016   0.00087  -0.00087  -0.00000  -0.00087
           D3          -0.00016  -0.00087   0.00087   0.00000   0.00087
           D4          -0.00016   0.00087  -0.00087  -0.00000   0.00087
                          A5        A6        A7        A8        D1
           A5           0.07062
           A6          -0.03363   0.06725
           A7           0.01047   0.00000   0.09990
           A8           0.00000  -0.00000   0.00000   0.01988
           D1           0.00087  -0.00000  -0.00370   0.00165   0.02261
           D2           0.00087   0.00000  -0.00370  -0.00165   0.00570
           D3          -0.00087  -0.00000   0.00370   0.00165   0.00570
           D4          -0.00087   0.00000   0.00370  -0.00165  -0.01121
                          D2        D3        D4
           D2           0.02261
           D3          -0.01121   0.02261
           D4           0.00570   0.00570   0.02261
 ITU=  0
     Eigenvalues ---    0.01859   0.02281   0.03277   0.03455   0.08908
     Eigenvalues ---    0.09889   0.09907   0.10699   0.11827   0.34780
     Eigenvalues ---    0.34782   0.35337   0.35408   0.67191   0.70957
 Angle between quadratic step and forces=  14.06 degrees.
 Linear search not attempted -- first point.
 Iteration  1 RMS(Cart)=  0.00038461 RMS(Int)=  0.00000009
 Iteration  2 RMS(Cart)=  0.00000009 RMS(Int)=  0.00000000
 ClnCor:  largest displacement from symmetrization is 2.13D-09 for atom     5.
 Variable       Old X    -DE/DX   Delta X   Delta X   Delta X     New X
                                 (Linear)    (Quad)   (Total)
    R1        2.47608  -0.00003   0.00000  -0.00009  -0.00009   2.47599
    R2        2.07620  -0.00000   0.00000   0.00001   0.00001   2.07621
    R3        2.07620  -0.00000   0.00000   0.00001   0.00001   2.07621
    R4        2.47608  -0.00003   0.00000  -0.00009  -0.00009   2.47599
    R5        2.07620  -0.00000   0.00000   0.00001   0.00001   2.07621
    R6        2.07620  -0.00000   0.00000   0.00001   0.00001   2.07621
    A1        2.11820   0.00004   0.00000   0.00043   0.00043   2.11863
    A2        2.11820   0.00004   0.00000   0.00043   0.00043   2.11863
    A3        2.04679  -0.00008   0.00000  -0.00086  -0.00086   2.04594
    A4        2.11820   0.00004   0.00000   0.00043   0.00043   2.11863
    A5        2.11820   0.00004   0.00000   0.00043   0.00043   2.11863
    A6        2.04679  -0.00008   0.00000  -0.00086  -0.00086   2.04594
    A7        3.14159  -0.00000   0.00000   0.00000   0.00000   3.14159
    A8        3.14159   0.00000   0.00000   0.00000   0.00000   3.14159
    D1        1.57080   0.00000   0.00000  -0.00000   0.00000   1.57080
    D2       -1.57080   0.00000   0.00000   0.00000   0.00000  -1.57080
    D3       -1.57080   0.00000   0.00000  -0.00000   0.00000  -1.57080
    D4        1.57080   0.00000   0.00000   0.00000   0.00000   1.57080
         Item               Value     Threshold  Converged?
 Maximum Force            0.000084     0.000450     YES
 RMS     Force            0.000036     0.000300     YES
 Maximum Displacement     0.000675     0.001800     YES
 RMS     Displacement     0.000385     0.001200     YES
 Predicted change in Energy=-1.116157D-07
 Optimization completed.
    -- Stationary point found.
                           ----------------------------
                           !   Optimized Parameters   !
                           ! (Angstroms and Degrees)  !
 --------------------------                            --------------------------
 ! Name  Definition              Value          Derivative Info.                !
 --------------------------------------------------------------------------------
 ! R1    R(1,2)                  1.3103         -DE/DX =    0.0                 !
 ! R2    R(1,4)                  1.0987         -DE/DX =    0.0                 !
 ! R3    R(1,5)                  1.0987         -DE/DX =    0.0                 !
 ! R4    R(2,3)                  1.3103         -DE/DX =    0.0                 !
 ! R5    R(3,6)                  1.0987         -DE/DX =    0.0                 !
 ! R6    R(3,7)                  1.0987         -DE/DX =    0.0                 !
 ! A1    A(2,1,4)              121.3637         -DE/DX =    0.0                 !
 ! A2    A(2,1,5)              121.3637         -DE/DX =    0.0                 !
 ! A3    A(4,1,5)              117.2726         -DE/DX =   -0.0001              !
 ! A4    A(2,3,6)              121.3637         -DE/DX =    0.0                 !
 ! A5    A(2,3,7)              121.3637         -DE/DX =    0.0                 !
 ! A6    A(6,3,7)              117.2726         -DE/DX =   -0.0001              !
 ! A7    L(1,2,3,6,-1)         180.0            -DE/DX =    0.0                 !
 ! A8    L(1,2,3,6,-2)         180.0            -DE/DX =    0.0                 !
 ! D1    D(4,1,3,6)             90.0            -DE/DX =    0.0                 !
 ! D2    D(4,1,3,7)            -90.0            -DE/DX =    0.0                 !
 ! D3    D(5,1,3,6)            -90.0            -DE/DX =    0.0                 !
 ! D4    D(5,1,3,7)             90.0            -DE/DX =    0.0                 !
 --------------------------------------------------------------------------------
 GradGradGradGradGradGradGradGradGradGradGradGradGradGradGradGradGradGrad

 Dipole is zero, so no output in dipole orientation.

 ----------------------------------------------------------------------

 Electric dipole moment (input orientation):
 (Debye = 10**-18 statcoulomb cm , SI units = C m)
                  (au)            (Debye)         (10**-30 SI)
   Tot        0.000000D+00      0.000000D+00      0.000000D+00
   x          0.000000D+00      0.000000D+00      0.000000D+00
   y          0.000000D+00      0.000000D+00      0.000000D+00
   z          0.000000D+00      0.000000D+00      0.000000D+00

 Dipole polarizability, Alpha (input orientation).
 (esu units = cm**3 , SI units = C**2 m**2 J**-1)
 Alpha(0;0):
               (au)            (10**-24 esu)      (10**-40 SI)
   iso        0.324076D+02      0.480231D+01      0.534330D+01
   aniso      0.392709D+02      0.581935D+01      0.647489D+01
   xx         0.585882D+02      0.868188D+01      0.965989D+01
   yx         0.000000D+00      0.000000D+00      0.000000D+00
   yy         0.193173D+02      0.286253D+01      0.318500D+01
   zx         0.000000D+00      0.000000D+00      0.000000D+00
   zy         0.000000D+00      0.000000D+00      0.000000D+00
   zz         0.193173D+02      0.286253D+01      0.318500D+01

 ----------------------------------------------------------------------
 Unable to Open any file for archive entry.
 1\1\GINC-NODE01\Freq\RB3LYP\def2SVPP\C3H4\XUHJ\19-Dec-2023\0\\#N Geom=
 AllCheck Guess=TCheck SCRF=Check GenChk RB3LYP/def2SVPP Freq\\C=C=C_1\
 \0,1\C,1.1234128063,-0.0324790909,-0.0597690909\C,2.4337,-0.0324790909
 ,-0.0597690909\C,3.7439871937,-0.0324790909,-0.0597690909\H,0.55158622
 43,0.3911982228,-0.8967889296\H,0.5515862243,-0.4561564046,0.777250747
 8\H,4.3158137757,0.8045407478,0.3639082228\H,4.3158137757,-0.869498929
 6,-0.4834464046\\Version=ES64L-G16RevC.01\HF=-116.570026\RMSD=3.738e-0
 9\RMSF=4.946e-05\ZeroPoint=0.0526084\Thermal=0.0564833\ETot=-116.51354
 27\HTot=-116.5125985\GTot=-116.5402957\Dipole=0.,0.,0.\DipoleDeriv=-0.
 3497905,0.,0.,0.,-0.2395654,-0.1679702,0.,-0.1679702,0.0072557,0.69313
 07,0.,0.,0.,-0.0866973,0.,0.,0.,-0.0866973,-0.3497905,0.,0.,0.,0.00725
 56,0.1679702,0.,0.1679702,-0.2395654,0.0016125,0.012208,-0.0241182,0.0
 227255,0.1266987,0.063898,-0.0448967,0.063898,0.0328048,0.0016125,-0.0
 12208,0.0241182,-0.0227255,0.1266987,0.063898,0.0448967,0.063898,0.032
 8048,0.0016125,-0.0241182,-0.012208,-0.0448967,0.0328048,-0.063898,-0.
 0227255,-0.063898,0.1266987,0.0016125,0.0241182,0.012208,0.0448967,0.0
 328048,-0.063898,0.0227255,-0.063898,0.1266987\Polar=58.5882188,0.,19.
 3173303,0.,0.,19.3173303\Quadrupole=1.6599522,-0.8299761,-0.8299761,0.
 ,0.,0.\PG=D02D [O(C1),C2(C1.C1),2SGD(H2)]\NImag=0\\0.88738564,0.,0.190
 19170,0.,-0.20112258,0.48572794,-0.62479660,0.,0.,1.33843777,0.,-0.052
 02161,0.01916023,0.,0.11397381,0.,0.01916023,-0.08017629,0.,0.,0.11397
 381,-0.02708705,0.,0.,-0.62479660,0.,0.,0.88738564,0.,0.01066115,0.,0.
 ,-0.08017629,-0.01916023,0.,0.48572794,0.,0.,0.01066115,0.,-0.01916023
 ,-0.05202161,0.,0.20112258,0.19019170,-0.11963377,0.05559336,-0.109830
 63,-0.02221114,0.01142813,-0.02257750,0.00188278,-0.00033845,0.0006686
 5,0.12958434,0.05532314,-0.07485056,0.09278184,0.00110955,0.00339039,-
 0.00158650,-0.00113635,0.00308090,0.00180067,-0.06075550,0.06906512,-0
 .10929678,0.09278184,-0.21118730,-0.00219203,-0.00158650,0.00572165,0.
 00224499,0.00180067,0.00043494,0.12002898,-0.10085195,0.21726034,-0.11
 963377,-0.05559336,0.10983063,-0.02221114,-0.01142813,0.02257750,0.001
 88278,0.00033845,-0.00066865,0.01028159,0.00548107,-0.01082844,0.12958
 434,-0.05532314,-0.07485056,0.09278184,-0.00110955,0.00339039,-0.00158
 650,0.00113635,0.00308090,0.00180067,-0.00548107,-0.00049683,0.0078559
 4,0.06075550,0.06906512,0.10929678,0.09278184,-0.21118730,0.00219203,-
 0.00158650,0.00572165,-0.00224499,0.00180067,0.00043494,0.01082844,0.0
 0785594,-0.01204062,-0.12002898,-0.10085195,0.21726034,0.00188278,0.00
 066865,0.00033845,-0.02221114,-0.02257750,-0.01142813,-0.11963377,-0.1
 0983063,-0.05559336,0.00004810,0.00043008,0.00024488,0.00004810,0.0004
 5198,0.00020160,0.12958434,0.00224499,0.00043494,-0.00180067,-0.002192
 03,0.00572165,0.00158650,-0.10929678,-0.21118730,-0.09278184,-0.000201
 60,0.00283542,0.00147085,0.00024488,-0.00302444,-0.00147085,0.12002898
 ,0.21726034,0.00113635,-0.00180067,0.00308090,-0.00110955,0.00158650,0
 .00339039,-0.05532314,-0.09278184,-0.07485056,0.00045198,-0.00577619,-
 0.00302444,-0.00043008,0.00577619,0.00283542,0.06075550,0.10085195,0.0
 6906512,0.00188278,-0.00066865,-0.00033845,-0.02221114,0.02257750,0.01
 142813,-0.11963377,0.10983063,0.05559336,0.00004810,-0.00045198,-0.000
 20160,0.00004810,-0.00043008,-0.00024488,0.01028159,-0.01082844,-0.005
 48107,0.12958434,-0.00224499,0.00043494,-0.00180067,0.00219203,0.00572
 165,0.00158650,0.10929678,-0.21118730,-0.09278184,-0.00024488,-0.00302
 444,-0.00147085,0.00020160,0.00283542,0.00147085,0.01082844,-0.0120406
 2,-0.00785594,-0.12002898,0.21726034,-0.00113635,-0.00180067,0.0030809
 0,0.00110955,0.00158650,0.00339039,0.05532314,-0.09278184,-0.07485056,
 0.00043008,0.00577619,0.00283542,-0.00045198,-0.00577619,-0.00302444,0
 .00548107,-0.00785594,-0.00049683,-0.06075550,0.10085195,0.06906512\\-
 0.00013507,0.,0.,0.,0.,0.,0.00013507,0.,0.,0.00005017,0.00001566,-0.00
 003093,0.00005017,-0.00001566,0.00003093,-0.00005017,0.00003093,0.0000
 1566,-0.00005017,-0.00003093,-0.00001566\\\@
 The archive entry for this job was punched.


 LET US LEARN TO DREAM, GENTLEMEN, THEN PERHAPS WE SHALL
 DISCOVER THE TRUTH;  BUT LET US BEWARE OF PUBLISHING
 OUR DREAMS ABROAD BEFORE THEY HAVE BEEN SCRUTINIZED
 BY OUR VIGILANT INTELLECT ... LET US ALWAYS ALLOW
 THE FRUIT TO HANG UNTIL IT IS RIPE.  UNRIPE FRUIT
 BRINGS EVEN THE GROWER BUT LITTLE PROFIT; IT DAMAGES
 THE HEALTH OF THOSE WHO CONSUME IT; IT ENDANGERS
 PARTICULARLY THE YOUTH WHO CANNOT YET DISTINGUISH
 BETWEEN RIPE AND UNRIPE FRUIT.

                                  -- KEKULE, 1890
 Job cpu time:       0 days  0 hours  0 minutes 45.8 seconds.
 Elapsed time:       0 days  0 hours  0 minutes  3.4 seconds.
 File lengths (MBytes):  RWF=      6 Int=      0 D2E=      0 Chk=      1 Scr=      1
 Normal termination of Gaussian 16 at Tue Dec 19 12:51:53 2023.
