%nprocshared=8
%mem=10400MB
#N opt freq B3LYP/def2SVPP symm=veryloose em=gd3bj scale=0.961 press=0.987

c1ccc2cc3c(cc2c1)c1ccccc1c1ccc2ccccc2c13_2

0 1
C          5.46450       -0.26030        0.39630
C          5.01630       -1.53830        0.71200
C          3.64670       -1.79980        0.76220
C          2.70980       -0.78570        0.49200
C          1.32550       -1.01940        0.52030
C          0.33520       -0.04380        0.21590
C          0.79400        1.28600        0.03030
C          2.20270        1.50480       -0.02300
C          3.15870        0.49910        0.18770
C          4.54160        0.75410        0.13840
C         -0.15120        2.35550       -0.06150
C          0.23400        3.71080       -0.28060
C         -0.67260        4.76870       -0.31220
C         -2.01070        4.50940       -0.12460
C         -2.42520        3.19440        0.08210
C         -1.53060        2.08410        0.11700
C         -1.98020        0.72960        0.28640
C         -3.33460        0.43000        0.56520
C         -3.82920       -0.86690        0.63900
C         -3.01100       -1.93810        0.33000
C         -3.57290       -3.22730        0.28270
C         -2.82230       -4.32160       -0.12880
C         -1.51280       -4.12560       -0.52670
C         -0.95080       -2.84500       -0.45950
C         -1.64640       -1.70680        0.03530
C         -1.07640       -0.35980        0.17570
H          6.52990       -0.04980        0.35640
H          5.72970       -2.33150        0.91890
H          3.31180       -2.80510        1.00830
H          1.01330       -2.00650        0.85470
H          2.59420        2.50120       -0.20470
H          4.90840        1.75100       -0.09540
H          1.27370        3.98320       -0.43440
H         -0.32490        5.78380       -0.48170
H         -2.73810        5.31590       -0.14800
H         -3.49680        3.05700        0.19190
H         -4.05960        1.21600        0.75490
H         -4.88150       -1.01310        0.87240
H         -4.61800       -3.38350        0.54310
H         -3.27100       -5.30960       -0.17520
H         -0.92490       -4.95680       -0.90670
H          0.05190       -2.74040       -0.86760

