%nprocshared=8
%mem=8800MB
#N opt freq B3LYP/def2SVPP symm=veryloose em=gd3bj scale=0.961 press=0.987

c1ccc2c(c1)ccc1ccc3ccc4ccccc4c3c12_2

0 1
C         -2.71040       -3.23020       -0.65100
C         -1.38300       -3.03690       -0.99260
C         -0.80300       -1.77330       -0.83840
C         -1.50220       -0.66070       -0.30600
C         -2.88770       -0.87140       -0.07470
C         -3.46280       -2.14750       -0.20870
C         -3.70720        0.20690        0.24000
C         -3.19360        1.49530        0.22620
C         -1.83010        1.72490        0.01840
C         -1.40630        3.04520       -0.11200
C         -0.07610        3.33490       -0.36920
C          0.88780        2.33050       -0.32420
C          2.21990        2.69520       -0.54230
C          3.24670        1.77520       -0.38950
C          2.97310        0.50380        0.10240
C          4.04480       -0.35730        0.39760
C          3.82930       -1.58510        1.01410
C          2.54100       -1.94700        1.36850
C          1.47110       -1.10210        1.05520
C          1.62870        0.11610        0.34700
C          0.52580        0.98940       -0.03260
C         -0.90720        0.65200       -0.09120
H         -3.17060       -4.20750       -0.76520
H         -0.79260       -3.85820       -1.38980
H          0.22420       -1.65840       -1.17910
H         -4.51960       -2.30080        0.00110
H         -4.77190        0.06830        0.41290
H         -3.88100        2.32690        0.37010
H         -2.11920        3.86650       -0.07570
H          0.20510        4.37110       -0.54550
H          2.47730        3.71410       -0.82570
H          4.26940        2.09450       -0.57610
H          5.06810       -0.05980        0.17690
H          4.66730       -2.23420        1.25100
H          2.35780       -2.87820        1.89780
H          0.48690       -1.40210        1.40990

