%nprocshared=16
%mem=4480MB
#N opt freq B3LYP/def2SVPP symm=veryloose em=gd3bj scale=0.961 press=0.987

C(#Cc1ccccc1)c1ccccc1_1

0 1
C          0.60066       -0.06647        0.07960
C         -0.60030       -0.07344        0.07480
C         -2.02966       -0.03440        0.04000
C         -2.77462       -1.21564        0.04559
C         -4.16982       -1.16057       -0.00023
C         -4.81914        0.07314       -0.05653
C         -4.07611        1.25316       -0.06295
C         -2.68281        1.19977       -0.01255
C          2.03007       -0.03265        0.04859
C          2.70209        1.19257        0.05665
C          4.09638        1.22520       -0.00889
C          4.81922        0.03432       -0.07972
C          4.15007       -1.18955       -0.07838
C          2.75599       -1.22378       -0.01381
H         -2.27701       -2.18173        0.08273
H         -4.75065       -2.07942        0.00599
H         -5.90462        0.11550       -0.09638
H         -4.58003        2.21504       -0.10824
H         -2.10923        2.12331       -0.01805
H          2.14579        2.12541        0.10705
H          4.61802        2.17879       -0.00942
H          5.90438        0.05997       -0.13724
H          4.71313       -2.11766       -0.13333
H          2.24096       -2.18114       -0.01926

