 Entering Gaussian System, Link 0=g16
 Initial command:
 /home/software/g16/l1.exe "/home/software/g16/scr/Gau-12556.inp" -scrdir="/home/software/g16/scr/"
 Default is to use a total of   8 processors:
                                8 via shared-memory
                                1 via Linda
 Entering Link 1 = /home/software/g16/l1.exe PID=     12557.
  
 Copyright (c) 1988-2019, Gaussian, Inc.  All Rights Reserved.
  
 This is part of the Gaussian(R) 16 program.  It is based on
 the Gaussian(R) 09 system (copyright 2009, Gaussian, Inc.),
 the Gaussian(R) 03 system (copyright 2003, Gaussian, Inc.),
 the Gaussian(R) 98 system (copyright 1998, Gaussian, Inc.),
 the Gaussian(R) 94 system (copyright 1995, Gaussian, Inc.),
 the Gaussian 92(TM) system (copyright 1992, Gaussian, Inc.),
 the Gaussian 90(TM) system (copyright 1990, Gaussian, Inc.),
 the Gaussian 88(TM) system (copyright 1988, Gaussian, Inc.),
 the Gaussian 86(TM) system (copyright 1986, Carnegie Mellon
 University), and the Gaussian 82(TM) system (copyright 1983,
 Carnegie Mellon University). Gaussian is a federally registered
 trademark of Gaussian, Inc.
  
 This software contains proprietary and confidential information,
 including trade secrets, belonging to Gaussian, Inc.
  
 This software is provided under written license and may be
 used, copied, transmitted, or stored only in accord with that
 written license.
  
 The following legend is applicable only to US Government
 contracts under FAR:
  
                    RESTRICTED RIGHTS LEGEND
  
 Use, reproduction and disclosure by the US Government is
 subject to restrictions as set forth in subparagraphs (a)
 and (c) of the Commercial Computer Software - Restricted
 Rights clause in FAR 52.227-19.
  
 Gaussian, Inc.
 340 Quinnipiac St., Bldg. 40, Wallingford CT 06492
  
  
 ---------------------------------------------------------------
 Warning -- This program may not be used in any manner that
 competes with the business of Gaussian, Inc. or will provide
 assistance to any competitor of Gaussian, Inc.  The licensee
 of this program is prohibited from giving any competitor of
 Gaussian, Inc. access to this program.  By using this program,
 the user acknowledges that Gaussian, Inc. is engaged in the
 business of creating and licensing software in the field of
 computational chemistry and represents and warrants to the
 licensee that it is not a competitor of Gaussian, Inc. and that
 it will not use this program in any manner prohibited above.
 ---------------------------------------------------------------
  

 Cite this work as:
 Gaussian 16, Revision C.01,
 M. J. Frisch, G. W. Trucks, H. B. Schlegel, G. E. Scuseria, 
 M. A. Robb, J. R. Cheeseman, G. Scalmani, V. Barone, 
 G. A. Petersson, H. Nakatsuji, X. Li, M. Caricato, A. V. Marenich, 
 J. Bloino, B. G. Janesko, R. Gomperts, B. Mennucci, H. P. Hratchian, 
 J. V. Ortiz, A. F. Izmaylov, J. L. Sonnenberg, D. Williams-Young, 
 F. Ding, F. Lipparini, F. Egidi, J. Goings, B. Peng, A. Petrone, 
 T. Henderson, D. Ranasinghe, V. G. Zakrzewski, J. Gao, N. Rega, 
 G. Zheng, W. Liang, M. Hada, M. Ehara, K. Toyota, R. Fukuda, 
 J. Hasegawa, M. Ishida, T. Nakajima, Y. Honda, O. Kitao, H. Nakai, 
 T. Vreven, K. Throssell, J. A. Montgomery, Jr., J. E. Peralta, 
 F. Ogliaro, M. J. Bearpark, J. J. Heyd, E. N. Brothers, K. N. Kudin, 
 V. N. Staroverov, T. A. Keith, R. Kobayashi, J. Normand, 
 K. Raghavachari, A. P. Rendell, J. C. Burant, S. S. Iyengar, 
 J. Tomasi, M. Cossi, J. M. Millam, M. Klene, C. Adamo, R. Cammi, 
 J. W. Ochterski, R. L. Martin, K. Morokuma, O. Farkas, 
 J. B. Foresman, and D. J. Fox, Gaussian, Inc., Wallingford CT, 2019.
 
 ******************************************
 Gaussian 16:  ES64L-G16RevC.01  3-Jul-2019
                12-Mar-2024 
 ******************************************
 %nprocshared=16
 Will use up to   16 processors via shared memory.
 %mem=4480MB
 ----------------------------------------------------------------------
 #N opt freq B3LYP/def2SVPP symm=veryloose em=gd3bj scale=0.961 press=0
 .987
 ----------------------------------------------------------------------
 1/18=20,19=15,26=3,38=1,113=-987000,114=961000/1,3;
 2/9=110,12=2,17=2,18=2,40=1/2;
 3/5=43,7=202,11=2,25=1,30=1,71=1,74=-5,124=41/1,2,3;
 4//1;
 5/5=2,38=5/2;
 6/7=2,8=2,9=2,10=2,28=1/1;
 7//1,2,3,16;
 1/18=20,19=15,26=3/3(2);
 2/9=110/2;
 99//99;
 2/9=110/2;
 3/5=43,7=202,11=2,25=1,30=1,71=1,74=-5,124=41/1,2,3;
 4/5=5,16=3,69=1/1;
 5/5=2,38=5/2;
 7//1,2,3,16;
 1/18=20,19=15,26=3/3(-5);
 2/9=110/2;
 6/7=2,8=2,9=2,10=2,19=2,28=1/1;
 99/9=1/99;
 -----------------------
 C(#Cc1ccccc1)c1ccccc1_1
 -----------------------
 Symbolic Z-matrix:
 Charge =  0 Multiplicity = 1
 C                     0.60066  -0.06647   0.0796 
 C                    -0.6003   -0.07344   0.0748 
 C                    -2.02966  -0.0344    0.04 
 C                    -2.77462  -1.21564   0.04559 
 C                    -4.16982  -1.16057  -0.00023 
 C                    -4.81914   0.07314  -0.05653 
 C                    -4.07611   1.25316  -0.06295 
 C                    -2.68281   1.19977  -0.01255 
 C                     2.03007  -0.03265   0.04859 
 C                     2.70209   1.19257   0.05665 
 C                     4.09638   1.2252   -0.00889 
 C                     4.81922   0.03432  -0.07972 
 C                     4.15007  -1.18955  -0.07838 
 C                     2.75599  -1.22378  -0.01381 
 H                    -2.27701  -2.18173   0.08273 
 H                    -4.75065  -2.07942   0.00599 
 H                    -5.90462   0.1155   -0.09638 
 H                    -4.58003   2.21504  -0.10824 
 H                    -2.10923   2.12331  -0.01805 
 H                     2.14579   2.12541   0.10705 
 H                     4.61802   2.17879  -0.00942 
 H                     5.90438   0.05997  -0.13724 
 H                     4.71313  -2.11766  -0.13333 
 H                     2.24096  -2.18114  -0.01926 
 

 GradGradGradGradGradGradGradGradGradGradGradGradGradGradGradGradGradGrad
 Berny optimization.
 Initialization pass.
                           ----------------------------
                           !    Initial Parameters    !
                           ! (Angstroms and Degrees)  !
 --------------------------                            --------------------------
 ! Name  Definition              Value          Derivative Info.                !
 --------------------------------------------------------------------------------
 ! R1    R(1,2)                  1.201          estimate D2E/DX2                !
 ! R2    R(1,9)                  1.4301         estimate D2E/DX2                !
 ! R3    R(2,3)                  1.4303         estimate D2E/DX2                !
 ! R4    R(3,4)                  1.3965         estimate D2E/DX2                !
 ! R5    R(3,8)                  1.3973         estimate D2E/DX2                !
 ! R6    R(4,5)                  1.397          estimate D2E/DX2                !
 ! R7    R(4,15)                 1.0873         estimate D2E/DX2                !
 ! R8    R(5,6)                  1.3953         estimate D2E/DX2                !
 ! R9    R(5,16)                 1.0871         estimate D2E/DX2                !
 ! R10   R(6,7)                  1.3945         estimate D2E/DX2                !
 ! R11   R(6,17)                 1.087          estimate D2E/DX2                !
 ! R12   R(7,8)                  1.3952         estimate D2E/DX2                !
 ! R13   R(7,18)                 1.0868         estimate D2E/DX2                !
 ! R14   R(8,19)                 1.0872         estimate D2E/DX2                !
 ! R15   R(9,10)                 1.3974         estimate D2E/DX2                !
 ! R16   R(9,14)                 1.3963         estimate D2E/DX2                !
 ! R17   R(10,11)                1.3962         estimate D2E/DX2                !
 ! R18   R(10,20)                1.0873         estimate D2E/DX2                !
 ! R19   R(11,12)                1.3949         estimate D2E/DX2                !
 ! R20   R(11,21)                1.0869         estimate D2E/DX2                !
 ! R21   R(12,13)                1.3949         estimate D2E/DX2                !
 ! R22   R(12,22)                1.087          estimate D2E/DX2                !
 ! R23   R(13,14)                1.396          estimate D2E/DX2                !
 ! R24   R(13,23)                1.0869         estimate D2E/DX2                !
 ! R25   R(14,24)                1.0871         estimate D2E/DX2                !
 ! A1    A(2,3,4)              120.6566         estimate D2E/DX2                !
 ! A2    A(2,3,8)              119.4811         estimate D2E/DX2                !
 ! A3    A(4,3,8)              119.8597         estimate D2E/DX2                !
 ! A4    A(3,4,5)              119.9509         estimate D2E/DX2                !
 ! A5    A(3,4,15)             120.4992         estimate D2E/DX2                !
 ! A6    A(5,4,15)             119.5497         estimate D2E/DX2                !
 ! A7    A(4,5,6)              120.0617         estimate D2E/DX2                !
 ! A8    A(4,5,16)             120.007          estimate D2E/DX2                !
 ! A9    A(6,5,16)             119.9313         estimate D2E/DX2                !
 ! A10   A(5,6,7)              120.0288         estimate D2E/DX2                !
 ! A11   A(5,6,17)             120.042          estimate D2E/DX2                !
 ! A12   A(7,6,17)             119.9291         estimate D2E/DX2                !
 ! A13   A(6,7,8)              119.9702         estimate D2E/DX2                !
 ! A14   A(6,7,18)             120.1362         estimate D2E/DX2                !
 ! A15   A(8,7,18)             119.8935         estimate D2E/DX2                !
 ! A16   A(3,8,7)              120.1281         estimate D2E/DX2                !
 ! A17   A(3,8,19)             120.2567         estimate D2E/DX2                !
 ! A18   A(7,8,19)             119.6148         estimate D2E/DX2                !
 ! A19   A(1,9,10)             120.083          estimate D2E/DX2                !
 ! A20   A(1,9,14)             120.0276         estimate D2E/DX2                !
 ! A21   A(10,9,14)            119.8796         estimate D2E/DX2                !
 ! A22   A(9,10,11)            120.0299         estimate D2E/DX2                !
 ! A23   A(9,10,20)            120.4269         estimate D2E/DX2                !
 ! A24   A(11,10,20)           119.5419         estimate D2E/DX2                !
 ! A25   A(10,11,12)           119.995          estimate D2E/DX2                !
 ! A26   A(10,11,21)           119.9855         estimate D2E/DX2                !
 ! A27   A(12,11,21)           120.0188         estimate D2E/DX2                !
 ! A28   A(11,12,13)           120.0295         estimate D2E/DX2                !
 ! A29   A(11,12,22)           119.9919         estimate D2E/DX2                !
 ! A30   A(13,12,22)           119.9786         estimate D2E/DX2                !
 ! A31   A(12,13,14)           120.0416         estimate D2E/DX2                !
 ! A32   A(12,13,23)           120.0426         estimate D2E/DX2                !
 ! A33   A(14,13,23)           119.9149         estimate D2E/DX2                !
 ! A34   A(9,14,13)            120.0216         estimate D2E/DX2                !
 ! A35   A(9,14,24)            120.3423         estimate D2E/DX2                !
 ! A36   A(13,14,24)           119.6348         estimate D2E/DX2                !
 ! A37   L(2,1,9,20,-1)        179.0056         estimate D2E/DX2                !
 ! A38   L(1,2,3,19,-1)        178.0663         estimate D2E/DX2                !
 ! A39   L(2,1,9,20,-2)        181.843          estimate D2E/DX2                !
 ! A40   L(1,2,3,19,-2)        178.6517         estimate D2E/DX2                !
 ! D1    D(4,3,9,10)          -179.3418         estimate D2E/DX2                !
 ! D2    D(4,3,9,14)             3.4194         estimate D2E/DX2                !
 ! D3    D(8,3,9,10)             2.684          estimate D2E/DX2                !
 ! D4    D(8,3,9,14)          -174.5548         estimate D2E/DX2                !
 ! D5    D(2,3,4,5)           -179.4551         estimate D2E/DX2                !
 ! D6    D(2,3,4,15)             0.38           estimate D2E/DX2                !
 ! D7    D(8,3,4,5)             -0.052          estimate D2E/DX2                !
 ! D8    D(8,3,4,15)           179.7831         estimate D2E/DX2                !
 ! D9    D(2,3,8,7)            179.2401         estimate D2E/DX2                !
 ! D10   D(2,3,8,19)            -0.5386         estimate D2E/DX2                !
 ! D11   D(4,3,8,7)             -0.1701         estimate D2E/DX2                !
 ! D12   D(4,3,8,19)          -179.9488         estimate D2E/DX2                !
 ! D13   D(3,4,5,6)              0.2363         estimate D2E/DX2                !
 ! D14   D(3,4,5,16)          -179.8836         estimate D2E/DX2                !
 ! D15   D(15,4,5,6)          -179.6004         estimate D2E/DX2                !
 ! D16   D(15,4,5,16)            0.2798         estimate D2E/DX2                !
 ! D17   D(4,5,6,7)             -0.1987         estimate D2E/DX2                !
 ! D18   D(4,5,6,17)           179.7436         estimate D2E/DX2                !
 ! D19   D(16,5,6,7)           179.9211         estimate D2E/DX2                !
 ! D20   D(16,5,6,17)           -0.1367         estimate D2E/DX2                !
 ! D21   D(5,6,7,8)             -0.0235         estimate D2E/DX2                !
 ! D22   D(5,6,7,18)           179.9101         estimate D2E/DX2                !
 ! D23   D(17,6,7,8)          -179.9657         estimate D2E/DX2                !
 ! D24   D(17,6,7,18)           -0.0322         estimate D2E/DX2                !
 ! D25   D(6,7,8,3)              0.208          estimate D2E/DX2                !
 ! D26   D(6,7,8,19)           179.9881         estimate D2E/DX2                !
 ! D27   D(18,7,8,3)          -179.7257         estimate D2E/DX2                !
 ! D28   D(18,7,8,19)            0.0544         estimate D2E/DX2                !
 ! D29   D(1,9,10,11)         -178.328          estimate D2E/DX2                !
 ! D30   D(1,9,10,20)            1.2598         estimate D2E/DX2                !
 ! D31   D(14,9,10,11)           0.5351         estimate D2E/DX2                !
 ! D32   D(14,9,10,20)        -179.8771         estimate D2E/DX2                !
 ! D33   D(1,9,14,13)          178.372          estimate D2E/DX2                !
 ! D34   D(1,9,14,24)           -1.2123         estimate D2E/DX2                !
 ! D35   D(10,9,14,13)          -0.4918         estimate D2E/DX2                !
 ! D36   D(10,9,14,24)         179.924          estimate D2E/DX2                !
 ! D37   D(9,10,11,12)          -0.1298         estimate D2E/DX2                !
 ! D38   D(9,10,11,21)         179.5826         estimate D2E/DX2                !
 ! D39   D(20,10,11,12)       -179.7213         estimate D2E/DX2                !
 ! D40   D(20,10,11,21)         -0.0088         estimate D2E/DX2                !
 ! D41   D(10,11,12,13)         -0.3198         estimate D2E/DX2                !
 ! D42   D(10,11,12,22)        179.6039         estimate D2E/DX2                !
 ! D43   D(21,11,12,13)        179.9679         estimate D2E/DX2                !
 ! D44   D(21,11,12,22)         -0.1084         estimate D2E/DX2                !
 ! D45   D(11,12,13,14)          0.3633         estimate D2E/DX2                !
 ! D46   D(11,12,13,23)       -179.9856         estimate D2E/DX2                !
 ! D47   D(22,12,13,14)       -179.5604         estimate D2E/DX2                !
 ! D48   D(22,12,13,23)          0.0907         estimate D2E/DX2                !
 ! D49   D(12,13,14,9)           0.0432         estimate D2E/DX2                !
 ! D50   D(12,13,14,24)        179.6304         estimate D2E/DX2                !
 ! D51   D(23,13,14,9)        -179.6083         estimate D2E/DX2                !
 ! D52   D(23,13,14,24)         -0.0211         estimate D2E/DX2                !
 --------------------------------------------------------------------------------
 Trust Radius=3.00D-01 FncErr=1.00D-07 GrdErr=1.00D-06 EigMax=2.50D+02 EigMin=1.00D-04
 Number of steps in this run=    127 maximum allowed number of steps=    144.
 GradGradGradGradGradGradGradGradGradGradGradGradGradGradGradGradGradGrad

                          Input orientation:                          
 ---------------------------------------------------------------------
 Center     Atomic      Atomic             Coordinates (Angstroms)
 Number     Number       Type             X           Y           Z
 ---------------------------------------------------------------------
      1          6           0        0.600660   -0.066470    0.079600
      2          6           0       -0.600300   -0.073440    0.074800
      3          6           0       -2.029660   -0.034400    0.040000
      4          6           0       -2.774620   -1.215640    0.045590
      5          6           0       -4.169820   -1.160570   -0.000230
      6          6           0       -4.819140    0.073140   -0.056530
      7          6           0       -4.076110    1.253160   -0.062950
      8          6           0       -2.682810    1.199770   -0.012550
      9          6           0        2.030070   -0.032650    0.048590
     10          6           0        2.702090    1.192570    0.056650
     11          6           0        4.096380    1.225200   -0.008890
     12          6           0        4.819220    0.034320   -0.079720
     13          6           0        4.150070   -1.189550   -0.078380
     14          6           0        2.755990   -1.223780   -0.013810
     15          1           0       -2.277010   -2.181730    0.082730
     16          1           0       -4.750650   -2.079420    0.005990
     17          1           0       -5.904620    0.115500   -0.096380
     18          1           0       -4.580030    2.215040   -0.108240
     19          1           0       -2.109230    2.123310   -0.018050
     20          1           0        2.145790    2.125410    0.107050
     21          1           0        4.618020    2.178790   -0.009420
     22          1           0        5.904380    0.059970   -0.137240
     23          1           0        4.713130   -2.117660   -0.133330
     24          1           0        2.240960   -2.181140   -0.019260
 ---------------------------------------------------------------------
                    Distance matrix (angstroms):
                    1          2          3          4          5
     1  C    0.000000
     2  C    1.200990   0.000000
     3  C    2.630814   1.430316   0.000000
     4  C    3.565707   2.456245   1.396540   0.000000
     5  C    4.894988   3.732151   2.418711   1.397038   0.000000
     6  C    5.423307   4.223428   2.793221   2.418976   1.395287
     7  C    4.861473   3.722915   2.419993   2.792961   2.416363
     8  C    3.520374   2.442446   1.397334   2.417853   2.789723
     9  C    1.430146   2.630817   4.059739   4.948184   6.301843
    10  C    2.449840   3.536791   4.888271   5.982805   7.263859
    11  C    3.727774   4.873630   6.254386   7.291866   8.603606
    12  C    4.222770   5.422793   6.850271   7.697045   9.068457
    13  C    3.726202   4.882129   6.287881   6.925849   8.320307
    14  C    2.448171   3.549059   4.931528   5.530935   6.926112
    15  H    3.571459   2.693753   2.161951   1.087348   2.152296
    16  H    5.717858   4.610216   3.403976   2.156937   1.087055
    17  H    6.510204   5.310444   3.880256   3.404260   2.155720
    18  H    5.663932   4.594442   3.403872   3.879785   3.402158
    19  H    3.485423   2.666684   2.159957   3.405199   3.876882
    20  H    2.681887   3.518095   4.701453   5.947842   7.120120
    21  H    4.603075   5.684232   7.006590   8.134882   9.400933
    22  H    5.309657   6.509502   7.936581   8.774147  10.148793
    23  H    4.600557   5.696902   7.059407   7.544008   8.935353
    24  H    2.678094   3.538927   4.780188   5.108076   6.491535
                    6          7          8          9         10
     6  C    0.000000
     7  C    1.394483   0.000000
     8  C    2.415602   1.395233   0.000000
     9  C    6.850833   6.241088   4.871738   0.000000
    10  C    7.604922   6.779526   5.385349   1.397440   0.000000
    11  C    8.989772   8.172717   6.779239   2.419737   1.396211
    12  C    9.638466   8.978460   7.592315   2.792903   2.417101
    13  C    9.057681   8.581207   7.238883   2.418458   2.790945
    14  C    7.685468   7.267409   5.954338   1.396297   2.417978
    15  H    3.400920   3.880265   3.407095   4.813590   6.014816
    16  H    2.154557   3.400860   3.876776   7.083025   8.139522
    17  H    1.087037   2.153796   3.400401   7.937397   8.675192
    18  H    2.155825   1.086830   2.153920   6.983561   7.355400
    19  H    3.398277   2.151231   1.087175   4.667591   4.901087
    20  H    7.262838   6.285043   4.917976   2.161951   1.087290
    21  H    9.669331   8.743429   7.366180   3.404602   2.155872
    22  H   10.723832  10.051836   8.663401   3.879870   3.402211
    23  H    9.781088   9.413720   8.106779   3.402818   3.877886
    24  H    7.411355   7.190389   5.972781   2.159881   3.405925
                   11         12         13         14         15
    11  C    0.000000
    12  C    1.394887   0.000000
    13  C    2.416346   1.394855   0.000000
    14  C    2.791805   2.417453   1.395994   0.000000
    15  H    7.227425   7.435977   6.505208   5.124264   0.000000
    16  H    9.444081   9.800901   8.945491   7.555273   2.476944
    17  H   10.062758  10.724160  10.139047   8.763941   4.297546
    18  H    8.733255   9.648951   9.370527   8.102567   4.967087
    19  H    6.270270   7.236788   7.082197   5.905370   4.309487
    20  H    2.151423   3.399231   3.878206   3.406468   6.173589
    21  H    1.086942   2.155035   3.401389   3.878744   8.158680
    22  H    2.154785   1.086986   2.154616   3.402295   8.485797
    23  H    3.401555   2.155260   1.086943   2.154925   6.993772
    24  H    3.878897   3.399903   2.152080   1.087117   4.519121
                   16         17         18         19         20
    16  H    0.000000
    17  H    2.481894   0.000000
    18  H    4.299366   2.482488   0.000000
    19  H    4.963932   4.294464   2.474147   0.000000
    20  H    8.077852   8.300013   6.729862   4.256859   0.000000
    21  H   10.290994  10.723371   9.198652   6.727484   2.475548
    22  H   10.868632  11.809201  10.703645   8.275840   4.295663
    23  H    9.464883  10.850114  10.253572   8.033910   4.965145
    24  H    6.992396   8.463509   8.115431   6.119840   4.309453
                   21         22         23         24
    21  H    0.000000
    22  H    2.482027   0.000000
    23  H    4.299289   2.482169   0.000000
    24  H    4.965833   4.296177   2.475614   0.000000
 Stoichiometry    C14H10
 Framework group  C1[X(C14H10)]
 Deg. of freedom    66
 Full point group                 C1      NOp   1
 Largest Abelian subgroup         C1      NOp   1
 Largest concise Abelian subgroup C1      NOp   1
                         Standard orientation:                         
 ---------------------------------------------------------------------
 Center     Atomic      Atomic             Coordinates (Angstroms)
 Number     Number       Type             X           Y           Z
 ---------------------------------------------------------------------
      1          6           0        0.600587    0.066496   -0.081824
      2          6           0       -0.600344    0.076534   -0.075436
      3          6           0       -2.029751    0.041150   -0.038737
      4          6           0       -2.771700    1.224287   -0.043566
      5          6           0       -4.166974    1.172789    0.004111
      6          6           0       -4.819367   -0.059248    0.061506
      7          6           0       -4.079344   -1.241161    0.067167
      8          6           0       -2.685980   -1.191338    0.014913
      9          6           0        2.029946    0.029032   -0.052699
     10          6           0        2.698824   -1.197902   -0.061415
     11          6           0        4.093112   -1.234080    0.002286
     12          6           0        4.819083   -0.045036    0.071932
     13          6           0        4.153059    1.180538    0.071244
     14          6           0        2.758987    1.218316    0.008513
     15          1           0       -2.271674    2.189097   -0.081549
     16          1           0       -4.745464    2.093118   -0.001515
     17          1           0       -5.904898   -0.098829    0.102800
     18          1           0       -4.585658   -2.201742    0.113308
     19          1           0       -2.114753   -2.116339    0.019830
     20          1           0        2.140078   -2.129328   -0.110901
     21          1           0        4.612316   -2.188999    0.002307
     22          1           0        5.904250   -0.073446    0.128020
     23          1           0        4.718559    2.107218    0.125272
     24          1           0        2.246411    2.176989    0.014462
 ---------------------------------------------------------------------
 Rotational constants (GHZ):           2.8369922           0.2506166           0.2303940
 Standard basis: def2SVPP (5D, 7F)
 There are   230 symmetry adapted cartesian basis functions of A   symmetry.
 There are   216 symmetry adapted basis functions of A   symmetry.
   216 basis functions,   390 primitive gaussians,   230 cartesian basis functions
    47 alpha electrons       47 beta electrons
       nuclear repulsion energy       695.2532735273 Hartrees.
 NAtoms=   24 NActive=   24 NUniq=   24 SFac= 1.00D+00 NAtFMM=   60 NAOKFM=F Big=F
 Integral buffers will be    131072 words long.
 Raffenetti 2 integral format.
 Two-electron integral symmetry is turned on.
 Nuclear repulsion after empirical dispersion term =      695.2058374076 Hartrees.
 One-electron integrals computed using PRISM.
   1 Symmetry operations used in ECPInt.
 ECPInt:  NShTT=    5460 NPrTT=   21948 LenC2=    4980 LenP2D=   14206.
 LDataN:  DoStor=T MaxTD1= 4 Len=   56
 NBasis=   216 RedAO= T EigKep=  2.98D-04  NBF=   216
 NBsUse=   216 1.00D-06 EigRej= -1.00D+00 NBFU=   216
 ExpMin= 1.22D-01 ExpMax= 1.24D+03 ExpMxC= 1.86D+02 IAcc=3 IRadAn=         5 AccDes= 0.00D+00
 Harris functional with IExCor=  402 and IRadAn=       5 diagonalized for initial guess.
 HarFok:  IExCor=  402 AccDes= 0.00D+00 IRadAn=         5 IDoV= 1 UseB2=F ITyADJ=14
 ICtDFT=  3500011 ScaDFX=  1.000000  1.000000  1.000000  1.000000
 FoFCou: FMM=F IPFlag=           0 FMFlag=      100000 FMFlg1=           0
         NFxFlg=           0 DoJE=T BraDBF=F KetDBF=T FulRan=T
         wScrn=  0.000000 ICntrl=       500 IOpCl=  0 I1Cent=   200000004 NGrid=           0
         NMat0=    1 NMatS0=      1 NMatT0=    0 NMatD0=    1 NMtDS0=    0 NMtDT0=    0
 Petite list used in FoFCou.
 Requested convergence on RMS density matrix=1.00D-08 within 128 cycles.
 Requested convergence on MAX density matrix=1.00D-06.
 Requested convergence on             energy=1.00D-06.
 No special actions if energy rises.
 Integral accuracy reduced to 1.0D-05 until final iterations.
 Initial convergence to 1.0D-05 achieved.  Increase integral accuracy.
 SCF Done:  E(RB3LYP) =  -539.101259773     A.U. after   14 cycles
            NFock= 14  Conv=0.67D-08     -V/T= 2.0106

 **********************************************************************

            Population analysis using the SCF Density.

 **********************************************************************

 Orbital symmetries:
       Occupied  (A) (A) (A) (A) (A) (A) (A) (A) (A) (A) (A) (A)
                 (A) (A) (A) (A) (A) (A) (A) (A) (A) (A) (A) (A)
                 (A) (A) (A) (A) (A) (A) (A) (A) (A) (A) (A) (A)
                 (A) (A) (A) (A) (A) (A) (A) (A) (A) (A) (A)
       Virtual   (A) (A) (A) (A) (A) (A) (A) (A) (A) (A) (A) (A)
                 (A) (A) (A) (A) (A) (A) (A) (A) (A) (A) (A) (A)
                 (A) (A) (A) (A) (A) (A) (A) (A) (A) (A) (A) (A)
                 (A) (A) (A) (A) (A) (A) (A) (A) (A) (A) (A) (A)
                 (A) (A) (A) (A) (A) (A) (A) (A) (A) (A) (A) (A)
                 (A) (A) (A) (A) (A) (A) (A) (A) (A) (A) (A) (A)
                 (A) (A) (A) (A) (A) (A) (A) (A) (A) (A) (A) (A)
                 (A) (A) (A) (A) (A) (A) (A) (A) (A) (A) (A) (A)
                 (A) (A) (A) (A) (A) (A) (A) (A) (A) (A) (A) (A)
                 (A) (A) (A) (A) (A) (A) (A) (A) (A) (A) (A) (A)
                 (A) (A) (A) (A) (A) (A) (A) (A) (A) (A) (A) (A)
                 (A) (A) (A) (A) (A) (A) (A) (A) (A) (A) (A) (A)
                 (A) (A) (A) (A) (A) (A) (A) (A) (A) (A) (A) (A)
                 (A) (A) (A) (A) (A) (A) (A) (A) (A) (A) (A) (A)
                 (A)
 The electronic state is 1-A.
 Alpha  occ. eigenvalues --  -10.21447 -10.21425 -10.19456 -10.19455 -10.19423
 Alpha  occ. eigenvalues --  -10.19422 -10.19347 -10.19342 -10.19321 -10.19316
 Alpha  occ. eigenvalues --  -10.19276 -10.19276 -10.18518 -10.18279  -0.86242
 Alpha  occ. eigenvalues --   -0.85965  -0.78587  -0.76375  -0.74633  -0.74616
 Alpha  occ. eigenvalues --   -0.71213  -0.63159  -0.61055  -0.60919  -0.60635
 Alpha  occ. eigenvalues --   -0.54928  -0.53517  -0.48663  -0.47582  -0.46717
 Alpha  occ. eigenvalues --   -0.46290  -0.44452  -0.43893  -0.43081  -0.43040
 Alpha  occ. eigenvalues --   -0.39288  -0.38153  -0.36602  -0.36204  -0.36059
 Alpha  occ. eigenvalues --   -0.35784  -0.32330  -0.27863  -0.27541  -0.26270
 Alpha  occ. eigenvalues --   -0.26262  -0.22096
 Alpha virt. eigenvalues --   -0.05209  -0.01438  -0.01413   0.00126   0.05316
 Alpha virt. eigenvalues --    0.05696   0.06295   0.09079   0.09934   0.10118
 Alpha virt. eigenvalues --    0.10192   0.11863   0.13413   0.14360   0.15130
 Alpha virt. eigenvalues --    0.15237   0.16079   0.20303   0.21439   0.22188
 Alpha virt. eigenvalues --    0.23593   0.28578   0.28598   0.28682   0.29454
 Alpha virt. eigenvalues --    0.30297   0.31039   0.31132   0.32669   0.33023
 Alpha virt. eigenvalues --    0.38602   0.38664   0.39729   0.41502   0.42158
 Alpha virt. eigenvalues --    0.42387   0.43889   0.44741   0.45408   0.46188
 Alpha virt. eigenvalues --    0.46628   0.46819   0.47576   0.48812   0.49084
 Alpha virt. eigenvalues --    0.49171   0.49901   0.53255   0.53289   0.53352
 Alpha virt. eigenvalues --    0.57408   0.57873   0.59483   0.59645   0.61343
 Alpha virt. eigenvalues --    0.62165   0.64245   0.65122   0.65649   0.67053
 Alpha virt. eigenvalues --    0.67198   0.67749   0.67802   0.68666   0.69656
 Alpha virt. eigenvalues --    0.70090   0.70474   0.70805   0.71660   0.72064
 Alpha virt. eigenvalues --    0.73848   0.74122   0.74387   0.75439   0.75653
 Alpha virt. eigenvalues --    0.77386   0.77990   0.78165   0.82121   0.82419
 Alpha virt. eigenvalues --    0.84286   0.84941   0.92940   0.94427   0.94685
 Alpha virt. eigenvalues --    0.98385   1.04861   1.06356   1.07061   1.08566
 Alpha virt. eigenvalues --    1.10262   1.15175   1.16994   1.23714   1.23905
 Alpha virt. eigenvalues --    1.25785   1.26367   1.28570   1.29305   1.31833
 Alpha virt. eigenvalues --    1.41885   1.42814   1.44720   1.46005   1.47739
 Alpha virt. eigenvalues --    1.47982   1.49840   1.49942   1.51632   1.51873
 Alpha virt. eigenvalues --    1.55673   1.56447   1.57766   1.71734   1.73669
 Alpha virt. eigenvalues --    1.74958   1.77174   1.78190   1.82087   1.83474
 Alpha virt. eigenvalues --    1.83856   1.86794   1.86991   1.92230   1.92595
 Alpha virt. eigenvalues --    1.92885   1.94629   2.00755   2.01362   2.02955
 Alpha virt. eigenvalues --    2.06164   2.06372   2.07212   2.07724   2.08550
 Alpha virt. eigenvalues --    2.11822   2.12430   2.12691   2.18872   2.25354
 Alpha virt. eigenvalues --    2.29018   2.29038   2.29285   2.30675   2.34102
 Alpha virt. eigenvalues --    2.35635   2.37112   2.42963   2.44099   2.47026
 Alpha virt. eigenvalues --    2.49424   2.50257   2.59057   2.64312   2.64820
 Alpha virt. eigenvalues --    2.66882   2.68768   2.69131   2.69480   2.70596
 Alpha virt. eigenvalues --    2.74870   2.85874   2.86044   2.92898   3.01161
 Alpha virt. eigenvalues --    3.28017   3.30923   3.38407   3.70956
          Condensed to atoms (all electrons):
               1          2          3          4          5          6
     1  C    5.351493   0.786822  -0.165036  -0.008600   0.000575  -0.000056
     2  C    0.786822   5.351838   0.233488  -0.084623   0.012670   0.000622
     3  C   -0.165036   0.233488   5.421131   0.200424   0.163574  -0.185449
     4  C   -0.008600  -0.084623   0.200424   5.324333   0.192232   0.147709
     5  C    0.000575   0.012670   0.163574   0.192232   5.219384   0.194690
     6  C   -0.000056   0.000622  -0.185449   0.147709   0.194690   5.246488
     7  C    0.000710   0.013086   0.161375  -0.180234   0.152830   0.192828
     8  C   -0.012902  -0.085598   0.215713   0.112560  -0.179739   0.147916
     9  C    0.233417  -0.165239   0.007387  -0.000430   0.000022  -0.000003
    10  C   -0.086024  -0.011559  -0.000369   0.000012  -0.000000  -0.000000
    11  C    0.012986   0.000660   0.000024  -0.000000   0.000000  -0.000000
    12  C    0.000629  -0.000055  -0.000003   0.000000  -0.000000   0.000000
    13  C    0.012738   0.000618   0.000023  -0.000000   0.000000  -0.000000
    14  C   -0.084200  -0.009831  -0.000447  -0.000011  -0.000000   0.000000
    15  H   -0.001419  -0.014308  -0.072301   0.436959  -0.078468   0.015000
    16  H   -0.000006  -0.000431   0.015763  -0.079821   0.436551  -0.080436
    17  H   -0.000001   0.000035  -0.001718   0.014725  -0.078748   0.434961
    18  H   -0.000007  -0.000440   0.015937  -0.001792   0.014919  -0.080952
    19  H   -0.001323  -0.014009  -0.072460   0.016454  -0.002259   0.015149
    20  H   -0.014104  -0.001373  -0.000173   0.000001  -0.000000   0.000000
    21  H   -0.000431  -0.000006   0.000000  -0.000000   0.000000  -0.000000
    22  H    0.000035  -0.000001  -0.000000  -0.000000   0.000000  -0.000000
    23  H   -0.000441  -0.000007   0.000000   0.000000  -0.000000  -0.000000
    24  H   -0.014169  -0.001375  -0.000144  -0.000001   0.000001  -0.000000
               7          8          9         10         11         12
     1  C    0.000710  -0.012902   0.233417  -0.086024   0.012986   0.000629
     2  C    0.013086  -0.085598  -0.165239  -0.011559   0.000660  -0.000055
     3  C    0.161375   0.215713   0.007387  -0.000369   0.000024  -0.000003
     4  C   -0.180234   0.112560  -0.000430   0.000012  -0.000000   0.000000
     5  C    0.152830  -0.179739   0.000022  -0.000000   0.000000  -0.000000
     6  C    0.192828   0.147916  -0.000003  -0.000000  -0.000000   0.000000
     7  C    5.220072   0.194869   0.000025  -0.000000   0.000000  -0.000000
     8  C    0.194869   5.314226  -0.000386  -0.000016  -0.000000  -0.000000
     9  C    0.000025  -0.000386   5.421687   0.211637   0.161860  -0.185505
    10  C   -0.000000  -0.000016   0.211637   5.316113   0.195451   0.147450
    11  C    0.000000  -0.000000   0.161860   0.195451   5.218383   0.193959
    12  C   -0.000000  -0.000000  -0.185505   0.147450   0.193959   5.246345
    13  C    0.000000  -0.000000   0.163260  -0.179992   0.152898   0.193630
    14  C   -0.000000   0.000013   0.204442   0.112677  -0.180071   0.148152
    15  H   -0.002207   0.016192  -0.000136   0.000001  -0.000000  -0.000000
    16  H    0.014923  -0.001774   0.000000  -0.000000   0.000000  -0.000000
    17  H   -0.079003   0.014836  -0.000000  -0.000000   0.000000  -0.000000
    18  H    0.437266  -0.080301   0.000000   0.000000  -0.000000  -0.000000
    19  H   -0.079072   0.436708  -0.000185   0.000001   0.000001   0.000000
    20  H    0.000001  -0.000000  -0.072371   0.436679  -0.078735   0.015080
    21  H   -0.000000   0.000000   0.015845  -0.080058   0.436903  -0.080649
    22  H   -0.000000  -0.000000  -0.001722   0.014791  -0.078915   0.434988
    23  H    0.000000  -0.000000   0.015860  -0.001778   0.014922  -0.080702
    24  H   -0.000000   0.000001  -0.072499   0.016303  -0.002231   0.015072
              13         14         15         16         17         18
     1  C    0.012738  -0.084200  -0.001419  -0.000006  -0.000001  -0.000007
     2  C    0.000618  -0.009831  -0.014308  -0.000431   0.000035  -0.000440
     3  C    0.000023  -0.000447  -0.072301   0.015763  -0.001718   0.015937
     4  C   -0.000000  -0.000011   0.436959  -0.079821   0.014725  -0.001792
     5  C    0.000000  -0.000000  -0.078468   0.436551  -0.078748   0.014919
     6  C   -0.000000   0.000000   0.015000  -0.080436   0.434961  -0.080952
     7  C    0.000000  -0.000000  -0.002207   0.014923  -0.079003   0.437266
     8  C   -0.000000   0.000013   0.016192  -0.001774   0.014836  -0.080301
     9  C    0.163260   0.204442  -0.000136   0.000000  -0.000000   0.000000
    10  C   -0.179992   0.112677   0.000001  -0.000000  -0.000000   0.000000
    11  C    0.152898  -0.180071  -0.000000   0.000000   0.000000  -0.000000
    12  C    0.193630   0.148152  -0.000000  -0.000000  -0.000000  -0.000000
    13  C    5.221172   0.191497   0.000001  -0.000000  -0.000000   0.000000
    14  C    0.191497   5.322103  -0.000002   0.000000  -0.000000  -0.000000
    15  H    0.000001  -0.000002   0.661483  -0.012165  -0.000277   0.000037
    16  H   -0.000000   0.000000  -0.012165   0.662987  -0.012311  -0.000298
    17  H   -0.000000  -0.000000  -0.000277  -0.012311   0.663256  -0.012321
    18  H    0.000000  -0.000000   0.000037  -0.000298  -0.012321   0.663538
    19  H   -0.000000   0.000001  -0.000242   0.000037  -0.000281  -0.012303
    20  H   -0.002237   0.016334  -0.000001   0.000000  -0.000000  -0.000000
    21  H    0.014917  -0.001784   0.000000  -0.000000   0.000000   0.000000
    22  H   -0.078865   0.014782  -0.000000   0.000000  -0.000000   0.000000
    23  H    0.436881  -0.080082  -0.000000   0.000000   0.000000  -0.000000
    24  H   -0.078830   0.437110   0.000044  -0.000000  -0.000000   0.000000
              19         20         21         22         23         24
     1  C   -0.001323  -0.014104  -0.000431   0.000035  -0.000441  -0.014169
     2  C   -0.014009  -0.001373  -0.000006  -0.000001  -0.000007  -0.001375
     3  C   -0.072460  -0.000173   0.000000  -0.000000   0.000000  -0.000144
     4  C    0.016454   0.000001  -0.000000  -0.000000   0.000000  -0.000001
     5  C   -0.002259  -0.000000   0.000000   0.000000  -0.000000   0.000001
     6  C    0.015149   0.000000  -0.000000  -0.000000  -0.000000  -0.000000
     7  C   -0.079072   0.000001  -0.000000  -0.000000   0.000000  -0.000000
     8  C    0.436708  -0.000000   0.000000  -0.000000  -0.000000   0.000001
     9  C   -0.000185  -0.072371   0.015845  -0.001722   0.015860  -0.072499
    10  C    0.000001   0.436679  -0.080058   0.014791  -0.001778   0.016303
    11  C    0.000001  -0.078735   0.436903  -0.078915   0.014922  -0.002231
    12  C    0.000000   0.015080  -0.080649   0.434988  -0.080702   0.015072
    13  C   -0.000000  -0.002237   0.014917  -0.078865   0.436881  -0.078830
    14  C    0.000001   0.016334  -0.001784   0.014782  -0.080082   0.437110
    15  H   -0.000242  -0.000001   0.000000  -0.000000  -0.000000   0.000044
    16  H    0.000037   0.000000  -0.000000   0.000000   0.000000  -0.000000
    17  H   -0.000281  -0.000000   0.000000  -0.000000   0.000000  -0.000000
    18  H   -0.012303  -0.000000   0.000000   0.000000  -0.000000   0.000000
    19  H    0.662084   0.000090  -0.000000  -0.000000   0.000000  -0.000001
    20  H    0.000090   0.662062  -0.012236  -0.000280   0.000038  -0.000242
    21  H   -0.000000  -0.012236   0.663191  -0.012316  -0.000298   0.000037
    22  H   -0.000000  -0.000280  -0.012316   0.663277  -0.012322  -0.000278
    23  H    0.000000   0.000038  -0.000298  -0.012322   0.663332  -0.012230
    24  H   -0.000001  -0.000242   0.000037  -0.000278  -0.012230   0.661442
 Mulliken charges:
               1
     1  C   -0.010686
     2  C   -0.010983
     3  C    0.063262
     4  C   -0.089894
     5  C   -0.048233
     6  C   -0.048468
     7  C   -0.047468
     8  C   -0.092316
     9  C    0.063032
    10  C   -0.091321
    11  C   -0.048096
    12  C   -0.048391
    13  C   -0.047710
    14  C   -0.090683
    15  H    0.051810
    16  H    0.056980
    17  H    0.056846
    18  H    0.056716
    19  H    0.051609
    20  H    0.051467
    21  H    0.056884
    22  H    0.056826
    23  H    0.056827
    24  H    0.051992
 Sum of Mulliken charges =  -0.00000
 Mulliken charges with hydrogens summed into heavy atoms:
               1
     1  C   -0.010686
     2  C   -0.010983
     3  C    0.063262
     4  C   -0.038084
     5  C    0.008746
     6  C    0.008378
     7  C    0.009248
     8  C   -0.040707
     9  C    0.063032
    10  C   -0.039854
    11  C    0.008788
    12  C    0.008435
    13  C    0.009117
    14  C   -0.038691
 Electronic spatial extent (au):  <R**2>=           4462.0238
 Charge=              0.0000 electrons
 Dipole moment (field-independent basis, Debye):
    X=              0.0005    Y=             -0.0739    Z=              0.1087  Tot=              0.1314
 Quadrupole moment (field-independent basis, Debye-Ang):
   XX=            -65.0817   YY=            -72.0971   ZZ=            -87.0697
   XY=             -0.0255   XZ=              0.0945   YZ=              0.0192
 Traceless Quadrupole moment (field-independent basis, Debye-Ang):
   XX=              9.6678   YY=              2.6524   ZZ=            -12.3202
   XY=             -0.0255   XZ=              0.0945   YZ=              0.0192
 Octapole moment (field-independent basis, Debye-Ang**2):
  XXX=             -0.0867  YYY=             -0.4219  ZZZ=              0.1296  XYY=              0.0022
  XXY=              0.0228  XXZ=              4.3185  XZZ=              0.0322  YZZ=             -0.0345
  YYZ=              0.2059  XYZ=              1.4102
 Hexadecapole moment (field-independent basis, Debye-Ang**3):
 XXXX=          -4979.5485 YYYY=           -554.1771 ZZZZ=            -97.4822 XXXY=             -0.7921
 XXXZ=              4.0785 YYYX=             -0.0970 YYYZ=              0.0926 ZZZX=              0.1302
 ZZZY=              0.0248 XXYY=           -926.4503 XXZZ=          -1040.7247 YYZZ=           -125.9833
 XXYZ=             -0.1202 YYXZ=              0.0981 ZZXY=              0.1375
 N-N= 6.952058374076D+02 E-N=-2.637296756495D+03  KE= 5.334498071078D+02
   1 Symmetry operations used in ECPInt.
 ECPInt:  NShTT=    5460 NPrTT=   21948 LenC2=    4980 LenP2D=   14206.
 LDataN:  DoStor=T MaxTD1= 5 Len=  102
 Calling FoFJK, ICntrl=      2127 FMM=F ISym2X=0 I1Cent= 0 IOpClX= 0 NMat=1 NMatS=1 NMatT=0.
 ***** Axes restored to original set *****
 -------------------------------------------------------------------
 Center     Atomic                   Forces (Hartrees/Bohr)
 Number     Number              X              Y              Z
 -------------------------------------------------------------------
      1        6           0.035630480    0.001037776    0.000042592
      2        6          -0.035774198    0.000221485   -0.000460069
      3        6           0.017333798   -0.000679004    0.000678368
      4        6          -0.013072730   -0.006314829   -0.000138136
      5        6           0.004855376    0.001894707   -0.000011405
      6        6          -0.000697929   -0.000532888    0.000067291
      7        6           0.004592922   -0.001800599    0.000281349
      8        6          -0.011589577    0.007228450   -0.000553542
      9        6          -0.017384879   -0.000736812    0.000564439
     10        6           0.012002722    0.006932423   -0.000445806
     11        6          -0.004812448   -0.002095294    0.000170730
     12        6           0.000657657   -0.000086849    0.000147031
     13        6          -0.004544432    0.001544680    0.000160456
     14        6           0.012797751   -0.006587207   -0.000738585
     15        1           0.003583417   -0.002245760    0.000322836
     16        1          -0.002159367   -0.004336177   -0.000035597
     17        1          -0.005053662    0.000019597   -0.000108132
     18        1          -0.002177159    0.004486762   -0.000127826
     19        1           0.003661441    0.002151339    0.000058411
     20        1          -0.003756430    0.002043398    0.000174777
     21        1           0.002011891    0.004478620    0.000129402
     22        1           0.005085277    0.000121141   -0.000110348
     23        1           0.002337718   -0.004331502   -0.000131133
     24        1          -0.003527640   -0.002413458    0.000062898
 -------------------------------------------------------------------
 Cartesian Forces:  Max     0.035774198 RMS     0.007707398

 GradGradGradGradGradGradGradGradGradGradGradGradGradGradGradGradGradGrad
 Berny optimization.
 FormGI is forming the generalized inverse of G from B-inverse, IUseBI=4.
 Internal  Forces:  Max     0.036496351 RMS     0.004411461
 Search for a local minimum.
 Step number   1 out of a maximum of  127
 All quantities printed in internal units (Hartrees-Bohrs-Radians)
 Mixed Optimization -- RFO/linear search
 Second derivative matrix not updated -- first step.
 ITU=  0
     Eigenvalues ---    0.00230   0.00895   0.01387   0.01688   0.01690
     Eigenvalues ---    0.01801   0.02001   0.02129   0.02130   0.02131
     Eigenvalues ---    0.02132   0.02138   0.02139   0.02140   0.02140
     Eigenvalues ---    0.02143   0.02147   0.02149   0.02153   0.02155
     Eigenvalues ---    0.02155   0.02157   0.02158   0.16000   0.16000
     Eigenvalues ---    0.16000   0.16000   0.16000   0.16000   0.16000
     Eigenvalues ---    0.16000   0.16000   0.16000   0.22000   0.22000
     Eigenvalues ---    0.22000   0.22000   0.23474   0.23480   0.24994
     Eigenvalues ---    0.24998   0.35121   0.35128   0.35141   0.35148
     Eigenvalues ---    0.35155   0.35157   0.35163   0.35168   0.35168
     Eigenvalues ---    0.35182   0.40943   0.40967   0.41959   0.41970
     Eigenvalues ---    0.42190   0.42191   0.46119   0.46148   0.46259
     Eigenvalues ---    0.46273   0.46329   0.46339   0.46446   0.46475
     Eigenvalues ---    1.04327
 RFO step:  Lambda=-4.55394651D-03 EMin= 2.30000000D-03
 Linear search not attempted -- first point.
 Iteration  1 RMS(Cart)=  0.18143508 RMS(Int)=  0.00628349
 Iteration  2 RMS(Cart)=  0.04722202 RMS(Int)=  0.00050896
 Iteration  3 RMS(Cart)=  0.00099225 RMS(Int)=  0.00036363
 Iteration  4 RMS(Cart)=  0.00000063 RMS(Int)=  0.00036363
 Variable       Old X    -DE/DX   Delta X   Delta X   Delta X     New X
                                 (Linear)    (Quad)   (Total)
    R1        2.26954   0.03650   0.00000   0.03483   0.03483   2.30437
    R2        2.70258   0.00084   0.00000   0.00204   0.00203   2.70462
    R3        2.70291   0.00071   0.00000   0.00172   0.00171   2.70462
    R4        2.63908   0.01135   0.00000   0.02485   0.02487   2.66395
    R5        2.64058   0.01142   0.00000   0.02520   0.02523   2.66580
    R6        2.64002  -0.00030   0.00000  -0.00078  -0.00078   2.63924
    R7        2.05479   0.00365   0.00000   0.01025   0.01025   2.06504
    R8        2.63671   0.00406   0.00000   0.00801   0.00799   2.64470
    R9        2.05424   0.00482   0.00000   0.01353   0.01353   2.06777
   R10        2.63519   0.00508   0.00000   0.01029   0.01027   2.64546
   R11        2.05420   0.00505   0.00000   0.01418   0.01418   2.06839
   R12        2.63661   0.00093   0.00000   0.00211   0.00211   2.63872
   R13        2.05381   0.00499   0.00000   0.01399   0.01399   2.06780
   R14        2.05446   0.00376   0.00000   0.01055   0.01056   2.06502
   R15        2.64078   0.01088   0.00000   0.02396   0.02398   2.66476
   R16        2.63862   0.01203   0.00000   0.02638   0.02640   2.66501
   R17        2.63846   0.00023   0.00000   0.00043   0.00043   2.63889
   R18        2.05468   0.00368   0.00000   0.01033   0.01034   2.06502
   R19        2.63595   0.00468   0.00000   0.00936   0.00934   2.64529
   R20        2.05402   0.00489   0.00000   0.01374   0.01374   2.06776
   R21        2.63589   0.00448   0.00000   0.00900   0.00898   2.64487
   R22        2.05411   0.00509   0.00000   0.01428   0.01428   2.06838
   R23        2.63805   0.00048   0.00000   0.00109   0.00109   2.63913
   R24        2.05402   0.00492   0.00000   0.01380   0.01380   2.06782
   R25        2.05435   0.00380   0.00000   0.01066   0.01066   2.06502
    A1        2.10586   0.00095   0.00000   0.00278   0.00279   2.10864
    A2        2.08534   0.00341   0.00000   0.01248   0.01246   2.09780
    A3        2.09195  -0.00437   0.00000  -0.01523  -0.01522   2.07673
    A4        2.09354   0.00142   0.00000   0.00680   0.00682   2.10036
    A5        2.10311  -0.00293   0.00000  -0.01689  -0.01690   2.08621
    A6        2.08654   0.00151   0.00000   0.01009   0.01008   2.09662
    A7        2.09547   0.00123   0.00000   0.00349   0.00347   2.09894
    A8        2.09452  -0.00112   0.00000  -0.00479  -0.00478   2.08973
    A9        2.09320  -0.00011   0.00000   0.00131   0.00132   2.09451
   A10        2.09490  -0.00015   0.00000  -0.00346  -0.00350   2.09140
   A11        2.09513  -0.00011   0.00000   0.00061   0.00063   2.09576
   A12        2.09316   0.00026   0.00000   0.00285   0.00287   2.09603
   A13        2.09388   0.00127   0.00000   0.00449   0.00448   2.09835
   A14        2.09677  -0.00048   0.00000  -0.00128  -0.00127   2.09550
   A15        2.09254  -0.00080   0.00000  -0.00321  -0.00321   2.08933
   A16        2.09663   0.00059   0.00000   0.00394   0.00396   2.10059
   A17        2.09888  -0.00232   0.00000  -0.01429  -0.01431   2.08456
   A18        2.08767   0.00173   0.00000   0.01037   0.01036   2.09803
   A19        2.09584   0.00171   0.00000   0.00585   0.00581   2.10166
   A20        2.09488   0.00274   0.00000   0.00986   0.00985   2.10473
   A21        2.09229  -0.00446   0.00000  -0.01553  -0.01553   2.07677
   A22        2.09492   0.00103   0.00000   0.00530   0.00532   2.10024
   A23        2.10185  -0.00275   0.00000  -0.01622  -0.01624   2.08560
   A24        2.08640   0.00172   0.00000   0.01097   0.01095   2.09735
   A25        2.09431   0.00143   0.00000   0.00461   0.00459   2.09890
   A26        2.09414  -0.00112   0.00000  -0.00473  -0.00473   2.08941
   A27        2.09472  -0.00031   0.00000   0.00014   0.00015   2.09487
   A28        2.09491  -0.00014   0.00000  -0.00347  -0.00351   2.09140
   A29        2.09425   0.00007   0.00000   0.00170   0.00172   2.09597
   A30        2.09402   0.00008   0.00000   0.00177   0.00179   2.09581
   A31        2.09512   0.00106   0.00000   0.00331   0.00329   2.09841
   A32        2.09514  -0.00027   0.00000  -0.00007  -0.00007   2.09507
   A33        2.09291  -0.00079   0.00000  -0.00321  -0.00320   2.08971
   A34        2.09477   0.00108   0.00000   0.00586   0.00588   2.10065
   A35        2.10037  -0.00256   0.00000  -0.01518  -0.01520   2.08517
   A36        2.08802   0.00148   0.00000   0.00936   0.00934   2.09736
   A37        3.12424   0.00211   0.00000   0.09837   0.09828   3.22252
   A38        3.10784   0.00288   0.00000   0.13491   0.13491   3.24275
   A39        3.17376  -0.00114   0.00000  -0.06983  -0.07148   3.10228
   A40        3.11806   0.00089   0.00000   0.05704   0.05870   3.17676
    D1       -3.13011   0.00081   0.00000   0.06381   0.06196  -3.06815
    D2        0.05968  -0.00014   0.00000  -0.01294  -0.01302   0.04666
    D3        0.04685   0.00007   0.00000   0.00222   0.00230   0.04915
    D4       -3.04656  -0.00088   0.00000  -0.07454  -0.07268  -3.11923
    D5       -3.13208   0.00000   0.00000  -0.00257  -0.00302  -3.13510
    D6        0.00663   0.00007   0.00000  -0.00044  -0.00096   0.00567
    D7       -0.00091  -0.00005   0.00000   0.00049   0.00089  -0.00002
    D8        3.13781   0.00001   0.00000   0.00262   0.00295   3.14076
    D9        3.12833   0.00009   0.00000   0.00632   0.00677   3.13510
   D10       -0.00940  -0.00004   0.00000   0.00202   0.00257  -0.00683
   D11       -0.00297   0.00016   0.00000   0.00335   0.00294  -0.00002
   D12       -3.14070   0.00003   0.00000  -0.00096  -0.00125   3.14124
   D13        0.00412  -0.00008   0.00000  -0.00396  -0.00412   0.00000
   D14       -3.13956  -0.00001   0.00000  -0.00099  -0.00109  -3.14065
   D15       -3.13462  -0.00014   0.00000  -0.00603  -0.00615  -3.14076
   D16        0.00488  -0.00007   0.00000  -0.00305  -0.00312   0.00176
   D17       -0.00347   0.00011   0.00000   0.00360   0.00352   0.00005
   D18        3.13712   0.00010   0.00000   0.00402   0.00404   3.14116
   D19        3.14021   0.00004   0.00000   0.00063   0.00049   3.14071
   D20       -0.00239   0.00003   0.00000   0.00105   0.00102  -0.00137
   D21       -0.00041  -0.00001   0.00000   0.00023   0.00031  -0.00009
   D22        3.14002  -0.00001   0.00000   0.00073   0.00087   3.14089
   D23       -3.14099  -0.00000   0.00000  -0.00018  -0.00021  -3.14120
   D24       -0.00056   0.00000   0.00000   0.00032   0.00034  -0.00022
   D25        0.00363  -0.00012   0.00000  -0.00371  -0.00355   0.00008
   D26        3.14139  -0.00001   0.00000   0.00052   0.00062  -3.14118
   D27       -3.13681  -0.00013   0.00000  -0.00421  -0.00410  -3.14091
   D28        0.00095  -0.00001   0.00000   0.00002   0.00007   0.00102
   D29       -3.11241  -0.00039   0.00000  -0.01878  -0.01915  -3.13157
   D30        0.02199  -0.00015   0.00000  -0.01029  -0.01081   0.01118
   D31        0.00934  -0.00032   0.00000  -0.00849  -0.00809   0.00125
   D32       -3.13945  -0.00008   0.00000  -0.00000   0.00025  -3.13919
   D33        3.11318   0.00036   0.00000   0.01787   0.01828   3.13146
   D34       -0.02116   0.00013   0.00000   0.00980   0.01031  -0.01085
   D35       -0.00858   0.00030   0.00000   0.00764   0.00724  -0.00134
   D36        3.14027   0.00007   0.00000  -0.00044  -0.00073   3.13954
   D37       -0.00227   0.00008   0.00000   0.00233   0.00221  -0.00005
   D38        3.13431   0.00021   0.00000   0.00758   0.00751  -3.14137
   D39       -3.13673  -0.00013   0.00000  -0.00597  -0.00608   3.14038
   D40       -0.00015  -0.00000   0.00000  -0.00071  -0.00078  -0.00094
   D41       -0.00558   0.00013   0.00000   0.00459   0.00452  -0.00106
   D42        3.13468   0.00013   0.00000   0.00520   0.00523   3.13991
   D43        3.14103   0.00001   0.00000  -0.00066  -0.00078   3.14025
   D44       -0.00189   0.00000   0.00000  -0.00004  -0.00007  -0.00196
   D45        0.00634  -0.00016   0.00000  -0.00544  -0.00537   0.00097
   D46       -3.14134   0.00000   0.00000   0.00101   0.00114  -3.14020
   D47       -3.13392  -0.00015   0.00000  -0.00605  -0.00608  -3.14000
   D48        0.00158   0.00000   0.00000   0.00040   0.00043   0.00201
   D49        0.00075  -0.00004   0.00000  -0.00064  -0.00052   0.00024
   D50        3.13514   0.00016   0.00000   0.00728   0.00741  -3.14063
   D51       -3.13476  -0.00020   0.00000  -0.00709  -0.00702   3.14141
   D52       -0.00037   0.00001   0.00000   0.00083   0.00091   0.00054
         Item               Value     Threshold  Converged?
 Maximum Force            0.036496     0.000450     NO 
 RMS     Force            0.004411     0.000300     NO 
 Maximum Displacement     0.646329     0.001800     NO 
 RMS     Displacement     0.222800     0.001200     NO 
 Predicted change in Energy=-2.399763D-03
 GradGradGradGradGradGradGradGradGradGradGradGradGradGradGradGradGradGrad

                          Input orientation:                          
 ---------------------------------------------------------------------
 Center     Atomic      Atomic             Coordinates (Angstroms)
 Number     Number       Type             X           Y           Z
 ---------------------------------------------------------------------
      1          6           0        0.610430    0.254888   -0.080152
      2          6           0       -0.608915    0.268583   -0.079935
      3          6           0       -2.033814    0.140466   -0.039324
      4          6           0       -2.643849   -1.129789    0.000323
      5          6           0       -4.035483   -1.243437    0.031945
      6          6           0       -4.837122   -0.096280    0.024536
      7          6           0       -4.240817    1.169674   -0.014800
      8          6           0       -2.850105    1.290963   -0.046513
      9          6           0        2.034896    0.121560   -0.041255
     10          6           0        2.857948    1.265548    0.007210
     11          6           0        4.247916    1.133778    0.033036
     12          6           0        4.836596   -0.136063    0.011084
     13          6           0        4.028037   -1.277529   -0.035647
     14          6           0        2.637233   -1.153440   -0.061585
     15          1           0       -2.020010   -2.026978    0.005400
     16          1           0       -4.498472   -2.234372    0.063497
     17          1           0       -5.927471   -0.188824    0.048977
     18          1           0       -4.863922    2.069143   -0.021389
     19          1           0       -2.384946    2.279315   -0.076824
     20          1           0        2.399917    2.257518    0.025546
     21          1           0        4.876921    2.028332    0.070835
     22          1           0        5.926394   -0.236112    0.029827
     23          1           0        4.484539   -2.271875   -0.051609
     24          1           0        2.006857   -2.045339   -0.097162
 ---------------------------------------------------------------------
                    Distance matrix (angstroms):
                    1          2          3          4          5
     1  C    0.000000
     2  C    1.219421   0.000000
     3  C    2.647033   1.431223   0.000000
     4  C    3.537532   2.470392   1.409703   0.000000
     5  C    4.882832   3.747011   2.434532   1.396625   0.000000
     6  C    5.459862   4.245206   2.814012   2.424701   1.399517
     7  C    4.937175   3.742582   2.435309   2.799654   2.422282
     8  C    3.612462   2.463597   1.410683   2.429974   2.799011
     9  C    1.431221   2.648178   4.068754   4.843372   6.222385
    10  C    2.465848   3.608417   5.019692   6.000621   7.335871
    11  C    3.743871   4.934586   6.360192   7.254049   8.617764
    12  C    4.245192   5.461283   6.876158   7.546169   8.940945
    13  C    3.745707   4.888123   6.225492   6.673618   8.063875
    14  C    2.468130   3.544003   4.846996   5.281497   6.673978
    15  H    3.483310   2.695936   2.167950   1.092771   2.162584
    16  H    5.684886   4.627527   3.424174   2.159566   1.094215
    17  H    6.554213   5.339746   3.908554   3.416132   2.166130
    18  H    5.767451   4.620663   3.424854   3.893887   3.415017
    19  H    3.615327   2.682787   2.167804   3.419791   3.891771
    20  H    2.687742   3.608331   4.913663   6.075693   7.326055
    21  H    4.622861   5.763145   7.164805   8.157246   9.494047
    22  H    5.339724   6.555687   7.969411   8.616762  10.012677
    23  H    4.625373   5.691924   6.950429   7.219486   8.582275
    24  H    2.690975   3.492391   4.594357   4.740971   6.096687
                    6          7          8          9         10
     6  C    0.000000
     7  C    1.399917   0.000000
     8  C    2.424403   1.396351   0.000000
     9  C    6.875785   6.362689   5.023024   0.000000
    10  C    7.814664   7.099446   5.708362   1.410132   0.000000
    11  C    9.167935   8.488944   7.100207   2.434659   1.396439
    12  C    9.673809   9.170880   7.818254   2.814007   2.424784
    13  C    8.943713   8.623408   7.342078   2.435178   2.799677
    14  C    7.549237   7.259932   6.007180   1.410265   2.430011
    15  H    3.415272   3.892425   3.420597   4.589189   5.885168
    16  H    2.165096   3.414681   3.893226   6.945955   8.146749
    17  H    1.094543   2.166654   3.416002   7.968926   8.905085
    18  H    2.166075   1.094234   2.159086   7.168484   7.763624
    19  H    3.415683   2.163193   1.092763   4.918555   5.340667
    20  H    7.610197   6.729366   5.338740   2.167953   1.092763
    21  H    9.943779   9.158480   7.763016   3.424244   2.159199
    22  H   10.764426  10.264034   8.908688   3.908547   3.416264
    23  H    9.572480   9.379629   8.154192   3.424820   3.893921
    24  H    7.117141   7.026843   5.892670   2.167801   3.420121
                   11         12         13         14         15
    11  C    0.000000
    12  C    1.399829   0.000000
    13  C    2.422286   1.399607   0.000000
    14  C    2.799039   2.424363   1.396569   0.000000
    15  H    7.019832   7.112569   6.094442   4.738931   0.000000
    16  H    9.372549   9.568132   8.580602   7.218195   2.487802
    17  H   10.260996  10.764264  10.015217   8.619563   4.318444
    18  H    9.159883   9.948067   9.500913   8.164188   4.986658
    19  H    6.731953   7.615278   7.333430   6.083282   4.322511
    20  H    2.162857   3.415676   3.892438   3.420313   6.155734
    21  H    1.094213   2.165594   3.414771   3.893252   8.001092
    22  H    2.166541   1.094541   2.166240   3.415908   8.145744
    23  H    3.414913   2.165541   1.094245   2.159523   6.509408
    24  H    3.891797   3.415330   2.162980   1.092760   4.028215
                   16         17         18         19         20
    16  H    0.000000
    17  H    2.495299   0.000000
    18  H    4.319838   2.496898   0.000000
    19  H    4.985986   4.319377   2.488486   0.000000
    20  H    8.232028   8.679316   7.266432   4.786008   0.000000
    21  H   10.298965  11.029558   9.741365   7.267703   2.487997
    22  H   10.614707  11.853975  11.033936   8.684304   4.319057
    23  H    8.983827  10.618813  10.307234   8.240376   4.986683
    24  H    6.510058   8.149943   8.008889   6.163683   4.322514
                   21         22         23         24
    21  H    0.000000
    22  H    2.496154   0.000000
    23  H    4.319807   2.495978   0.000000
    24  H    4.986009   4.318819   2.488434   0.000000
 Stoichiometry    C14H10
 Framework group  C1[X(C14H10)]
 Deg. of freedom    66
 Full point group                 C1      NOp   1
 Largest Abelian subgroup         C1      NOp   1
 Largest concise Abelian subgroup C1      NOp   1
                         Standard orientation:                         
 ---------------------------------------------------------------------
 Center     Atomic      Atomic             Coordinates (Angstroms)
 Number     Number       Type             X           Y           Z
 ---------------------------------------------------------------------
      1          6           0        0.609326   -0.222565    0.061221
      2          6           0       -0.610066   -0.230889    0.062156
      3          6           0       -2.034425   -0.096544    0.022728
      4          6           0       -2.638898    1.176340   -0.017782
      5          6           0       -4.030047    1.296080   -0.048236
      6          6           0       -4.836722    0.152474   -0.038785
      7          6           0       -4.245960   -1.116049    0.001424
      8          6           0       -2.855767   -1.243426    0.031977
      9          6           0        2.034329   -0.095554    0.020846
     10          6           0        2.852290   -1.243211   -0.027096
     11          6           0        4.242800   -1.117593   -0.054366
     12          6           0        4.837086    0.149667   -0.034395
     13          6           0        4.033604    1.294736    0.011802
     14          6           0        2.642293    1.176802    0.039175
     15          1           0       -2.011120    2.070767   -0.024453
     16          1           0       -4.488698    2.289009   -0.080474
     17          1           0       -5.926676    0.249791   -0.062314
     18          1           0       -4.873013   -2.012757    0.009608
     19          1           0       -2.394936   -2.233783    0.062969
     20          1           0        2.389878   -2.233173   -0.043885
     21          1           0        4.867824   -2.014949   -0.091743
     22          1           0        5.927296    0.244896   -0.054267
     23          1           0        4.494495    2.287079    0.026215
     24          1           0        2.015884    2.071509    0.074334
 ---------------------------------------------------------------------
 Rotational constants (GHZ):           2.8020151           0.2484235           0.2282495
 Standard basis: def2SVPP (5D, 7F)
 There are   230 symmetry adapted cartesian basis functions of A   symmetry.
 There are   216 symmetry adapted basis functions of A   symmetry.
   216 basis functions,   390 primitive gaussians,   230 cartesian basis functions
    47 alpha electrons       47 beta electrons
       nuclear repulsion energy       691.8667580344 Hartrees.
 NAtoms=   24 NActive=   24 NUniq=   24 SFac= 1.00D+00 NAtFMM=   60 NAOKFM=F Big=F
 Integral buffers will be    131072 words long.
 Raffenetti 2 integral format.
 Two-electron integral symmetry is turned on.
 Nuclear repulsion after empirical dispersion term =      691.8195394792 Hartrees.
 One-electron integrals computed using PRISM.
   1 Symmetry operations used in ECPInt.
 ECPInt:  NShTT=    5460 NPrTT=   21948 LenC2=    4975 LenP2D=   14159.
 LDataN:  DoStor=T MaxTD1= 4 Len=   56
 NBasis=   216 RedAO= T EigKep=  3.09D-04  NBF=   216
 NBsUse=   216 1.00D-06 EigRej= -1.00D+00 NBFU=   216
 Initial guess from the checkpoint file:  "/home/software/g16/scr/Gau-12557.chk"
 B after Tr=     0.000000    0.000000   -0.000000
         Rot=    0.999999    0.001364    0.000293    0.000625 Ang=   0.18 deg.
 ExpMin= 1.22D-01 ExpMax= 1.24D+03 ExpMxC= 1.86D+02 IAcc=3 IRadAn=         5 AccDes= 0.00D+00
 Harris functional with IExCor=  402 and IRadAn=       5 diagonalized for initial guess.
 HarFok:  IExCor=  402 AccDes= 0.00D+00 IRadAn=         5 IDoV= 1 UseB2=F ITyADJ=14
 ICtDFT=  3500011 ScaDFX=  1.000000  1.000000  1.000000  1.000000
 FoFCou: FMM=F IPFlag=           0 FMFlag=      100000 FMFlg1=           0
         NFxFlg=           0 DoJE=T BraDBF=F KetDBF=T FulRan=T
         wScrn=  0.000000 ICntrl=       500 IOpCl=  0 I1Cent=   200000004 NGrid=           0
         NMat0=    1 NMatS0=      1 NMatT0=    0 NMatD0=    1 NMtDS0=    0 NMtDT0=    0
 Petite list used in FoFCou.
 Requested convergence on RMS density matrix=1.00D-08 within 128 cycles.
 Requested convergence on MAX density matrix=1.00D-06.
 Requested convergence on             energy=1.00D-06.
 No special actions if energy rises.
 Integral accuracy reduced to 1.0D-05 until final iterations.
 Initial convergence to 1.0D-05 achieved.  Increase integral accuracy.
 SCF Done:  E(RB3LYP) =  -539.102289544     A.U. after   14 cycles
            NFock= 14  Conv=0.67D-08     -V/T= 2.0113
   1 Symmetry operations used in ECPInt.
 ECPInt:  NShTT=    5460 NPrTT=   21948 LenC2=    4975 LenP2D=   14159.
 LDataN:  DoStor=T MaxTD1= 5 Len=  102
 Calling FoFJK, ICntrl=      2127 FMM=F ISym2X=0 I1Cent= 0 IOpClX= 0 NMat=1 NMatS=1 NMatT=0.
 ***** Axes restored to original set *****
 -------------------------------------------------------------------
 Center     Atomic                   Forces (Hartrees/Bohr)
 Number     Number              X              Y              Z
 -------------------------------------------------------------------
      1        6           0.001946316   -0.004464648    0.001766696
      2        6          -0.001763676   -0.006235503    0.001602658
      3        6           0.004016233    0.006672535   -0.001888857
      4        6          -0.002351913   -0.001514903    0.000021382
      5        6           0.001634101    0.001042471    0.000179383
      6        6          -0.000314992    0.000306189   -0.000059408
      7        6           0.001436952   -0.000498511    0.000099603
      8        6          -0.003925033   -0.000362260    0.000207437
      9        6          -0.004223176    0.005209383   -0.002001063
     10        6           0.003940061   -0.000038760    0.000181912
     11        6          -0.001378750   -0.000507044    0.000161657
     12        6           0.000303261    0.000217166   -0.000081164
     13        6          -0.001712185    0.001048421    0.000215351
     14        6           0.002397215   -0.001185009    0.000159572
     15        1           0.000658585    0.000466096   -0.000059593
     16        1           0.000234785    0.000014128   -0.000043252
     17        1           0.000320477    0.000041071   -0.000011096
     18        1           0.000037534   -0.000087918    0.000036498
     19        1           0.000528058   -0.000288120   -0.000112728
     20        1          -0.000605875   -0.000311183   -0.000196951
     21        1          -0.000075020   -0.000044256   -0.000014133
     22        1          -0.000321189    0.000044719    0.000031107
     23        1          -0.000203367    0.000056540   -0.000021545
     24        1          -0.000578400    0.000419393   -0.000173469
 -------------------------------------------------------------------
 Cartesian Forces:  Max     0.006672535 RMS     0.001847905

 GradGradGradGradGradGradGradGradGradGradGradGradGradGradGradGradGradGrad
 Berny optimization.
 Using GEDIIS/GDIIS optimizer.
 FormGI is forming the generalized inverse of G from B-inverse, IUseBI=4.
 Internal  Forces:  Max     0.010008206 RMS     0.001449607
 Search for a local minimum.
 Step number   2 out of a maximum of  127
 All quantities printed in internal units (Hartrees-Bohrs-Radians)
 Mixed Optimization -- RFO/linear search
 Update second derivatives using D2CorX and points    1    2
 DE= -1.03D-03 DEPred=-2.40D-03 R= 4.29D-01
 Trust test= 4.29D-01 RLast= 2.35D-01 DXMaxT set to 3.00D-01
 ITU=  0  0
 Use linear search instead of GDIIS.
     Eigenvalues ---    0.00230   0.00944   0.01396   0.01687   0.01790
     Eigenvalues ---    0.01984   0.02101   0.02130   0.02131   0.02131
     Eigenvalues ---    0.02138   0.02139   0.02140   0.02140   0.02142
     Eigenvalues ---    0.02146   0.02149   0.02152   0.02155   0.02155
     Eigenvalues ---    0.02156   0.02158   0.03910   0.15009   0.16000
     Eigenvalues ---    0.16000   0.16000   0.16000   0.16000   0.16000
     Eigenvalues ---    0.16000   0.16000   0.16002   0.21758   0.22000
     Eigenvalues ---    0.22000   0.22012   0.22473   0.23470   0.24827
     Eigenvalues ---    0.25088   0.33020   0.35123   0.35131   0.35143
     Eigenvalues ---    0.35151   0.35158   0.35160   0.35167   0.35169
     Eigenvalues ---    0.35179   0.39541   0.40953   0.41635   0.41976
     Eigenvalues ---    0.41989   0.42245   0.44331   0.46130   0.46158
     Eigenvalues ---    0.46274   0.46328   0.46441   0.46467   0.46939
     Eigenvalues ---    0.95470
 RFO step:  Lambda=-3.79075766D-03 EMin= 2.29960701D-03
 Quartic linear search produced a step of -0.35443.
 Iteration  1 RMS(Cart)=  0.22049051 RMS(Int)=  0.01454512
 Iteration  2 RMS(Cart)=  0.16568735 RMS(Int)=  0.00475023
 Iteration  3 RMS(Cart)=  0.01293857 RMS(Int)=  0.00016798
 Iteration  4 RMS(Cart)=  0.00000221 RMS(Int)=  0.00016798
 Iteration  5 RMS(Cart)=  0.00000000 RMS(Int)=  0.00016798
 Variable       Old X    -DE/DX   Delta X   Delta X   Delta X     New X
                                 (Linear)    (Quad)   (Total)
    R1        2.30437  -0.00052  -0.01234   0.04325   0.03091   2.33528
    R2        2.70462  -0.00294  -0.00072  -0.00217  -0.00289   2.70173
    R3        2.70462  -0.00282  -0.00061  -0.00237  -0.00298   2.70164
    R4        2.66395   0.00026  -0.00882   0.03140   0.02260   2.68655
    R5        2.66580   0.00057  -0.00894   0.03229   0.02336   2.68917
    R6        2.63924  -0.00180   0.00028  -0.00353  -0.00325   2.63598
    R7        2.06504  -0.00001  -0.00363   0.01273   0.00909   2.07413
    R8        2.64470  -0.00019  -0.00283   0.00964   0.00680   2.65150
    R9        2.06777  -0.00011  -0.00480   0.01661   0.01181   2.07958
   R10        2.64546  -0.00066  -0.00364   0.01182   0.00817   2.65363
   R11        2.06839  -0.00032  -0.00503   0.01703   0.01200   2.08039
   R12        2.63872  -0.00160  -0.00075   0.00037  -0.00037   2.63835
   R13        2.06780  -0.00009  -0.00496   0.01722   0.01226   2.08006
   R14        2.06502  -0.00004  -0.00374   0.01304   0.00930   2.07433
   R15        2.66476   0.00078  -0.00850   0.03104   0.02256   2.68732
   R16        2.66501   0.00005  -0.00936   0.03299   0.02365   2.68867
   R17        2.63889  -0.00162  -0.00015  -0.00175  -0.00190   2.63699
   R18        2.06502  -0.00004  -0.00367   0.01277   0.00911   2.07413
   R19        2.64529  -0.00064  -0.00331   0.01069   0.00737   2.65266
   R20        2.06776  -0.00008  -0.00487   0.01693   0.01206   2.07982
   R21        2.64487  -0.00021  -0.00318   0.01083   0.00764   2.65251
   R22        2.06838  -0.00032  -0.00506   0.01715   0.01209   2.08047
   R23        2.63913  -0.00182  -0.00039  -0.00124  -0.00162   2.63751
   R24        2.06782  -0.00014  -0.00489   0.01690   0.01201   2.07984
   R25        2.06502  -0.00000  -0.00378   0.01325   0.00947   2.07449
    A1        2.10864  -0.00217  -0.00099  -0.00228  -0.00329   2.10535
    A2        2.09780   0.00292  -0.00442   0.02295   0.01850   2.11630
    A3        2.07673  -0.00074   0.00539  -0.02060  -0.01521   2.06152
    A4        2.10036   0.00009  -0.00242   0.00872   0.00632   2.10668
    A5        2.08621  -0.00088   0.00599  -0.02430  -0.01832   2.06789
    A6        2.09662   0.00079  -0.00357   0.01558   0.01200   2.10861
    A7        2.09894   0.00042  -0.00123   0.00537   0.00413   2.10307
    A8        2.08973  -0.00042   0.00169  -0.00730  -0.00560   2.08414
    A9        2.09451   0.00000  -0.00047   0.00193   0.00146   2.09597
   A10        2.09140  -0.00021   0.00124  -0.00520  -0.00398   2.08742
   A11        2.09576   0.00012  -0.00022   0.00128   0.00107   2.09683
   A12        2.09603   0.00009  -0.00102   0.00392   0.00291   2.09894
   A13        2.09835   0.00008  -0.00159   0.00564   0.00405   2.10240
   A14        2.09550  -0.00006   0.00045  -0.00172  -0.00126   2.09424
   A15        2.08933  -0.00002   0.00114  -0.00393  -0.00279   2.08654
   A16        2.10059   0.00037  -0.00140   0.00607   0.00468   2.10527
   A17        2.08456  -0.00080   0.00507  -0.02068  -0.01561   2.06895
   A18        2.09803   0.00043  -0.00367   0.01461   0.01093   2.10896
   A19        2.10166   0.00217  -0.00206   0.01276   0.01064   2.11229
   A20        2.10473  -0.00143  -0.00349   0.00839   0.00484   2.10957
   A21        2.07677  -0.00074   0.00550  -0.02098  -0.01549   2.06128
   A22        2.10024   0.00038  -0.00189   0.00782   0.00595   2.10619
   A23        2.08560  -0.00090   0.00576  -0.02345  -0.01771   2.06789
   A24        2.09735   0.00051  -0.00388   0.01563   0.01173   2.10908
   A25        2.09890   0.00001  -0.00163   0.00563   0.00399   2.10289
   A26        2.08941  -0.00004   0.00168  -0.00596  -0.00428   2.08513
   A27        2.09487   0.00003  -0.00005   0.00033   0.00028   2.09515
   A28        2.09140  -0.00021   0.00124  -0.00521  -0.00399   2.08741
   A29        2.09597   0.00009  -0.00061   0.00250   0.00190   2.09787
   A30        2.09581   0.00012  -0.00063   0.00271   0.00209   2.09790
   A31        2.09841   0.00049  -0.00117   0.00530   0.00412   2.10254
   A32        2.09507  -0.00008   0.00003  -0.00005  -0.00002   2.09505
   A33        2.08971  -0.00041   0.00114  -0.00525  -0.00411   2.08559
   A34        2.10065   0.00007  -0.00208   0.00746   0.00540   2.10605
   A35        2.08517  -0.00077   0.00539  -0.02179  -0.01641   2.06876
   A36        2.09736   0.00071  -0.00331   0.01432   0.01100   2.10836
   A37        3.22252  -0.00886  -0.03483  -0.17970  -0.21457   3.00795
   A38        3.24275  -0.01001  -0.04781  -0.17915  -0.22697   3.01578
   A39        3.10228   0.00195   0.02533   0.00555   0.03014   3.13242
   A40        3.17676  -0.00161  -0.02081  -0.00631  -0.02623   3.15053
    D1       -3.06815  -0.00079  -0.02196   0.01042  -0.01230  -3.08045
    D2        0.04666   0.00010   0.00461  -0.00825  -0.00386   0.04280
    D3        0.04915  -0.00017  -0.00082  -0.00499  -0.00556   0.04358
    D4       -3.11923   0.00072   0.02576  -0.02365   0.00287  -3.11636
    D5       -3.13510  -0.00041   0.00107  -0.01083  -0.00994   3.13814
    D6        0.00567  -0.00037   0.00034  -0.00738  -0.00728  -0.00161
    D7       -0.00002   0.00013  -0.00031   0.00166   0.00156   0.00154
    D8        3.14076   0.00016  -0.00104   0.00511   0.00422  -3.13821
    D9        3.13510   0.00039  -0.00240   0.01475   0.01266  -3.13543
   D10       -0.00683   0.00039  -0.00091   0.00985   0.00926   0.00244
   D11       -0.00002  -0.00013  -0.00104   0.00244   0.00116   0.00114
   D12        3.14124  -0.00012   0.00044  -0.00246  -0.00223   3.13901
   D13        0.00000  -0.00004   0.00146  -0.00433  -0.00295  -0.00295
   D14       -3.14065  -0.00004   0.00039  -0.00151  -0.00118   3.14135
   D15       -3.14076  -0.00007   0.00218  -0.00779  -0.00566   3.13676
   D16        0.00176  -0.00008   0.00111  -0.00496  -0.00389  -0.00213
   D17        0.00005  -0.00005  -0.00125   0.00290   0.00160   0.00165
   D18        3.14116   0.00000  -0.00143   0.00427   0.00285  -3.13917
   D19        3.14071  -0.00005  -0.00017   0.00007  -0.00019   3.14052
   D20       -0.00137   0.00001  -0.00036   0.00144   0.00107  -0.00030
   D21       -0.00009   0.00005  -0.00011   0.00120   0.00114   0.00104
   D22        3.14089   0.00007  -0.00031   0.00208   0.00186  -3.14043
   D23       -3.14120  -0.00000   0.00007  -0.00017  -0.00012  -3.14132
   D24       -0.00022   0.00002  -0.00012   0.00071   0.00061   0.00039
   D25        0.00008   0.00004   0.00126  -0.00388  -0.00252  -0.00243
   D26       -3.14118   0.00003  -0.00022   0.00107   0.00096  -3.14022
   D27       -3.14091   0.00002   0.00145  -0.00475  -0.00324   3.13904
   D28        0.00102   0.00001  -0.00003   0.00020   0.00024   0.00126
   D29       -3.13157  -0.00054   0.00679  -0.03078  -0.02414   3.12748
   D30        0.01118  -0.00056   0.00383  -0.02166  -0.01801  -0.00683
   D31        0.00125   0.00017   0.00287  -0.00819  -0.00519  -0.00394
   D32       -3.13919   0.00015  -0.00009   0.00092   0.00094  -3.13825
   D33        3.13146   0.00056  -0.00648   0.02997   0.02358  -3.12815
   D34       -0.01085   0.00057  -0.00365   0.02103   0.01752   0.00667
   D35       -0.00134  -0.00016  -0.00257   0.00732   0.00463   0.00329
   D36        3.13954  -0.00016   0.00026  -0.00162  -0.00143   3.13810
   D37       -0.00005  -0.00006  -0.00078   0.00238   0.00155   0.00150
   D38       -3.14137  -0.00005  -0.00266   0.00801   0.00533  -3.13604
   D39        3.14038  -0.00004   0.00216  -0.00682  -0.00474   3.13564
   D40       -0.00094  -0.00003   0.00028  -0.00119  -0.00096  -0.00190
   D41       -0.00106  -0.00005  -0.00160   0.00438   0.00276   0.00169
   D42        3.13991   0.00002  -0.00185   0.00604   0.00420  -3.13907
   D43        3.14025  -0.00006   0.00028  -0.00126  -0.00104   3.13921
   D44       -0.00196   0.00001   0.00002   0.00040   0.00041  -0.00155
   D45        0.00097   0.00005   0.00190  -0.00525  -0.00332  -0.00235
   D46       -3.14020   0.00006  -0.00040   0.00160   0.00124  -3.13896
   D47       -3.14000  -0.00002   0.00216  -0.00691  -0.00477   3.13842
   D48        0.00201  -0.00001  -0.00015  -0.00006  -0.00021   0.00180
   D49        0.00024   0.00006   0.00018  -0.00064  -0.00042  -0.00019
   D50       -3.14063   0.00005  -0.00263   0.00838   0.00579  -3.13485
   D51        3.14141   0.00005   0.00249  -0.00747  -0.00496   3.13646
   D52        0.00054   0.00004  -0.00032   0.00155   0.00125   0.00180
         Item               Value     Threshold  Converged?
 Maximum Force            0.010008     0.000450     NO 
 RMS     Force            0.001450     0.000300     NO 
 Maximum Displacement     1.157758     0.001800     NO 
 RMS     Displacement     0.378143     0.001200     NO 
 Predicted change in Energy=-2.438494D-03
 GradGradGradGradGradGradGradGradGradGradGradGradGradGradGradGradGradGrad

                          Input orientation:                          
 ---------------------------------------------------------------------
 Center     Atomic      Atomic             Coordinates (Angstroms)
 Number     Number       Type             X           Y           Z
 ---------------------------------------------------------------------
      1          6           0        0.616453   -0.354634   -0.055207
      2          6           0       -0.619254   -0.344077   -0.047486
      3          6           0       -2.035890   -0.152493   -0.029434
      4          6           0       -2.917261   -1.267609   -0.000717
      5          6           0       -4.299650   -1.082462    0.021060
      6          6           0       -4.845064    0.210305    0.018547
      7          6           0       -3.989955    1.323845   -0.008118
      8          6           0       -2.604655    1.151942   -0.033313
      9          6           0        2.035012   -0.176764   -0.046345
     10          6           0        2.610480    1.122774    0.001828
     11          6           0        3.995943    1.287368    0.027100
     12          6           0        4.846318    0.170785    0.003536
     13          6           0        4.295497   -1.119246   -0.047878
     14          6           0        2.911409   -1.297271   -0.072783
     15          1           0       -2.484933   -2.276440    0.005687
     16          1           0       -4.962266   -1.960808    0.042897
     17          1           0       -5.936930    0.349636    0.038115
     18          1           0       -4.410878    2.340903   -0.009139
     19          1           0       -1.930506    2.017997   -0.052931
     20          1           0        1.940100    1.991514    0.025649
     21          1           0        4.419954    2.302116    0.069666
     22          1           0        5.938683    0.306050    0.026037
     23          1           0        4.955495   -1.999849   -0.064123
     24          1           0        2.474660   -2.303853   -0.106629
 ---------------------------------------------------------------------
                    Distance matrix (angstroms):
                    1          2          3          4          5
     1  C    0.000000
     2  C    1.235776   0.000000
     3  C    2.660159   1.429646   0.000000
     4  C    3.650154   2.477081   1.421662   0.000000
     5  C    4.970274   3.754361   2.447857   1.394903   0.000000
     6  C    5.491153   4.262530   2.832911   2.429202   1.403114
     7  C    4.902908   3.761002   2.449163   2.804703   2.426330
     8  C    3.556092   2.485978   1.423045   2.439879   2.805090
     9  C    1.429694   2.659534   4.071009   5.071196   6.399436
    10  C    2.482365   3.547572   4.818302   6.022446   7.253505
    11  C    3.758178   4.895633   6.201564   7.370282   8.627456
    12  C    4.262778   5.490006   6.889875   7.895705   9.231450
    13  C    3.757665   4.975506   6.404795   7.214437   8.595502
    14  C    2.481067   3.657158   5.078204   5.829191   7.214868
    15  H    3.649060   2.686562   2.171181   1.097584   2.172331
    16  H    5.806163   4.635056   3.440773   2.159740   1.100467
    17  H    6.591778   5.363417   3.933804   3.425696   2.175289
    18  H    5.704569   4.646181   3.443546   3.905422   3.425305
    19  H    3.480860   2.701630   2.173174   3.430979   3.902713
    20  H    2.694994   3.465635   4.517554   5.849489   6.955849
    21  H    4.641179   5.692950   6.907449   8.159817   9.353568
    22  H    5.363696   6.590494   7.987937   8.994712  10.332059
    23  H    4.640485   5.815470   7.231417   7.906990   9.300891
    24  H    2.693516   3.662857   4.997936   5.491614   6.884721
                    6          7          8          9         10
     6  C    0.000000
     7  C    1.404241   0.000000
     8  C    2.430803   1.396153   0.000000
     9  C    6.891261   6.209148   4.826193   0.000000
    10  C    7.511192   6.603505   5.215335   1.422070   0.000000
    11  C    8.906376   7.986059   6.602263   2.448332   1.395434
    12  C    9.691474   8.911196   7.515386   2.833147   2.430074
    13  C    9.236989   8.638228   7.264337   2.449095   2.805068
    14  C    7.902151   7.382632   6.035492   1.422782   2.439825
    15  H    3.428452   3.902222   3.430694   4.984099   6.125186
    16  H    2.174410   3.425921   3.905554   7.221681   8.176592
    17  H    1.100895   2.177598   3.428244   7.989749   8.582382
    18  H    2.174565   1.100720   2.162558   6.920226   7.126249
    19  H    3.430380   2.173750   1.097686   4.532367   4.628712
    20  H    7.015070   5.967619   4.622029   2.171548   1.097582
    21  H    9.498360   8.466974   7.118893   3.441839   2.160936
    22  H   10.784174   9.980728   8.585317   3.934081   3.427033
    23  H   10.047018   9.543122   8.190886   3.442845   3.905666
    24  H    7.740479   7.413578   6.143886   2.172885   3.431032
                   11         12         13         14         15
    11  C    0.000000
    12  C    1.403728   0.000000
    13  C    2.426345   1.403648   0.000000
    14  C    2.804737   2.429997   1.395712   0.000000
    15  H    7.396144   7.728917   6.878676   5.485019   0.000000
    16  H    9.528925  10.037608   9.296378   7.902432   2.497637
    17  H    9.977045  10.784787  10.337677   9.000984   4.337467
    18  H    8.472655   9.508168   9.368837   8.176567   5.002934
    19  H    5.971852   7.024296   6.971760   5.868180   4.330476
    20  H    2.173089   3.429527   3.902580   3.430633   6.147906
    21  H    1.100595   2.174565   3.425642   3.905328   8.285212
    22  H    2.176517   1.100937   2.176463   3.427067   8.810617
    23  H    3.425618   2.174430   1.100601   2.161476   7.445895
    24  H    3.902442   3.429392   2.173060   1.097771   4.960940
                   16         17         18         19         20
    16  H    0.000000
    17  H    2.507617   0.000000
    18  H    4.337218   2.509226   0.000000
    19  H    5.003163   4.340870   2.501686   0.000000
    20  H    7.953855   8.046336   6.360676   3.871494   0.000000
    21  H   10.305304  10.539366   8.831269   6.357995   2.499618
    22  H   11.134164  11.875699  10.547762   8.053641   4.339292
    23  H    9.918416  11.143405  10.323474   7.972467   5.003164
    24  H    7.446335   8.821383   8.306257   6.171447   4.330523
                   21         22         23         24
    21  H    0.000000
    22  H    2.508529   0.000000
    23  H    4.337234   2.508377   0.000000
    24  H    5.003018   4.339198   2.499754   0.000000
 Stoichiometry    C14H10
 Framework group  C1[X(C14H10)]
 Deg. of freedom    66
 Full point group                 C1      NOp   1
 Largest Abelian subgroup         C1      NOp   1
 Largest concise Abelian subgroup C1      NOp   1
                         Standard orientation:                         
 ---------------------------------------------------------------------
 Center     Atomic      Atomic             Coordinates (Angstroms)
 Number     Number       Type             X           Y           Z
 ---------------------------------------------------------------------
      1          6           0        0.618112    0.326591    0.032304
      2          6           0       -0.617647    0.321879    0.027643
      3          6           0       -2.035221    0.136902    0.015276
      4          6           0       -2.911322    1.255811   -0.024869
      5          6           0       -4.294630    1.077061   -0.041120
      6          6           0       -4.846205   -0.212944   -0.021640
      7          6           0       -3.996363   -1.330177    0.016496
      8          6           0       -2.610200   -1.164641    0.036320
      9          6           0        2.035779    0.141810    0.022235
     10          6           0        2.604914   -1.160967   -0.011543
     11          6           0        3.989509   -1.332512   -0.038104
     12          6           0        4.845263   -0.219825   -0.030097
     13          6           0        4.300737    1.073367    0.006978
     14          6           0        2.917580    1.258331    0.033006
     15          1           0       -2.474197    2.262402   -0.044529
     16          1           0       -4.953093    1.958252   -0.072034
     17          1           0       -5.938769   -0.347254   -0.036926
     18          1           0       -4.422136   -2.345114    0.030847
     19          1           0       -1.940151   -2.033626    0.064837
     20          1           0        1.930335   -2.026700   -0.023239
     21          1           0        4.408564   -2.349726   -0.069370
     22          1           0        5.936911   -0.360601   -0.053548
     23          1           0        4.964973    1.950919    0.010979
     24          1           0        2.485729    2.267336    0.055680
 ---------------------------------------------------------------------
 Rotational constants (GHZ):           2.7672497           0.2471114           0.2268845
 Standard basis: def2SVPP (5D, 7F)
 There are   230 symmetry adapted cartesian basis functions of A   symmetry.
 There are   216 symmetry adapted basis functions of A   symmetry.
   216 basis functions,   390 primitive gaussians,   230 cartesian basis functions
    47 alpha electrons       47 beta electrons
       nuclear repulsion energy       689.3269594538 Hartrees.
 NAtoms=   24 NActive=   24 NUniq=   24 SFac= 1.00D+00 NAtFMM=   60 NAOKFM=F Big=F
 Integral buffers will be    131072 words long.
 Raffenetti 2 integral format.
 Two-electron integral symmetry is turned on.
 Nuclear repulsion after empirical dispersion term =      689.2799045380 Hartrees.
 One-electron integrals computed using PRISM.
   1 Symmetry operations used in ECPInt.
 ECPInt:  NShTT=    5460 NPrTT=   21948 LenC2=    4970 LenP2D=   14139.
 LDataN:  DoStor=T MaxTD1= 4 Len=   56
 NBasis=   216 RedAO= T EigKep=  3.18D-04  NBF=   216
 NBsUse=   216 1.00D-06 EigRej= -1.00D+00 NBFU=   216
 Initial guess from the checkpoint file:  "/home/software/g16/scr/Gau-12557.chk"
 B after Tr=     0.000000   -0.000000   -0.000000
         Rot=    0.999976    0.006856   -0.000475    0.000110 Ang=   0.79 deg.
 ExpMin= 1.22D-01 ExpMax= 1.24D+03 ExpMxC= 1.86D+02 IAcc=3 IRadAn=         5 AccDes= 0.00D+00
 Harris functional with IExCor=  402 and IRadAn=       5 diagonalized for initial guess.
 HarFok:  IExCor=  402 AccDes= 0.00D+00 IRadAn=         5 IDoV= 1 UseB2=F ITyADJ=14
 ICtDFT=  3500011 ScaDFX=  1.000000  1.000000  1.000000  1.000000
 FoFCou: FMM=F IPFlag=           0 FMFlag=      100000 FMFlg1=           0
         NFxFlg=           0 DoJE=T BraDBF=F KetDBF=T FulRan=T
         wScrn=  0.000000 ICntrl=       500 IOpCl=  0 I1Cent=   200000004 NGrid=           0
         NMat0=    1 NMatS0=      1 NMatT0=    0 NMatD0=    1 NMtDS0=    0 NMtDT0=    0
 Petite list used in FoFCou.
 Requested convergence on RMS density matrix=1.00D-08 within 128 cycles.
 Requested convergence on MAX density matrix=1.00D-06.
 Requested convergence on             energy=1.00D-06.
 No special actions if energy rises.
 Integral accuracy reduced to 1.0D-05 until final iterations.
 Initial convergence to 1.0D-05 achieved.  Increase integral accuracy.
 SCF Done:  E(RB3LYP) =  -539.100315267     A.U. after   15 cycles
            NFock= 15  Conv=0.28D-08     -V/T= 2.0118
   1 Symmetry operations used in ECPInt.
 ECPInt:  NShTT=    5460 NPrTT=   21948 LenC2=    4970 LenP2D=   14139.
 LDataN:  DoStor=T MaxTD1= 5 Len=  102
 Calling FoFJK, ICntrl=      2127 FMM=F ISym2X=0 I1Cent= 0 IOpClX= 0 NMat=1 NMatS=1 NMatT=0.
 ***** Axes restored to original set *****
 -------------------------------------------------------------------
 Center     Atomic                   Forces (Hartrees/Bohr)
 Number     Number              X              Y              Z
 -------------------------------------------------------------------
      1        6          -0.026200095    0.007574434    0.000309350
      2        6           0.026312280    0.007249879   -0.000070271
      3        6          -0.008766672   -0.005522165    0.000188882
      4        6           0.005921904    0.003826281   -0.000271733
      5        6          -0.002512142   -0.000904607    0.000241061
      6        6           0.000179354    0.000303317   -0.000059341
      7        6          -0.001540245    0.000235666   -0.000065403
      8        6           0.006235971   -0.005114874    0.000142210
      9        6           0.008988410   -0.006511096    0.000173424
     10        6          -0.006520114   -0.004647320    0.000034928
     11        6           0.001820135    0.000639602    0.000097658
     12        6          -0.000106230   -0.000139515   -0.000168519
     13        6           0.002055624   -0.000551686    0.000163627
     14        6          -0.005841472    0.004328015    0.000325639
     15        1          -0.002039728    0.002557851   -0.000119806
     16        1           0.002213462    0.003547004   -0.000086979
     17        1           0.004712138   -0.000435806   -0.000109975
     18        1           0.001728417   -0.004046285   -0.000027827
     19        1          -0.002555130   -0.002080661   -0.000022977
     20        1           0.002549864   -0.001983659   -0.000170035
     21        1          -0.001563512   -0.003997732   -0.000281118
     22        1          -0.004721000   -0.000574511   -0.000122683
     23        1          -0.002393181    0.003550338   -0.000057161
     24        1           0.002041962    0.002697529   -0.000042949
 -------------------------------------------------------------------
 Cartesian Forces:  Max     0.026312280 RMS     0.005441165

 GradGradGradGradGradGradGradGradGradGradGradGradGradGradGradGradGradGrad
 Berny optimization.
 Using GEDIIS/GDIIS optimizer.
 FormGI is forming the generalized inverse of G from B-inverse, IUseBI=4.
 Internal  Forces:  Max     0.029892951 RMS     0.004035578
 Search for a local minimum.
 Step number   3 out of a maximum of  127
 All quantities printed in internal units (Hartrees-Bohrs-Radians)
 Mixed Optimization -- RFO/linear search
 Update second derivatives using D2CorX and points    1    3    2
 DE=  1.97D-03 DEPred=-2.44D-03 R=-8.10D-01
 Trust test=-8.10D-01 RLast= 3.31D-01 DXMaxT set to 1.50D-01
 ITU= -1  0  0
 Use linear search instead of GDIIS.
     Eigenvalues ---    0.00230   0.00842   0.01338   0.01690   0.01807
     Eigenvalues ---    0.01989   0.02123   0.02130   0.02131   0.02133
     Eigenvalues ---    0.02139   0.02139   0.02140   0.02140   0.02142
     Eigenvalues ---    0.02147   0.02150   0.02153   0.02155   0.02155
     Eigenvalues ---    0.02157   0.02158   0.09498   0.15275   0.16000
     Eigenvalues ---    0.16000   0.16000   0.16000   0.16000   0.16000
     Eigenvalues ---    0.16000   0.16000   0.16005   0.21918   0.22000
     Eigenvalues ---    0.22000   0.22022   0.22953   0.23463   0.24949
     Eigenvalues ---    0.25765   0.34382   0.35123   0.35131   0.35144
     Eigenvalues ---    0.35151   0.35159   0.35161   0.35168   0.35170
     Eigenvalues ---    0.35179   0.39837   0.40956   0.41847   0.41977
     Eigenvalues ---    0.41988   0.42294   0.44945   0.46145   0.46172
     Eigenvalues ---    0.46278   0.46327   0.46449   0.46465   0.46986
     Eigenvalues ---    1.00477
 RFO step:  Lambda=-6.49730764D-04 EMin= 2.29985503D-03
 Quartic linear search produced a step of -0.65459.
 Iteration  1 RMS(Cart)=  0.21350567 RMS(Int)=  0.00896082
 Iteration  2 RMS(Cart)=  0.03875140 RMS(Int)=  0.00077236
 Iteration  3 RMS(Cart)=  0.00049201 RMS(Int)=  0.00075591
 Iteration  4 RMS(Cart)=  0.00000064 RMS(Int)=  0.00075591
 Variable       Old X    -DE/DX   Delta X   Delta X   Delta X     New X
                                 (Linear)    (Quad)   (Total)
    R1        2.33528  -0.02989  -0.02023  -0.00976  -0.02999   2.30529
    R2        2.70173  -0.00455   0.00189  -0.00769  -0.00582   2.69591
    R3        2.70164  -0.00457   0.00195  -0.00755  -0.00562   2.69602
    R4        2.68655  -0.00769  -0.01479  -0.00523  -0.02002   2.66654
    R5        2.68917  -0.00959  -0.01529  -0.00636  -0.02164   2.66753
    R6        2.63598  -0.00180   0.00213  -0.00341  -0.00127   2.63471
    R7        2.07413  -0.00316  -0.00595  -0.00300  -0.00895   2.06518
    R8        2.65150  -0.00411  -0.00445  -0.00308  -0.00753   2.64397
    R9        2.07958  -0.00417  -0.00773  -0.00412  -0.01185   2.06773
   R10        2.65363  -0.00454  -0.00535  -0.00396  -0.00932   2.64431
   R11        2.08039  -0.00473  -0.00786  -0.00499  -0.01284   2.06754
   R12        2.63835  -0.00311   0.00024  -0.00421  -0.00397   2.63438
   R13        2.08006  -0.00440  -0.00802  -0.00431  -0.01233   2.06773
   R14        2.07433  -0.00321  -0.00609  -0.00311  -0.00917   2.06515
   R15        2.68732  -0.00880  -0.01477  -0.00550  -0.02026   2.66707
   R16        2.68867  -0.00863  -0.01548  -0.00619  -0.02167   2.66700
   R17        2.63699  -0.00248   0.00124  -0.00373  -0.00249   2.63450
   R18        2.07413  -0.00313  -0.00596  -0.00303  -0.00897   2.06516
   R19        2.65266  -0.00423  -0.00482  -0.00369  -0.00852   2.64415
   R20        2.07982  -0.00430  -0.00790  -0.00419  -0.01209   2.06773
   R21        2.65251  -0.00446  -0.00500  -0.00337  -0.00838   2.64413
   R22        2.08047  -0.00476  -0.00791  -0.00501  -0.01292   2.06755
   R23        2.63751  -0.00253   0.00106  -0.00401  -0.00295   2.63456
   R24        2.07984  -0.00427  -0.00786  -0.00426  -0.01212   2.06772
   R25        2.07449  -0.00328  -0.00620  -0.00312  -0.00931   2.06517
    A1        2.10535   0.00180   0.00215  -0.00205   0.00019   2.10554
    A2        2.11630  -0.00442  -0.01211   0.00046  -0.01165   2.10465
    A3        2.06152   0.00262   0.00995   0.00155   0.01146   2.07298
    A4        2.10668  -0.00068  -0.00414  -0.00076  -0.00487   2.10181
    A5        2.06789   0.00124   0.01199  -0.00061   0.01138   2.07927
    A6        2.10861  -0.00056  -0.00785   0.00136  -0.00650   2.10211
    A7        2.10307  -0.00115  -0.00270  -0.00032  -0.00302   2.10005
    A8        2.08414   0.00096   0.00366   0.00024   0.00390   2.08804
    A9        2.09597   0.00019  -0.00096   0.00008  -0.00088   2.09510
   A10        2.08742  -0.00004   0.00261  -0.00019   0.00241   2.08983
   A11        2.09683   0.00019  -0.00070   0.00050  -0.00019   2.09663
   A12        2.09894  -0.00015  -0.00191  -0.00031  -0.00221   2.09673
   A13        2.10240  -0.00020  -0.00265  -0.00003  -0.00268   2.09972
   A14        2.09424   0.00015   0.00083   0.00007   0.00089   2.09513
   A15        2.08654   0.00005   0.00182  -0.00004   0.00179   2.08833
   A16        2.10527  -0.00055  -0.00306  -0.00025  -0.00329   2.10198
   A17        2.06895   0.00104   0.01022  -0.00040   0.00980   2.07875
   A18        2.10896  -0.00049  -0.00715   0.00066  -0.00650   2.10246
   A19        2.11229  -0.00372  -0.00696  -0.00027  -0.00721   2.10509
   A20        2.10957   0.00105  -0.00317  -0.00142  -0.00448   2.10508
   A21        2.06128   0.00267   0.01014   0.00162   0.01173   2.07301
   A22        2.10619  -0.00084  -0.00390  -0.00041  -0.00429   2.10190
   A23        2.06789   0.00125   0.01159  -0.00047   0.01110   2.07900
   A24        2.10908  -0.00041  -0.00768   0.00090  -0.00679   2.10229
   A25        2.10289  -0.00050  -0.00261  -0.00041  -0.00302   2.09987
   A26        2.08513   0.00035   0.00280   0.00028   0.00308   2.08822
   A27        2.09515   0.00015  -0.00019   0.00013  -0.00005   2.09510
   A28        2.08741  -0.00004   0.00261  -0.00019   0.00242   2.08983
   A29        2.09787   0.00001  -0.00124   0.00002  -0.00122   2.09665
   A30        2.09790   0.00003  -0.00137   0.00017  -0.00119   2.09671
   A31        2.10254  -0.00086  -0.00270   0.00007  -0.00263   2.09991
   A32        2.09505   0.00021   0.00001   0.00007   0.00009   2.09513
   A33        2.08559   0.00065   0.00269  -0.00013   0.00255   2.08815
   A34        2.10605  -0.00044  -0.00353  -0.00067  -0.00419   2.10186
   A35        2.06876   0.00105   0.01074  -0.00045   0.01028   2.07904
   A36        2.10836  -0.00061  -0.00720   0.00114  -0.00607   2.10229
   A37        3.00795   0.01325   0.14045   0.01035   0.15075   3.15871
   A38        3.01578   0.01293   0.14857  -0.02887   0.11953   3.13531
   A39        3.13242   0.00003  -0.01973   0.07101   0.05479   3.18721
   A40        3.15053  -0.00029   0.01717  -0.06628  -0.05273   3.09780
    D1       -3.08045  -0.00041   0.00805  -0.07277  -0.06094  -3.14139
    D2        0.04280  -0.00015   0.00253  -0.00683  -0.00420   0.03860
    D3        0.04358   0.00011   0.00364  -0.00863  -0.00507   0.03851
    D4       -3.11636   0.00037  -0.00188   0.05731   0.05167  -3.06469
    D5        3.13814  -0.00008   0.00651  -0.00738   0.00001   3.13815
    D6       -0.00161  -0.00011   0.00477  -0.00687  -0.00110  -0.00271
    D7        0.00154   0.00004  -0.00102   0.00096  -0.00087   0.00067
    D8       -3.13821   0.00001  -0.00276   0.00146  -0.00198  -3.14019
    D9       -3.13543  -0.00001  -0.00828   0.00624  -0.00302  -3.13845
   D10        0.00244   0.00009  -0.00606   0.00773   0.00060   0.00304
   D11        0.00114  -0.00011  -0.00076  -0.00216  -0.00211  -0.00097
   D12        3.13901  -0.00001   0.00146  -0.00066   0.00151   3.14052
   D13       -0.00295   0.00005   0.00193   0.00100   0.00326   0.00031
   D14        3.14135  -0.00002   0.00077  -0.00051   0.00048  -3.14135
   D15        3.13676   0.00009   0.00371   0.00048   0.00440   3.14116
   D16       -0.00213   0.00002   0.00255  -0.00104   0.00162  -0.00051
   D17        0.00165  -0.00007  -0.00105  -0.00178  -0.00265  -0.00100
   D18       -3.13917  -0.00006  -0.00187  -0.00110  -0.00302   3.14099
   D19        3.14052   0.00000   0.00012  -0.00025   0.00015   3.14067
   D20       -0.00030   0.00001  -0.00070   0.00042  -0.00022  -0.00053
   D21        0.00104  -0.00001  -0.00074   0.00056  -0.00035   0.00070
   D22       -3.14043   0.00000  -0.00122   0.00092  -0.00059  -3.14102
   D23       -3.14132  -0.00001   0.00008  -0.00011   0.00003  -3.14129
   D24        0.00039  -0.00000  -0.00040   0.00025  -0.00021   0.00018
   D25       -0.00243   0.00009   0.00165   0.00142   0.00273   0.00029
   D26       -3.14022  -0.00002  -0.00063  -0.00011  -0.00098  -3.14119
   D27        3.13904   0.00008   0.00212   0.00107   0.00297  -3.14118
   D28        0.00126  -0.00003  -0.00015  -0.00046  -0.00074   0.00052
   D29        3.12748   0.00028   0.01580  -0.00533   0.01137   3.13885
   D30       -0.00683   0.00009   0.01179  -0.00836   0.00444  -0.00240
   D31       -0.00394   0.00010   0.00340   0.00270   0.00533   0.00139
   D32       -3.13825  -0.00008  -0.00061  -0.00033  -0.00160  -3.13985
   D33       -3.12815  -0.00023  -0.01543   0.00566  -0.01064  -3.13879
   D34        0.00667  -0.00005  -0.01147   0.00826  -0.00418   0.00249
   D35        0.00329  -0.00009  -0.00303  -0.00235  -0.00462  -0.00133
   D36        3.13810   0.00009   0.00094   0.00025   0.00184   3.13995
   D37        0.00150  -0.00004  -0.00102  -0.00097  -0.00166  -0.00016
   D38       -3.13604  -0.00015  -0.00349  -0.00263  -0.00590   3.14124
   D39        3.13564   0.00015   0.00310   0.00213   0.00544   3.14108
   D40       -0.00190   0.00005   0.00063   0.00047   0.00120  -0.00070
   D41        0.00169  -0.00004  -0.00180  -0.00119  -0.00283  -0.00114
   D42       -3.13907  -0.00006  -0.00275  -0.00062  -0.00343   3.14069
   D43        3.13921   0.00006   0.00068   0.00048   0.00143   3.14064
   D44       -0.00155   0.00004  -0.00027   0.00105   0.00084  -0.00072
   D45       -0.00235   0.00006   0.00217   0.00153   0.00355   0.00120
   D46       -3.13896  -0.00007  -0.00081  -0.00070  -0.00177  -3.14074
   D47        3.13842   0.00008   0.00312   0.00097   0.00414  -3.14063
   D48        0.00180  -0.00005   0.00014  -0.00127  -0.00118   0.00062
   D49       -0.00019   0.00001   0.00028   0.00027   0.00023   0.00005
   D50       -3.13485  -0.00018  -0.00379  -0.00239  -0.00638  -3.14123
   D51        3.13646   0.00014   0.00324   0.00249   0.00552  -3.14120
   D52        0.00180  -0.00004  -0.00082  -0.00016  -0.00109   0.00071
         Item               Value     Threshold  Converged?
 Maximum Force            0.029893     0.000450     NO 
 RMS     Force            0.004036     0.000300     NO 
 Maximum Displacement     0.723348     0.001800     NO 
 RMS     Displacement     0.241001     0.001200     NO 
 Predicted change in Energy=-1.068786D-03
 GradGradGradGradGradGradGradGradGradGradGradGradGradGradGradGradGradGrad

                          Input orientation:                          
 ---------------------------------------------------------------------
 Center     Atomic      Atomic             Coordinates (Angstroms)
 Number     Number       Type             X           Y           Z
 ---------------------------------------------------------------------
      1          6           0        0.610328    0.028145    0.084196
      2          6           0       -0.609556    0.021131    0.085227
      3          6           0       -2.035375    0.020995    0.035912
      4          6           0       -2.754262   -1.193120    0.020325
      5          6           0       -4.147784   -1.188020   -0.023772
      6          6           0       -4.849175    0.022239   -0.053450
      7          6           0       -4.146555    1.232253   -0.037516
      8          6           0       -2.753216    1.236092    0.006886
      9          6           0        2.035850    0.013024    0.030500
     10          6           0        2.768487    1.219219    0.046208
     11          6           0        4.161599    1.199887   -0.003124
     12          6           0        4.849138   -0.017003   -0.068617
     13          6           0        4.132936   -1.218936   -0.083168
     14          6           0        2.739685   -1.208547   -0.034200
     15          1           0       -2.204476   -2.137307    0.043970
     16          1           0       -4.692238   -2.137074   -0.035177
     17          1           0       -5.942708    0.022503   -0.088600
     18          1           0       -4.690071    2.181644   -0.060035
     19          1           0       -2.201917    2.179587    0.019795
     20          1           0        2.229214    2.168324    0.097883
     21          1           0        4.716751    2.142711    0.009433
     22          1           0        5.942463   -0.028624   -0.108070
     23          1           0        4.665563   -2.173412   -0.133488
     24          1           0        2.178080   -2.145982   -0.045098
 ---------------------------------------------------------------------
                    Distance matrix (angstroms):
                    1          2          3          4          5
     1  C    0.000000
     2  C    1.219905   0.000000
     3  C    2.646153   1.426671   0.000000
     4  C    3.579949   2.465437   1.411070   0.000000
     5  C    4.912264   3.740719   2.434656   1.394229   0.000000
     6  C    5.461241   4.241886   2.815219   2.423056   1.399127
     7  C    4.908424   3.740620   2.435080   2.797188   2.420313
     8  C    3.574708   2.465268   1.411594   2.429250   2.796799
     9  C    1.426613   2.645985   4.071236   4.939642   6.299427
    10  C    2.465310   3.584427   4.951054   6.026675   7.323558
    11  C    3.740606   4.915404   6.308233   7.318208   8.645714
    12  C    4.241804   5.460995   6.885412   7.694340   9.072921
    13  C    3.740586   4.904830   6.292827   6.888024   8.280990
    14  C    2.465277   3.569845   4.931318   5.494240   6.887508
    15  H    3.551608   2.684087   2.164931   1.092845   2.163834
    16  H    5.728842   4.619592   3.423629   2.156358   1.094195
    17  H    6.555316   5.335983   3.909316   3.414058   2.165946
    18  H    5.722988   4.619472   3.424182   3.891381   3.413213
    19  H    3.541408   2.683063   2.165067   3.417637   3.889611
    20  H    2.683532   3.559384   4.775100   6.011685   7.207354
    21  H    4.619490   5.733794   7.077682   8.181927   9.469681
    22  H    5.335903   6.555059   7.979292   8.775282  10.156987
    23  H    4.619434   5.717582   7.053134   7.485883   8.868942
    24  H    2.683541   3.533310   4.738729   5.023965   6.398023
                    6          7          8          9         10
     6  C    0.000000
     7  C    1.399308   0.000000
     8  C    2.422834   1.394052   0.000000
     9  C    6.885543   6.301847   4.942833   0.000000
    10  C    7.711775   6.915561   5.521869   1.411350   0.000000
    11  C    9.087543   8.308288   6.914917   2.434868   1.394119
    12  C    9.698404   9.082076   7.705306   2.815194   2.422920
    13  C    9.067508   8.634835   7.311248   2.434834   2.796973
    14  C    7.688043   7.306013   6.012480   1.411314   2.429268
    15  H    3.415781   3.890018   3.417940   4.754416   5.999720
    16  H    2.165085   3.413230   3.890993   7.063597   8.181305
    17  H    1.094097   2.166164   3.413909   7.979452   8.794044
    18  H    2.165268   1.094194   2.156376   7.067469   7.521146
    19  H    3.415771   2.163872   1.092831   4.759493   5.062403
    20  H    7.398119   6.445540   5.069708   2.165005   1.092834
    21  H    9.798331   8.910069   7.524783   3.423922   2.156368
    22  H   10.791896  10.167747   8.787921   3.909292   3.413948
    23  H    9.765118   9.447814   8.165948   3.423856   3.891161
    24  H    7.354152   7.170323   5.979867   2.165007   3.417821
                   11         12         13         14         15
    11  C    0.000000
    12  C    1.399222   0.000000
    13  C    2.420317   1.399214   0.000000
    14  C    2.797027   2.422964   1.394149   0.000000
    15  H    7.187906   7.366264   6.404870   5.031246   0.000000
    16  H    9.461859   9.774133   8.872935   7.489703   2.489020
    17  H   10.173031  10.791937  10.151837   8.769401   4.319343
    18  H    8.906130   9.789313   9.455682   8.166722   4.984208
    19  H    6.438530   7.385811   7.189639   5.991811   4.316962
    20  H    2.163836   3.415755   3.889790   3.417790   6.180531
    21  H    1.094198   2.165175   3.413222   3.891224   8.137760
    22  H    2.166040   1.094098   2.166068   3.414009   8.416786
    23  H    3.413227   2.165181   1.094189   2.156346   6.872426
    24  H    3.889852   3.415796   2.163868   1.092842   4.383470
                   16         17         18         19         20
    16  H    0.000000
    17  H    2.496058   0.000000
    18  H    4.318790   2.496357   0.000000
    19  H    4.983802   4.319523   2.489436   0.000000
    20  H    8.152340   8.451013   6.921100   4.431833   0.000000
    21  H   10.336712  10.868714   9.407159   6.918774   2.489241
    22  H   10.841944  11.885297  10.859944   8.439400   4.319401
    23  H    9.358388  10.833258  10.319874   8.132305   4.983975
    24  H    6.870331   8.405439   8.117886   6.156227   4.316978
                   21         22         23         24
    21  H    0.000000
    22  H    2.496172   0.000000
    23  H    4.318792   2.496244   0.000000
    24  H    4.984046   4.319462   2.489205   0.000000
 Stoichiometry    C14H10
 Framework group  C1[X(C14H10)]
 Deg. of freedom    66
 Full point group                 C1      NOp   1
 Largest Abelian subgroup         C1      NOp   1
 Largest concise Abelian subgroup C1      NOp   1
                         Standard orientation:                         
 ---------------------------------------------------------------------
 Center     Atomic      Atomic             Coordinates (Angstroms)
 Number     Number       Type             X           Y           Z
 ---------------------------------------------------------------------
      1          6           0        0.609998   -0.019974   -0.087667
      2          6           0       -0.609856   -0.008858   -0.087047
      3          6           0       -2.035592   -0.003217   -0.035694
      4          6           0       -2.750378    1.213417   -0.036160
      5          6           0       -4.143842    1.213641    0.010004
      6          6           0       -4.849244    0.006294    0.057712
      7          6           0       -4.150712   -1.206190    0.057798
      8          6           0       -2.757461   -1.215356    0.011455
      9          6           0        2.035640   -0.008911   -0.036234
     10          6           0        2.764203   -1.217674   -0.036020
     11          6           0        4.157444   -1.202352    0.011036
     12          6           0        4.849158    0.013012    0.058415
     13          6           0        4.137013    1.217441    0.057080
     14          6           0        2.743665    1.211067    0.010262
     15          1           0       -2.197464    2.155317   -0.073877
     16          1           0       -4.685092    2.164594    0.008835
     17          1           0       -5.942719    0.010214    0.094431
     18          1           0       -4.697376   -2.153330    0.094452
     19          1           0       -2.209350   -2.160794    0.011032
     20          1           0        2.221673   -2.165586   -0.073562
     21          1           0        4.709410   -2.147128    0.010950
     22          1           0        5.942573    0.021497    0.096132
     23          1           0        4.672914    2.170727    0.093201
     24          1           0        2.185224    2.150453    0.008774
 ---------------------------------------------------------------------
 Rotational constants (GHZ):           2.8219766           0.2474566           0.2276006
 Standard basis: def2SVPP (5D, 7F)
 There are   230 symmetry adapted cartesian basis functions of A   symmetry.
 There are   216 symmetry adapted basis functions of A   symmetry.
   216 basis functions,   390 primitive gaussians,   230 cartesian basis functions
    47 alpha electrons       47 beta electrons
       nuclear repulsion energy       691.8526073037 Hartrees.
 NAtoms=   24 NActive=   24 NUniq=   24 SFac= 1.00D+00 NAtFMM=   60 NAOKFM=F Big=F
 Integral buffers will be    131072 words long.
 Raffenetti 2 integral format.
 Two-electron integral symmetry is turned on.
 Nuclear repulsion after empirical dispersion term =      691.8053960003 Hartrees.
 One-electron integrals computed using PRISM.
   1 Symmetry operations used in ECPInt.
 ECPInt:  NShTT=    5460 NPrTT=   21948 LenC2=    4959 LenP2D=   14122.
 LDataN:  DoStor=T MaxTD1= 4 Len=   56
 NBasis=   216 RedAO= T EigKep=  3.08D-04  NBF=   216
 NBsUse=   216 1.00D-06 EigRej= -1.00D+00 NBFU=   216
 Lowest energy guess from the checkpoint file:  "/home/software/g16/scr/Gau-12557.chk"
 B after Tr=     0.000000   -0.000000   -0.000000
         Rot=    1.000000   -0.000811   -0.000173   -0.000367 Ang=  -0.10 deg.
 B after Tr=     0.000000   -0.000000   -0.000000
         Rot=    0.999997    0.002271    0.000261   -0.000477 Ang=   0.27 deg.
 Requested convergence on RMS density matrix=1.00D-08 within 128 cycles.
 Requested convergence on MAX density matrix=1.00D-06.
 Requested convergence on             energy=1.00D-06.
 No special actions if energy rises.
 Integral accuracy reduced to 1.0D-05 until final iterations.
 Initial convergence to 1.0D-05 achieved.  Increase integral accuracy.
 SCF Done:  E(RB3LYP) =  -539.103192496     A.U. after   12 cycles
            NFock= 12  Conv=0.60D-08     -V/T= 2.0112
   1 Symmetry operations used in ECPInt.
 ECPInt:  NShTT=    5460 NPrTT=   21948 LenC2=    4959 LenP2D=   14122.
 LDataN:  DoStor=T MaxTD1= 5 Len=  102
 Calling FoFJK, ICntrl=      2127 FMM=F ISym2X=0 I1Cent= 0 IOpClX= 0 NMat=1 NMatS=1 NMatT=0.
 ***** Axes restored to original set *****
 -------------------------------------------------------------------
 Center     Atomic                   Forces (Hartrees/Bohr)
 Number     Number              X              Y              Z
 -------------------------------------------------------------------
      1        6          -0.001442649   -0.001036515   -0.001811476
      2        6           0.001372566    0.000445318   -0.001730162
      3        6           0.000409002    0.000314308    0.001900046
      4        6          -0.000161839   -0.000177534    0.000034456
      5        6          -0.000011401   -0.000201586   -0.000188591
      6        6          -0.000216487    0.000041922    0.000052641
      7        6          -0.000055575    0.000085681   -0.000175393
      8        6           0.000027492   -0.000032650    0.000044456
      9        6          -0.000353756    0.000593176    0.001956153
     10        6           0.000110305    0.000003678   -0.000001121
     11        6           0.000076080    0.000165113   -0.000183253
     12        6           0.000218930    0.000026723    0.000047289
     13        6          -0.000001815   -0.000124614   -0.000194564
     14        6           0.000027436   -0.000131625    0.000058683
     15        1           0.000066393    0.000054041    0.000043037
     16        1          -0.000003561    0.000036092   -0.000022768
     17        1           0.000063601    0.000005367    0.000037371
     18        1           0.000006814   -0.000032541   -0.000011118
     19        1           0.000050064   -0.000042232    0.000046940
     20        1          -0.000054773   -0.000039310    0.000036501
     21        1           0.000002920   -0.000037731   -0.000014997
     22        1          -0.000063374   -0.000004266    0.000053139
     23        1          -0.000003102    0.000030272   -0.000013283
     24        1          -0.000063271    0.000058913    0.000036016
 -------------------------------------------------------------------
 Cartesian Forces:  Max     0.001956153 RMS     0.000529376

 GradGradGradGradGradGradGradGradGradGradGradGradGradGradGradGradGradGrad
 Berny optimization.
 Using GEDIIS/GDIIS optimizer.
 FormGI is forming the generalized inverse of G from B-inverse, IUseBI=4.
 Internal  Forces:  Max     0.002018717 RMS     0.000386288
 Search for a local minimum.
 Step number   4 out of a maximum of  127
 All quantities printed in internal units (Hartrees-Bohrs-Radians)
 Mixed Optimization -- En-DIIS/RFO-DIIS
 Update second derivatives using D2CorX and points    1    3    2    4
 DE= -9.03D-04 DEPred=-1.07D-03 R= 8.45D-01
 TightC=F SS=  1.41D+00  RLast= 1.98D-01 DXNew= 2.5227D-01 5.9474D-01
 Trust test= 8.45D-01 RLast= 1.98D-01 DXMaxT set to 2.52D-01
 ITU=  1 -1  0  0
 Use linear search instead of GDIIS.
     Eigenvalues ---    0.00229   0.01211   0.01380   0.01718   0.01798
     Eigenvalues ---    0.02115   0.02129   0.02131   0.02133   0.02138
     Eigenvalues ---    0.02139   0.02140   0.02140   0.02143   0.02147
     Eigenvalues ---    0.02149   0.02152   0.02155   0.02155   0.02156
     Eigenvalues ---    0.02158   0.03333   0.09007   0.14752   0.16000
     Eigenvalues ---    0.16000   0.16000   0.16000   0.16000   0.16000
     Eigenvalues ---    0.16000   0.16001   0.16005   0.21865   0.22000
     Eigenvalues ---    0.22000   0.22022   0.22808   0.23463   0.24926
     Eigenvalues ---    0.25448   0.34920   0.35123   0.35133   0.35144
     Eigenvalues ---    0.35152   0.35160   0.35162   0.35168   0.35179
     Eigenvalues ---    0.35207   0.38137   0.40953   0.41964   0.41976
     Eigenvalues ---    0.42026   0.42247   0.45151   0.46149   0.46174
     Eigenvalues ---    0.46279   0.46328   0.46447   0.46467   0.47206
     Eigenvalues ---    1.03476
 RFO step:  Lambda=-4.22090298D-04 EMin= 2.29380672D-03
 Quartic linear search produced a step of -0.16458.
 Iteration  1 RMS(Cart)=  0.07776038 RMS(Int)=  0.00135858
 Iteration  2 RMS(Cart)=  0.00504952 RMS(Int)=  0.00015233
 Iteration  3 RMS(Cart)=  0.00000255 RMS(Int)=  0.00015233
 Iteration  4 RMS(Cart)=  0.00000000 RMS(Int)=  0.00015233
 Variable       Old X    -DE/DX   Delta X   Delta X   Delta X     New X
                                 (Linear)    (Quad)   (Total)
    R1        2.30529  -0.00155  -0.00015  -0.00195  -0.00210   2.30319
    R2        2.69591  -0.00017   0.00143  -0.00502  -0.00359   2.69232
    R3        2.69602  -0.00023   0.00142  -0.00506  -0.00365   2.69237
    R4        2.66654   0.00024  -0.00043   0.00073   0.00030   2.66683
    R5        2.66753  -0.00005  -0.00028  -0.00029  -0.00058   2.66695
    R6        2.63471   0.00009   0.00075  -0.00226  -0.00152   2.63319
    R7        2.06518  -0.00001  -0.00002  -0.00039  -0.00042   2.06476
    R8        2.64397   0.00013   0.00012  -0.00058  -0.00046   2.64351
    R9        2.06773  -0.00003   0.00001  -0.00065  -0.00064   2.06709
   R10        2.64431   0.00010   0.00019  -0.00089  -0.00070   2.64361
   R11        2.06754  -0.00006   0.00014  -0.00118  -0.00104   2.06650
   R12        2.63438   0.00014   0.00072  -0.00227  -0.00155   2.63282
   R13        2.06773  -0.00003   0.00001  -0.00070  -0.00069   2.06704
   R14        2.06515  -0.00002  -0.00002  -0.00043  -0.00046   2.06469
   R15        2.66707   0.00011  -0.00038   0.00029  -0.00009   2.66698
   R16        2.66700   0.00009  -0.00033   0.00012  -0.00021   2.66679
   R17        2.63450   0.00014   0.00072  -0.00220  -0.00148   2.63303
   R18        2.06516  -0.00002  -0.00002  -0.00041  -0.00044   2.06472
   R19        2.64415   0.00010   0.00019  -0.00086  -0.00066   2.64348
   R20        2.06773  -0.00003   0.00000  -0.00067  -0.00066   2.06707
   R21        2.64413   0.00014   0.00012  -0.00062  -0.00050   2.64363
   R22        2.06755  -0.00007   0.00014  -0.00118  -0.00105   2.06650
   R23        2.63456   0.00010   0.00075  -0.00237  -0.00161   2.63295
   R24        2.06772  -0.00003   0.00002  -0.00069  -0.00068   2.06704
   R25        2.06517  -0.00002  -0.00003  -0.00041  -0.00044   2.06473
    A1        2.10554  -0.00006   0.00051  -0.00135  -0.00085   2.10469
    A2        2.10465   0.00014  -0.00113   0.00293   0.00180   2.10645
    A3        2.07298  -0.00008   0.00062  -0.00157  -0.00095   2.07204
    A4        2.10181   0.00008  -0.00024   0.00077   0.00053   2.10234
    A5        2.07927  -0.00013   0.00114  -0.00354  -0.00239   2.07687
    A6        2.10211   0.00005  -0.00090   0.00276   0.00186   2.10397
    A7        2.10005  -0.00005  -0.00018   0.00025   0.00006   2.10011
    A8        2.08804   0.00005   0.00028  -0.00049  -0.00021   2.08783
    A9        2.09510   0.00000  -0.00010   0.00024   0.00015   2.09524
   A10        2.08983  -0.00003   0.00026  -0.00076  -0.00050   2.08932
   A11        2.09663   0.00002  -0.00014   0.00049   0.00035   2.09698
   A12        2.09673   0.00001  -0.00011   0.00027   0.00015   2.09688
   A13        2.09972   0.00004  -0.00023   0.00073   0.00050   2.10022
   A14        2.09513  -0.00003   0.00006  -0.00024  -0.00018   2.09496
   A15        2.08833  -0.00001   0.00016  -0.00049  -0.00032   2.08801
   A16        2.10198   0.00004  -0.00023   0.00059   0.00036   2.10234
   A17        2.07875  -0.00008   0.00096  -0.00283  -0.00187   2.07687
   A18        2.10246   0.00004  -0.00073   0.00224   0.00152   2.10397
   A19        2.10509   0.00026  -0.00056   0.00168   0.00111   2.10620
   A20        2.10508  -0.00016  -0.00006  -0.00007  -0.00014   2.10494
   A21        2.07301  -0.00009   0.00062  -0.00159  -0.00097   2.07204
   A22        2.10190   0.00008  -0.00027   0.00081   0.00053   2.10243
   A23        2.07900  -0.00010   0.00109  -0.00325  -0.00216   2.07683
   A24        2.10229   0.00003  -0.00081   0.00244   0.00163   2.10392
   A25        2.09987  -0.00003  -0.00016   0.00034   0.00018   2.10005
   A26        2.08822   0.00004   0.00020  -0.00040  -0.00020   2.08801
   A27        2.09510  -0.00001  -0.00004   0.00006   0.00002   2.09512
   A28        2.08983  -0.00003   0.00026  -0.00077  -0.00051   2.08932
   A29        2.09665   0.00002  -0.00011   0.00034   0.00023   2.09688
   A30        2.09671   0.00001  -0.00015   0.00043   0.00028   2.09699
   A31        2.09991   0.00001  -0.00025   0.00062   0.00038   2.10028
   A32        2.09513  -0.00002  -0.00001  -0.00002  -0.00003   2.09510
   A33        2.08815   0.00001   0.00026  -0.00060  -0.00034   2.08781
   A34        2.10186   0.00006  -0.00020   0.00059   0.00039   2.10225
   A35        2.07904  -0.00012   0.00101  -0.00313  -0.00212   2.07692
   A36        2.10229   0.00006  -0.00081   0.00254   0.00173   2.10402
   A37        3.15871  -0.00115   0.01050  -0.04562  -0.03509   3.12361
   A38        3.13531   0.00008   0.01768  -0.02259  -0.00491   3.13040
   A39        3.18721  -0.00202  -0.01398  -0.05739  -0.07061   3.11660
   A40        3.09780   0.00199   0.01300   0.05924   0.07157   3.16937
    D1       -3.14139   0.00112   0.01205   0.03591   0.04871  -3.09268
    D2        0.03860  -0.00002   0.00133  -0.01352  -0.01234   0.02626
    D3        0.03851  -0.00004   0.00175  -0.01471  -0.01281   0.02570
    D4       -3.06469  -0.00118  -0.00898  -0.06415  -0.07387  -3.13855
    D5        3.13815   0.00050   0.00164   0.00346   0.00523  -3.13981
    D6       -0.00271   0.00048   0.00138   0.00300   0.00454   0.00183
    D7        0.00067  -0.00023  -0.00011  -0.00134  -0.00158  -0.00091
    D8       -3.14019  -0.00025  -0.00037  -0.00180  -0.00227   3.14073
    D9       -3.13845  -0.00049  -0.00159  -0.00337  -0.00511   3.13962
   D10        0.00304  -0.00049  -0.00162  -0.00239  -0.00418  -0.00115
   D11       -0.00097   0.00024   0.00016   0.00142   0.00170   0.00073
   D12        3.14052   0.00025   0.00012   0.00239   0.00262  -3.14004
   D13        0.00031   0.00007  -0.00005   0.00006   0.00005   0.00036
   D14       -3.14135   0.00004   0.00012  -0.00049  -0.00034   3.14149
   D15        3.14116   0.00009   0.00021   0.00052   0.00076  -3.14127
   D16       -0.00051   0.00006   0.00037  -0.00003   0.00036  -0.00015
   D17       -0.00100   0.00010   0.00017   0.00117   0.00137   0.00038
   D18        3.14099   0.00001   0.00003   0.00046   0.00048   3.14147
   D19        3.14067   0.00012   0.00001   0.00172   0.00177  -3.14075
   D20       -0.00053   0.00003  -0.00014   0.00101   0.00088   0.00035
   D21        0.00070  -0.00009  -0.00013  -0.00110  -0.00125  -0.00056
   D22       -3.14102  -0.00011  -0.00021  -0.00089  -0.00115   3.14102
   D23       -3.14129   0.00000   0.00001  -0.00039  -0.00036   3.14153
   D24        0.00018  -0.00003  -0.00007  -0.00018  -0.00025  -0.00008
   D25        0.00029  -0.00008  -0.00003  -0.00021  -0.00029  -0.00000
   D26       -3.14119  -0.00009   0.00000  -0.00120  -0.00123   3.14076
   D27       -3.14118  -0.00006   0.00004  -0.00041  -0.00040  -3.14158
   D28        0.00052  -0.00006   0.00008  -0.00140  -0.00134  -0.00082
   D29        3.13885   0.00048   0.00210   0.00163   0.00395  -3.14039
   D30       -0.00240   0.00047   0.00223   0.00018   0.00266   0.00027
   D31        0.00139  -0.00025  -0.00002  -0.00216  -0.00238  -0.00099
   D32       -3.13985  -0.00025   0.00011  -0.00361  -0.00366   3.13967
   D33       -3.13879  -0.00048  -0.00213  -0.00158  -0.00392   3.14047
   D34        0.00249  -0.00047  -0.00220  -0.00026  -0.00270  -0.00021
   D35       -0.00133   0.00024  -0.00000   0.00221   0.00240   0.00107
   D36        3.13995   0.00026  -0.00007   0.00353   0.00363  -3.13961
   D37       -0.00016   0.00008   0.00002   0.00017   0.00026   0.00010
   D38        3.14124   0.00006   0.00009  -0.00001   0.00013   3.14138
   D39        3.14108   0.00008  -0.00011   0.00163   0.00157  -3.14054
   D40       -0.00070   0.00007  -0.00004   0.00145   0.00144   0.00073
   D41       -0.00114   0.00010   0.00001   0.00182   0.00187   0.00073
   D42        3.14069   0.00001  -0.00013   0.00111   0.00097  -3.14152
   D43        3.14064   0.00012  -0.00006   0.00200   0.00200  -3.14055
   D44       -0.00072   0.00003  -0.00020   0.00129   0.00110   0.00039
   D45        0.00120  -0.00010  -0.00004  -0.00177  -0.00185  -0.00065
   D46       -3.14074  -0.00012   0.00009  -0.00210  -0.00208   3.14037
   D47       -3.14063  -0.00001   0.00010  -0.00107  -0.00095  -3.14158
   D48        0.00062  -0.00003   0.00023  -0.00140  -0.00118  -0.00056
   D49        0.00005  -0.00007   0.00003  -0.00026  -0.00031  -0.00026
   D50       -3.14123  -0.00009   0.00010  -0.00160  -0.00155   3.14041
   D51       -3.14120  -0.00006  -0.00009   0.00007  -0.00008  -3.14128
   D52        0.00071  -0.00007  -0.00003  -0.00127  -0.00132  -0.00061
         Item               Value     Threshold  Converged?
 Maximum Force            0.002019     0.000450     NO 
 RMS     Force            0.000386     0.000300     NO 
 Maximum Displacement     0.293321     0.001800     NO 
 RMS     Displacement     0.077468     0.001200     NO 
 Predicted change in Energy=-2.543244D-04
 GradGradGradGradGradGradGradGradGradGradGradGradGradGradGradGradGradGrad

                          Input orientation:                          
 ---------------------------------------------------------------------
 Center     Atomic      Atomic             Coordinates (Angstroms)
 Number     Number       Type             X           Y           Z
 ---------------------------------------------------------------------
      1          6           0        0.609273   -0.032963   -0.071023
      2          6           0       -0.609492   -0.024516   -0.069834
      3          6           0       -2.033611    0.001046   -0.036366
      4          6           0       -2.773309   -1.200699   -0.021501
      5          6           0       -4.166112   -1.172416    0.009094
      6          6           0       -4.847627    0.049123    0.024998
      7          6           0       -4.124643    1.246656    0.009594
      8          6           0       -2.731877    1.227389   -0.020777
      9          6           0        2.033630   -0.018182   -0.042762
     10          6           0        2.740284    1.202642    0.002107
     11          6           0        4.133348    1.211883    0.028169
     12          6           0        4.848078    0.009523    0.010009
     13          6           0        4.158089   -1.206580   -0.035432
     14          6           0        2.765162   -1.224827   -0.061828
     15          1           0       -2.237327   -2.152743   -0.034303
     16          1           0       -4.725893   -2.112118    0.020212
     17          1           0       -5.940750    0.067902    0.048894
     18          1           0       -4.652164    2.204802    0.021369
     19          1           0       -2.163733    2.160554   -0.033669
     20          1           0        2.178425    2.139618    0.015181
     21          1           0        4.667345    2.165905    0.062688
     22          1           0        5.941376    0.020242    0.030618
     23          1           0        4.711545   -2.149930   -0.050976
     24          1           0        2.222742   -2.172580   -0.098444
 ---------------------------------------------------------------------
                    Distance matrix (angstroms):
                    1          2          3          4          5
     1  C    0.000000
     2  C    1.218795   0.000000
     3  C    2.643330   1.424742   0.000000
     4  C    3.578816   2.463300   1.411228   0.000000
     5  C    4.910100   3.738108   2.434469   1.393426   0.000000
     6  C    5.458362   4.239836   2.815096   2.422191   1.398883
     7  C    4.904476   3.738781   2.434353   2.795821   2.419428
     8  C    3.571316   2.464588   1.411289   2.428441   2.795888
     9  C    1.424714   2.643268   4.067292   4.950300   6.306485
    10  C    2.464401   3.568205   4.922945   6.014675   7.303373
    11  C    3.738794   4.902327   6.285035   7.316073   8.635177
    12  C    4.239792   5.458260   6.881850   7.716941   9.091348
    13  C    3.738012   4.912054   6.308368   6.931414   8.324390
    14  C    2.463429   3.581773   4.952942   5.538671   6.931836
    15  H    3.549359   2.679638   2.163403   1.092626   2.164056
    16  H    5.726710   4.616378   3.423017   2.155228   1.093855
    17  H    6.551898   5.333381   3.908641   3.412768   2.165482
    18  H    5.718291   4.617508   3.422966   3.889649   3.412037
    19  H    3.535884   2.681699   2.163427   3.416102   3.888450
    20  H    2.681376   3.530324   4.724129   5.973168   7.157008
    21  H    4.617450   5.714937   7.042672   8.167279   9.443369
    22  H    5.333337   6.551790   7.975291   8.799952  10.177633
    23  H    4.616339   5.729849   7.079834   7.544863   8.931514
    24  H    2.679925   3.554791   4.779649   5.090285   6.467561
                    6          7          8          9         10
     6  C    0.000000
     7  C    1.398938   0.000000
     8  C    2.422149   1.393231   0.000000
     9  C    6.881920   6.287042   4.925646   0.000000
    10  C    7.675124   6.865072   5.472265   1.411305   0.000000
    11  C    9.055933   8.258085   6.865417   2.434523   1.393338
    12  C    9.695798   9.057606   7.677230   2.815079   2.422063
    13  C    9.093039   8.638521   7.307260   2.434269   2.795699
    14  C    7.719136   7.320024   6.019343   1.411204   2.428438
    15  H    3.415465   3.888420   3.416147   4.774673   6.003044
    16  H    2.164672   3.412181   3.889742   7.076700   8.168951
    17  H    1.093546   2.165468   3.412643   7.975372   8.755009
    18  H    2.164525   1.093828   2.155137   7.045964   7.460092
    19  H    3.415388   2.163851   1.092589   4.729147   4.996824
    20  H    7.330462   6.366010   4.994449   2.163428   1.092603
    21  H    9.747660   8.840073   7.458972   3.423128   2.155252
    22  H   10.789043  10.140477   8.757006   3.908623   3.412605
    23  H    9.809148   9.466715   8.173844   3.422813   3.889528
    24  H    7.412241   7.210558   6.009498   2.163399   3.416150
                   11         12         13         14         15
    11  C    0.000000
    12  C    1.398870   0.000000
    13  C    2.419426   1.398949   0.000000
    14  C    2.795994   2.422255   1.393296   0.000000
    15  H    7.204867   7.408125   6.465026   5.087896   0.000000
    16  H    9.462303   9.806242   8.930186   7.543867   2.489495
    17  H   10.138864  10.789056  10.179291   8.802064   4.318974
    18  H    8.841445   9.750588   9.447820   8.172271   4.982242
    19  H    6.368440   7.334462   7.162613   5.979599   4.313926
    20  H    2.163928   3.415315   3.888274   3.416092   6.158383
    21  H    1.093848   2.164583   3.412129   3.889841   8.144607
    22  H    2.165405   1.093545   2.165542   3.412781   8.462698
    23  H    3.412091   2.164625   1.093831   2.155073   6.948893
    24  H    3.888578   3.415513   2.163953   1.092610   4.460574
                   16         17         18         19         20
    16  H    0.000000
    17  H    2.495835   0.000000
    18  H    4.317550   2.495507   0.000000
    19  H    4.982299   4.318781   2.489433   0.000000
    20  H    8.108446   8.379389   6.830903   4.342483   0.000000
    21  H   10.321637  10.813579   9.319682   6.831759   2.489512
    22  H   10.878313  11.882236  10.816445   8.383189   4.318772
    23  H    9.437782  10.881184  10.327051   8.114803   4.982098
    24  H    6.949910   8.466645   8.151083   6.166150   4.313923
                   21         22         23         24
    21  H    0.000000
    22  H    2.495606   0.000000
    23  H    4.317558   2.495755   0.000000
    24  H    4.982419   4.318955   2.489359   0.000000
 Stoichiometry    C14H10
 Framework group  C1[X(C14H10)]
 Deg. of freedom    66
 Full point group                 C1      NOp   1
 Largest Abelian subgroup         C1      NOp   1
 Largest concise Abelian subgroup C1      NOp   1
                         Standard orientation:                         
 ---------------------------------------------------------------------
 Center     Atomic      Atomic             Coordinates (Angstroms)
 Number     Number       Type             X           Y           Z
 ---------------------------------------------------------------------
      1          6           0        0.609427    0.037229    0.051767
      2          6           0       -0.609363    0.034037    0.052551
      3          6           0       -2.033631    0.014174    0.021608
      4          6           0       -2.768175    1.218787   -0.008672
      5          6           0       -4.161133    1.196109   -0.036753
      6          6           0       -4.847922   -0.022576   -0.034800
      7          6           0       -4.130073   -1.222898   -0.004013
      8          6           0       -2.737190   -1.209237    0.023968
      9          6           0        2.033661    0.015902    0.021541
     10          6           0        2.734983   -1.208467   -0.007594
     11          6           0        4.127951   -1.224089   -0.035649
     12          6           0        4.847876   -0.024695   -0.035132
     13          6           0        4.163198    1.194891   -0.005386
     14          6           0        2.770406    1.219521    0.022878
     15          1           0       -2.228082    2.168592   -0.009795
     16          1           0       -4.716882    2.137980   -0.059953
     17          1           0       -5.941152   -0.036955   -0.056769
     18          1           0       -4.661729   -2.178825   -0.001792
     19          1           0       -2.173046   -2.144584    0.048839
     20          1           0        2.169079   -2.143097   -0.006911
     21          1           0        4.657784   -2.180796   -0.057845
     22          1           0        5.941084   -0.040424   -0.057258
     23          1           0        4.720732    2.135963   -0.003674
     24          1           0        2.232127    2.170025    0.047271
 ---------------------------------------------------------------------
 Rotational constants (GHZ):           2.8276661           0.2476896           0.2277757
 Standard basis: def2SVPP (5D, 7F)
 There are   230 symmetry adapted cartesian basis functions of A   symmetry.
 There are   216 symmetry adapted basis functions of A   symmetry.
   216 basis functions,   390 primitive gaussians,   230 cartesian basis functions
    47 alpha electrons       47 beta electrons
       nuclear repulsion energy       692.1742247813 Hartrees.
 NAtoms=   24 NActive=   24 NUniq=   24 SFac= 1.00D+00 NAtFMM=   60 NAOKFM=F Big=F
 Integral buffers will be    131072 words long.
 Raffenetti 2 integral format.
 Two-electron integral symmetry is turned on.
 Nuclear repulsion after empirical dispersion term =      692.1269891668 Hartrees.
 One-electron integrals computed using PRISM.
   1 Symmetry operations used in ECPInt.
 ECPInt:  NShTT=    5460 NPrTT=   21948 LenC2=    4963 LenP2D=   14133.
 LDataN:  DoStor=T MaxTD1= 4 Len=   56
 NBasis=   216 RedAO= T EigKep=  3.07D-04  NBF=   216
 NBsUse=   216 1.00D-06 EigRej= -1.00D+00 NBFU=   216
 Initial guess from the checkpoint file:  "/home/software/g16/scr/Gau-12557.chk"
 B after Tr=    -0.000000   -0.000000    0.000000
         Rot=    1.000000   -0.000227   -0.000030    0.000328 Ang=  -0.05 deg.
 ExpMin= 1.22D-01 ExpMax= 1.24D+03 ExpMxC= 1.86D+02 IAcc=3 IRadAn=         5 AccDes= 0.00D+00
 Harris functional with IExCor=  402 and IRadAn=       5 diagonalized for initial guess.
 HarFok:  IExCor=  402 AccDes= 0.00D+00 IRadAn=         5 IDoV= 1 UseB2=F ITyADJ=14
 ICtDFT=  3500011 ScaDFX=  1.000000  1.000000  1.000000  1.000000
 FoFCou: FMM=F IPFlag=           0 FMFlag=      100000 FMFlg1=           0
         NFxFlg=           0 DoJE=T BraDBF=F KetDBF=T FulRan=T
         wScrn=  0.000000 ICntrl=       500 IOpCl=  0 I1Cent=   200000004 NGrid=           0
         NMat0=    1 NMatS0=      1 NMatT0=    0 NMatD0=    1 NMtDS0=    0 NMtDT0=    0
 Petite list used in FoFCou.
 Requested convergence on RMS density matrix=1.00D-08 within 128 cycles.
 Requested convergence on MAX density matrix=1.00D-06.
 Requested convergence on             energy=1.00D-06.
 No special actions if energy rises.
 Integral accuracy reduced to 1.0D-05 until final iterations.
 Initial convergence to 1.0D-05 achieved.  Increase integral accuracy.
 SCF Done:  E(RB3LYP) =  -539.103265007     A.U. after   12 cycles
            NFock= 12  Conv=0.65D-08     -V/T= 2.0112
   1 Symmetry operations used in ECPInt.
 ECPInt:  NShTT=    5460 NPrTT=   21948 LenC2=    4963 LenP2D=   14133.
 LDataN:  DoStor=T MaxTD1= 5 Len=  102
 Calling FoFJK, ICntrl=      2127 FMM=F ISym2X=0 I1Cent= 0 IOpClX= 0 NMat=1 NMatS=1 NMatT=0.
 ***** Axes restored to original set *****
 -------------------------------------------------------------------
 Center     Atomic                   Forces (Hartrees/Bohr)
 Number     Number              X              Y              Z
 -------------------------------------------------------------------
      1        6          -0.000471807    0.001021461    0.000934561
      2        6           0.000456556    0.000619577    0.001112369
      3        6          -0.000993993   -0.000774750   -0.001165852
      4        6           0.000505523   -0.000020581   -0.000010823
      5        6          -0.000404934   -0.000392877    0.000072252
      6        6          -0.000063004   -0.000013150   -0.000034502
      7        6          -0.000510381    0.000327034    0.000125787
      8        6           0.000947390    0.000055872   -0.000052313
      9        6           0.000997237   -0.000860224   -0.001082553
     10        6          -0.000894748    0.000096982   -0.000085351
     11        6           0.000387243    0.000329884    0.000099465
     12        6           0.000066061   -0.000071688   -0.000033412
     13        6           0.000542547   -0.000388399    0.000065649
     14        6          -0.000566729    0.000012130   -0.000031228
     15        1          -0.000058318   -0.000207390   -0.000026554
     16        1          -0.000162852   -0.000157912    0.000028762
     17        1          -0.000299224    0.000002133   -0.000004925
     18        1          -0.000131286    0.000195133    0.000009122
     19        1          -0.000024040    0.000232289    0.000000041
     20        1           0.000026380    0.000219598    0.000025690
     21        1           0.000125995    0.000178209    0.000026994
     22        1           0.000300031   -0.000007154   -0.000007525
     23        1           0.000173691   -0.000175811    0.000022877
     24        1           0.000052659   -0.000220366    0.000011469
 -------------------------------------------------------------------
 Cartesian Forces:  Max     0.001165852 RMS     0.000443518

 GradGradGradGradGradGradGradGradGradGradGradGradGradGradGradGradGradGrad
 Berny optimization.
 Using GEDIIS/GDIIS optimizer.
 FormGI is forming the generalized inverse of G from B-inverse, IUseBI=4.
 Internal  Forces:  Max     0.001698297 RMS     0.000392619
 Search for a local minimum.
 Step number   5 out of a maximum of  127
 All quantities printed in internal units (Hartrees-Bohrs-Radians)
 Mixed Optimization -- En-DIIS/RFO-DIIS
 Swapping is turned off.
 Update second derivatives using D2CorX and points    1    3    2    4    5
 DE= -7.25D-05 DEPred=-2.54D-04 R= 2.85D-01
 Trust test= 2.85D-01 RLast= 1.41D-01 DXMaxT set to 2.52D-01
 ITU=  0  1 -1  0  0
     Eigenvalues ---    0.00227   0.01300   0.01375   0.01712   0.01800
     Eigenvalues ---    0.02120   0.02129   0.02131   0.02133   0.02138
     Eigenvalues ---    0.02139   0.02140   0.02140   0.02143   0.02147
     Eigenvalues ---    0.02150   0.02152   0.02155   0.02155   0.02156
     Eigenvalues ---    0.02158   0.05020   0.09497   0.14474   0.15999
     Eigenvalues ---    0.16000   0.16000   0.16000   0.16000   0.16000
     Eigenvalues ---    0.16000   0.16001   0.16006   0.21840   0.22000
     Eigenvalues ---    0.22000   0.22029   0.22657   0.23468   0.24912
     Eigenvalues ---    0.25675   0.34642   0.35123   0.35131   0.35142
     Eigenvalues ---    0.35149   0.35157   0.35161   0.35164   0.35169
     Eigenvalues ---    0.35179   0.38062   0.40955   0.41868   0.41960
     Eigenvalues ---    0.41986   0.42249   0.45032   0.46118   0.46165
     Eigenvalues ---    0.46276   0.46326   0.46449   0.46467   0.47795
     Eigenvalues ---    1.00773
 En-DIIS/RFO-DIIS/Sim-DIIS IScMMF=       -3 using points:     5    4
 RFO step:  Lambda=-1.66125799D-04.
 DidBck=T Rises=F RFO-DIIS coefs:    0.63153    0.36847
 Iteration  1 RMS(Cart)=  0.03581024 RMS(Int)=  0.00025577
 Iteration  2 RMS(Cart)=  0.00099004 RMS(Int)=  0.00001656
 Iteration  3 RMS(Cart)=  0.00000018 RMS(Int)=  0.00001656
 Variable       Old X    -DE/DX   Delta X   Delta X   Delta X     New X
                                 (Linear)    (Quad)   (Total)
    R1        2.30319   0.00074   0.00077  -0.00020   0.00058   2.30377
    R2        2.69232   0.00118   0.00132   0.00174   0.00306   2.69538
    R3        2.69237   0.00116   0.00134   0.00168   0.00302   2.69539
    R4        2.66683   0.00045  -0.00011   0.00045   0.00033   2.66717
    R5        2.66695   0.00029   0.00021   0.00020   0.00042   2.66737
    R6        2.63319   0.00073   0.00056   0.00106   0.00162   2.63481
    R7        2.06476   0.00015   0.00015   0.00020   0.00035   2.06511
    R8        2.64351   0.00045   0.00017   0.00063   0.00080   2.64431
    R9        2.06709   0.00022   0.00024   0.00028   0.00052   2.06760
   R10        2.64361   0.00047   0.00026   0.00061   0.00087   2.64448
   R11        2.06650   0.00030   0.00038   0.00041   0.00079   2.06729
   R12        2.63282   0.00084   0.00057   0.00122   0.00179   2.63462
   R13        2.06704   0.00023   0.00025   0.00031   0.00056   2.06760
   R14        2.06469   0.00018   0.00017   0.00023   0.00040   2.06509
   R15        2.66698   0.00026   0.00003   0.00025   0.00028   2.66726
   R16        2.66679   0.00049   0.00008   0.00042   0.00049   2.66728
   R17        2.63303   0.00077   0.00054   0.00114   0.00168   2.63471
   R18        2.06472   0.00017   0.00016   0.00022   0.00038   2.06510
   R19        2.64348   0.00053   0.00024   0.00067   0.00092   2.64440
   R20        2.06707   0.00022   0.00024   0.00028   0.00052   2.06760
   R21        2.64363   0.00039   0.00018   0.00057   0.00075   2.64438
   R22        2.06650   0.00030   0.00039   0.00041   0.00079   2.06729
   R23        2.63295   0.00083   0.00059   0.00117   0.00177   2.63471
   R24        2.06704   0.00024   0.00025   0.00031   0.00056   2.06760
   R25        2.06473   0.00016   0.00016   0.00021   0.00037   2.06511
    A1        2.10469   0.00035   0.00031   0.00039   0.00070   2.10540
    A2        2.10645  -0.00041  -0.00066  -0.00058  -0.00124   2.10522
    A3        2.07204   0.00006   0.00035   0.00019   0.00054   2.07257
    A4        2.10234   0.00003  -0.00020   0.00005  -0.00015   2.10219
    A5        2.07687   0.00014   0.00088   0.00058   0.00146   2.07834
    A6        2.10397  -0.00017  -0.00069  -0.00063  -0.00131   2.10266
    A7        2.10011  -0.00008  -0.00002  -0.00024  -0.00026   2.09985
    A8        2.08783   0.00010   0.00008   0.00038   0.00046   2.08829
    A9        2.09524  -0.00002  -0.00005  -0.00014  -0.00020   2.09504
   A10        2.08932   0.00007   0.00019   0.00021   0.00040   2.08972
   A11        2.09698  -0.00004  -0.00013  -0.00011  -0.00024   2.09675
   A12        2.09688  -0.00003  -0.00006  -0.00010  -0.00016   2.09672
   A13        2.10022  -0.00005  -0.00018  -0.00018  -0.00036   2.09986
   A14        2.09496   0.00000   0.00006  -0.00004   0.00002   2.09498
   A15        2.08801   0.00005   0.00012   0.00022   0.00034   2.08834
   A16        2.10234  -0.00002  -0.00013  -0.00003  -0.00016   2.10218
   A17        2.07687   0.00016   0.00069   0.00062   0.00131   2.07818
   A18        2.10397  -0.00014  -0.00056  -0.00059  -0.00115   2.10282
   A19        2.10620  -0.00042  -0.00041  -0.00031  -0.00072   2.10548
   A20        2.10494   0.00037   0.00005   0.00014   0.00019   2.10513
   A21        2.07204   0.00006   0.00036   0.00017   0.00053   2.07257
   A22        2.10243  -0.00004  -0.00020  -0.00005  -0.00024   2.10219
   A23        2.07683   0.00016   0.00080   0.00064   0.00143   2.07827
   A24        2.10392  -0.00012  -0.00060  -0.00059  -0.00119   2.10273
   A25        2.10005   0.00000  -0.00007  -0.00013  -0.00020   2.09986
   A26        2.08801   0.00002   0.00008   0.00024   0.00031   2.08833
   A27        2.09512  -0.00003  -0.00001  -0.00011  -0.00012   2.09500
   A28        2.08932   0.00007   0.00019   0.00021   0.00039   2.08972
   A29        2.09688  -0.00002  -0.00008  -0.00006  -0.00014   2.09674
   A30        2.09699  -0.00004  -0.00010  -0.00015  -0.00025   2.09673
   A31        2.10028  -0.00013  -0.00014  -0.00028  -0.00042   2.09986
   A32        2.09510   0.00000   0.00001  -0.00010  -0.00008   2.09502
   A33        2.08781   0.00013   0.00013   0.00038   0.00051   2.08831
   A34        2.10225   0.00004  -0.00014   0.00008  -0.00006   2.10218
   A35        2.07692   0.00014   0.00078   0.00055   0.00133   2.07825
   A36        2.10402  -0.00018  -0.00064  -0.00063  -0.00126   2.10275
   A37        3.12361   0.00170   0.01293   0.00194   0.01487   3.13848
   A38        3.13040   0.00134   0.00181   0.01275   0.01456   3.14496
   A39        3.11660   0.00112   0.02602  -0.00078   0.02518   3.14178
   A40        3.16937  -0.00124  -0.02637  -0.00239  -0.02876   3.14061
    D1       -3.09268  -0.00072  -0.01795  -0.00857  -0.02655  -3.11923
    D2        0.02626  -0.00004   0.00455  -0.00829  -0.00364   0.02261
    D3        0.02570  -0.00000   0.00472  -0.00754  -0.00292   0.02278
    D4       -3.13855   0.00068   0.02722  -0.00726   0.01999  -3.11856
    D5       -3.13981  -0.00030  -0.00193   0.00003  -0.00188   3.14149
    D6        0.00183  -0.00030  -0.00167  -0.00023  -0.00189  -0.00006
    D7       -0.00091   0.00016   0.00058   0.00046   0.00103   0.00012
    D8        3.14073   0.00016   0.00084   0.00020   0.00103  -3.14143
    D9        3.13962   0.00031   0.00188   0.00024   0.00211  -3.14145
   D10       -0.00115   0.00029   0.00154  -0.00023   0.00130   0.00015
   D11        0.00073  -0.00015  -0.00063  -0.00020  -0.00081  -0.00008
   D12       -3.14004  -0.00017  -0.00097  -0.00067  -0.00162   3.14152
   D13        0.00036  -0.00006  -0.00002  -0.00043  -0.00044  -0.00008
   D14        3.14149  -0.00003   0.00013   0.00000   0.00013  -3.14156
   D15       -3.14127  -0.00006  -0.00028  -0.00017  -0.00044   3.14147
   D16       -0.00015  -0.00003  -0.00013   0.00026   0.00013  -0.00001
   D17        0.00038  -0.00005  -0.00051   0.00012  -0.00038  -0.00000
   D18        3.14147   0.00001  -0.00018   0.00033   0.00015  -3.14156
   D19       -3.14075  -0.00008  -0.00065  -0.00031  -0.00096   3.14148
   D20        0.00035  -0.00002  -0.00032  -0.00010  -0.00043  -0.00008
   D21       -0.00056   0.00006   0.00046   0.00014   0.00060   0.00004
   D22        3.14102   0.00008   0.00042   0.00017   0.00059  -3.14158
   D23        3.14153  -0.00000   0.00013  -0.00007   0.00007  -3.14159
   D24       -0.00008   0.00001   0.00009  -0.00004   0.00006  -0.00002
   D25       -0.00000   0.00005   0.00011  -0.00010   0.00000   0.00000
   D26        3.14076   0.00007   0.00045   0.00038   0.00083   3.14158
   D27       -3.14158   0.00003   0.00015  -0.00013   0.00001  -3.14156
   D28       -0.00082   0.00005   0.00049   0.00035   0.00084   0.00002
   D29       -3.14039  -0.00028  -0.00145   0.00024  -0.00124   3.14155
   D30        0.00027  -0.00026  -0.00098   0.00078  -0.00023   0.00003
   D31       -0.00099   0.00015   0.00088   0.00020   0.00110   0.00012
   D32        3.13967   0.00018   0.00135   0.00074   0.00211  -3.14140
   D33        3.14047   0.00028   0.00145  -0.00033   0.00114  -3.14157
   D34       -0.00021   0.00026   0.00099  -0.00068   0.00035   0.00014
   D35        0.00107  -0.00015  -0.00088  -0.00029  -0.00121  -0.00014
   D36       -3.13961  -0.00017  -0.00134  -0.00064  -0.00200   3.14158
   D37        0.00010  -0.00005  -0.00010  -0.00004  -0.00014  -0.00004
   D38        3.14138  -0.00002  -0.00005   0.00034   0.00028  -3.14153
   D39       -3.14054  -0.00007  -0.00058  -0.00059  -0.00117   3.14147
   D40        0.00073  -0.00005  -0.00053  -0.00021  -0.00074  -0.00001
   D41        0.00073  -0.00006  -0.00069  -0.00004  -0.00073  -0.00001
   D42       -3.14152   0.00001  -0.00036   0.00030  -0.00006  -3.14158
   D43       -3.14055  -0.00008  -0.00074  -0.00042  -0.00116   3.14148
   D44        0.00039  -0.00002  -0.00041  -0.00008  -0.00048  -0.00010
   D45       -0.00065   0.00005   0.00068  -0.00005   0.00063  -0.00001
   D46        3.14037   0.00009   0.00076   0.00046   0.00123  -3.14158
   D47       -3.14158  -0.00001   0.00035  -0.00039  -0.00004   3.14156
   D48       -0.00056   0.00002   0.00043   0.00012   0.00055  -0.00001
   D49       -0.00026   0.00005   0.00011   0.00022   0.00035   0.00009
   D50        3.14041   0.00007   0.00057   0.00057   0.00115   3.14156
   D51       -3.14128   0.00002   0.00003  -0.00028  -0.00025  -3.14153
   D52       -0.00061   0.00004   0.00049   0.00006   0.00055  -0.00006
         Item               Value     Threshold  Converged?
 Maximum Force            0.001698     0.000450     NO 
 RMS     Force            0.000393     0.000300     NO 
 Maximum Displacement     0.112921     0.001800     NO 
 RMS     Displacement     0.036161     0.001200     NO 
 Predicted change in Energy=-8.332534D-05
 GradGradGradGradGradGradGradGradGradGradGradGradGradGradGradGradGradGrad

                          Input orientation:                          
 ---------------------------------------------------------------------
 Center     Atomic      Atomic             Coordinates (Angstroms)
 Number     Number       Type             X           Y           Z
 ---------------------------------------------------------------------
      1          6           0        0.609655    0.006249   -0.012319
      2          6           0       -0.609415    0.014555   -0.010079
      3          6           0       -2.035747    0.019465   -0.008588
      4          6           0       -2.759032   -1.192526   -0.010037
      5          6           0       -4.153281   -1.183256   -0.008452
      6          6           0       -4.851482    0.029412   -0.005308
      7          6           0       -4.144675    1.237192   -0.003751
      8          6           0       -2.750498    1.236625   -0.005367
      9          6           0        2.035978    0.000976   -0.015049
     10          6           0        2.759748    1.212395    0.013568
     11          6           0        4.153941    1.202652    0.010838
     12          6           0        4.851710   -0.009925   -0.020293
     13          6           0        4.144472   -1.217062   -0.048771
     14          6           0        2.750244   -1.216023   -0.046229
     15          1           0       -2.211103   -2.138045   -0.012376
     16          1           0       -4.700865   -2.130497   -0.009574
     17          1           0       -5.945438    0.033294   -0.004040
     18          1           0       -4.685606    2.188243   -0.001281
     19          1           0       -2.195758    2.178151   -0.004166
     20          1           0        2.212118    2.157764    0.037958
     21          1           0        4.701917    2.149399    0.033295
     22          1           0        5.945662   -0.014157   -0.022342
     23          1           0        4.685010   -2.168030   -0.073163
     24          1           0        2.195207   -2.157121   -0.068456
 ---------------------------------------------------------------------
                    Distance matrix (angstroms):
                    1          2          3          4          5
     1  C    0.000000
     2  C    1.219100   0.000000
     3  C    2.645437   1.426341   0.000000
     4  C    3.575628   2.465338   1.411406   0.000000
     5  C    4.909226   3.740821   2.435260   1.394282   0.000000
     6  C    5.461191   4.242096   2.815755   2.423119   1.399306
     7  C    4.911104   3.740715   2.435254   2.797066   2.420467
     8  C    3.578337   2.465302   1.411509   2.429170   2.797076
     9  C    1.426336   2.645433   4.071772   4.941315   6.301538
    10  C    2.465433   3.575841   4.941694   6.020061   7.316393
    11  C    3.740840   4.909336   6.301789   7.316181   8.643083
    12  C    4.242093   5.461189   6.887529   7.702080   9.081118
    13  C    3.740689   4.910990   6.302834   6.903656   8.297921
    14  C    2.465202   3.578119   4.943031   5.509445   6.903707
    15  H    3.543257   2.683113   2.164628   1.092812   2.164185
    16  H    5.724274   4.619655   3.424207   2.156504   1.094128
    17  H    6.555154   5.336059   3.909718   3.414067   2.166065
    18  H    5.727216   4.619559   3.424238   3.891190   3.413271
    19  H    3.547896   2.682847   2.164613   3.417423   3.889855
    20  H    2.683176   3.543544   4.755928   5.994921   7.189081
    21  H    4.619716   5.724481   7.066433   8.175334   9.461652
    22  H    5.336056   6.555152   7.981492   8.784100  10.166398
    23  H    4.619493   5.727005   7.068088   7.507952   8.893220
    24  H    2.682778   3.547603   4.758369   5.047607   6.423030
                    6          7          8          9         10
     6  C    0.000000
     7  C    1.399396   0.000000
     8  C    2.423118   1.394179   0.000000
     9  C    6.887526   6.303082   4.943407   0.000000
    10  C    7.702638   6.904490   5.510332   1.411452   0.000000
    11  C    9.081542   8.298701   6.904542   2.435254   1.394230
    12  C    9.703283   9.082429   7.703744   2.815757   2.423121
    13  C    9.082004   8.644962   7.318680   2.435262   2.797071
    14  C    7.703183   7.318468   6.022899   1.411465   2.429172
    15  H    3.416068   3.889858   3.417513   4.755325   5.994621
    16  H    2.165159   3.413314   3.891203   7.065994   8.175342
    17  H    1.093963   2.166129   3.414037   7.981489   8.784694
    18  H    2.165198   1.094125   2.156441   7.068523   7.509048
    19  H    3.416131   2.164182   1.092799   4.758971   5.048766
    20  H    7.377412   6.423241   5.047567   2.164618   1.092802
    21  H    9.785871   8.893575   7.508204   3.424220   2.156475
    22  H   10.797246  10.167652   8.785667   3.909720   3.414055
    23  H    9.786625   9.463810   8.178205   3.424227   3.891198
    24  H    7.378397   7.191638   5.998457   2.164622   3.417466
                   11         12         13         14         15
    11  C    0.000000
    12  C    1.399354   0.000000
    13  C    2.420466   1.399348   0.000000
    14  C    2.797072   2.423118   1.394231   0.000000
    15  H    7.188503   7.376468   6.422061   5.046408   0.000000
    16  H    9.461390   9.785123   8.892463   7.507106   2.489775
    17  H   10.166862  10.797246  10.167187   8.785070   4.319727
    18  H    8.894331   9.787374   9.464071   8.178197   4.983979
    19  H    6.424212   7.379345   7.192217   5.998760   4.316231
    20  H    2.164174   3.416096   3.889854   3.417470   6.166149
    21  H    1.094125   2.165176   3.413288   3.891196   8.134746
    22  H    2.166100   1.093963   2.166094   3.414052   8.428750
    23  H    3.413295   2.165179   1.094128   2.156470   6.896446
    24  H    3.889859   3.416106   2.164194   1.092807   4.406708
                   16         17         18         19         20
    16  H    0.000000
    17  H    2.496194   0.000000
    18  H    4.318775   2.496195   0.000000
    19  H    4.983979   4.319782   2.489870   0.000000
    20  H    8.135157   8.429761   6.897903   4.408125   0.000000
    21  H   10.331101  10.855664   9.387667   6.897836   2.489817
    22  H   10.854843  11.891209  10.857020   8.431446   4.319749
    23  H    9.386165  10.856197  10.333959   8.138736   4.983978
    24  H    6.896375   8.430431   8.138322   6.170842   4.316230
                   21         22         23         24
    21  H    0.000000
    22  H    2.496191   0.000000
    23  H    4.318774   2.496197   0.000000
    24  H    4.983980   4.319762   2.489831   0.000000
 Stoichiometry    C14H10
 Framework group  C1[X(C14H10)]
 Deg. of freedom    66
 Full point group                 C1      NOp   1
 Largest Abelian subgroup         C1      NOp   1
 Largest concise Abelian subgroup C1      NOp   1
                         Standard orientation:                         
 ---------------------------------------------------------------------
 Center     Atomic      Atomic             Coordinates (Angstroms)
 Number     Number       Type             X           Y           Z
 ---------------------------------------------------------------------
      1          6           0        0.609549    0.001210   -0.000806
      2          6           0       -0.609547   -0.001968   -0.001109
      3          6           0       -2.035887   -0.000864   -0.000398
      4          6           0       -2.754060    1.214088   -0.013967
      5          6           0       -4.148337    1.210695   -0.013340
      6          6           0       -4.851641    0.001057    0.000672
      7          6           0       -4.149928   -1.209616    0.014103
      8          6           0       -2.755760   -1.214925    0.013622
      9          6           0        2.035885    0.000486   -0.000283
     10          6           0        2.754504   -1.214257   -0.013888
     11          6           0        4.148728   -1.210376   -0.013376
     12          6           0        4.851642   -0.000455    0.000598
     13          6           0        4.149538    1.209935    0.014096
     14          6           0        2.755315    1.214759    0.013656
     15          1           0       -2.202153    2.157228   -0.025011
     16          1           0       -4.691926    2.160176   -0.023982
     17          1           0       -5.945604    0.001786    0.001095
     18          1           0       -4.694861   -2.158319    0.025078
     19          1           0       -2.204991   -2.158723    0.024099
     20          1           0        2.202862   -2.157542   -0.024896
     21          1           0        4.692677   -2.159647   -0.024074
     22          1           0        5.945605   -0.000823    0.000952
     23          1           0        4.694111    2.158848    0.025042
     24          1           0        2.204280    2.158409    0.024210
 ---------------------------------------------------------------------
 Rotational constants (GHZ):           2.8282778           0.2472984           0.2274185
 Standard basis: def2SVPP (5D, 7F)
 There are   230 symmetry adapted cartesian basis functions of A   symmetry.
 There are   216 symmetry adapted basis functions of A   symmetry.
   216 basis functions,   390 primitive gaussians,   230 cartesian basis functions
    47 alpha electrons       47 beta electrons
       nuclear repulsion energy       691.8080178682 Hartrees.
 NAtoms=   24 NActive=   24 NUniq=   24 SFac= 1.00D+00 NAtFMM=   60 NAOKFM=F Big=F
 Integral buffers will be    131072 words long.
 Raffenetti 2 integral format.
 Two-electron integral symmetry is turned on.
 Nuclear repulsion after empirical dispersion term =      691.7608073596 Hartrees.
 One-electron integrals computed using PRISM.
   1 Symmetry operations used in ECPInt.
 ECPInt:  NShTT=    5460 NPrTT=   21948 LenC2=    4959 LenP2D=   14121.
 LDataN:  DoStor=T MaxTD1= 4 Len=   56
 NBasis=   216 RedAO= T EigKep=  3.08D-04  NBF=   216
 NBsUse=   216 1.00D-06 EigRej= -1.00D+00 NBFU=   216
 Initial guess from the checkpoint file:  "/home/software/g16/scr/Gau-12557.chk"
 B after Tr=     0.000000    0.000000   -0.000000
         Rot=    1.000000   -0.000240    0.000016   -0.000035 Ang=  -0.03 deg.
 ExpMin= 1.22D-01 ExpMax= 1.24D+03 ExpMxC= 1.86D+02 IAcc=3 IRadAn=         5 AccDes= 0.00D+00
 Harris functional with IExCor=  402 and IRadAn=       5 diagonalized for initial guess.
 HarFok:  IExCor=  402 AccDes= 0.00D+00 IRadAn=         5 IDoV= 1 UseB2=F ITyADJ=14
 ICtDFT=  3500011 ScaDFX=  1.000000  1.000000  1.000000  1.000000
 FoFCou: FMM=F IPFlag=           0 FMFlag=      100000 FMFlg1=           0
         NFxFlg=           0 DoJE=T BraDBF=F KetDBF=T FulRan=T
         wScrn=  0.000000 ICntrl=       500 IOpCl=  0 I1Cent=   200000004 NGrid=           0
         NMat0=    1 NMatS0=      1 NMatT0=    0 NMatD0=    1 NMtDS0=    0 NMtDT0=    0
 Petite list used in FoFCou.
 Requested convergence on RMS density matrix=1.00D-08 within 128 cycles.
 Requested convergence on MAX density matrix=1.00D-06.
 Requested convergence on             energy=1.00D-06.
 No special actions if energy rises.
 Integral accuracy reduced to 1.0D-05 until final iterations.
 Initial convergence to 1.0D-05 achieved.  Increase integral accuracy.
 SCF Done:  E(RB3LYP) =  -539.103346870     A.U. after   11 cycles
            NFock= 11  Conv=0.78D-08     -V/T= 2.0112
   1 Symmetry operations used in ECPInt.
 ECPInt:  NShTT=    5460 NPrTT=   21948 LenC2=    4959 LenP2D=   14121.
 LDataN:  DoStor=T MaxTD1= 5 Len=  102
 Calling FoFJK, ICntrl=      2127 FMM=F ISym2X=0 I1Cent= 0 IOpClX= 0 NMat=1 NMatS=1 NMatT=0.
 ***** Axes restored to original set *****
 -------------------------------------------------------------------
 Center     Atomic                   Forces (Hartrees/Bohr)
 Number     Number              X              Y              Z
 -------------------------------------------------------------------
      1        6          -0.000023624    0.000246265    0.000006101
      2        6           0.000020270   -0.000245005   -0.000054399
      3        6           0.000002722    0.000140832    0.000047033
      4        6          -0.000040150   -0.000039574   -0.000022189
      5        6           0.000062731   -0.000014616    0.000003515
      6        6           0.000030256    0.000042117    0.000000345
      7        6          -0.000029216   -0.000012261   -0.000004990
      8        6           0.000028580   -0.000042721    0.000014721
      9        6           0.000001681   -0.000109498    0.000026674
     10        6          -0.000008545    0.000011625   -0.000019605
     11        6          -0.000019641   -0.000006705    0.000005126
     12        6          -0.000030748   -0.000000748   -0.000002125
     13        6          -0.000014253   -0.000009603    0.000003489
     14        6           0.000019982    0.000016729    0.000004078
     15        1           0.000014486   -0.000008139   -0.000000496
     16        1          -0.000006215   -0.000009691   -0.000001761
     17        1          -0.000021595    0.000001019    0.000000214
     18        1          -0.000008157    0.000012161   -0.000000477
     19        1           0.000004122    0.000025699   -0.000001032
     20        1          -0.000012413    0.000017106   -0.000001633
     21        1           0.000005546    0.000012329   -0.000001843
     22        1           0.000021688   -0.000000051   -0.000000057
     23        1           0.000008733   -0.000009545   -0.000001129
     24        1          -0.000006241   -0.000017724    0.000000440
 -------------------------------------------------------------------
 Cartesian Forces:  Max     0.000246265 RMS     0.000050029

 GradGradGradGradGradGradGradGradGradGradGradGradGradGradGradGradGradGrad
 Berny optimization.
 Using GEDIIS/GDIIS optimizer.
 FormGI is forming the generalized inverse of G from B-inverse, IUseBI=4.
 Internal  Forces:  Max     0.000184057 RMS     0.000027779
 Search for a local minimum.
 Step number   6 out of a maximum of  127
 All quantities printed in internal units (Hartrees-Bohrs-Radians)
 Mixed Optimization -- En-DIIS/RFO-DIIS
 Swapping is turned off.
 Update second derivatives using D2CorX and points    1    3    2    4    5
                                                      6
 DE= -8.19D-05 DEPred=-8.33D-05 R= 9.82D-01
 TightC=F SS=  1.41D+00  RLast= 5.59D-02 DXNew= 4.2426D-01 1.6759D-01
 Trust test= 9.82D-01 RLast= 5.59D-02 DXMaxT set to 2.52D-01
 ITU=  1  0  1 -1  0  0
     Eigenvalues ---    0.00222   0.01321   0.01379   0.01770   0.01807
     Eigenvalues ---    0.02120   0.02129   0.02131   0.02134   0.02138
     Eigenvalues ---    0.02139   0.02140   0.02140   0.02143   0.02148
     Eigenvalues ---    0.02150   0.02152   0.02155   0.02155   0.02156
     Eigenvalues ---    0.02158   0.05048   0.09873   0.14325   0.15995
     Eigenvalues ---    0.16000   0.16000   0.16000   0.16000   0.16000
     Eigenvalues ---    0.16000   0.16001   0.16006   0.21821   0.22000
     Eigenvalues ---    0.22000   0.22026   0.22664   0.23472   0.24925
     Eigenvalues ---    0.25724   0.34838   0.35123   0.35133   0.35144
     Eigenvalues ---    0.35152   0.35160   0.35162   0.35168   0.35178
     Eigenvalues ---    0.35184   0.37762   0.40957   0.41945   0.41969
     Eigenvalues ---    0.42079   0.42251   0.45101   0.46103   0.46164
     Eigenvalues ---    0.46276   0.46325   0.46447   0.46469   0.49387
     Eigenvalues ---    1.00531
 En-DIIS/RFO-DIIS/Sim-DIIS IScMMF=       -3 using points:     6    5    4
 RFO step:  Lambda=-4.06614296D-06.
 DidBck=F Rises=F RFO-DIIS coefs:    0.67749    0.18327    0.13924
 Iteration  1 RMS(Cart)=  0.00404946 RMS(Int)=  0.00000778
 Iteration  2 RMS(Cart)=  0.00002243 RMS(Int)=  0.00000453
 Iteration  3 RMS(Cart)=  0.00000000 RMS(Int)=  0.00000453
 Variable       Old X    -DE/DX   Delta X   Delta X   Delta X     New X
                                 (Linear)    (Quad)   (Total)
    R1        2.30377  -0.00006   0.00011  -0.00013  -0.00002   2.30374
    R2        2.69538  -0.00003  -0.00049   0.00050   0.00001   2.69539
    R3        2.69539  -0.00004  -0.00047   0.00047  -0.00000   2.69539
    R4        2.66717   0.00002  -0.00015   0.00023   0.00008   2.66725
    R5        2.66737  -0.00002  -0.00005   0.00006   0.00001   2.66737
    R6        2.63481  -0.00004  -0.00031   0.00028  -0.00003   2.63478
    R7        2.06511   0.00001  -0.00006   0.00010   0.00005   2.06516
    R8        2.64431   0.00004  -0.00019   0.00029   0.00010   2.64440
    R9        2.06760   0.00001  -0.00008   0.00012   0.00005   2.06765
   R10        2.64448  -0.00002  -0.00018   0.00019   0.00001   2.64449
   R11        2.06729   0.00002  -0.00011   0.00018   0.00007   2.06736
   R12        2.63462   0.00002  -0.00036   0.00044   0.00008   2.63469
   R13        2.06760   0.00001  -0.00008   0.00014   0.00006   2.06765
   R14        2.06509   0.00002  -0.00006   0.00013   0.00007   2.06516
   R15        2.66726  -0.00000  -0.00008   0.00011   0.00003   2.66729
   R16        2.66728   0.00001  -0.00013   0.00019   0.00006   2.66734
   R17        2.63471  -0.00002  -0.00034   0.00036   0.00002   2.63473
   R18        2.06510   0.00002  -0.00006   0.00012   0.00006   2.06516
   R19        2.64440   0.00001  -0.00020   0.00026   0.00006   2.64445
   R20        2.06760   0.00001  -0.00008   0.00013   0.00005   2.06765
   R21        2.64438   0.00001  -0.00017   0.00022   0.00005   2.64443
   R22        2.06729   0.00002  -0.00011   0.00018   0.00007   2.06736
   R23        2.63471  -0.00001  -0.00035   0.00038   0.00003   2.63474
   R24        2.06760   0.00001  -0.00009   0.00014   0.00005   2.06765
   R25        2.06511   0.00002  -0.00006   0.00012   0.00006   2.06516
    A1        2.10540  -0.00005  -0.00011  -0.00001  -0.00012   2.10527
    A2        2.10522   0.00002   0.00015  -0.00009   0.00006   2.10528
    A3        2.07257   0.00003  -0.00004   0.00010   0.00006   2.07263
    A4        2.10219  -0.00002  -0.00003  -0.00002  -0.00004   2.10215
    A5        2.07834  -0.00000  -0.00014   0.00012  -0.00002   2.07832
    A6        2.10266   0.00002   0.00016  -0.00011   0.00006   2.10271
    A7        2.09985  -0.00000   0.00008  -0.00008  -0.00001   2.09984
    A8        2.08829   0.00000  -0.00012   0.00013   0.00001   2.08831
    A9        2.09504  -0.00000   0.00004  -0.00005  -0.00001   2.09504
   A10        2.08972   0.00001  -0.00006   0.00011   0.00005   2.08977
   A11        2.09675  -0.00001   0.00003  -0.00005  -0.00002   2.09673
   A12        2.09672  -0.00001   0.00003  -0.00006  -0.00003   2.09669
   A13        2.09986  -0.00001   0.00005  -0.00009  -0.00004   2.09982
   A14        2.09498   0.00001   0.00002  -0.00001   0.00001   2.09499
   A15        2.08834   0.00001  -0.00006   0.00009   0.00003   2.08837
   A16        2.10218  -0.00001   0.00000  -0.00002  -0.00002   2.10216
   A17        2.07818   0.00001  -0.00016   0.00022   0.00006   2.07824
   A18        2.10282  -0.00001   0.00016  -0.00020  -0.00004   2.10278
   A19        2.10548  -0.00006   0.00008  -0.00026  -0.00018   2.10529
   A20        2.10513   0.00004  -0.00004   0.00017   0.00012   2.10526
   A21        2.07257   0.00003  -0.00004   0.00010   0.00006   2.07263
   A22        2.10219  -0.00002   0.00000  -0.00005  -0.00005   2.10214
   A23        2.07827   0.00001  -0.00016   0.00018   0.00002   2.07829
   A24        2.10273   0.00001   0.00016  -0.00013   0.00003   2.10276
   A25        2.09986  -0.00000   0.00004  -0.00004  -0.00000   2.09985
   A26        2.08833  -0.00000  -0.00007   0.00007   0.00000   2.08833
   A27        2.09500   0.00000   0.00004  -0.00003   0.00000   2.09501
   A28        2.08972   0.00001  -0.00006   0.00011   0.00005   2.08977
   A29        2.09674  -0.00001   0.00001  -0.00004  -0.00002   2.09671
   A30        2.09673  -0.00001   0.00004  -0.00007  -0.00003   2.09671
   A31        2.09986  -0.00001   0.00008  -0.00013  -0.00005   2.09981
   A32        2.09502   0.00000   0.00003  -0.00003   0.00000   2.09502
   A33        2.08831   0.00001  -0.00012   0.00016   0.00005   2.08836
   A34        2.10218  -0.00001  -0.00003   0.00002  -0.00001   2.10217
   A35        2.07825   0.00001  -0.00013   0.00016   0.00003   2.07828
   A36        2.10275   0.00000   0.00017  -0.00018  -0.00002   2.10274
   A37        3.13848   0.00016   0.00009   0.00715   0.00724   3.14572
   A38        3.14496  -0.00018  -0.00401  -0.00282  -0.00684   3.13813
   A39        3.14178  -0.00001   0.00171  -0.00198  -0.00029   3.14149
   A40        3.14061   0.00004  -0.00069   0.00214   0.00146   3.14207
    D1       -3.11923  -0.00000   0.00178  -0.00701  -0.00525  -3.12447
    D2        0.02261  -0.00001   0.00289  -0.00857  -0.00567   0.01695
    D3        0.02278  -0.00002   0.00272  -0.00865  -0.00594   0.01684
    D4       -3.11856  -0.00003   0.00384  -0.01022  -0.00636  -3.12492
    D5        3.14149   0.00001  -0.00012   0.00026   0.00014  -3.14156
    D6       -0.00006   0.00001  -0.00002   0.00016   0.00014   0.00008
    D7        0.00012  -0.00001  -0.00011   0.00000  -0.00011   0.00001
    D8       -3.14143  -0.00001  -0.00002  -0.00009  -0.00011  -3.14154
    D9       -3.14145  -0.00001   0.00003  -0.00021  -0.00017   3.14156
   D10        0.00015  -0.00001   0.00016  -0.00031  -0.00014   0.00001
   D11       -0.00008   0.00000   0.00002   0.00005   0.00007  -0.00001
   D12        3.14152   0.00001   0.00016  -0.00006   0.00010  -3.14156
   D13       -0.00008   0.00000   0.00014  -0.00007   0.00007  -0.00001
   D14       -3.14156   0.00000   0.00000   0.00001   0.00001  -3.14155
   D15        3.14147   0.00000   0.00004   0.00003   0.00007   3.14154
   D16       -0.00001   0.00000  -0.00009   0.00010   0.00001  -0.00000
   D17       -0.00000   0.00000  -0.00007   0.00008   0.00001   0.00001
   D18       -3.14156  -0.00000  -0.00012   0.00009  -0.00002  -3.14158
   D19        3.14148   0.00000   0.00006   0.00000   0.00007   3.14155
   D20       -0.00008   0.00000   0.00002   0.00002   0.00003  -0.00005
   D21        0.00004  -0.00000  -0.00002  -0.00003  -0.00005  -0.00001
   D22       -3.14158  -0.00000  -0.00003  -0.00001  -0.00004   3.14156
   D23       -3.14159  -0.00000   0.00003  -0.00004  -0.00001   3.14159
   D24       -0.00002  -0.00000   0.00002  -0.00003  -0.00001  -0.00003
   D25        0.00000  -0.00000   0.00004  -0.00003   0.00001   0.00001
   D26        3.14158  -0.00000  -0.00009   0.00007  -0.00002   3.14156
   D27       -3.14156  -0.00000   0.00005  -0.00005   0.00000  -3.14156
   D28        0.00002  -0.00000  -0.00008   0.00005  -0.00003  -0.00001
   D29        3.14155   0.00001  -0.00015   0.00021   0.00005  -3.14158
   D30        0.00003   0.00000  -0.00030   0.00039   0.00008   0.00011
   D31        0.00012  -0.00001  -0.00002  -0.00011  -0.00013  -0.00002
   D32       -3.14140  -0.00001  -0.00017   0.00006  -0.00011  -3.14151
   D33       -3.14157  -0.00000   0.00018  -0.00024  -0.00005   3.14156
   D34        0.00014  -0.00001   0.00026  -0.00040  -0.00013   0.00001
   D35       -0.00014   0.00001   0.00005   0.00009   0.00013  -0.00000
   D36        3.14158   0.00000   0.00014  -0.00008   0.00006  -3.14155
   D37       -0.00004   0.00000   0.00001   0.00006   0.00006   0.00002
   D38       -3.14153   0.00000  -0.00011   0.00013   0.00002  -3.14151
   D39        3.14147   0.00000   0.00016  -0.00012   0.00004   3.14151
   D40       -0.00001   0.00000   0.00004  -0.00005  -0.00001  -0.00002
   D41       -0.00001   0.00000  -0.00002   0.00003   0.00000  -0.00000
   D42       -3.14158  -0.00000  -0.00012   0.00011  -0.00001  -3.14159
   D43        3.14148   0.00000   0.00010  -0.00004   0.00005   3.14153
   D44       -0.00010   0.00000   0.00000   0.00004   0.00004  -0.00006
   D45       -0.00001  -0.00000   0.00005  -0.00006  -0.00000  -0.00001
   D46       -3.14158  -0.00000  -0.00011   0.00009  -0.00002   3.14158
   D47        3.14156   0.00000   0.00015  -0.00014   0.00001   3.14157
   D48       -0.00001  -0.00000  -0.00001   0.00000  -0.00001  -0.00002
   D49        0.00009  -0.00000  -0.00007  -0.00000  -0.00007   0.00002
   D50        3.14156  -0.00000  -0.00016   0.00016   0.00001   3.14157
   D51       -3.14153  -0.00000   0.00009  -0.00014  -0.00005  -3.14158
   D52       -0.00006   0.00000   0.00001   0.00002   0.00003  -0.00003
         Item               Value     Threshold  Converged?
 Maximum Force            0.000184     0.000450     YES
 RMS     Force            0.000028     0.000300     YES
 Maximum Displacement     0.013418     0.001800     NO 
 RMS     Displacement     0.004054     0.001200     NO 
 Predicted change in Energy=-1.882482D-06
 GradGradGradGradGradGradGradGradGradGradGradGradGradGradGradGradGradGrad

                          Input orientation:                          
 ---------------------------------------------------------------------
 Center     Atomic      Atomic             Coordinates (Angstroms)
 Number     Number       Type             X           Y           Z
 ---------------------------------------------------------------------
      1          6           0        0.609662    0.010478   -0.013616
      2          6           0       -0.609426    0.011409   -0.011940
      3          6           0       -2.035752    0.017436   -0.009401
      4          6           0       -2.759867   -1.194103   -0.014003
      5          6           0       -4.154095   -1.183854   -0.011543
      6          6           0       -4.851452    0.029341   -0.004461
      7          6           0       -4.143836    1.236647    0.000152
      8          6           0       -2.749620    1.235103   -0.002269
      9          6           0        2.035984    0.003497   -0.015590
     10          6           0        2.760970    1.214282    0.009780
     11          6           0        4.155165    1.203062    0.007741
     12          6           0        4.851679   -0.010364   -0.019541
     13          6           0        4.143224   -1.216887   -0.044859
     14          6           0        2.748980   -1.214371   -0.042986
     15          1           0       -2.212543   -2.139988   -0.019476
     16          1           0       -4.702376   -2.130715   -0.015129
     17          1           0       -5.945442    0.033978   -0.002539
     18          1           0       -4.684137    2.188077    0.005667
     19          1           0       -2.194234    2.176285    0.001289
     20          1           0        2.214282    2.160308    0.031132
     21          1           0        4.704143    2.149316    0.027667
     22          1           0        5.945666   -0.015734   -0.021063
     23          1           0        4.682826   -2.168490   -0.066254
     24          1           0        2.192961   -2.154980   -0.062742
 ---------------------------------------------------------------------
                    Distance matrix (angstroms):
                    1          2          3          4          5
     1  C    0.000000
     2  C    1.219089   0.000000
     3  C    2.645426   1.426340   0.000000
     4  C    3.578371   2.465291   1.411450   0.000000
     5  C    4.911192   3.740766   2.435258   1.394268   0.000000
     6  C    5.461153   4.242070   2.815729   2.423145   1.399356
     7  C    4.909116   3.740777   2.435280   2.797162   2.420551
     8  C    3.575556   2.465349   1.411514   2.429256   2.797139
     9  C    1.426340   2.645424   4.071764   4.943120   6.302927
    10  C    2.465323   3.578679   4.943819   6.023332   7.319128
    11  C    3.740763   4.911390   6.303448   7.318780   8.645319
    12  C    4.242072   5.461153   6.887494   7.703045   9.081911
    13  C    3.740784   4.908918   6.301154   6.903197   8.297451
    14  C    2.465320   3.575248   4.940864   5.508961   6.903214
    15  H    3.548151   2.683011   2.164679   1.092837   2.164227
    16  H    5.727343   4.619626   3.424248   2.156522   1.094153
    17  H    6.555155   5.336072   3.909731   3.414118   2.166130
    18  H    5.724213   4.619682   3.424304   3.891317   3.413379
    19  H    3.542989   2.682998   2.164685   3.417556   3.889955
    20  H    2.683017   3.548655   4.759867   5.999689   7.193154
    21  H    4.619644   5.727673   7.069120   8.178730   9.464668
    22  H    5.336074   6.555155   7.981495   8.784925  10.167092
    23  H    4.619668   5.723883   7.065464   7.506386   8.891775
    24  H    2.682994   3.542484   4.754392   5.045410   6.421123
                    6          7          8          9         10
     6  C    0.000000
     7  C    1.399403   0.000000
     8  C    2.423131   1.394220   0.000000
     9  C    6.887493   6.301673   4.941561   0.000000
    10  C    7.704106   6.904849   5.510642   1.411470   0.000000
    11  C    9.082781   8.299073   6.904866   2.435247   1.394242
    12  C    9.703223   9.081559   7.702676   2.815732   2.423155
    13  C    9.080688   8.642755   7.316102   2.435294   2.797176
    14  C    7.701615   7.315755   6.019650   1.411495   2.429256
    15  H    3.416146   3.889980   3.417599   4.758626   5.998984
    16  H    2.165221   3.413404   3.891292   7.068264   8.178702
    17  H    1.094002   2.166150   3.414086   7.981494   8.786061
    18  H    2.165234   1.094155   2.156521   7.066319   7.508522
    19  H    3.416168   2.164225   1.092836   4.755632   5.047729
    20  H    7.380168   6.424934   5.049499   2.164672   1.092835
    21  H    9.787988   8.894968   7.509677   3.424250   2.156509
    22  H   10.797225  10.166955   8.784813   3.909734   3.414115
    23  H    9.784514   9.460937   8.174948   3.424305   3.891331
    24  H    7.375527   7.187634   5.993781   2.164691   3.417575
                   11         12         13         14         15
    11  C    0.000000
    12  C    1.399385   0.000000
    13  C    2.420550   1.399374   0.000000
    14  C    2.797126   2.423123   1.394247   0.000000
    15  H    7.191970   7.378247   6.422502   5.047181   0.000000
    16  H    9.464176   9.786515   8.892728   7.507541   2.489854
    17  H   10.168044  10.797225  10.166003   8.783677   4.319832
    18  H    8.894016   9.785988   9.461428   8.174977   4.984131
    19  H    6.423556   7.377449   7.188819   5.994488   4.316362
    20  H    2.164230   3.416174   3.889991   3.417580   6.171863
    21  H    1.094153   2.165229   3.413388   3.891278   8.138851
    22  H    2.166146   1.094002   2.166133   3.414090   8.430233
    23  H    3.413395   2.165225   1.094155   2.156535   6.895586
    24  H    3.889943   3.416142   2.164224   1.092837   4.405742
                   16         17         18         19         20
    16  H    0.000000
    17  H    2.496250   0.000000
    18  H    4.318881   2.496218   0.000000
    19  H    4.984104   4.319844   2.489934   0.000000
    20  H    8.139729   8.432290   6.898522   4.408647   0.000000
    21  H   10.334559  10.857680   9.388385   6.898480   2.489887
    22  H   10.856058  11.891226  10.855884   8.429913   4.319850
    23  H    9.385417  10.854262  10.330771   8.134838   4.984143
    24  H    6.895544   8.427856   8.133959   6.165341   4.316361
                   21         22         23         24
    21  H    0.000000
    22  H    2.496237   0.000000
    23  H    4.318880   2.496230   0.000000
    24  H    4.984092   4.319827   2.489904   0.000000
 Stoichiometry    C14H10
 Framework group  C1[X(C14H10)]
 Deg. of freedom    66
 Full point group                 C1      NOp   1
 Largest Abelian subgroup         C1      NOp   1
 Largest concise Abelian subgroup C1      NOp   1
                         Standard orientation:                         
 ---------------------------------------------------------------------
 Center     Atomic      Atomic             Coordinates (Angstroms)
 Number     Number       Type             X           Y           Z
 ---------------------------------------------------------------------
      1          6           0        0.609541   -0.002757    0.000406
      2          6           0       -0.609542    0.001056    0.000563
      3          6           0       -2.035882    0.000571    0.000236
      4          6           0       -2.755273    1.214886   -0.010178
      5          6           0       -4.149532    1.210055   -0.010419
      6          6           0       -4.851611   -0.000392   -0.000339
      7          6           0       -4.148705   -1.210409    0.010032
      8          6           0       -2.754490   -1.214283    0.010349
      9          6           0        2.035881   -0.001326    0.000155
     10          6           0        2.756113   -1.215166   -0.010208
     11          6           0        4.150343   -1.209370   -0.010402
     12          6           0        4.851612    0.001579   -0.000285
     13          6           0        4.147894    1.211092    0.010059
     14          6           0        2.753650    1.214002    0.010303
     15          1           0       -2.204267    2.158613   -0.018090
     16          1           0       -4.694121    2.159016   -0.018594
     17          1           0       -5.945613   -0.000777   -0.000565
     18          1           0       -4.692709   -2.159710    0.017966
     19          1           0       -2.202776   -2.157594    0.018466
     20          1           0        2.205718   -2.159248   -0.018173
     21          1           0        4.695605   -2.157945   -0.018574
     22          1           0        5.945613    0.002692   -0.000469
     23          1           0        4.691225    2.160779    0.018003
     24          1           0        2.201324    2.156956    0.018391
 ---------------------------------------------------------------------
 Rotational constants (GHZ):           2.8280904           0.2473021           0.2274184
 Standard basis: def2SVPP (5D, 7F)
 There are   230 symmetry adapted cartesian basis functions of A   symmetry.
 There are   216 symmetry adapted basis functions of A   symmetry.
   216 basis functions,   390 primitive gaussians,   230 cartesian basis functions
    47 alpha electrons       47 beta electrons
       nuclear repulsion energy       691.8019320912 Hartrees.
 NAtoms=   24 NActive=   24 NUniq=   24 SFac= 1.00D+00 NAtFMM=   60 NAOKFM=F Big=F
 Integral buffers will be    131072 words long.
 Raffenetti 2 integral format.
 Two-electron integral symmetry is turned on.
 Nuclear repulsion after empirical dispersion term =      691.7547219316 Hartrees.
 One-electron integrals computed using PRISM.
   1 Symmetry operations used in ECPInt.
 ECPInt:  NShTT=    5460 NPrTT=   21948 LenC2=    4959 LenP2D=   14121.
 LDataN:  DoStor=T MaxTD1= 4 Len=   56
 NBasis=   216 RedAO= T EigKep=  3.08D-04  NBF=   216
 NBsUse=   216 1.00D-06 EigRej= -1.00D+00 NBFU=   216
 Initial guess from the checkpoint file:  "/home/software/g16/scr/Gau-12557.chk"
 B after Tr=     0.000000   -0.000000    0.000000
         Rot=    1.000000    0.000000    0.000000   -0.000104 Ang=   0.01 deg.
 Requested convergence on RMS density matrix=1.00D-08 within 128 cycles.
 Requested convergence on MAX density matrix=1.00D-06.
 Requested convergence on             energy=1.00D-06.
 No special actions if energy rises.
 SCF Done:  E(RB3LYP) =  -539.103347055     A.U. after    9 cycles
            NFock=  9  Conv=0.29D-08     -V/T= 2.0112
   1 Symmetry operations used in ECPInt.
 ECPInt:  NShTT=    5460 NPrTT=   21948 LenC2=    4959 LenP2D=   14121.
 LDataN:  DoStor=T MaxTD1= 5 Len=  102
 Calling FoFJK, ICntrl=      2127 FMM=F ISym2X=0 I1Cent= 0 IOpClX= 0 NMat=1 NMatS=1 NMatT=0.
 ***** Axes restored to original set *****
 -------------------------------------------------------------------
 Center     Atomic                   Forces (Hartrees/Bohr)
 Number     Number              X              Y              Z
 -------------------------------------------------------------------
      1        6           0.000001038   -0.000282632   -0.000005504
      2        6          -0.000001119    0.000252322    0.000026481
      3        6          -0.000001463   -0.000058035   -0.000015029
      4        6          -0.000036742    0.000005290   -0.000012491
      5        6           0.000024976   -0.000003304    0.000004294
      6        6           0.000018545    0.000013342   -0.000001130
      7        6           0.000000104   -0.000025375    0.000000877
      8        6           0.000021600   -0.000011614    0.000010388
      9        6           0.000003027    0.000100887   -0.000007966
     10        6           0.000018096   -0.000019290   -0.000007408
     11        6           0.000000433   -0.000007290    0.000002446
     12        6          -0.000018737    0.000014780   -0.000000475
     13        6          -0.000026213    0.000014704    0.000002584
     14        6          -0.000003513   -0.000001734    0.000010504
     15        1           0.000001136    0.000003059   -0.000001097
     16        1          -0.000001068    0.000007165   -0.000000651
     17        1           0.000004101   -0.000001332   -0.000000306
     18        1           0.000005732   -0.000004940    0.000000233
     19        1          -0.000000596   -0.000003414   -0.000000807
     20        1           0.000001882    0.000000067   -0.000002336
     21        1           0.000000481   -0.000006152   -0.000001629
     22        1          -0.000004074    0.000001276   -0.000000155
     23        1          -0.000005380    0.000006017   -0.000000641
     24        1          -0.000002248    0.000006203   -0.000000183
 -------------------------------------------------------------------
 Cartesian Forces:  Max     0.000282632 RMS     0.000047863

 GradGradGradGradGradGradGradGradGradGradGradGradGradGradGradGradGradGrad
 Berny optimization.
 Using GEDIIS/GDIIS optimizer.
 FormGI is forming the generalized inverse of G from B-inverse, IUseBI=4.
 Internal  Forces:  Max     0.000232673 RMS     0.000029145
 Search for a local minimum.
 Step number   7 out of a maximum of  127
 All quantities printed in internal units (Hartrees-Bohrs-Radians)
 Mixed Optimization -- En-DIIS/RFO-DIIS
 Swapping is turned off.
 Update second derivatives using D2CorX and points    1    3    2    4    5
                                                      6    7
 DE= -1.85D-07 DEPred=-1.88D-06 R= 9.85D-02
 Trust test= 9.85D-02 RLast= 1.54D-02 DXMaxT set to 1.26D-01
 ITU= -1  1  0  1 -1  0  0
     Eigenvalues ---    0.00182   0.01325   0.01379   0.01799   0.02118
     Eigenvalues ---    0.02129   0.02131   0.02134   0.02138   0.02139
     Eigenvalues ---    0.02140   0.02140   0.02143   0.02148   0.02150
     Eigenvalues ---    0.02152   0.02155   0.02155   0.02156   0.02158
     Eigenvalues ---    0.04943   0.05361   0.09884   0.14208   0.15990
     Eigenvalues ---    0.16000   0.16000   0.16000   0.16000   0.16000
     Eigenvalues ---    0.16001   0.16006   0.16008   0.21795   0.22000
     Eigenvalues ---    0.22017   0.22030   0.22606   0.23472   0.25096
     Eigenvalues ---    0.25746   0.34806   0.35123   0.35133   0.35143
     Eigenvalues ---    0.35151   0.35159   0.35161   0.35168   0.35175
     Eigenvalues ---    0.35181   0.37665   0.40957   0.41950   0.41972
     Eigenvalues ---    0.42092   0.42251   0.45101   0.46057   0.46169
     Eigenvalues ---    0.46276   0.46320   0.46450   0.46463   0.49779
     Eigenvalues ---    1.00956
 En-DIIS/RFO-DIIS/Sim-DIIS IScMMF=       -3 using points:     7    6    5    4
 RFO step:  Lambda=-1.72065514D-06.
 DidBck=F Rises=F RFO-DIIS coefs:    1.27754    0.12976   -0.25787   -0.14942
 Iteration  1 RMS(Cart)=  0.00438744 RMS(Int)=  0.00000865
 Iteration  2 RMS(Cart)=  0.00001348 RMS(Int)=  0.00000698
 Iteration  3 RMS(Cart)=  0.00000000 RMS(Int)=  0.00000698
 Variable       Old X    -DE/DX   Delta X   Delta X   Delta X     New X
                                 (Linear)    (Quad)   (Total)
    R1        2.30374  -0.00004  -0.00008   0.00000  -0.00008   2.30366
    R2        2.69539  -0.00004   0.00071  -0.00086  -0.00014   2.69525
    R3        2.69539  -0.00004   0.00069  -0.00083  -0.00015   2.69524
    R4        2.66725  -0.00000   0.00020  -0.00018   0.00003   2.66728
    R5        2.66737  -0.00004   0.00009  -0.00017  -0.00009   2.66729
    R6        2.63478  -0.00003   0.00042  -0.00053  -0.00011   2.63467
    R7        2.06516  -0.00000   0.00009  -0.00009   0.00001   2.06517
    R8        2.64440  -0.00001   0.00028  -0.00027   0.00001   2.64441
    R9        2.06765  -0.00001   0.00013  -0.00013  -0.00001   2.06764
   R10        2.64449  -0.00002   0.00025  -0.00031  -0.00006   2.64443
   R11        2.06736  -0.00000   0.00019  -0.00018   0.00000   2.06737
   R12        2.63469  -0.00002   0.00052  -0.00055  -0.00003   2.63466
   R13        2.06765  -0.00001   0.00014  -0.00015  -0.00001   2.06765
   R14        2.06516  -0.00000   0.00011  -0.00009   0.00002   2.06518
   R15        2.66729  -0.00001   0.00011  -0.00013  -0.00002   2.66727
   R16        2.66734  -0.00004   0.00019  -0.00023  -0.00005   2.66729
   R17        2.63473  -0.00002   0.00047  -0.00053  -0.00006   2.63467
   R18        2.06516  -0.00000   0.00011  -0.00009   0.00002   2.06518
   R19        2.64445  -0.00003   0.00029  -0.00033  -0.00004   2.64442
   R20        2.06765  -0.00001   0.00013  -0.00013  -0.00000   2.06765
   R21        2.64443  -0.00001   0.00025  -0.00025  -0.00001   2.64443
   R22        2.06736  -0.00000   0.00019  -0.00018   0.00000   2.06737
   R23        2.63474  -0.00003   0.00049  -0.00057  -0.00008   2.63467
   R24        2.06765  -0.00001   0.00014  -0.00015  -0.00001   2.06764
   R25        2.06516  -0.00000   0.00010  -0.00009   0.00001   2.06517
    A1        2.10527   0.00002   0.00013  -0.00016  -0.00003   2.10524
    A2        2.10528  -0.00003  -0.00022   0.00019  -0.00003   2.10525
    A3        2.07263   0.00001   0.00009  -0.00003   0.00006   2.07269
    A4        2.10215  -0.00000   0.00001  -0.00003  -0.00003   2.10212
    A5        2.07832  -0.00000   0.00024  -0.00029  -0.00005   2.07827
    A6        2.10271   0.00000  -0.00024   0.00032   0.00008   2.10279
    A7        2.09984  -0.00001  -0.00010   0.00008  -0.00002   2.09982
    A8        2.08831   0.00001   0.00016  -0.00013   0.00003   2.08834
    A9        2.09504  -0.00000  -0.00006   0.00005  -0.00001   2.09503
   A10        2.08977   0.00000   0.00010  -0.00007   0.00003   2.08980
   A11        2.09673  -0.00000  -0.00005   0.00003  -0.00002   2.09671
   A12        2.09669  -0.00000  -0.00005   0.00003  -0.00002   2.09668
   A13        2.09982   0.00000  -0.00008   0.00008  -0.00000   2.09982
   A14        2.09499   0.00000  -0.00001   0.00002   0.00001   2.09500
   A15        2.08837  -0.00000   0.00010  -0.00011  -0.00001   2.08837
   A16        2.10216  -0.00001  -0.00002  -0.00003  -0.00004   2.10212
   A17        2.07824   0.00000   0.00027  -0.00025   0.00002   2.07826
   A18        2.10278   0.00001  -0.00025   0.00028   0.00002   2.10280
   A19        2.10529   0.00003  -0.00018   0.00013  -0.00005   2.10525
   A20        2.10526  -0.00004   0.00009  -0.00011  -0.00002   2.10524
   A21        2.07263   0.00001   0.00009  -0.00003   0.00006   2.07269
   A22        2.10214   0.00000  -0.00003   0.00001  -0.00002   2.10212
   A23        2.07829   0.00000   0.00027  -0.00028  -0.00002   2.07827
   A24        2.10276  -0.00000  -0.00023   0.00027   0.00004   2.10280
   A25        2.09985  -0.00001  -0.00005   0.00002  -0.00003   2.09982
   A26        2.08833   0.00001   0.00010  -0.00007   0.00002   2.08835
   A27        2.09501   0.00000  -0.00004   0.00005   0.00000   2.09501
   A28        2.08977   0.00000   0.00010  -0.00006   0.00003   2.08980
   A29        2.09671  -0.00000  -0.00003   0.00001  -0.00002   2.09669
   A30        2.09671  -0.00000  -0.00007   0.00006  -0.00001   2.09670
   A31        2.09981   0.00001  -0.00013   0.00013   0.00000   2.09982
   A32        2.09502  -0.00000  -0.00004   0.00004  -0.00000   2.09501
   A33        2.08836  -0.00001   0.00017  -0.00017   0.00000   2.08836
   A34        2.10217  -0.00001   0.00003  -0.00008  -0.00005   2.10212
   A35        2.07828   0.00000   0.00023  -0.00025  -0.00001   2.07826
   A36        2.10274   0.00001  -0.00026   0.00032   0.00006   2.10280
   A37        3.14572  -0.00023   0.00282  -0.00670  -0.00387   3.14185
   A38        3.13813   0.00017   0.00330   0.00002   0.00332   3.14145
   A39        3.14149   0.00001  -0.00038   0.00073   0.00039   3.14188
   A40        3.14207  -0.00002  -0.00061   0.00038  -0.00027   3.14181
    D1       -3.12447  -0.00002  -0.00499  -0.00231  -0.00727  -3.13175
    D2        0.01695  -0.00001  -0.00490  -0.00203  -0.00694   0.01001
    D3        0.01684  -0.00001  -0.00475  -0.00217  -0.00691   0.00993
    D4       -3.12492  -0.00001  -0.00466  -0.00188  -0.00658  -3.13150
    D5       -3.14156  -0.00000   0.00005  -0.00007  -0.00001  -3.14157
    D6        0.00008  -0.00000  -0.00005   0.00006   0.00001   0.00009
    D7        0.00001   0.00000   0.00015  -0.00025  -0.00010  -0.00009
    D8       -3.14154   0.00000   0.00005  -0.00012  -0.00008   3.14157
    D9        3.14156   0.00000   0.00005  -0.00008  -0.00003   3.14152
   D10        0.00001   0.00000  -0.00014   0.00014  -0.00000   0.00000
   D11       -0.00001  -0.00000  -0.00006   0.00011   0.00005   0.00004
   D12       -3.14156  -0.00000  -0.00024   0.00032   0.00009  -3.14148
   D13       -0.00001   0.00000  -0.00015   0.00023   0.00008   0.00007
   D14       -3.14155  -0.00000   0.00001  -0.00001   0.00000  -3.14155
   D15        3.14154   0.00000  -0.00005   0.00011   0.00006  -3.14159
   D16       -0.00000  -0.00000   0.00011  -0.00013  -0.00002  -0.00002
   D17        0.00001  -0.00000   0.00005  -0.00007  -0.00002  -0.00001
   D18       -3.14158  -0.00000   0.00013  -0.00017  -0.00004   3.14156
   D19        3.14155  -0.00000  -0.00011   0.00017   0.00006  -3.14158
   D20       -0.00005   0.00000  -0.00003   0.00007   0.00004  -0.00001
   D21       -0.00001   0.00000   0.00004  -0.00007  -0.00003  -0.00003
   D22        3.14156   0.00000   0.00006  -0.00007  -0.00002   3.14154
   D23        3.14159   0.00000  -0.00003   0.00003  -0.00000   3.14158
   D24       -0.00003   0.00000  -0.00002   0.00002   0.00000  -0.00003
   D25        0.00001   0.00000  -0.00004   0.00005   0.00001   0.00001
   D26        3.14156   0.00000   0.00015  -0.00017  -0.00002   3.14154
   D27       -3.14156   0.00000  -0.00005   0.00006   0.00000  -3.14156
   D28       -0.00001   0.00000   0.00013  -0.00016  -0.00003  -0.00004
   D29       -3.14158  -0.00000   0.00010  -0.00014  -0.00003   3.14157
   D30        0.00011  -0.00000   0.00033  -0.00043  -0.00009   0.00002
   D31       -0.00002   0.00000   0.00006  -0.00011  -0.00006  -0.00008
   D32       -3.14151   0.00000   0.00028  -0.00039  -0.00012   3.14156
   D33        3.14156   0.00000  -0.00014   0.00019   0.00005  -3.14158
   D34        0.00001   0.00000  -0.00030   0.00033   0.00002   0.00003
   D35       -0.00000  -0.00000  -0.00010   0.00016   0.00007   0.00007
   D36       -3.14155  -0.00000  -0.00026   0.00030   0.00005  -3.14150
   D37        0.00002  -0.00000  -0.00000   0.00002   0.00003   0.00005
   D38       -3.14151  -0.00000   0.00014  -0.00019  -0.00005  -3.14156
   D39        3.14151   0.00000  -0.00023   0.00031   0.00008  -3.14159
   D40       -0.00002  -0.00000  -0.00009   0.00010   0.00001  -0.00002
   D41       -0.00000  -0.00000  -0.00002   0.00001  -0.00000  -0.00001
   D42       -3.14159  -0.00000   0.00012  -0.00014  -0.00002   3.14158
   D43        3.14153   0.00000  -0.00016   0.00023   0.00007  -3.14158
   D44       -0.00006   0.00000  -0.00002   0.00008   0.00006   0.00000
   D45       -0.00001   0.00000  -0.00002   0.00004   0.00002   0.00000
   D46        3.14158   0.00000   0.00019  -0.00022  -0.00004   3.14155
   D47        3.14157   0.00000  -0.00016   0.00019   0.00003  -3.14158
   D48       -0.00002  -0.00000   0.00005  -0.00007  -0.00002  -0.00004
   D49        0.00002   0.00000   0.00008  -0.00012  -0.00005  -0.00003
   D50        3.14157   0.00000   0.00024  -0.00026  -0.00003   3.14154
   D51       -3.14158   0.00000  -0.00013   0.00013   0.00000  -3.14158
   D52       -0.00003   0.00000   0.00004  -0.00001   0.00003  -0.00000
         Item               Value     Threshold  Converged?
 Maximum Force            0.000233     0.000450     YES
 RMS     Force            0.000029     0.000300     YES
 Maximum Displacement     0.014741     0.001800     NO 
 RMS     Displacement     0.004388     0.001200     NO 
 Predicted change in Energy=-8.439314D-07
 GradGradGradGradGradGradGradGradGradGradGradGradGradGradGradGradGradGrad

                          Input orientation:                          
 ---------------------------------------------------------------------
 Center     Atomic      Atomic             Coordinates (Angstroms)
 Number     Number       Type             X           Y           Z
 ---------------------------------------------------------------------
      1          6           0        0.609632    0.007774   -0.012946
      2          6           0       -0.609403    0.012531   -0.011252
      3          6           0       -2.035651    0.018295   -0.009023
      4          6           0       -2.759519   -1.193383   -0.018053
      5          6           0       -4.153691   -1.183398   -0.015868
      6          6           0       -4.851247    0.029661   -0.004769
      7          6           0       -4.143882    1.237053    0.004178
      8          6           0       -2.749680    1.235784    0.002116
      9          6           0        2.035882    0.001849   -0.015262
     10          6           0        2.759911    1.213279    0.005727
     11          6           0        4.154081    1.203124    0.003408
     12          6           0        4.851476   -0.009857   -0.019840
     13          6           0        4.143952   -1.217005   -0.040823
     14          6           0        2.749749   -1.215564   -0.038656
     15          1           0       -2.211945   -2.139103   -0.026716
     16          1           0       -4.701827   -2.130320   -0.022910
     17          1           0       -5.945240    0.034096   -0.003113
     18          1           0       -4.684357    2.188357    0.012827
     19          1           0       -2.194450    2.177050    0.009032
     20          1           0        2.212461    2.158942    0.023857
     21          1           0        4.702357    2.149849    0.019867
     22          1           0        5.945468   -0.014398   -0.021610
     23          1           0        4.684286   -2.168252   -0.059090
     24          1           0        2.194396   -2.156636   -0.055058
 ---------------------------------------------------------------------
                    Distance matrix (angstroms):
                    1          2          3          4          5
     1  C    0.000000
     2  C    1.219046   0.000000
     3  C    2.645308   1.426262   0.000000
     4  C    3.576868   2.465213   1.411464   0.000000
     5  C    4.910005   3.740621   2.435201   1.394210   0.000000
     6  C    5.460929   4.241883   2.815621   2.423084   1.399363
     7  C    4.909921   3.740619   2.435196   2.797137   2.420554
     8  C    3.576760   2.465220   1.411467   2.429271   2.797144
     9  C    1.426264   2.645310   4.071572   4.942111   6.302034
    10  C    2.465216   3.576921   4.942229   6.021353   7.317269
    11  C    3.740621   4.910041   6.302123   7.317210   8.643780
    12  C    4.241886   5.460931   6.887193   7.702466   9.081313
    13  C    3.740625   4.909890   6.301942   6.903549   8.297748
    14  C    2.465221   3.576712   4.941998   5.509351   6.903553
    15  H    3.545500   2.682893   2.164662   1.092840   2.164225
    16  H    5.725657   4.619511   3.424213   2.156487   1.094150
    17  H    6.554932   5.335886   3.909625   3.414051   2.166126
    18  H    5.725551   4.619529   3.424221   3.891287   3.413380
    19  H    3.545295   2.682895   2.164663   3.417580   3.889969
    20  H    2.682897   3.545592   4.757090   5.996701   7.190320
    21  H    4.619519   5.725722   7.067186   8.176688   9.462632
    22  H    5.335889   6.554935   7.981196   8.784465  10.166593
    23  H    4.619525   5.725490   7.066898   7.507482   8.892786
    24  H    2.682894   3.545207   4.756653   5.046831   6.422378
                    6          7          8          9         10
     6  C    0.000000
     7  C    1.399372   0.000000
     8  C    2.423090   1.394204   0.000000
     9  C    6.887193   6.302031   4.942115   0.000000
    10  C    7.702648   6.903834   5.509638   1.411460   0.000000
    11  C    9.081465   8.298032   6.903838   2.435195   1.394208
    12  C    9.702815   9.081400   7.702575   2.815621   2.423088
    13  C    9.081248   8.643646   7.317115   2.435203   2.797144
    14  C    7.702394   7.317056   6.021170   1.411470   2.429270
    15  H    3.416128   3.889957   3.417580   4.756874   5.996572
    16  H    2.165218   3.413391   3.891293   7.067032   8.176675
    17  H    1.094003   2.166114   3.414042   7.981196   8.784657
    18  H    2.165209   1.094151   2.156499   7.067052   7.507860
    19  H    3.416144   2.164233   1.092845   4.756869   5.047233
    20  H    7.377711   6.422878   5.047329   2.164661   1.092845
    21  H    9.786069   8.893222   7.507908   3.424212   2.156493
    22  H   10.796818  10.166700   8.784595   3.909625   3.414046
    23  H    9.785711   9.462381   8.176493   3.424222   3.891293
    24  H    7.377228   7.189882   5.996304   2.164663   3.417576
                   11         12         13         14         15
    11  C    0.000000
    12  C    1.399365   0.000000
    13  C    2.420554   1.399370   0.000000
    14  C    2.797136   2.423085   1.394205   0.000000
    15  H    7.190110   7.377374   6.422452   5.046927   0.000000
    16  H    9.462539   9.785805   8.892821   7.507531   2.489901
    17  H   10.166757  10.796818  10.166536   8.784403   4.319820
    18  H    8.893186   9.785976   9.462474   8.176507   4.984105
    19  H    6.422803   7.377565   7.190092   5.996433   4.316337
    20  H    2.164231   3.416138   3.889969   3.417584   6.168559
    21  H    1.094151   2.165212   3.413386   3.891287   8.136637
    22  H    2.166115   1.094003   2.166124   3.414046   8.429578
    23  H    3.413385   2.165216   1.094150   2.156493   6.896368
    24  H    3.889958   3.416134   2.164227   1.092841   4.406467
                   16         17         18         19         20
    16  H    0.000000
    17  H    2.496230   0.000000
    18  H    4.318860   2.496180   0.000000
    19  H    4.984115   4.319818   2.489936   0.000000
    20  H    8.136789   8.429933   6.896890   4.406973   0.000000
    21  H   10.332491  10.855794   9.386796   6.896869   2.489916
    22  H   10.855507  11.890821  10.855713   8.429807   4.319817
    23  H    9.386259  10.855426  10.332312   8.136540   4.984115
    24  H    6.896348   8.429453   8.136388   6.168217   4.316337
                   21         22         23         24
    21  H    0.000000
    22  H    2.496199   0.000000
    23  H    4.318860   2.496211   0.000000
    24  H    4.984104   4.319820   2.489920   0.000000
 Stoichiometry    C14H10
 Framework group  C1[X(C14H10)]
 Deg. of freedom    66
 Full point group                 C1      NOp   1
 Largest Abelian subgroup         C1      NOp   1
 Largest concise Abelian subgroup C1      NOp   1
                         Standard orientation:                         
 ---------------------------------------------------------------------
 Center     Atomic      Atomic             Coordinates (Angstroms)
 Number     Number       Type             X           Y           Z
 ---------------------------------------------------------------------
      1          6           0        0.609522   -0.000249   -0.000221
      2          6           0       -0.609524   -0.000051   -0.000030
      3          6           0       -2.035786   -0.000020   -0.000052
      4          6           0       -2.754710    1.214617   -0.006041
      5          6           0       -4.148913    1.210297   -0.006010
      6          6           0       -4.851407    0.000056    0.000053
      7          6           0       -4.148969   -1.210227    0.006094
      8          6           0       -2.754771   -1.214624    0.006055
      9          6           0        2.035786   -0.000117   -0.000115
     10          6           0        2.754854   -1.214665   -0.006086
     11          6           0        4.149055   -1.210173   -0.005986
     12          6           0        4.851407    0.000152    0.000100
     13          6           0        4.148827    1.210351    0.006098
     14          6           0        2.754628    1.214575    0.006034
     15          1           0       -2.203285    2.158125   -0.010763
     16          1           0       -4.693185    2.159459   -0.010732
     17          1           0       -5.945410    0.000066    0.000091
     18          1           0       -4.693317   -2.159347    0.010894
     19          1           0       -2.203381   -2.158158    0.010818
     20          1           0        2.203538   -2.158242   -0.010831
     21          1           0        4.693454   -2.159264   -0.010683
     22          1           0        5.945411    0.000250    0.000175
     23          1           0        4.693049    2.159542    0.010916
     24          1           0        2.203129    2.158041    0.010759
 ---------------------------------------------------------------------
 Rotational constants (GHZ):           2.8280816           0.2473249           0.2274359
 Standard basis: def2SVPP (5D, 7F)
 There are   230 symmetry adapted cartesian basis functions of A   symmetry.
 There are   216 symmetry adapted basis functions of A   symmetry.
   216 basis functions,   390 primitive gaussians,   230 cartesian basis functions
    47 alpha electrons       47 beta electrons
       nuclear repulsion energy       691.8202295239 Hartrees.
 NAtoms=   24 NActive=   24 NUniq=   24 SFac= 1.00D+00 NAtFMM=   60 NAOKFM=F Big=F
 Integral buffers will be    131072 words long.
 Raffenetti 2 integral format.
 Two-electron integral symmetry is turned on.
 Nuclear repulsion after empirical dispersion term =      691.7730180901 Hartrees.
 One-electron integrals computed using PRISM.
   1 Symmetry operations used in ECPInt.
 ECPInt:  NShTT=    5460 NPrTT=   21948 LenC2=    4959 LenP2D=   14121.
 LDataN:  DoStor=T MaxTD1= 4 Len=   56
 NBasis=   216 RedAO= T EigKep=  3.08D-04  NBF=   216
 NBsUse=   216 1.00D-06 EigRej= -1.00D+00 NBFU=   216
 Initial guess from the checkpoint file:  "/home/software/g16/scr/Gau-12557.chk"
 B after Tr=    -0.000000    0.000000   -0.000000
         Rot=    1.000000    0.000000   -0.000000    0.000057 Ang=  -0.01 deg.
 Requested convergence on RMS density matrix=1.00D-08 within 128 cycles.
 Requested convergence on MAX density matrix=1.00D-06.
 Requested convergence on             energy=1.00D-06.
 No special actions if energy rises.
 SCF Done:  E(RB3LYP) =  -539.103348112     A.U. after    9 cycles
            NFock=  9  Conv=0.29D-08     -V/T= 2.0112
   1 Symmetry operations used in ECPInt.
 ECPInt:  NShTT=    5460 NPrTT=   21948 LenC2=    4959 LenP2D=   14121.
 LDataN:  DoStor=T MaxTD1= 5 Len=  102
 Calling FoFJK, ICntrl=      2127 FMM=F ISym2X=0 I1Cent= 0 IOpClX= 0 NMat=1 NMatS=1 NMatT=0.
 ***** Axes restored to original set *****
 -------------------------------------------------------------------
 Center     Atomic                   Forces (Hartrees/Bohr)
 Number     Number              X              Y              Z
 -------------------------------------------------------------------
      1        6           0.000030089   -0.000016692   -0.000017484
      2        6          -0.000028198    0.000011382    0.000017853
      3        6          -0.000021188   -0.000001774   -0.000014202
      4        6           0.000008521    0.000000816    0.000000768
      5        6          -0.000006954   -0.000000755   -0.000002960
      6        6          -0.000003784    0.000005273   -0.000000064
      7        6          -0.000013378   -0.000003504    0.000001314
      8        6           0.000013645    0.000000908    0.000005927
      9        6           0.000019682    0.000003022   -0.000001478
     10        6          -0.000009105    0.000002781   -0.000000974
     11        6           0.000009857    0.000000633   -0.000003435
     12        6           0.000003957   -0.000001215    0.000001668
     13        6           0.000010598    0.000003599   -0.000003943
     14        6          -0.000013914    0.000001717    0.000011119
     15        1          -0.000002883    0.000004956   -0.000000135
     16        1          -0.000001381    0.000004447    0.000000430
     17        1           0.000004319   -0.000001623    0.000000273
     18        1           0.000001421   -0.000003912    0.000000245
     19        1          -0.000005356   -0.000007128    0.000001870
     20        1           0.000004784   -0.000007156    0.000000719
     21        1           0.000000081   -0.000004472    0.000000149
     22        1          -0.000004308   -0.000000421    0.000000286
     23        1          -0.000000122    0.000003947    0.000000595
     24        1           0.000003617    0.000005171    0.000001458
 -------------------------------------------------------------------
 Cartesian Forces:  Max     0.000030089 RMS     0.000008663

 GradGradGradGradGradGradGradGradGradGradGradGradGradGradGradGradGradGrad
 Berny optimization.
 Using GEDIIS/GDIIS optimizer.
 FormGI is forming the generalized inverse of G from B-inverse, IUseBI=4.
 Internal  Forces:  Max     0.000055267 RMS     0.000007377
 Search for a local minimum.
 Step number   8 out of a maximum of  127
 All quantities printed in internal units (Hartrees-Bohrs-Radians)
 Mixed Optimization -- En-DIIS/RFO-DIIS
 Swapping is turned off.
 Update second derivatives using D2CorX and points    1    3    2    4    5
                                                      6    7    8
 DE= -1.06D-06 DEPred=-8.44D-07 R= 1.25D+00
 TightC=F SS=  1.41D+00  RLast= 1.48D-02 DXNew= 2.1213D-01 4.4355D-02
 Trust test= 1.25D+00 RLast= 1.48D-02 DXMaxT set to 1.26D-01
 ITU=  1 -1  1  0  1 -1  0  0
     Eigenvalues ---    0.00094   0.01335   0.01386   0.01822   0.02121
     Eigenvalues ---    0.02129   0.02131   0.02134   0.02138   0.02139
     Eigenvalues ---    0.02140   0.02141   0.02143   0.02148   0.02150
     Eigenvalues ---    0.02153   0.02155   0.02155   0.02156   0.02158
     Eigenvalues ---    0.05043   0.05293   0.09854   0.14101   0.15979
     Eigenvalues ---    0.15999   0.16000   0.16000   0.16000   0.16000
     Eigenvalues ---    0.16003   0.16007   0.16009   0.21794   0.22000
     Eigenvalues ---    0.22024   0.22025   0.22581   0.23472   0.25093
     Eigenvalues ---    0.25759   0.35016   0.35124   0.35133   0.35146
     Eigenvalues ---    0.35155   0.35160   0.35164   0.35169   0.35179
     Eigenvalues ---    0.35217   0.37877   0.40957   0.41952   0.41972
     Eigenvalues ---    0.42250   0.42262   0.45150   0.45997   0.46167
     Eigenvalues ---    0.46276   0.46313   0.46435   0.46466   0.49981
     Eigenvalues ---    1.01715
 En-DIIS/RFO-DIIS/Sim-DIIS IScMMF=       -3 using points:     8    7    6    5    4
 RFO step:  Lambda=-2.68606071D-07.
 DidBck=F Rises=F RFO-DIIS coefs:    1.90112   -0.44698   -0.38704   -0.03935   -0.02775
 Iteration  1 RMS(Cart)=  0.00584602 RMS(Int)=  0.00000856
 Iteration  2 RMS(Cart)=  0.00001488 RMS(Int)=  0.00000134
 Iteration  3 RMS(Cart)=  0.00000000 RMS(Int)=  0.00000134
 Variable       Old X    -DE/DX   Delta X   Delta X   Delta X     New X
                                 (Linear)    (Quad)   (Total)
    R1        2.30366   0.00006  -0.00010   0.00014   0.00004   2.30370
    R2        2.69525   0.00003  -0.00002   0.00008   0.00006   2.69530
    R3        2.69524   0.00003  -0.00003   0.00009   0.00006   2.69530
    R4        2.66728  -0.00000   0.00009  -0.00007   0.00002   2.66730
    R5        2.66729  -0.00000  -0.00006   0.00002  -0.00005   2.66724
    R6        2.63467   0.00001  -0.00004   0.00004  -0.00001   2.63467
    R7        2.06517  -0.00001   0.00004  -0.00006  -0.00002   2.06515
    R8        2.64441  -0.00000   0.00010  -0.00009   0.00001   2.64442
    R9        2.06764  -0.00000   0.00003  -0.00004  -0.00001   2.06763
   R10        2.64443  -0.00001  -0.00001  -0.00004  -0.00005   2.64438
   R11        2.06737  -0.00000   0.00006  -0.00007  -0.00001   2.06736
   R12        2.63466   0.00001   0.00009  -0.00004   0.00005   2.63471
   R13        2.06765  -0.00000   0.00004  -0.00005  -0.00002   2.06763
   R14        2.06518  -0.00001   0.00006  -0.00009  -0.00003   2.06515
   R15        2.66727   0.00000   0.00001  -0.00002  -0.00000   2.66727
   R16        2.66729  -0.00001   0.00001  -0.00004  -0.00003   2.66726
   R17        2.63467   0.00001   0.00003  -0.00000   0.00002   2.63469
   R18        2.06518  -0.00001   0.00006  -0.00008  -0.00003   2.06515
   R19        2.64442  -0.00001   0.00004  -0.00006  -0.00002   2.64440
   R20        2.06765  -0.00000   0.00004  -0.00005  -0.00001   2.06763
   R21        2.64443  -0.00001   0.00005  -0.00007  -0.00002   2.64441
   R22        2.06737  -0.00000   0.00006  -0.00007  -0.00001   2.06736
   R23        2.63467   0.00001   0.00002   0.00000   0.00002   2.63469
   R24        2.06764  -0.00000   0.00003  -0.00005  -0.00001   2.06763
   R25        2.06517  -0.00001   0.00005  -0.00007  -0.00002   2.06515
    A1        2.10524   0.00000  -0.00006   0.00005  -0.00001   2.10523
    A2        2.10525   0.00000  -0.00003   0.00005   0.00002   2.10527
    A3        2.07269  -0.00001   0.00009  -0.00010  -0.00001   2.07269
    A4        2.10212   0.00000  -0.00004   0.00004   0.00000   2.10212
    A5        2.07827  -0.00000  -0.00002  -0.00001  -0.00003   2.07824
    A6        2.10279  -0.00000   0.00006  -0.00003   0.00003   2.10282
    A7        2.09982   0.00000  -0.00004   0.00004   0.00000   2.09982
    A8        2.08834   0.00000   0.00006  -0.00001   0.00005   2.08839
    A9        2.09503  -0.00000  -0.00002  -0.00003  -0.00005   2.09498
   A10        2.08980  -0.00000   0.00007  -0.00007  -0.00000   2.08980
   A11        2.09671  -0.00000  -0.00003   0.00002  -0.00002   2.09669
   A12        2.09668   0.00000  -0.00003   0.00005   0.00002   2.09669
   A13        2.09982   0.00000  -0.00003   0.00003   0.00000   2.09982
   A14        2.09500  -0.00000   0.00001  -0.00002  -0.00001   2.09499
   A15        2.08837  -0.00000   0.00002  -0.00001   0.00001   2.08837
   A16        2.10212   0.00000  -0.00005   0.00005   0.00000   2.10212
   A17        2.07826  -0.00000   0.00008  -0.00006   0.00002   2.07828
   A18        2.10280  -0.00000  -0.00003   0.00001  -0.00003   2.10278
   A19        2.10525   0.00001  -0.00014   0.00011  -0.00003   2.10521
   A20        2.10524   0.00000   0.00005  -0.00001   0.00004   2.10528
   A21        2.07269  -0.00001   0.00009  -0.00009  -0.00000   2.07269
   A22        2.10212   0.00000  -0.00004   0.00005   0.00000   2.10212
   A23        2.07827  -0.00000   0.00003  -0.00004  -0.00001   2.07826
   A24        2.10280  -0.00000   0.00001  -0.00001   0.00000   2.10280
   A25        2.09982   0.00000  -0.00004   0.00003  -0.00001   2.09982
   A26        2.08835   0.00000   0.00004  -0.00001   0.00003   2.08838
   A27        2.09501  -0.00000  -0.00000  -0.00003  -0.00003   2.09499
   A28        2.08980  -0.00000   0.00007  -0.00007  -0.00000   2.08980
   A29        2.09669   0.00000  -0.00003   0.00004   0.00000   2.09669
   A30        2.09670   0.00000  -0.00003   0.00003  -0.00000   2.09669
   A31        2.09982   0.00000  -0.00004   0.00004   0.00001   2.09982
   A32        2.09501  -0.00000  -0.00001  -0.00002  -0.00003   2.09498
   A33        2.08836   0.00000   0.00005  -0.00002   0.00003   2.08838
   A34        2.10212   0.00000  -0.00004   0.00004  -0.00000   2.10212
   A35        2.07826  -0.00000   0.00003  -0.00003  -0.00000   2.07826
   A36        2.10280  -0.00000   0.00001  -0.00001   0.00000   2.10280
   A37        3.14185  -0.00002  -0.00018  -0.00015  -0.00032   3.14152
   A38        3.14145   0.00000   0.00073  -0.00061   0.00013   3.14158
   A39        3.14188  -0.00001  -0.00005  -0.00094  -0.00098   3.14090
   A40        3.14181  -0.00001   0.00048  -0.00132  -0.00085   3.14096
    D1       -3.13175  -0.00001  -0.00936   0.00008  -0.00928  -3.14102
    D2        0.01001  -0.00001  -0.00941  -0.00029  -0.00971   0.00030
    D3        0.00993  -0.00001  -0.00948   0.00016  -0.00932   0.00061
    D4       -3.13150  -0.00001  -0.00953  -0.00021  -0.00975  -3.14125
    D5       -3.14157  -0.00000   0.00007  -0.00015  -0.00008   3.14154
    D6        0.00009  -0.00000   0.00007  -0.00024  -0.00016  -0.00007
    D7       -0.00009   0.00000  -0.00011   0.00026   0.00015   0.00006
    D8        3.14157   0.00000  -0.00011   0.00018   0.00007  -3.14155
    D9        3.14152   0.00000  -0.00011   0.00026   0.00014  -3.14152
   D10        0.00000   0.00000  -0.00010   0.00016   0.00006   0.00007
   D11        0.00004  -0.00000   0.00007  -0.00016  -0.00009  -0.00004
   D12       -3.14148  -0.00000   0.00009  -0.00025  -0.00017   3.14154
   D13        0.00007  -0.00000   0.00008  -0.00019  -0.00011  -0.00004
   D14       -3.14155  -0.00000   0.00001  -0.00007  -0.00006   3.14158
   D15       -3.14159  -0.00000   0.00008  -0.00010  -0.00003   3.14157
   D16       -0.00002   0.00000   0.00001   0.00002   0.00002  -0.00000
   D17       -0.00001   0.00000  -0.00000   0.00001   0.00001  -0.00000
   D18        3.14156   0.00000  -0.00002   0.00008   0.00006  -3.14157
   D19       -3.14158  -0.00000   0.00007  -0.00011  -0.00004   3.14157
   D20       -0.00001  -0.00000   0.00005  -0.00004   0.00001   0.00000
   D21       -0.00003   0.00000  -0.00004   0.00009   0.00005   0.00002
   D22        3.14154   0.00000  -0.00003   0.00009   0.00006  -3.14158
   D23        3.14158   0.00000  -0.00001   0.00002   0.00000   3.14159
   D24       -0.00003   0.00000  -0.00000   0.00002   0.00001  -0.00001
   D25        0.00001  -0.00000   0.00000  -0.00002  -0.00001   0.00000
   D26        3.14154   0.00000  -0.00001   0.00008   0.00007  -3.14158
   D27       -3.14156  -0.00000  -0.00001  -0.00001  -0.00002  -3.14159
   D28       -0.00004   0.00000  -0.00002   0.00008   0.00006   0.00002
   D29        3.14157   0.00000   0.00002   0.00002   0.00004  -3.14157
   D30        0.00002   0.00000   0.00002  -0.00006  -0.00004  -0.00002
   D31       -0.00008   0.00000  -0.00011   0.00025   0.00014   0.00006
   D32        3.14156   0.00000  -0.00011   0.00018   0.00006  -3.14156
   D33       -3.14158  -0.00000  -0.00001  -0.00002  -0.00003   3.14157
   D34        0.00003  -0.00000  -0.00009   0.00008  -0.00002   0.00002
   D35        0.00007  -0.00000   0.00011  -0.00025  -0.00014  -0.00007
   D36       -3.14150  -0.00000   0.00004  -0.00016  -0.00012   3.14156
   D37        0.00005  -0.00000   0.00005  -0.00014  -0.00009  -0.00004
   D38       -3.14156  -0.00000  -0.00002  -0.00005  -0.00006   3.14156
   D39       -3.14159  -0.00000   0.00006  -0.00006  -0.00000   3.14159
   D40       -0.00002   0.00000  -0.00001   0.00003   0.00002   0.00000
   D41       -0.00001   0.00000   0.00000   0.00002   0.00002   0.00001
   D42        3.14158   0.00000   0.00000   0.00004   0.00004  -3.14157
   D43       -3.14158  -0.00000   0.00007  -0.00007  -0.00000  -3.14159
   D44        0.00000  -0.00000   0.00007  -0.00005   0.00002   0.00002
   D45        0.00000  -0.00000   0.00001  -0.00002  -0.00002  -0.00001
   D46        3.14155   0.00000  -0.00002   0.00006   0.00004   3.14158
   D47       -3.14158  -0.00000   0.00000  -0.00004  -0.00003   3.14157
   D48       -0.00004   0.00000  -0.00002   0.00004   0.00002  -0.00002
   D49       -0.00003   0.00000  -0.00006   0.00014   0.00008   0.00004
   D50        3.14154   0.00000   0.00001   0.00004   0.00006  -3.14159
   D51       -3.14158   0.00000  -0.00004   0.00006   0.00002  -3.14156
   D52       -0.00000  -0.00000   0.00004  -0.00004   0.00000  -0.00000
         Item               Value     Threshold  Converged?
 Maximum Force            0.000055     0.000450     YES
 RMS     Force            0.000007     0.000300     YES
 Maximum Displacement     0.019923     0.001800     NO 
 RMS     Displacement     0.005846     0.001200     NO 
 Predicted change in Energy=-1.279868D-07
 GradGradGradGradGradGradGradGradGradGradGradGradGradGradGradGradGradGrad

                          Input orientation:                          
 ---------------------------------------------------------------------
 Center     Atomic      Atomic             Coordinates (Angstroms)
 Number     Number       Type             X           Y           Z
 ---------------------------------------------------------------------
      1          6           0        0.609642    0.007360   -0.013597
      2          6           0       -0.609413    0.012366   -0.011173
      3          6           0       -2.035693    0.018252   -0.009066
      4          6           0       -2.759663   -1.193321   -0.023782
      5          6           0       -4.153830   -1.183233   -0.021598
      6          6           0       -4.851292    0.029818   -0.004723
      7          6           0       -4.143845    1.237074    0.010013
      8          6           0       -2.749617    1.235705    0.007919
      9          6           0        2.035923    0.001591   -0.015632
     10          6           0        2.759765    1.213215   -0.000223
     11          6           0        4.153947    1.203268   -0.002293
     12          6           0        4.851523   -0.009695   -0.019646
     13          6           0        4.144188   -1.217026   -0.034989
     14          6           0        2.749975   -1.215796   -0.033035
     15          1           0       -2.212141   -2.139008   -0.036922
     16          1           0       -4.702087   -2.130034   -0.033139
     17          1           0       -5.945279    0.034314   -0.003029
     18          1           0       -4.684249    2.188356    0.023252
     19          1           0       -2.194344    2.176885    0.019410
     20          1           0        2.212168    2.158855    0.013314
     21          1           0        4.702101    2.150123    0.009744
     22          1           0        5.945510   -0.014084   -0.021200
     23          1           0        4.684696   -2.168244   -0.048596
     24          1           0        2.194776   -2.157013   -0.044988
 ---------------------------------------------------------------------
                    Distance matrix (angstroms):
                    1          2          3          4          5
     1  C    0.000000
     2  C    1.219068   0.000000
     3  C    2.645361   1.426293   0.000000
     4  C    3.576864   2.465242   1.411474   0.000000
     5  C    4.910015   3.740649   2.435206   1.394205   0.000000
     6  C    5.460988   4.241920   2.815627   2.423085   1.399369
     7  C    4.910030   3.740664   2.435200   2.797127   2.420535
     8  C    3.576859   2.465237   1.411442   2.429253   2.797132
     9  C    1.426294   2.645361   4.071655   4.942219   6.302133
    10  C    2.465216   3.576803   4.942108   6.021300   7.317186
    11  C    3.740645   4.909983   6.302059   7.317248   8.643780
    12  C    4.241919   5.460987   6.887280   7.702671   9.081496
    13  C    3.740668   4.910061   6.302183   6.903901   8.298098
    14  C    2.465261   3.576919   4.942273   5.509692   6.903891
    15  H    3.545405   2.682873   2.164643   1.092830   2.164231
    16  H    5.725670   4.619560   3.424232   2.156508   1.094143
    17  H    6.554986   5.335918   3.909624   3.414040   2.166116
    18  H    5.725678   4.619568   3.424215   3.891270   3.413352
    19  H    3.545457   2.682924   2.164642   3.417562   3.889943
    20  H    2.682861   3.545326   4.756785   5.996463   7.190042
    21  H    4.619544   5.725611   7.067042   8.176653   9.462545
    22  H    5.335917   6.554984   7.981278   8.784683  10.166788
    23  H    4.619582   5.725735   7.067244   7.507967   8.893284
    24  H    2.682936   3.545536   4.757093   5.047338   6.422895
                    6          7          8          9         10
     6  C    0.000000
     7  C    1.399344   0.000000
     8  C    2.423089   1.394230   0.000000
     9  C    6.887281   6.302112   4.942164   0.000000
    10  C    7.702508   6.903659   5.509434   1.411459   0.000000
    11  C    9.081373   8.297871   6.903648   2.435207   1.394220
    12  C    9.702907   9.081407   7.702539   2.815625   2.423084
    13  C    9.081531   8.643849   7.317259   2.435197   2.797125
    14  C    7.702702   7.317321   6.021382   1.411455   2.429253
    15  H    3.416133   3.889937   3.417539   4.756959   5.996548
    16  H    2.165186   3.413343   3.891274   7.067171   8.176651
    17  H    1.093998   2.166095   3.414047   7.981279   8.784510
    18  H    2.165173   1.094143   2.156520   7.067118   7.507649
    19  H    3.416116   2.164229   1.092831   4.756920   5.047003
    20  H    7.377371   6.422507   5.046935   2.164645   1.092831
    21  H    9.785868   8.892942   7.507614   3.424228   2.156517
    22  H   10.796904  10.166684   8.784536   3.909623   3.414041
    23  H    9.786136   9.462703   8.176739   3.424218   3.891267
    24  H    7.377732   7.190339   5.996695   2.164641   3.417551
                   11         12         13         14         15
    11  C    0.000000
    12  C    1.399354   0.000000
    13  C    2.420535   1.399359   0.000000
    14  C    2.797134   2.423090   1.394215   0.000000
    15  H    7.190208   7.377643   6.422848   5.047269   0.000000
    16  H    9.462621   9.786086   8.893265   7.507933   2.489965
    17  H   10.166653  10.796904  10.166820   8.784709   4.319815
    18  H    8.892961   9.785919   9.462628   8.176741   4.984076
    19  H    6.422555   7.377459   7.190173   5.996609   4.316296
    20  H    2.164231   3.416121   3.889936   3.417550   6.168359
    21  H    1.094143   2.165179   3.413350   3.891277   8.136679
    22  H    2.166103   1.093998   2.166107   3.414045   8.429877
    23  H    3.413346   2.165180   1.094143   2.156512   6.896908
    24  H    3.889945   3.416127   2.164229   1.092831   4.406961
                   16         17         18         19         20
    16  H    0.000000
    17  H    2.496164   0.000000
    18  H    4.318795   2.496154   0.000000
    19  H    4.984082   4.319794   2.489934   0.000000
    20  H    8.136562   8.429584   6.896487   4.406554   0.000000
    21  H   10.332489  10.855575   9.386437   6.896504   2.489950
    22  H   10.855815  11.890902  10.855621   8.429664   4.319803
    23  H    9.386873  10.855860  10.332582   8.136704   4.984075
    24  H    6.896925   8.429957   8.136822   6.168565   4.316297
                   21         22         23         24
    21  H    0.000000
    22  H    2.496160   0.000000
    23  H    4.318795   2.496159   0.000000
    24  H    4.984084   4.319806   2.489948   0.000000
 Stoichiometry    C14H10
 Framework group  C1[X(C14H10)]
 Deg. of freedom    66
 Full point group                 C1      NOp   1
 Largest Abelian subgroup         C1      NOp   1
 Largest concise Abelian subgroup C1      NOp   1
                         Standard orientation:                         
 ---------------------------------------------------------------------
 Center     Atomic      Atomic             Coordinates (Angstroms)
 Number     Number       Type             X           Y           Z
 ---------------------------------------------------------------------
      1          6           0        0.609534    0.000134    0.000380
      2          6           0       -0.609534    0.000092   -0.000148
      3          6           0       -2.035827    0.000022   -0.000036
      4          6           0       -2.754829    1.214639   -0.000334
      5          6           0       -4.149026    1.210236   -0.000292
      6          6           0       -4.851454   -0.000065   -0.000001
      7          6           0       -4.148958   -1.210299    0.000244
      8          6           0       -2.754735   -1.214614    0.000228
      9          6           0        2.035828    0.000087    0.000198
     10          6           0        2.754699   -1.214591   -0.000196
     11          6           0        4.148913   -1.210329   -0.000350
     12          6           0        4.851453   -0.000111   -0.000162
     13          6           0        4.149071    1.210205    0.000199
     14          6           0        2.754863    1.214662    0.000353
     15          1           0       -2.203435    2.158166   -0.000583
     16          1           0       -4.693400    2.159344   -0.000510
     17          1           0       -5.945451   -0.000101    0.000006
     18          1           0       -4.693255   -2.159451    0.000457
     19          1           0       -2.203322   -2.158130    0.000410
     20          1           0        2.203232   -2.158075   -0.000345
     21          1           0        4.693182   -2.159498   -0.000627
     22          1           0        5.945451   -0.000184   -0.000308
     23          1           0        4.693473    2.159297    0.000355
     24          1           0        2.203525    2.158221    0.000632
 ---------------------------------------------------------------------
 Rotational constants (GHZ):           2.8281302           0.2473193           0.2274305
 Standard basis: def2SVPP (5D, 7F)
 There are   230 symmetry adapted cartesian basis functions of A   symmetry.
 There are   216 symmetry adapted basis functions of A   symmetry.
   216 basis functions,   390 primitive gaussians,   230 cartesian basis functions
    47 alpha electrons       47 beta electrons
       nuclear repulsion energy       691.8173508959 Hartrees.
 NAtoms=   24 NActive=   24 NUniq=   24 SFac= 1.00D+00 NAtFMM=   60 NAOKFM=F Big=F
 Integral buffers will be    131072 words long.
 Raffenetti 2 integral format.
 Two-electron integral symmetry is turned on.
 Nuclear repulsion after empirical dispersion term =      691.7701396733 Hartrees.
 One-electron integrals computed using PRISM.
   1 Symmetry operations used in ECPInt.
 ECPInt:  NShTT=    5460 NPrTT=   21948 LenC2=    4959 LenP2D=   14121.
 LDataN:  DoStor=T MaxTD1= 4 Len=   56
 NBasis=   216 RedAO= T EigKep=  3.08D-04  NBF=   216
 NBsUse=   216 1.00D-06 EigRej= -1.00D+00 NBFU=   216
 Initial guess from the checkpoint file:  "/home/software/g16/scr/Gau-12557.chk"
 B after Tr=     0.000000    0.000000   -0.000000
         Rot=    1.000000    0.000000   -0.000000    0.000005 Ang=  -0.00 deg.
 Requested convergence on RMS density matrix=1.00D-08 within 128 cycles.
 Requested convergence on MAX density matrix=1.00D-06.
 Requested convergence on             energy=1.00D-06.
 No special actions if energy rises.
 SCF Done:  E(RB3LYP) =  -539.103348250     A.U. after    8 cycles
            NFock=  8  Conv=0.82D-08     -V/T= 2.0112
   1 Symmetry operations used in ECPInt.
 ECPInt:  NShTT=    5460 NPrTT=   21948 LenC2=    4959 LenP2D=   14121.
 LDataN:  DoStor=T MaxTD1= 5 Len=  102
 Calling FoFJK, ICntrl=      2127 FMM=F ISym2X=0 I1Cent= 0 IOpClX= 0 NMat=1 NMatS=1 NMatT=0.
 ***** Axes restored to original set *****
 -------------------------------------------------------------------
 Center     Atomic                   Forces (Hartrees/Bohr)
 Number     Number              X              Y              Z
 -------------------------------------------------------------------
      1        6           0.000005477   -0.000001390    0.000043577
      2        6          -0.000005437    0.000002234   -0.000045341
      3        6           0.000001007   -0.000015952    0.000021896
      4        6           0.000010278    0.000007182   -0.000004047
      5        6          -0.000008411    0.000003276    0.000000569
      6        6          -0.000005678   -0.000009531    0.000001373
      7        6           0.000011353    0.000006180   -0.000002523
      8        6          -0.000012859    0.000009361   -0.000000509
      9        6          -0.000001989    0.000005256   -0.000005710
     10        6           0.000004315    0.000000629   -0.000007139
     11        6          -0.000004372    0.000002604    0.000003187
     12        6           0.000005746   -0.000003122   -0.000000768
     13        6           0.000001479   -0.000000155    0.000003187
     14        6          -0.000000892   -0.000002304   -0.000006655
     15        1          -0.000002360   -0.000002775    0.000000090
     16        1           0.000001605   -0.000002431   -0.000000333
     17        1           0.000000510   -0.000000536   -0.000000556
     18        1           0.000000996    0.000002112    0.000000176
     19        1           0.000000481    0.000000379   -0.000000203
     20        1           0.000000798    0.000001282   -0.000000338
     21        1          -0.000001336    0.000002076    0.000000913
     22        1          -0.000000555   -0.000000155   -0.000001336
     23        1          -0.000001167   -0.000002539    0.000000915
     24        1           0.000001010   -0.000001682   -0.000000424
 -------------------------------------------------------------------
 Cartesian Forces:  Max     0.000045341 RMS     0.000009046

 GradGradGradGradGradGradGradGradGradGradGradGradGradGradGradGradGradGrad
 Berny optimization.
 Using GEDIIS/GDIIS optimizer.
 FormGI is forming the generalized inverse of G from B-inverse, IUseBI=4.
 Internal  Forces:  Max     0.000026162 RMS     0.000004329
 Search for a local minimum.
 Step number   9 out of a maximum of  127
 All quantities printed in internal units (Hartrees-Bohrs-Radians)
 Mixed Optimization -- En-DIIS/RFO-DIIS
 Swapping is turned off.
 Update second derivatives using D2CorX and points    1    3    2    4    5
                                                      6    7    8    9
 DE= -1.38D-07 DEPred=-1.28D-07 R= 1.08D+00
 Trust test= 1.08D+00 RLast= 1.91D-02 DXMaxT set to 1.26D-01
 ITU=  0  1 -1  1  0  1 -1  0  0
     Eigenvalues ---    0.00062   0.01336   0.01461   0.02095   0.02127
     Eigenvalues ---    0.02129   0.02131   0.02137   0.02138   0.02140
     Eigenvalues ---    0.02140   0.02142   0.02148   0.02149   0.02150
     Eigenvalues ---    0.02154   0.02155   0.02156   0.02158   0.02325
     Eigenvalues ---    0.05045   0.05187   0.09882   0.14031   0.15995
     Eigenvalues ---    0.16000   0.16000   0.16000   0.16000   0.16002
     Eigenvalues ---    0.16007   0.16009   0.16026   0.21806   0.22000
     Eigenvalues ---    0.22024   0.22027   0.22570   0.23472   0.25160
     Eigenvalues ---    0.25761   0.35081   0.35124   0.35133   0.35145
     Eigenvalues ---    0.35155   0.35160   0.35163   0.35169   0.35179
     Eigenvalues ---    0.35425   0.37915   0.40957   0.41950   0.41974
     Eigenvalues ---    0.42250   0.42269   0.45241   0.46156   0.46180
     Eigenvalues ---    0.46277   0.46331   0.46462   0.46514   0.50133
     Eigenvalues ---    1.01295
 En-DIIS/RFO-DIIS/Sim-DIIS IScMMF=       -3 using points:     9    8    7    6    5    4
 RFO step:  Lambda=-7.82763900D-08.
 DidBck=T Rises=F RFO-DIIS coefs:    0.49407    1.02598   -0.25620   -0.24687   -0.01044
                  RFO-DIIS coefs:   -0.00653
 Iteration  1 RMS(Cart)=  0.00030925 RMS(Int)=  0.00000044
 Iteration  2 RMS(Cart)=  0.00000044 RMS(Int)=  0.00000044
 Variable       Old X    -DE/DX   Delta X   Delta X   Delta X     New X
                                 (Linear)    (Quad)   (Total)
    R1        2.30370   0.00001  -0.00007   0.00008   0.00001   2.30371
    R2        2.69530   0.00000  -0.00007   0.00008   0.00001   2.69531
    R3        2.69530   0.00000  -0.00008   0.00009   0.00001   2.69531
    R4        2.66730  -0.00000   0.00003  -0.00004  -0.00000   2.66730
    R5        2.66724   0.00001  -0.00002   0.00003   0.00001   2.66725
    R6        2.63467   0.00001  -0.00004   0.00005   0.00001   2.63467
    R7        2.06515   0.00000   0.00003  -0.00003   0.00000   2.06515
    R8        2.64442  -0.00000   0.00004  -0.00004  -0.00000   2.64442
    R9        2.06763   0.00000   0.00002  -0.00002   0.00000   2.06763
   R10        2.64438   0.00001   0.00001   0.00000   0.00001   2.64439
   R11        2.06736  -0.00000   0.00003  -0.00003   0.00000   2.06736
   R12        2.63471  -0.00001   0.00000  -0.00000  -0.00000   2.63471
   R13        2.06763   0.00000   0.00002  -0.00002   0.00000   2.06763
   R14        2.06515   0.00000   0.00004  -0.00004   0.00000   2.06515
   R15        2.66727   0.00000   0.00000   0.00000   0.00000   2.66728
   R16        2.66726   0.00000   0.00001  -0.00001   0.00001   2.66727
   R17        2.63469  -0.00000  -0.00002   0.00002   0.00000   2.63469
   R18        2.06515   0.00000   0.00004  -0.00004   0.00000   2.06515
   R19        2.64440   0.00001   0.00002  -0.00001   0.00001   2.64440
   R20        2.06763   0.00000   0.00002  -0.00002   0.00000   2.06763
   R21        2.64441   0.00000   0.00003  -0.00003   0.00000   2.64441
   R22        2.06736  -0.00000   0.00003  -0.00003   0.00000   2.06736
   R23        2.63469   0.00000  -0.00002   0.00003   0.00000   2.63469
   R24        2.06763   0.00000   0.00002  -0.00002   0.00000   2.06763
   R25        2.06515   0.00000   0.00003  -0.00003   0.00000   2.06515
    A1        2.10523   0.00000  -0.00004   0.00004   0.00000   2.10524
    A2        2.10527  -0.00000  -0.00002   0.00002  -0.00000   2.10526
    A3        2.07269  -0.00000   0.00005  -0.00006  -0.00000   2.07268
    A4        2.10212   0.00000  -0.00002   0.00003   0.00000   2.10212
    A5        2.07824   0.00000  -0.00001   0.00001   0.00001   2.07825
    A6        2.10282  -0.00000   0.00003  -0.00004  -0.00001   2.10281
    A7        2.09982   0.00000  -0.00002   0.00002   0.00000   2.09982
    A8        2.08839  -0.00000   0.00000  -0.00001  -0.00001   2.08839
    A9        2.09498   0.00000   0.00002  -0.00001   0.00001   2.09498
   A10        2.08980  -0.00000   0.00003  -0.00004  -0.00000   2.08980
   A11        2.09669   0.00000  -0.00001   0.00001  -0.00000   2.09669
   A12        2.09669   0.00000  -0.00003   0.00003   0.00000   2.09670
   A13        2.09982   0.00000  -0.00001   0.00002   0.00000   2.09982
   A14        2.09499   0.00000   0.00001  -0.00001   0.00001   2.09499
   A15        2.08837  -0.00000   0.00000  -0.00001  -0.00001   2.08837
   A16        2.10212   0.00000  -0.00003   0.00003   0.00000   2.10212
   A17        2.07828  -0.00000   0.00003  -0.00003  -0.00000   2.07828
   A18        2.10278  -0.00000   0.00001  -0.00001  -0.00000   2.10278
   A19        2.10521   0.00001  -0.00006   0.00007   0.00001   2.10522
   A20        2.10528  -0.00000   0.00001  -0.00001  -0.00001   2.10528
   A21        2.07269  -0.00000   0.00005  -0.00006  -0.00000   2.07268
   A22        2.10212   0.00000  -0.00003   0.00003   0.00000   2.10213
   A23        2.07826   0.00000   0.00001  -0.00001   0.00000   2.07827
   A24        2.10280  -0.00000   0.00002  -0.00002  -0.00001   2.10279
   A25        2.09982   0.00000  -0.00002   0.00002   0.00000   2.09982
   A26        2.08838  -0.00000   0.00000  -0.00001  -0.00001   2.08838
   A27        2.09499   0.00000   0.00002  -0.00001   0.00000   2.09499
   A28        2.08980  -0.00000   0.00003  -0.00004  -0.00000   2.08980
   A29        2.09669   0.00000  -0.00002   0.00002   0.00000   2.09670
   A30        2.09669   0.00000  -0.00001   0.00001   0.00000   2.09669
   A31        2.09982  -0.00000  -0.00002   0.00002   0.00000   2.09982
   A32        2.09498   0.00000   0.00001  -0.00001   0.00001   2.09499
   A33        2.08838  -0.00000   0.00001  -0.00001  -0.00001   2.08838
   A34        2.10212   0.00000  -0.00003   0.00003   0.00000   2.10212
   A35        2.07826   0.00000   0.00001  -0.00000   0.00000   2.07827
   A36        2.10280  -0.00000   0.00002  -0.00002  -0.00001   2.10279
   A37        3.14152   0.00000   0.00008  -0.00003   0.00005   3.14157
   A38        3.14158   0.00000   0.00008  -0.00005   0.00002   3.14160
   A39        3.14090   0.00003   0.00059   0.00016   0.00075   3.14164
   A40        3.14096   0.00003   0.00066   0.00005   0.00070   3.14166
    D1       -3.14102  -0.00000  -0.00060   0.00007  -0.00053  -3.14155
    D2        0.00030   0.00000  -0.00033   0.00005  -0.00029   0.00002
    D3        0.00061  -0.00000  -0.00058  -0.00005  -0.00063  -0.00002
    D4       -3.14125   0.00000  -0.00031  -0.00007  -0.00039   3.14155
    D5        3.14154   0.00000   0.00007  -0.00002   0.00005   3.14159
    D6       -0.00007   0.00000   0.00012  -0.00007   0.00005  -0.00002
    D7        0.00006  -0.00000  -0.00015   0.00012  -0.00003   0.00003
    D8       -3.14155  -0.00000  -0.00010   0.00007  -0.00003  -3.14158
    D9       -3.14152  -0.00000  -0.00013   0.00007  -0.00006  -3.14158
   D10        0.00007  -0.00000  -0.00008   0.00003  -0.00005   0.00001
   D11       -0.00004   0.00000   0.00009  -0.00007   0.00002  -0.00002
   D12        3.14154   0.00000   0.00014  -0.00011   0.00003   3.14157
   D13       -0.00004   0.00000   0.00011  -0.00009   0.00002  -0.00002
   D14        3.14158   0.00000   0.00003  -0.00003   0.00000   3.14158
   D15        3.14157   0.00000   0.00006  -0.00005   0.00002   3.14158
   D16       -0.00000   0.00000  -0.00001   0.00002   0.00000   0.00000
   D17       -0.00000   0.00000  -0.00001   0.00002   0.00001   0.00000
   D18       -3.14157  -0.00000  -0.00005   0.00004  -0.00001  -3.14158
   D19        3.14157   0.00000   0.00007  -0.00005   0.00002   3.14159
   D20        0.00000   0.00000   0.00002  -0.00002   0.00000   0.00000
   D21        0.00002  -0.00000  -0.00005   0.00003  -0.00002   0.00001
   D22       -3.14158  -0.00000  -0.00005   0.00004  -0.00001  -3.14159
   D23        3.14159   0.00000  -0.00001   0.00001   0.00000   3.14159
   D24       -0.00001   0.00000  -0.00001   0.00001   0.00001  -0.00001
   D25        0.00000  -0.00000   0.00001  -0.00001   0.00000   0.00000
   D26       -3.14158  -0.00000  -0.00005   0.00004  -0.00001  -3.14159
   D27       -3.14159  -0.00000   0.00001  -0.00001  -0.00000  -3.14159
   D28        0.00002  -0.00000  -0.00005   0.00004  -0.00001   0.00001
   D29       -3.14157  -0.00000  -0.00002  -0.00001  -0.00003   3.14158
   D30       -0.00002  -0.00000   0.00001  -0.00001  -0.00000  -0.00002
   D31        0.00006  -0.00000  -0.00014   0.00009  -0.00005   0.00002
   D32       -3.14156  -0.00000  -0.00011   0.00009  -0.00002  -3.14158
   D33        3.14157   0.00000   0.00002   0.00001   0.00003  -3.14158
   D34        0.00002   0.00000  -0.00003   0.00003  -0.00000   0.00002
   D35       -0.00007   0.00000   0.00014  -0.00009   0.00005  -0.00002
   D36        3.14156   0.00000   0.00009  -0.00008   0.00002   3.14158
   D37       -0.00004   0.00000   0.00007  -0.00004   0.00003  -0.00001
   D38        3.14156   0.00000   0.00001   0.00001   0.00002   3.14159
   D39        3.14159  -0.00000   0.00004  -0.00005  -0.00000   3.14159
   D40        0.00000  -0.00000  -0.00001   0.00001  -0.00001  -0.00000
   D41        0.00001  -0.00000  -0.00001   0.00000  -0.00001   0.00000
   D42       -3.14157  -0.00000  -0.00003   0.00001  -0.00001  -3.14158
   D43       -3.14159  -0.00000   0.00005  -0.00005  -0.00001   3.14159
   D44        0.00002  -0.00000   0.00003  -0.00004  -0.00001   0.00001
   D45       -0.00001   0.00000   0.00001  -0.00000   0.00001  -0.00000
   D46        3.14158   0.00000  -0.00004   0.00005   0.00001   3.14159
   D47        3.14157   0.00000   0.00003  -0.00001   0.00001   3.14158
   D48       -0.00002   0.00000  -0.00002   0.00004   0.00001  -0.00001
   D49        0.00004  -0.00000  -0.00008   0.00005  -0.00003   0.00001
   D50       -3.14159   0.00000  -0.00003   0.00003   0.00000  -3.14159
   D51       -3.14156  -0.00000  -0.00003  -0.00000  -0.00003  -3.14158
   D52       -0.00000   0.00000   0.00002  -0.00002   0.00001   0.00000
         Item               Value     Threshold  Converged?
 Maximum Force            0.000026     0.000450     YES
 RMS     Force            0.000004     0.000300     YES
 Maximum Displacement     0.001245     0.001800     YES
 RMS     Displacement     0.000309     0.001200     YES
 Predicted change in Energy=-3.038530D-08
 Optimization completed.
    -- Stationary point found.
                           ----------------------------
                           !   Optimized Parameters   !
                           ! (Angstroms and Degrees)  !
 --------------------------                            --------------------------
 ! Name  Definition              Value          Derivative Info.                !
 --------------------------------------------------------------------------------
 ! R1    R(1,2)                  1.2191         -DE/DX =    0.0                 !
 ! R2    R(1,9)                  1.4263         -DE/DX =    0.0                 !
 ! R3    R(2,3)                  1.4263         -DE/DX =    0.0                 !
 ! R4    R(3,4)                  1.4115         -DE/DX =    0.0                 !
 ! R5    R(3,8)                  1.4114         -DE/DX =    0.0                 !
 ! R6    R(4,5)                  1.3942         -DE/DX =    0.0                 !
 ! R7    R(4,15)                 1.0928         -DE/DX =    0.0                 !
 ! R8    R(5,6)                  1.3994         -DE/DX =    0.0                 !
 ! R9    R(5,16)                 1.0941         -DE/DX =    0.0                 !
 ! R10   R(6,7)                  1.3993         -DE/DX =    0.0                 !
 ! R11   R(6,17)                 1.094          -DE/DX =    0.0                 !
 ! R12   R(7,8)                  1.3942         -DE/DX =    0.0                 !
 ! R13   R(7,18)                 1.0941         -DE/DX =    0.0                 !
 ! R14   R(8,19)                 1.0928         -DE/DX =    0.0                 !
 ! R15   R(9,10)                 1.4115         -DE/DX =    0.0                 !
 ! R16   R(9,14)                 1.4115         -DE/DX =    0.0                 !
 ! R17   R(10,11)                1.3942         -DE/DX =    0.0                 !
 ! R18   R(10,20)                1.0928         -DE/DX =    0.0                 !
 ! R19   R(11,12)                1.3994         -DE/DX =    0.0                 !
 ! R20   R(11,21)                1.0941         -DE/DX =    0.0                 !
 ! R21   R(12,13)                1.3994         -DE/DX =    0.0                 !
 ! R22   R(12,22)                1.094          -DE/DX =    0.0                 !
 ! R23   R(13,14)                1.3942         -DE/DX =    0.0                 !
 ! R24   R(13,23)                1.0941         -DE/DX =    0.0                 !
 ! R25   R(14,24)                1.0928         -DE/DX =    0.0                 !
 ! A1    A(2,3,4)              120.6209         -DE/DX =    0.0                 !
 ! A2    A(2,3,8)              120.6228         -DE/DX =    0.0                 !
 ! A3    A(4,3,8)              118.7562         -DE/DX =    0.0                 !
 ! A4    A(3,4,5)              120.4428         -DE/DX =    0.0                 !
 ! A5    A(3,4,15)             119.0744         -DE/DX =    0.0                 !
 ! A6    A(5,4,15)             120.4828         -DE/DX =    0.0                 !
 ! A7    A(4,5,6)              120.3107         -DE/DX =    0.0                 !
 ! A8    A(4,5,16)             119.6561         -DE/DX =    0.0                 !
 ! A9    A(6,5,16)             120.0332         -DE/DX =    0.0                 !
 ! A10   A(5,6,7)              119.7367         -DE/DX =    0.0                 !
 ! A11   A(5,6,17)             120.1316         -DE/DX =    0.0                 !
 ! A12   A(7,6,17)             120.1317         -DE/DX =    0.0                 !
 ! A13   A(6,7,8)              120.3109         -DE/DX =    0.0                 !
 ! A14   A(6,7,18)             120.0341         -DE/DX =    0.0                 !
 ! A15   A(8,7,18)             119.6551         -DE/DX =    0.0                 !
 ! A16   A(3,8,7)              120.4427         -DE/DX =    0.0                 !
 ! A17   A(3,8,19)             119.077          -DE/DX =    0.0                 !
 ! A18   A(7,8,19)             120.4803         -DE/DX =    0.0                 !
 ! A19   A(1,9,10)             120.6199         -DE/DX =    0.0                 !
 ! A20   A(1,9,14)             120.6238         -DE/DX =    0.0                 !
 ! A21   A(10,9,14)            118.7563         -DE/DX =    0.0                 !
 ! A22   A(9,10,11)            120.4428         -DE/DX =    0.0                 !
 ! A23   A(9,10,20)            119.0757         -DE/DX =    0.0                 !
 ! A24   A(11,10,20)           120.4814         -DE/DX =    0.0                 !
 ! A25   A(10,11,12)           120.3106         -DE/DX =    0.0                 !
 ! A26   A(10,11,21)           119.6556         -DE/DX =    0.0                 !
 ! A27   A(12,11,21)           120.0338         -DE/DX =    0.0                 !
 ! A28   A(11,12,13)           119.7367         -DE/DX =    0.0                 !
 ! A29   A(11,12,22)           120.1317         -DE/DX =    0.0                 !
 ! A30   A(13,12,22)           120.1316         -DE/DX =    0.0                 !
 ! A31   A(12,13,14)           120.311          -DE/DX =    0.0                 !
 ! A32   A(12,13,23)           120.0335         -DE/DX =    0.0                 !
 ! A33   A(14,13,23)           119.6555         -DE/DX =    0.0                 !
 ! A34   A(9,14,13)            120.4426         -DE/DX =    0.0                 !
 ! A35   A(9,14,24)            119.0758         -DE/DX =    0.0                 !
 ! A36   A(13,14,24)           120.4816         -DE/DX =    0.0                 !
 ! A37   L(2,1,9,20,-1)        179.996          -DE/DX =    0.0                 !
 ! A38   L(1,2,3,19,-1)        179.9992         -DE/DX =    0.0                 !
 ! A39   L(2,1,9,20,-2)        179.9601         -DE/DX =    0.0                 !
 ! A40   L(1,2,3,19,-2)        179.9636         -DE/DX =    0.0                 !
 ! D1    D(4,3,9,10)          -179.9674         -DE/DX =    0.0                 !
 ! D2    D(4,3,9,14)             0.0174         -DE/DX =    0.0                 !
 ! D3    D(8,3,9,10)             0.0349         -DE/DX =    0.0                 !
 ! D4    D(8,3,9,14)           180.0197         -DE/DX =    0.0                 !
 ! D5    D(2,3,4,5)            179.9967         -DE/DX =    0.0                 !
 ! D6    D(2,3,4,15)            -0.0041         -DE/DX =    0.0                 !
 ! D7    D(8,3,4,5)              0.0035         -DE/DX =    0.0                 !
 ! D8    D(8,3,4,15)          -179.9974         -DE/DX =    0.0                 !
 ! D9    D(2,3,8,7)           -179.9956         -DE/DX =    0.0                 !
 ! D10   D(2,3,8,19)             0.0038         -DE/DX =    0.0                 !
 ! D11   D(4,3,8,7)             -0.0024         -DE/DX =    0.0                 !
 ! D12   D(4,3,8,19)           179.9971         -DE/DX =    0.0                 !
 ! D13   D(3,4,5,6)             -0.0022         -DE/DX =    0.0                 !
 ! D14   D(3,4,5,16)           179.9991         -DE/DX =    0.0                 !
 ! D15   D(15,4,5,6)           179.9986         -DE/DX =    0.0                 !
 ! D16   D(15,4,5,16)            0.0            -DE/DX =    0.0                 !
 ! D17   D(4,5,6,7)             -0.0002         -DE/DX =    0.0                 !
 ! D18   D(4,5,6,17)          -179.9985         -DE/DX =    0.0                 !
 ! D19   D(16,5,6,7)           179.9985         -DE/DX =    0.0                 !
 ! D20   D(16,5,6,17)            0.0001         -DE/DX =    0.0                 !
 ! D21   D(5,6,7,8)              0.0013         -DE/DX =    0.0                 !
 ! D22   D(5,6,7,18)          -179.9991         -DE/DX =    0.0                 !
 ! D23   D(17,6,7,8)           179.9996         -DE/DX =    0.0                 !
 ! D24   D(17,6,7,18)           -0.0008         -DE/DX =    0.0                 !
 ! D25   D(6,7,8,3)              0.0            -DE/DX =    0.0                 !
 ! D26   D(6,7,8,19)          -179.9995         -DE/DX =    0.0                 !
 ! D27   D(18,7,8,3)          -179.9996         -DE/DX =    0.0                 !
 ! D28   D(18,7,8,19)            0.001          -DE/DX =    0.0                 !
 ! D29   D(1,9,10,11)          180.0011         -DE/DX =    0.0                 !
 ! D30   D(1,9,10,20)           -0.0009         -DE/DX =    0.0                 !
 ! D31   D(14,9,10,11)           0.0037         -DE/DX =    0.0                 !
 ! D32   D(14,9,10,20)        -179.9983         -DE/DX =    0.0                 !
 ! D33   D(1,9,14,13)         -180.0012         -DE/DX =    0.0                 !
 ! D34   D(1,9,14,24)            0.001          -DE/DX =    0.0                 !
 ! D35   D(10,9,14,13)          -0.0038         -DE/DX =    0.0                 !
 ! D36   D(10,9,14,24)         179.9984         -DE/DX =    0.0                 !
 ! D37   D(9,10,11,12)          -0.0022         -DE/DX =    0.0                 !
 ! D38   D(9,10,11,21)         179.9982         -DE/DX =    0.0                 !
 ! D39   D(20,10,11,12)        179.9998         -DE/DX =    0.0                 !
 ! D40   D(20,10,11,21)          0.0003         -DE/DX =    0.0                 !
 ! D41   D(10,11,12,13)          0.0008         -DE/DX =    0.0                 !
 ! D42   D(10,11,12,22)       -179.9985         -DE/DX =    0.0                 !
 ! D43   D(21,11,12,13)        180.0003         -DE/DX =    0.0                 !
 ! D44   D(21,11,12,22)          0.001          -DE/DX =    0.0                 !
 ! D45   D(11,12,13,14)         -0.0009         -DE/DX =    0.0                 !
 ! D46   D(11,12,13,23)        179.9995         -DE/DX =    0.0                 !
 ! D47   D(22,12,13,14)        179.9985         -DE/DX =    0.0                 !
 ! D48   D(22,12,13,23)         -0.0012         -DE/DX =    0.0                 !
 ! D49   D(12,13,14,9)           0.0024         -DE/DX =    0.0                 !
 ! D50   D(12,13,14,24)       -179.9998         -DE/DX =    0.0                 !
 ! D51   D(23,13,14,9)        -179.998          -DE/DX =    0.0                 !
 ! D52   D(23,13,14,24)         -0.0002         -DE/DX =    0.0                 !
 --------------------------------------------------------------------------------
 GradGradGradGradGradGradGradGradGradGradGradGradGradGradGradGradGradGrad

                          Input orientation:                          
 ---------------------------------------------------------------------
 Center     Atomic      Atomic             Coordinates (Angstroms)
 Number     Number       Type             X           Y           Z
 ---------------------------------------------------------------------
      1          6           0        0.609642    0.007360   -0.013597
      2          6           0       -0.609413    0.012366   -0.011173
      3          6           0       -2.035693    0.018252   -0.009066
      4          6           0       -2.759663   -1.193321   -0.023782
      5          6           0       -4.153830   -1.183233   -0.021598
      6          6           0       -4.851292    0.029818   -0.004723
      7          6           0       -4.143845    1.237074    0.010013
      8          6           0       -2.749617    1.235705    0.007919
      9          6           0        2.035923    0.001591   -0.015632
     10          6           0        2.759765    1.213215   -0.000223
     11          6           0        4.153947    1.203268   -0.002293
     12          6           0        4.851523   -0.009695   -0.019646
     13          6           0        4.144188   -1.217026   -0.034989
     14          6           0        2.749975   -1.215796   -0.033035
     15          1           0       -2.212141   -2.139008   -0.036922
     16          1           0       -4.702087   -2.130034   -0.033139
     17          1           0       -5.945279    0.034314   -0.003029
     18          1           0       -4.684249    2.188356    0.023252
     19          1           0       -2.194344    2.176885    0.019410
     20          1           0        2.212168    2.158855    0.013314
     21          1           0        4.702101    2.150123    0.009744
     22          1           0        5.945510   -0.014084   -0.021200
     23          1           0        4.684696   -2.168244   -0.048596
     24          1           0        2.194776   -2.157013   -0.044988
 ---------------------------------------------------------------------
                    Distance matrix (angstroms):
                    1          2          3          4          5
     1  C    0.000000
     2  C    1.219068   0.000000
     3  C    2.645361   1.426293   0.000000
     4  C    3.576864   2.465242   1.411474   0.000000
     5  C    4.910015   3.740649   2.435206   1.394205   0.000000
     6  C    5.460988   4.241920   2.815627   2.423085   1.399369
     7  C    4.910030   3.740664   2.435200   2.797127   2.420535
     8  C    3.576859   2.465237   1.411442   2.429253   2.797132
     9  C    1.426294   2.645361   4.071655   4.942219   6.302133
    10  C    2.465216   3.576803   4.942108   6.021300   7.317186
    11  C    3.740645   4.909983   6.302059   7.317248   8.643780
    12  C    4.241919   5.460987   6.887280   7.702671   9.081496
    13  C    3.740668   4.910061   6.302183   6.903901   8.298098
    14  C    2.465261   3.576919   4.942273   5.509692   6.903891
    15  H    3.545405   2.682873   2.164643   1.092830   2.164231
    16  H    5.725670   4.619560   3.424232   2.156508   1.094143
    17  H    6.554986   5.335918   3.909624   3.414040   2.166116
    18  H    5.725678   4.619568   3.424215   3.891270   3.413352
    19  H    3.545457   2.682924   2.164642   3.417562   3.889943
    20  H    2.682861   3.545326   4.756785   5.996463   7.190042
    21  H    4.619544   5.725611   7.067042   8.176653   9.462545
    22  H    5.335917   6.554984   7.981278   8.784683  10.166788
    23  H    4.619582   5.725735   7.067244   7.507967   8.893284
    24  H    2.682936   3.545536   4.757093   5.047338   6.422895
                    6          7          8          9         10
     6  C    0.000000
     7  C    1.399344   0.000000
     8  C    2.423089   1.394230   0.000000
     9  C    6.887281   6.302112   4.942164   0.000000
    10  C    7.702508   6.903659   5.509434   1.411459   0.000000
    11  C    9.081373   8.297871   6.903648   2.435207   1.394220
    12  C    9.702907   9.081407   7.702539   2.815625   2.423084
    13  C    9.081531   8.643849   7.317259   2.435197   2.797125
    14  C    7.702702   7.317321   6.021382   1.411455   2.429253
    15  H    3.416133   3.889937   3.417539   4.756959   5.996548
    16  H    2.165186   3.413343   3.891274   7.067171   8.176651
    17  H    1.093998   2.166095   3.414047   7.981279   8.784510
    18  H    2.165173   1.094143   2.156520   7.067118   7.507649
    19  H    3.416116   2.164229   1.092831   4.756920   5.047003
    20  H    7.377371   6.422507   5.046935   2.164645   1.092831
    21  H    9.785868   8.892942   7.507614   3.424228   2.156517
    22  H   10.796904  10.166684   8.784536   3.909623   3.414041
    23  H    9.786136   9.462703   8.176739   3.424218   3.891267
    24  H    7.377732   7.190339   5.996695   2.164641   3.417551
                   11         12         13         14         15
    11  C    0.000000
    12  C    1.399354   0.000000
    13  C    2.420535   1.399359   0.000000
    14  C    2.797134   2.423090   1.394215   0.000000
    15  H    7.190208   7.377643   6.422848   5.047269   0.000000
    16  H    9.462621   9.786086   8.893265   7.507933   2.489965
    17  H   10.166653  10.796904  10.166820   8.784709   4.319815
    18  H    8.892961   9.785919   9.462628   8.176741   4.984076
    19  H    6.422555   7.377459   7.190173   5.996609   4.316296
    20  H    2.164231   3.416121   3.889936   3.417550   6.168359
    21  H    1.094143   2.165179   3.413350   3.891277   8.136679
    22  H    2.166103   1.093998   2.166107   3.414045   8.429877
    23  H    3.413346   2.165180   1.094143   2.156512   6.896908
    24  H    3.889945   3.416127   2.164229   1.092831   4.406961
                   16         17         18         19         20
    16  H    0.000000
    17  H    2.496164   0.000000
    18  H    4.318795   2.496154   0.000000
    19  H    4.984082   4.319794   2.489934   0.000000
    20  H    8.136562   8.429584   6.896487   4.406554   0.000000
    21  H   10.332489  10.855575   9.386437   6.896504   2.489950
    22  H   10.855815  11.890902  10.855621   8.429664   4.319803
    23  H    9.386873  10.855860  10.332582   8.136704   4.984075
    24  H    6.896925   8.429957   8.136822   6.168565   4.316297
                   21         22         23         24
    21  H    0.000000
    22  H    2.496160   0.000000
    23  H    4.318795   2.496159   0.000000
    24  H    4.984084   4.319806   2.489948   0.000000
 Stoichiometry    C14H10
 Framework group  C1[X(C14H10)]
 Deg. of freedom    66
 Full point group                 C1      NOp   1
 Largest Abelian subgroup         C1      NOp   1
 Largest concise Abelian subgroup C1      NOp   1
                         Standard orientation:                         
 ---------------------------------------------------------------------
 Center     Atomic      Atomic             Coordinates (Angstroms)
 Number     Number       Type             X           Y           Z
 ---------------------------------------------------------------------
      1          6           0        0.609534    0.000134    0.000380
      2          6           0       -0.609534    0.000092   -0.000148
      3          6           0       -2.035827    0.000022   -0.000036
      4          6           0       -2.754829    1.214639   -0.000334
      5          6           0       -4.149026    1.210236   -0.000292
      6          6           0       -4.851454   -0.000065   -0.000001
      7          6           0       -4.148958   -1.210299    0.000244
      8          6           0       -2.754735   -1.214614    0.000228
      9          6           0        2.035828    0.000087    0.000198
     10          6           0        2.754699   -1.214591   -0.000196
     11          6           0        4.148913   -1.210329   -0.000350
     12          6           0        4.851453   -0.000111   -0.000162
     13          6           0        4.149071    1.210205    0.000199
     14          6           0        2.754863    1.214662    0.000353
     15          1           0       -2.203435    2.158166   -0.000583
     16          1           0       -4.693400    2.159344   -0.000510
     17          1           0       -5.945451   -0.000101    0.000006
     18          1           0       -4.693255   -2.159451    0.000457
     19          1           0       -2.203322   -2.158130    0.000410
     20          1           0        2.203232   -2.158075   -0.000345
     21          1           0        4.693182   -2.159498   -0.000627
     22          1           0        5.945451   -0.000184   -0.000308
     23          1           0        4.693473    2.159297    0.000355
     24          1           0        2.203525    2.158221    0.000632
 ---------------------------------------------------------------------
 Rotational constants (GHZ):           2.8281302           0.2473193           0.2274305

 **********************************************************************

            Population analysis using the SCF Density.

 **********************************************************************

 Orbital symmetries:
       Occupied  (A) (A) (A) (A) (A) (A) (A) (A) (A) (A) (A) (A)
                 (A) (A) (A) (A) (A) (A) (A) (A) (A) (A) (A) (A)
                 (A) (A) (A) (A) (A) (A) (A) (A) (A) (A) (A) (A)
                 (A) (A) (A) (A) (A) (A) (A) (A) (A) (A) (A)
       Virtual   (A) (A) (A) (A) (A) (A) (A) (A) (A) (A) (A) (A)
                 (A) (A) (A) (A) (A) (A) (A) (A) (A) (A) (A) (A)
                 (A) (A) (A) (A) (A) (A) (A) (A) (A) (A) (A) (A)
                 (A) (A) (A) (A) (A) (A) (A) (A) (A) (A) (A) (A)
                 (A) (A) (A) (A) (A) (A) (A) (A) (A) (A) (A) (A)
                 (A) (A) (A) (A) (A) (A) (A) (A) (A) (A) (A) (A)
                 (A) (A) (A) (A) (A) (A) (A) (A) (A) (A) (A) (A)
                 (A) (A) (A) (A) (A) (A) (A) (A) (A) (A) (A) (A)
                 (A) (A) (A) (A) (A) (A) (A) (A) (A) (A) (A) (A)
                 (A) (A) (A) (A) (A) (A) (A) (A) (A) (A) (A) (A)
                 (A) (A) (A) (A) (A) (A) (A) (A) (A) (A) (A) (A)
                 (A) (A) (A) (A) (A) (A) (A) (A) (A) (A) (A) (A)
                 (A) (A) (A) (A) (A) (A) (A) (A) (A) (A) (A) (A)
                 (A) (A) (A) (A) (A) (A) (A) (A) (A) (A) (A) (A)
                 (A)
 The electronic state is 1-A.
 Alpha  occ. eigenvalues --  -10.21755 -10.21734 -10.19678 -10.19678 -10.19675
 Alpha  occ. eigenvalues --  -10.19675 -10.19568 -10.19568 -10.19513 -10.19513
 Alpha  occ. eigenvalues --  -10.19503 -10.19503 -10.19070 -10.18865  -0.85987
 Alpha  occ. eigenvalues --   -0.85715  -0.78499  -0.76269  -0.74568  -0.74553
 Alpha  occ. eigenvalues --   -0.70973  -0.63317  -0.60837  -0.60705  -0.60619
 Alpha  occ. eigenvalues --   -0.54770  -0.53321  -0.48805  -0.47685  -0.46601
 Alpha  occ. eigenvalues --   -0.46172  -0.44273  -0.43753  -0.42981  -0.42956
 Alpha  occ. eigenvalues --   -0.39116  -0.38001  -0.36857  -0.36479  -0.35846
 Alpha  occ. eigenvalues --   -0.35523  -0.32296  -0.27732  -0.27429  -0.26338
 Alpha  occ. eigenvalues --   -0.26330  -0.21891
 Alpha virt. eigenvalues --   -0.05697  -0.01410  -0.01388  -0.00116   0.04553
 Alpha virt. eigenvalues --    0.05576   0.06117   0.09006   0.09589   0.10048
 Alpha virt. eigenvalues --    0.10059   0.11772   0.13329   0.14149   0.14827
 Alpha virt. eigenvalues --    0.14991   0.15912   0.20031   0.21205   0.22140
 Alpha virt. eigenvalues --    0.23181   0.28323   0.28349   0.28642   0.29351
 Alpha virt. eigenvalues --    0.30136   0.30638   0.30795   0.32577   0.33174
 Alpha virt. eigenvalues --    0.38505   0.38525   0.39954   0.41423   0.41934
 Alpha virt. eigenvalues --    0.42132   0.43574   0.44858   0.44876   0.45766
 Alpha virt. eigenvalues --    0.46216   0.46588   0.47347   0.48764   0.48828
 Alpha virt. eigenvalues --    0.49118   0.49616   0.53227   0.53267   0.53271
 Alpha virt. eigenvalues --    0.56510   0.57788   0.59470   0.59612   0.61060
 Alpha virt. eigenvalues --    0.61162   0.63714   0.65029   0.65204   0.66393
 Alpha virt. eigenvalues --    0.67238   0.67380   0.67520   0.68297   0.69634
 Alpha virt. eigenvalues --    0.69796   0.69989   0.70325   0.71621   0.71686
 Alpha virt. eigenvalues --    0.73595   0.73754   0.73925   0.75100   0.75354
 Alpha virt. eigenvalues --    0.77016   0.77515   0.78025   0.81704   0.81720
 Alpha virt. eigenvalues --    0.84056   0.84487   0.92492   0.93753   0.94027
 Alpha virt. eigenvalues --    0.98310   1.04481   1.06450   1.07336   1.08555
 Alpha virt. eigenvalues --    1.08885   1.15189   1.15457   1.23689   1.23867
 Alpha virt. eigenvalues --    1.25660   1.26102   1.28206   1.28361   1.31471
 Alpha virt. eigenvalues --    1.41844   1.42734   1.44745   1.46033   1.47455
 Alpha virt. eigenvalues --    1.47781   1.49853   1.49950   1.51339   1.51634
 Alpha virt. eigenvalues --    1.56024   1.56063   1.57864   1.70396   1.73032
 Alpha virt. eigenvalues --    1.74442   1.76464   1.77737   1.81368   1.82749
 Alpha virt. eigenvalues --    1.83042   1.86275   1.86364   1.90982   1.92501
 Alpha virt. eigenvalues --    1.92949   1.93483   1.99644   1.99832   2.02137
 Alpha virt. eigenvalues --    2.05326   2.05964   2.06181   2.06815   2.07939
 Alpha virt. eigenvalues --    2.10592   2.12133   2.12415   2.18537   2.24808
 Alpha virt. eigenvalues --    2.27829   2.29213   2.29240   2.29241   2.32777
 Alpha virt. eigenvalues --    2.34515   2.36099   2.42175   2.43737   2.46259
 Alpha virt. eigenvalues --    2.48800   2.49305   2.57381   2.63193   2.63663
 Alpha virt. eigenvalues --    2.64873   2.68563   2.69154   2.69202   2.70164
 Alpha virt. eigenvalues --    2.73567   2.84793   2.85298   2.91258   3.00096
 Alpha virt. eigenvalues --    3.25693   3.28806   3.36155   3.67076
          Condensed to atoms (all electrons):
               1          2          3          4          5          6
     1  C    5.348671   0.767720  -0.164739  -0.009004   0.000514  -0.000036
     2  C    0.767720   5.348671   0.248447  -0.085418   0.013357   0.000196
     3  C   -0.164739   0.248447   5.378130   0.239067   0.145597  -0.171136
     4  C   -0.009004  -0.085418   0.239067   5.282214   0.212982   0.135969
     5  C    0.000514   0.013357   0.145597   0.212982   5.205621   0.207217
     6  C   -0.000036   0.000196  -0.171136   0.135969   0.207217   5.231005
     7  C    0.000514   0.013357   0.145595  -0.170103   0.143181   0.207236
     8  C   -0.009006  -0.085431   0.239074   0.100002  -0.170106   0.135967
     9  C    0.248447  -0.164738   0.006169  -0.000354   0.000020  -0.000002
    10  C   -0.085425  -0.009010  -0.000354   0.000010  -0.000000  -0.000000
    11  C    0.013357   0.000514   0.000020  -0.000000  -0.000000  -0.000000
    12  C    0.000196  -0.000036  -0.000002  -0.000000  -0.000000   0.000000
    13  C    0.013357   0.000514   0.000020  -0.000000   0.000000  -0.000000
    14  C   -0.085424  -0.009001  -0.000354  -0.000009  -0.000000  -0.000000
    15  H   -0.001041  -0.014255  -0.067102   0.430988  -0.077148   0.014328
    16  H   -0.000006  -0.000395   0.014813  -0.077295   0.433393  -0.078010
    17  H   -0.000000   0.000033  -0.001503   0.014016  -0.076085   0.431743
    18  H   -0.000006  -0.000395   0.014814  -0.001660   0.014236  -0.078011
    19  H   -0.001041  -0.014255  -0.067107   0.015591  -0.002086   0.014329
    20  H   -0.014254  -0.001041  -0.000146   0.000001  -0.000000   0.000000
    21  H   -0.000395  -0.000006   0.000000  -0.000000   0.000000  -0.000000
    22  H    0.000033  -0.000000  -0.000000  -0.000000  -0.000000  -0.000000
    23  H   -0.000395  -0.000006   0.000000   0.000000  -0.000000  -0.000000
    24  H   -0.014256  -0.001041  -0.000146  -0.000003   0.000001   0.000000
               7          8          9         10         11         12
     1  C    0.000514  -0.009006   0.248447  -0.085425   0.013357   0.000196
     2  C    0.013357  -0.085431  -0.164738  -0.009010   0.000514  -0.000036
     3  C    0.145595   0.239074   0.006169  -0.000354   0.000020  -0.000002
     4  C   -0.170103   0.100002  -0.000354   0.000010  -0.000000  -0.000000
     5  C    0.143181  -0.170106   0.000020  -0.000000  -0.000000  -0.000000
     6  C    0.207236   0.135967  -0.000002  -0.000000  -0.000000   0.000000
     7  C    5.205596   0.212986   0.000020  -0.000000   0.000000  -0.000000
     8  C    0.212986   5.282236  -0.000354  -0.000009  -0.000000  -0.000000
     9  C    0.000020  -0.000354   5.378131   0.239086   0.145593  -0.171137
    10  C   -0.000000  -0.000009   0.239086   5.282218   0.212985   0.135968
    11  C    0.000000  -0.000000   0.145593   0.212985   5.205609   0.207226
    12  C   -0.000000  -0.000000  -0.171137   0.135968   0.207226   5.231005
    13  C   -0.000000  -0.000000   0.145599  -0.170104   0.143181   0.207227
    14  C   -0.000000   0.000010   0.239054   0.100002  -0.170105   0.135969
    15  H   -0.002086   0.015593  -0.000146   0.000001  -0.000000   0.000000
    16  H    0.014236  -0.001659   0.000000  -0.000000   0.000000  -0.000000
    17  H   -0.076085   0.014016  -0.000000  -0.000000  -0.000000  -0.000000
    18  H    0.433392  -0.077292   0.000000   0.000000  -0.000000  -0.000000
    19  H   -0.077143   0.430988  -0.000146  -0.000003   0.000001   0.000000
    20  H    0.000001  -0.000003  -0.067105   0.430988  -0.077146   0.014328
    21  H   -0.000000   0.000000   0.014814  -0.077294   0.433393  -0.078011
    22  H   -0.000000  -0.000000  -0.001503   0.014016  -0.076085   0.431743
    23  H    0.000000  -0.000000   0.014814  -0.001659   0.014236  -0.078010
    24  H   -0.000000   0.000001  -0.067104   0.015592  -0.002086   0.014328
              13         14         15         16         17         18
     1  C    0.013357  -0.085424  -0.001041  -0.000006  -0.000000  -0.000006
     2  C    0.000514  -0.009001  -0.014255  -0.000395   0.000033  -0.000395
     3  C    0.000020  -0.000354  -0.067102   0.014813  -0.001503   0.014814
     4  C   -0.000000  -0.000009   0.430988  -0.077295   0.014016  -0.001660
     5  C    0.000000  -0.000000  -0.077148   0.433393  -0.076085   0.014236
     6  C   -0.000000  -0.000000   0.014328  -0.078010   0.431743  -0.078011
     7  C   -0.000000  -0.000000  -0.002086   0.014236  -0.076085   0.433392
     8  C   -0.000000   0.000010   0.015593  -0.001659   0.014016  -0.077292
     9  C    0.145599   0.239054  -0.000146   0.000000  -0.000000   0.000000
    10  C   -0.170104   0.100002   0.000001  -0.000000  -0.000000   0.000000
    11  C    0.143181  -0.170105  -0.000000   0.000000  -0.000000  -0.000000
    12  C    0.207227   0.135969   0.000000  -0.000000  -0.000000  -0.000000
    13  C    5.205608   0.212982   0.000001  -0.000000  -0.000000   0.000000
    14  C    0.212982   5.282233  -0.000003   0.000000  -0.000000  -0.000000
    15  H    0.000001  -0.000003   0.658158  -0.011927  -0.000259   0.000036
    16  H   -0.000000   0.000000  -0.011927   0.657916  -0.011704  -0.000292
    17  H   -0.000000  -0.000000  -0.000259  -0.011704   0.656568  -0.011704
    18  H    0.000000  -0.000000   0.000036  -0.000292  -0.011704   0.657918
    19  H   -0.000000   0.000001  -0.000261   0.000036  -0.000259  -0.011927
    20  H   -0.002086   0.015592  -0.000001   0.000000  -0.000000  -0.000000
    21  H    0.014236  -0.001659   0.000000  -0.000000   0.000000   0.000000
    22  H   -0.076085   0.014016  -0.000000   0.000000  -0.000000   0.000000
    23  H    0.433392  -0.077293  -0.000000   0.000000   0.000000  -0.000000
    24  H   -0.077146   0.430989   0.000065  -0.000000  -0.000000   0.000000
              19         20         21         22         23         24
     1  C   -0.001041  -0.014254  -0.000395   0.000033  -0.000395  -0.014256
     2  C   -0.014255  -0.001041  -0.000006  -0.000000  -0.000006  -0.001041
     3  C   -0.067107  -0.000146   0.000000  -0.000000   0.000000  -0.000146
     4  C    0.015591   0.000001  -0.000000  -0.000000   0.000000  -0.000003
     5  C   -0.002086  -0.000000   0.000000  -0.000000  -0.000000   0.000001
     6  C    0.014329   0.000000  -0.000000  -0.000000  -0.000000   0.000000
     7  C   -0.077143   0.000001  -0.000000  -0.000000   0.000000  -0.000000
     8  C    0.430988  -0.000003   0.000000  -0.000000  -0.000000   0.000001
     9  C   -0.000146  -0.067105   0.014814  -0.001503   0.014814  -0.067104
    10  C   -0.000003   0.430988  -0.077294   0.014016  -0.001659   0.015592
    11  C    0.000001  -0.077146   0.433393  -0.076085   0.014236  -0.002086
    12  C    0.000000   0.014328  -0.078011   0.431743  -0.078010   0.014328
    13  C   -0.000000  -0.002086   0.014236  -0.076085   0.433392  -0.077146
    14  C    0.000001   0.015592  -0.001659   0.014016  -0.077293   0.430989
    15  H   -0.000261  -0.000001   0.000000  -0.000000  -0.000000   0.000065
    16  H    0.000036   0.000000  -0.000000   0.000000   0.000000  -0.000000
    17  H   -0.000259  -0.000000   0.000000  -0.000000   0.000000  -0.000000
    18  H   -0.011927  -0.000000   0.000000   0.000000  -0.000000   0.000000
    19  H    0.658160   0.000065  -0.000000  -0.000000   0.000000  -0.000001
    20  H    0.000065   0.658157  -0.011927  -0.000259   0.000036  -0.000261
    21  H   -0.000000  -0.011927   0.657917  -0.011704  -0.000292   0.000036
    22  H   -0.000000  -0.000259  -0.011704   0.656568  -0.011704  -0.000259
    23  H    0.000000   0.000036  -0.000292  -0.011704   0.657917  -0.011927
    24  H   -0.000001  -0.000261   0.000036  -0.000259  -0.011927   0.658160
 Mulliken charges:
               1
     1  C   -0.007779
     2  C   -0.007779
     3  C    0.040842
     4  C   -0.086993
     5  C   -0.050694
     6  C   -0.050795
     7  C   -0.050696
     8  C   -0.087011
     9  C    0.040843
    10  C   -0.087007
    11  C   -0.050694
    12  C   -0.050795
    13  C   -0.050696
    14  C   -0.086998
    15  H    0.055060
    16  H    0.060892
    17  H    0.061225
    18  H    0.060891
    19  H    0.055058
    20  H    0.055060
    21  H    0.060891
    22  H    0.061225
    23  H    0.060891
    24  H    0.055058
 Sum of Mulliken charges =  -0.00000
 Mulliken charges with hydrogens summed into heavy atoms:
               1
     1  C   -0.007779
     2  C   -0.007779
     3  C    0.040842
     4  C   -0.031933
     5  C    0.010198
     6  C    0.010430
     7  C    0.010195
     8  C   -0.031953
     9  C    0.040843
    10  C   -0.031947
    11  C    0.010198
    12  C    0.010430
    13  C    0.010196
    14  C   -0.031940
 Electronic spatial extent (au):  <R**2>=           4516.2738
 Charge=             -0.0000 electrons
 Dipole moment (field-independent basis, Debye):
    X=              0.0000    Y=             -0.0001    Z=             -0.0002  Tot=              0.0002
 Quadrupole moment (field-independent basis, Debye-Ang):
   XX=            -64.7171   YY=            -72.2937   ZZ=            -87.3581
   XY=              0.0001   XZ=             -0.0006   YZ=             -0.0000
 Traceless Quadrupole moment (field-independent basis, Debye-Ang):
   XX=             10.0725   YY=              2.4959   ZZ=            -12.5685
   XY=              0.0001   XZ=             -0.0006   YZ=             -0.0000
 Octapole moment (field-independent basis, Debye-Ang**2):
  XXX=             -0.0000  YYY=             -0.0010  ZZZ=             -0.0002  XYY=              0.0000
  XXY=             -0.0000  XXZ=             -0.0060  XZZ=              0.0000  YZZ=             -0.0000
  YYZ=             -0.0006  XYZ=              0.0118
 Hexadecapole moment (field-independent basis, Debye-Ang**3):
 XXXX=          -5029.0765 YYYY=           -558.8839 ZZZZ=            -96.2375 XXXY=             -0.0013
 XXXZ=             -0.0402 YYYX=              0.0010 YYYZ=             -0.0000 ZZZX=             -0.0006
 ZZZY=             -0.0000 XXYY=           -939.4876 XXZZ=          -1057.4126 YYZZ=           -126.8718
 XXYZ=              0.0003 YYXZ=             -0.0005 ZZXY=              0.0000
 N-N= 6.917701396733D+02 E-N=-2.630124877885D+03  KE= 5.331264922022D+02
 Unable to Open any file for archive entry.
 1\1\GINC-NODE02\FOpt\RB3LYP\def2SVPP\C14H10\XUHJ\12-Mar-2024\0\\#N opt
  freq B3LYP/def2SVPP symm=veryloose em=gd3bj scale=0.961 press=0.987\\
 C(#Cc1ccccc1)c1ccccc1_1\\0,1\C,0.6096423052,0.0073604019,-0.0135966742
 \C,-0.6094129463,0.0123661896,-0.0111730854\C,-2.0356926467,0.01825169
 95,-0.0090663658\C,-2.7596633974,-1.1933205465,-0.0237824718\C,-4.1538
 29872,-1.1832334068,-0.0215983307\C,-4.8512921232,0.0298182764,-0.0047
 227619\C,-4.1438453482,1.2370741297,0.0100128522\C,-2.7496172959,1.235
 7045268,0.0079190451\C,2.0359227879,0.001591114,-0.0156316678\C,2.7597
 647978,1.2132151954,-0.0002229445\C,4.1539473598,1.2032684201,-0.00229
 28312\C,4.8515225961,-0.0096945662,-0.019646079\C,4.1441882418,-1.2170
 258909,-0.0349889964\C,2.7499747676,-1.2157959958,-0.0330349774\H,-2.2
 12140844,-2.1390075458,-0.0369216844\H,-4.702086873,-2.1300335664,-0.0
 331392609\H,-5.9452793066,0.0343143681,-0.0030290336\H,-4.6842487501,2
 .1883563979,0.0232515243\H,-2.1943443963,2.1768845032,0.0194103807\H,2
 .2121684484,2.1588545775,0.0133139124\H,4.7021008558,2.1501225279,0.00
 97437213\H,5.9455104907,-0.0140840756,-0.0212001858\H,4.6846955278,-2.
 1682435433,-0.0485962747\H,2.194775621,-2.1570131908,-0.0449878105\\Ve
 rsion=ES64L-G16RevC.01\State=1-A\HF=-539.1033482\RMSD=8.249e-09\RMSF=9
 .046e-06\Dipole=0.0000016,0.0000513,0.0000698\Quadrupole=7.4885618,1.8
 537637,-9.3423255,-0.0228079,-0.0251006,0.1488353\PG=C01 [X(C14H10)]\\
 @
 The archive entry for this job was punched.


 A politician is a person who can make waves and then
 make you think he's the only one who can save the ship.
 -- Ivern Ball
 Job cpu time:       0 days  1 hours 14 minutes 31.1 seconds.
 Elapsed time:       0 days  0 hours  9 minutes 36.0 seconds.
 File lengths (MBytes):  RWF=     45 Int=      0 D2E=      0 Chk=      6 Scr=      2
 Normal termination of Gaussian 16 at Tue Mar 12 01:32:04 2024.
 Link1:  Proceeding to internal job step number  2.
 --------------------------------------------------------------------
 #N Geom=AllCheck Guess=TCheck SCRF=Check GenChk RB3LYP/def2SVPP Freq
 --------------------------------------------------------------------
 1/10=4,29=7,30=1,38=1,40=1,113=-987000,114=961000/1,3;
 2/12=2,17=2,18=2,40=1/2;
 3/5=43,7=202,11=2,14=-4,25=1,30=1,70=2,71=2,74=-5,116=1,124=41,140=1/1,2,3;
 4/5=101/1;
 5/5=2,38=6,98=1/2;
 8/6=4,10=90,11=11/1;
 11/6=1,8=1,9=11,15=111,16=1/1,2,10;
 10/6=1/2;
 6/7=2,8=2,9=2,10=2,28=1/1;
 7/8=1,10=1,25=1/1,2,3,16;
 1/10=4,30=1/3;
 99//99;
 Structure from the checkpoint file:  "/home/software/g16/scr/Gau-12557.chk"
 -----------------------
 C(#Cc1ccccc1)c1ccccc1_1
 -----------------------
 Charge =  0 Multiplicity = 1
 Redundant internal coordinates found in file.  (old form).
 C,0,0.6096423052,0.0073604019,-0.0135966742
 C,0,-0.6094129463,0.0123661896,-0.0111730854
 C,0,-2.0356926467,0.0182516995,-0.0090663658
 C,0,-2.7596633974,-1.1933205465,-0.0237824718
 C,0,-4.153829872,-1.1832334068,-0.0215983307
 C,0,-4.8512921232,0.0298182764,-0.0047227619
 C,0,-4.1438453482,1.2370741297,0.0100128522
 C,0,-2.7496172959,1.2357045268,0.0079190451
 C,0,2.0359227879,0.001591114,-0.0156316678
 C,0,2.7597647978,1.2132151954,-0.0002229445
 C,0,4.1539473598,1.2032684201,-0.0022928312
 C,0,4.8515225961,-0.0096945662,-0.019646079
 C,0,4.1441882418,-1.2170258909,-0.0349889964
 C,0,2.7499747676,-1.2157959958,-0.0330349774
 H,0,-2.212140844,-2.1390075458,-0.0369216844
 H,0,-4.702086873,-2.1300335664,-0.0331392609
 H,0,-5.9452793066,0.0343143681,-0.0030290336
 H,0,-4.6842487501,2.1883563979,0.0232515243
 H,0,-2.1943443963,2.1768845032,0.0194103807
 H,0,2.2121684484,2.1588545775,0.0133139124
 H,0,4.7021008558,2.1501225279,0.0097437213
 H,0,5.9455104907,-0.0140840756,-0.0212001858
 H,0,4.6846955278,-2.1682435433,-0.0485962747
 H,0,2.194775621,-2.1570131908,-0.0449878105
 Recover connectivity data from disk.

 GradGradGradGradGradGradGradGradGradGradGradGradGradGradGradGradGradGrad
 Berny optimization.
 Initialization pass.
                           ----------------------------
                           !    Initial Parameters    !
                           ! (Angstroms and Degrees)  !
 --------------------------                            --------------------------
 ! Name  Definition              Value          Derivative Info.                !
 --------------------------------------------------------------------------------
 ! R1    R(1,2)                  1.2191         calculate D2E/DX2 analytically  !
 ! R2    R(1,9)                  1.4263         calculate D2E/DX2 analytically  !
 ! R3    R(2,3)                  1.4263         calculate D2E/DX2 analytically  !
 ! R4    R(3,4)                  1.4115         calculate D2E/DX2 analytically  !
 ! R5    R(3,8)                  1.4114         calculate D2E/DX2 analytically  !
 ! R6    R(4,5)                  1.3942         calculate D2E/DX2 analytically  !
 ! R7    R(4,15)                 1.0928         calculate D2E/DX2 analytically  !
 ! R8    R(5,6)                  1.3994         calculate D2E/DX2 analytically  !
 ! R9    R(5,16)                 1.0941         calculate D2E/DX2 analytically  !
 ! R10   R(6,7)                  1.3993         calculate D2E/DX2 analytically  !
 ! R11   R(6,17)                 1.094          calculate D2E/DX2 analytically  !
 ! R12   R(7,8)                  1.3942         calculate D2E/DX2 analytically  !
 ! R13   R(7,18)                 1.0941         calculate D2E/DX2 analytically  !
 ! R14   R(8,19)                 1.0928         calculate D2E/DX2 analytically  !
 ! R15   R(9,10)                 1.4115         calculate D2E/DX2 analytically  !
 ! R16   R(9,14)                 1.4115         calculate D2E/DX2 analytically  !
 ! R17   R(10,11)                1.3942         calculate D2E/DX2 analytically  !
 ! R18   R(10,20)                1.0928         calculate D2E/DX2 analytically  !
 ! R19   R(11,12)                1.3994         calculate D2E/DX2 analytically  !
 ! R20   R(11,21)                1.0941         calculate D2E/DX2 analytically  !
 ! R21   R(12,13)                1.3994         calculate D2E/DX2 analytically  !
 ! R22   R(12,22)                1.094          calculate D2E/DX2 analytically  !
 ! R23   R(13,14)                1.3942         calculate D2E/DX2 analytically  !
 ! R24   R(13,23)                1.0941         calculate D2E/DX2 analytically  !
 ! R25   R(14,24)                1.0928         calculate D2E/DX2 analytically  !
 ! A1    A(2,3,4)              120.6209         calculate D2E/DX2 analytically  !
 ! A2    A(2,3,8)              120.6228         calculate D2E/DX2 analytically  !
 ! A3    A(4,3,8)              118.7562         calculate D2E/DX2 analytically  !
 ! A4    A(3,4,5)              120.4428         calculate D2E/DX2 analytically  !
 ! A5    A(3,4,15)             119.0744         calculate D2E/DX2 analytically  !
 ! A6    A(5,4,15)             120.4828         calculate D2E/DX2 analytically  !
 ! A7    A(4,5,6)              120.3107         calculate D2E/DX2 analytically  !
 ! A8    A(4,5,16)             119.6561         calculate D2E/DX2 analytically  !
 ! A9    A(6,5,16)             120.0332         calculate D2E/DX2 analytically  !
 ! A10   A(5,6,7)              119.7367         calculate D2E/DX2 analytically  !
 ! A11   A(5,6,17)             120.1316         calculate D2E/DX2 analytically  !
 ! A12   A(7,6,17)             120.1317         calculate D2E/DX2 analytically  !
 ! A13   A(6,7,8)              120.3109         calculate D2E/DX2 analytically  !
 ! A14   A(6,7,18)             120.0341         calculate D2E/DX2 analytically  !
 ! A15   A(8,7,18)             119.6551         calculate D2E/DX2 analytically  !
 ! A16   A(3,8,7)              120.4427         calculate D2E/DX2 analytically  !
 ! A17   A(3,8,19)             119.077          calculate D2E/DX2 analytically  !
 ! A18   A(7,8,19)             120.4803         calculate D2E/DX2 analytically  !
 ! A19   A(1,9,10)             120.6199         calculate D2E/DX2 analytically  !
 ! A20   A(1,9,14)             120.6238         calculate D2E/DX2 analytically  !
 ! A21   A(10,9,14)            118.7563         calculate D2E/DX2 analytically  !
 ! A22   A(9,10,11)            120.4428         calculate D2E/DX2 analytically  !
 ! A23   A(9,10,20)            119.0757         calculate D2E/DX2 analytically  !
 ! A24   A(11,10,20)           120.4814         calculate D2E/DX2 analytically  !
 ! A25   A(10,11,12)           120.3106         calculate D2E/DX2 analytically  !
 ! A26   A(10,11,21)           119.6556         calculate D2E/DX2 analytically  !
 ! A27   A(12,11,21)           120.0338         calculate D2E/DX2 analytically  !
 ! A28   A(11,12,13)           119.7367         calculate D2E/DX2 analytically  !
 ! A29   A(11,12,22)           120.1317         calculate D2E/DX2 analytically  !
 ! A30   A(13,12,22)           120.1316         calculate D2E/DX2 analytically  !
 ! A31   A(12,13,14)           120.311          calculate D2E/DX2 analytically  !
 ! A32   A(12,13,23)           120.0335         calculate D2E/DX2 analytically  !
 ! A33   A(14,13,23)           119.6555         calculate D2E/DX2 analytically  !
 ! A34   A(9,14,13)            120.4426         calculate D2E/DX2 analytically  !
 ! A35   A(9,14,24)            119.0758         calculate D2E/DX2 analytically  !
 ! A36   A(13,14,24)           120.4816         calculate D2E/DX2 analytically  !
 ! A37   L(2,1,9,20,-1)        179.996          calculate D2E/DX2 analytically  !
 ! A38   L(1,2,3,19,-1)        179.9992         calculate D2E/DX2 analytically  !
 ! A39   L(2,1,9,20,-2)        179.9601         calculate D2E/DX2 analytically  !
 ! A40   L(1,2,3,19,-2)        179.9636         calculate D2E/DX2 analytically  !
 ! D1    D(4,3,9,10)          -179.9674         calculate D2E/DX2 analytically  !
 ! D2    D(4,3,9,14)             0.0174         calculate D2E/DX2 analytically  !
 ! D3    D(8,3,9,10)             0.0349         calculate D2E/DX2 analytically  !
 ! D4    D(8,3,9,14)          -179.9803         calculate D2E/DX2 analytically  !
 ! D5    D(2,3,4,5)            179.9967         calculate D2E/DX2 analytically  !
 ! D6    D(2,3,4,15)            -0.0041         calculate D2E/DX2 analytically  !
 ! D7    D(8,3,4,5)              0.0035         calculate D2E/DX2 analytically  !
 ! D8    D(8,3,4,15)          -179.9974         calculate D2E/DX2 analytically  !
 ! D9    D(2,3,8,7)           -179.9956         calculate D2E/DX2 analytically  !
 ! D10   D(2,3,8,19)             0.0038         calculate D2E/DX2 analytically  !
 ! D11   D(4,3,8,7)             -0.0024         calculate D2E/DX2 analytically  !
 ! D12   D(4,3,8,19)           179.9971         calculate D2E/DX2 analytically  !
 ! D13   D(3,4,5,6)             -0.0022         calculate D2E/DX2 analytically  !
 ! D14   D(3,4,5,16)           179.9991         calculate D2E/DX2 analytically  !
 ! D15   D(15,4,5,6)           179.9986         calculate D2E/DX2 analytically  !
 ! D16   D(15,4,5,16)            0.0            calculate D2E/DX2 analytically  !
 ! D17   D(4,5,6,7)             -0.0002         calculate D2E/DX2 analytically  !
 ! D18   D(4,5,6,17)          -179.9985         calculate D2E/DX2 analytically  !
 ! D19   D(16,5,6,7)           179.9985         calculate D2E/DX2 analytically  !
 ! D20   D(16,5,6,17)            0.0001         calculate D2E/DX2 analytically  !
 ! D21   D(5,6,7,8)              0.0013         calculate D2E/DX2 analytically  !
 ! D22   D(5,6,7,18)          -179.9991         calculate D2E/DX2 analytically  !
 ! D23   D(17,6,7,8)           179.9996         calculate D2E/DX2 analytically  !
 ! D24   D(17,6,7,18)           -0.0008         calculate D2E/DX2 analytically  !
 ! D25   D(6,7,8,3)              0.0            calculate D2E/DX2 analytically  !
 ! D26   D(6,7,8,19)          -179.9995         calculate D2E/DX2 analytically  !
 ! D27   D(18,7,8,3)          -179.9996         calculate D2E/DX2 analytically  !
 ! D28   D(18,7,8,19)            0.001          calculate D2E/DX2 analytically  !
 ! D29   D(1,9,10,11)         -179.9989         calculate D2E/DX2 analytically  !
 ! D30   D(1,9,10,20)           -0.0009         calculate D2E/DX2 analytically  !
 ! D31   D(14,9,10,11)           0.0037         calculate D2E/DX2 analytically  !
 ! D32   D(14,9,10,20)        -179.9983         calculate D2E/DX2 analytically  !
 ! D33   D(1,9,14,13)          179.9988         calculate D2E/DX2 analytically  !
 ! D34   D(1,9,14,24)            0.001          calculate D2E/DX2 analytically  !
 ! D35   D(10,9,14,13)          -0.0038         calculate D2E/DX2 analytically  !
 ! D36   D(10,9,14,24)         179.9984         calculate D2E/DX2 analytically  !
 ! D37   D(9,10,11,12)          -0.0022         calculate D2E/DX2 analytically  !
 ! D38   D(9,10,11,21)         179.9982         calculate D2E/DX2 analytically  !
 ! D39   D(20,10,11,12)        179.9998         calculate D2E/DX2 analytically  !
 ! D40   D(20,10,11,21)          0.0003         calculate D2E/DX2 analytically  !
 ! D41   D(10,11,12,13)          0.0008         calculate D2E/DX2 analytically  !
 ! D42   D(10,11,12,22)       -179.9985         calculate D2E/DX2 analytically  !
 ! D43   D(21,11,12,13)       -179.9997         calculate D2E/DX2 analytically  !
 ! D44   D(21,11,12,22)          0.001          calculate D2E/DX2 analytically  !
 ! D45   D(11,12,13,14)         -0.0009         calculate D2E/DX2 analytically  !
 ! D46   D(11,12,13,23)        179.9995         calculate D2E/DX2 analytically  !
 ! D47   D(22,12,13,14)        179.9985         calculate D2E/DX2 analytically  !
 ! D48   D(22,12,13,23)         -0.0012         calculate D2E/DX2 analytically  !
 ! D49   D(12,13,14,9)           0.0024         calculate D2E/DX2 analytically  !
 ! D50   D(12,13,14,24)       -179.9998         calculate D2E/DX2 analytically  !
 ! D51   D(23,13,14,9)        -179.998          calculate D2E/DX2 analytically  !
 ! D52   D(23,13,14,24)         -0.0002         calculate D2E/DX2 analytically  !
 --------------------------------------------------------------------------------
 Trust Radius=3.00D-01 FncErr=1.00D-07 GrdErr=1.00D-07 EigMax=2.50D+02 EigMin=1.00D-04
 Number of steps in this run=      2 maximum allowed number of steps=      2.
 GradGradGradGradGradGradGradGradGradGradGradGradGradGradGradGradGradGrad

                          Input orientation:                          
 ---------------------------------------------------------------------
 Center     Atomic      Atomic             Coordinates (Angstroms)
 Number     Number       Type             X           Y           Z
 ---------------------------------------------------------------------
      1          6           0        0.609642    0.007360   -0.013597
      2          6           0       -0.609413    0.012366   -0.011173
      3          6           0       -2.035693    0.018252   -0.009066
      4          6           0       -2.759663   -1.193321   -0.023782
      5          6           0       -4.153830   -1.183233   -0.021598
      6          6           0       -4.851292    0.029818   -0.004723
      7          6           0       -4.143845    1.237074    0.010013
      8          6           0       -2.749617    1.235705    0.007919
      9          6           0        2.035923    0.001591   -0.015632
     10          6           0        2.759765    1.213215   -0.000223
     11          6           0        4.153947    1.203268   -0.002293
     12          6           0        4.851523   -0.009695   -0.019646
     13          6           0        4.144188   -1.217026   -0.034989
     14          6           0        2.749975   -1.215796   -0.033035
     15          1           0       -2.212141   -2.139008   -0.036922
     16          1           0       -4.702087   -2.130034   -0.033139
     17          1           0       -5.945279    0.034314   -0.003029
     18          1           0       -4.684249    2.188356    0.023252
     19          1           0       -2.194344    2.176885    0.019410
     20          1           0        2.212168    2.158855    0.013314
     21          1           0        4.702101    2.150123    0.009744
     22          1           0        5.945510   -0.014084   -0.021200
     23          1           0        4.684696   -2.168244   -0.048596
     24          1           0        2.194776   -2.157013   -0.044988
 ---------------------------------------------------------------------
                    Distance matrix (angstroms):
                    1          2          3          4          5
     1  C    0.000000
     2  C    1.219068   0.000000
     3  C    2.645361   1.426293   0.000000
     4  C    3.576864   2.465242   1.411474   0.000000
     5  C    4.910015   3.740649   2.435206   1.394205   0.000000
     6  C    5.460988   4.241920   2.815627   2.423085   1.399369
     7  C    4.910030   3.740664   2.435200   2.797127   2.420535
     8  C    3.576859   2.465237   1.411442   2.429253   2.797132
     9  C    1.426294   2.645361   4.071655   4.942219   6.302133
    10  C    2.465216   3.576803   4.942108   6.021300   7.317186
    11  C    3.740645   4.909983   6.302059   7.317248   8.643780
    12  C    4.241919   5.460987   6.887280   7.702671   9.081496
    13  C    3.740668   4.910061   6.302183   6.903901   8.298098
    14  C    2.465261   3.576919   4.942273   5.509692   6.903891
    15  H    3.545405   2.682873   2.164643   1.092830   2.164231
    16  H    5.725670   4.619560   3.424232   2.156508   1.094143
    17  H    6.554986   5.335918   3.909624   3.414040   2.166116
    18  H    5.725678   4.619568   3.424215   3.891270   3.413352
    19  H    3.545457   2.682924   2.164642   3.417562   3.889943
    20  H    2.682861   3.545326   4.756785   5.996463   7.190042
    21  H    4.619544   5.725611   7.067042   8.176653   9.462545
    22  H    5.335917   6.554984   7.981278   8.784683  10.166788
    23  H    4.619582   5.725735   7.067244   7.507967   8.893284
    24  H    2.682936   3.545536   4.757093   5.047338   6.422895
                    6          7          8          9         10
     6  C    0.000000
     7  C    1.399344   0.000000
     8  C    2.423089   1.394230   0.000000
     9  C    6.887281   6.302112   4.942164   0.000000
    10  C    7.702508   6.903659   5.509434   1.411459   0.000000
    11  C    9.081373   8.297871   6.903648   2.435207   1.394220
    12  C    9.702907   9.081407   7.702539   2.815625   2.423084
    13  C    9.081531   8.643849   7.317259   2.435197   2.797125
    14  C    7.702702   7.317321   6.021382   1.411455   2.429253
    15  H    3.416133   3.889937   3.417539   4.756959   5.996548
    16  H    2.165186   3.413343   3.891274   7.067171   8.176651
    17  H    1.093998   2.166095   3.414047   7.981279   8.784510
    18  H    2.165173   1.094143   2.156520   7.067118   7.507649
    19  H    3.416116   2.164229   1.092831   4.756920   5.047003
    20  H    7.377371   6.422507   5.046935   2.164645   1.092831
    21  H    9.785868   8.892942   7.507614   3.424228   2.156517
    22  H   10.796904  10.166684   8.784536   3.909623   3.414041
    23  H    9.786136   9.462703   8.176739   3.424218   3.891267
    24  H    7.377732   7.190339   5.996695   2.164641   3.417551
                   11         12         13         14         15
    11  C    0.000000
    12  C    1.399354   0.000000
    13  C    2.420535   1.399359   0.000000
    14  C    2.797134   2.423090   1.394215   0.000000
    15  H    7.190208   7.377643   6.422848   5.047269   0.000000
    16  H    9.462621   9.786086   8.893265   7.507933   2.489965
    17  H   10.166653  10.796904  10.166820   8.784709   4.319815
    18  H    8.892961   9.785919   9.462628   8.176741   4.984076
    19  H    6.422555   7.377459   7.190173   5.996609   4.316296
    20  H    2.164231   3.416121   3.889936   3.417550   6.168359
    21  H    1.094143   2.165179   3.413350   3.891277   8.136679
    22  H    2.166103   1.093998   2.166107   3.414045   8.429877
    23  H    3.413346   2.165180   1.094143   2.156512   6.896908
    24  H    3.889945   3.416127   2.164229   1.092831   4.406961
                   16         17         18         19         20
    16  H    0.000000
    17  H    2.496164   0.000000
    18  H    4.318795   2.496154   0.000000
    19  H    4.984082   4.319794   2.489934   0.000000
    20  H    8.136562   8.429584   6.896487   4.406554   0.000000
    21  H   10.332489  10.855575   9.386437   6.896504   2.489950
    22  H   10.855815  11.890902  10.855621   8.429664   4.319803
    23  H    9.386873  10.855860  10.332582   8.136704   4.984075
    24  H    6.896925   8.429957   8.136822   6.168565   4.316297
                   21         22         23         24
    21  H    0.000000
    22  H    2.496160   0.000000
    23  H    4.318795   2.496159   0.000000
    24  H    4.984084   4.319806   2.489948   0.000000
 Stoichiometry    C14H10
 Framework group  D2H[C2(HCCC.CCCH),SG"(C8H8)]
 Deg. of freedom    12
 Full point group                 D2H     NOp   8
 Largest Abelian subgroup         D2H     NOp   8
 Largest concise Abelian subgroup D2      NOp   4
                         Standard orientation:                         
 ---------------------------------------------------------------------
 Center     Atomic      Atomic             Coordinates (Angstroms)
 Number     Number       Type             X           Y           Z
 ---------------------------------------------------------------------
      1          6           0        0.609534   -0.000000   -0.000000
      2          6           0       -0.609534    0.000000   -0.000000
      3          6           0       -2.035827    0.000000    0.000000
      4          6           0       -2.754829    1.214639    0.000000
      5          6           0       -4.149026    1.210236    0.000000
      6          6           0       -4.851454    0.000000    0.000000
      7          6           0       -4.149026   -1.210236    0.000000
      8          6           0       -2.754829   -1.214639    0.000000
      9          6           0        2.035827   -0.000000    0.000000
     10          6           0        2.754829   -1.214639    0.000000
     11          6           0        4.149026   -1.210236    0.000000
     12          6           0        4.851454   -0.000000    0.000000
     13          6           0        4.149026    1.210236   -0.000000
     14          6           0        2.754829    1.214639   -0.000000
     15          1           0       -2.203435    2.158166    0.000000
     16          1           0       -4.693400    2.159344    0.000000
     17          1           0       -5.945451    0.000000    0.000000
     18          1           0       -4.693400   -2.159344    0.000000
     19          1           0       -2.203435   -2.158166    0.000000
     20          1           0        2.203435   -2.158166   -0.000000
     21          1           0        4.693400   -2.159344    0.000000
     22          1           0        5.945451   -0.000000    0.000000
     23          1           0        4.693400    2.159344   -0.000000
     24          1           0        2.203435    2.158166   -0.000000
 ---------------------------------------------------------------------
 Rotational constants (GHZ):           2.8281742           0.2473157           0.2274278
 Standard basis: def2SVPP (5D, 7F)
 There are    52 symmetry adapted cartesian basis functions of AG  symmetry.
 There are    35 symmetry adapted cartesian basis functions of B1G symmetry.
 There are    17 symmetry adapted cartesian basis functions of B2G symmetry.
 There are    11 symmetry adapted cartesian basis functions of B3G symmetry.
 There are    11 symmetry adapted cartesian basis functions of AU  symmetry.
 There are    17 symmetry adapted cartesian basis functions of B1U symmetry.
 There are    35 symmetry adapted cartesian basis functions of B2U symmetry.
 There are    52 symmetry adapted cartesian basis functions of B3U symmetry.
 There are    47 symmetry adapted basis functions of AG  symmetry.
 There are    33 symmetry adapted basis functions of B1G symmetry.
 There are    17 symmetry adapted basis functions of B2G symmetry.
 There are    11 symmetry adapted basis functions of B3G symmetry.
 There are    11 symmetry adapted basis functions of AU  symmetry.
 There are    17 symmetry adapted basis functions of B1U symmetry.
 There are    33 symmetry adapted basis functions of B2U symmetry.
 There are    47 symmetry adapted basis functions of B3U symmetry.
   216 basis functions,   390 primitive gaussians,   230 cartesian basis functions
    47 alpha electrons       47 beta electrons
       nuclear repulsion energy       691.8169955037 Hartrees.
 NAtoms=   24 NActive=   24 NUniq=    8 SFac= 4.00D+00 NAtFMM=   60 NAOKFM=F Big=F
 Integral buffers will be    131072 words long.
 Raffenetti 2 integral format.
 Two-electron integral symmetry is turned on.
 Nuclear repulsion after empirical dispersion term =      691.7697843913 Hartrees.
 One-electron integrals computed using PRISM.
   8 Symmetry operations used in ECPInt.
 ECPInt:  NShTT=    5460 NPrTT=   21948 LenC2=    4959 LenP2D=   14121.
 LDataN:  DoStor=T MaxTD1= 4 Len=   56
 NBasis=   216 RedAO= T EigKep=  3.08D-04  NBF=    47    33    17    11    11    17    33    47
 NBsUse=   216 1.00D-06 EigRej= -1.00D+00 NBFU=    47    33    17    11    11    17    33    47
 Initial guess from the checkpoint file:  "/home/software/g16/scr/Gau-12557.chk"
 B after Tr=     0.000000   -0.000000   -0.000000
         Rot=    1.000000   -0.000000    0.000000   -0.000002 Ang=  -0.00 deg.
 Initial guess orbital symmetries:
       Occupied  (B3U) (AG) (B3U) (B1G) (AG) (B2U) (AG) (B3U) (B1G)
                 (B2U) (AG) (B3U) (AG) (B3U) (AG) (B3U) (AG) (B3U)
                 (B2U) (B1G) (AG) (B3U) (B2U) (B1G) (AG) (B3U)
                 (AG) (B3U) (AG) (B2U) (B1G) (B3U) (AG) (B2U) (B1G)
                 (B1U) (B2G) (B3U) (AG) (B2U) (B1G) (B1U) (B2G)
                 (B2U) (B3G) (AU) (B1U)
       Virtual   (B2G) (B3G) (AU) (B1U) (B1G) (AG) (B3U) (B2U)
                 (B2G) (AG) (B1G) (B3U) (B2U) (AG) (B1U) (B3U)
                 (B1G) (B2G) (B3U) (AG) (B3U) (B1G) (B2U) (AG)
                 (B3U) (AG) (B3U) (B2U) (B1G) (AG) (B3U) (AG) (B2U)
                 (B1G) (B2U) (AG) (B3U) (B1U) (AG) (B1G) (B3U)
                 (B2G) (B2U) (B1G) (B3U) (B1U) (AG) (B3G) (B2G)
                 (AU) (B2U) (B1U) (B3G) (AU) (B1G) (B2G) (B2U)
                 (AG) (B1U) (B1G) (B2U) (B3U) (AG) (B2U) (B2G)
                 (B1G) (B3U) (AG) (B1U) (B3U) (B1G) (AG) (B3U)
                 (B2U) (AG) (B3U) (AG) (B2G) (B3U) (B1G) (AG) (B2U)
                 (B2U) (B3U) (B1G) (B3U) (AG) (B2U) (AG) (B3U)
                 (B1G) (B3U) (B1G) (B3G) (AU) (B1U) (B2U) (B1G)
                 (AG) (B3U) (B1U) (B2G) (B3G) (AU) (B2G) (B1U)
                 (B3G) (AU) (AG) (B3U) (B2G) (B3G) (AG) (B2U) (B3U)
                 (AG) (B1G) (B2U) (AG) (B1U) (B3U) (B1G) (B2U)
                 (AU) (B3U) (AG) (B3U) (B1G) (AG) (B2U) (B2G) (B3U)
                 (B1G) (AG) (B2U) (B3U) (B3G) (AU) (B1U) (B2G)
                 (B3G) (B1U) (B2G) (AU) (AG) (B1G) (B1U) (B3U)
                 (B2U) (AG) (B1G) (B3U) (AG) (B3G) (AU) (B3U) (B2U)
                 (B1G) (AG) (B3U) (B2U) (AG) (B1G) (B2G) (B2U)
                 (B1G) (B3U) (AG) (B3U)
 Keep R1 ints in memory in symmetry-blocked form, NReq=310995757.
 Requested convergence on RMS density matrix=1.00D-08 within 128 cycles.
 Requested convergence on MAX density matrix=1.00D-06.
 Requested convergence on             energy=1.00D-06.
 No special actions if energy rises.
 SCF Done:  E(RB3LYP) =  -539.103348257     A.U. after    5 cycles
            NFock=  5  Conv=0.76D-08     -V/T= 2.0112
 DoSCS=F DFT=T ScalE2(SS,OS)=  1.000000  1.000000
 Range of M.O.s used for correlation:     1   216
 NBasis=   216 NAE=    47 NBE=    47 NFC=     0 NFV=     0
 NROrb=    216 NOA=    47 NOB=    47 NVA=   169 NVB=   169

 **** Warning!!: The largest alpha MO coefficient is  0.13251521D+02

   8 Symmetry operations used in ECPInt.
 ECPInt:  NShTT=    5460 NPrTT=   21948 LenC2=    4959 LenP2D=   14121.
 LDataN:  DoStor=T MaxTD1= 5 Len=  102
 Symmetrizing basis deriv contribution to polar:
 IMax=3 JMax=2 DiffMx= 0.00D+00
 G2DrvN: will do    25 centers at a time, making    1 passes.
 Calling FoFCou, ICntrl=  3107 FMM=F I1Cent=   0 AccDes= 0.00D+00.
 End of G2Drv F.D. properties file   721 does not exist.
 End of G2Drv F.D. properties file   722 does not exist.
 End of G2Drv F.D. properties file   788 does not exist.
          IDoAtm=111111111111111111111111
          Differentiating once with respect to electric field.
                with respect to dipole field.
          Differentiating once with respect to nuclear coordinates.
 Keep R1 ints in memory in symmetry-blocked form, NReq=311006058.
          There are    27 degrees of freedom in the 1st order CPHF.  IDoFFX=4 NUNeed=    27.
     27 vectors produced by pass  0 Test12= 2.94D-14 3.70D-09 XBig12= 5.11D+02 1.92D+01.
 AX will form    27 AO Fock derivatives at one time.
     27 vectors produced by pass  1 Test12= 2.94D-14 3.70D-09 XBig12= 8.93D+01 2.75D+00.
     27 vectors produced by pass  2 Test12= 2.94D-14 3.70D-09 XBig12= 6.23D+00 4.44D-01.
     27 vectors produced by pass  3 Test12= 2.94D-14 3.70D-09 XBig12= 3.94D-01 2.12D-01.
     27 vectors produced by pass  4 Test12= 2.94D-14 3.70D-09 XBig12= 4.22D-02 4.82D-02.
     27 vectors produced by pass  5 Test12= 2.94D-14 3.70D-09 XBig12= 2.69D-04 1.78D-03.
     22 vectors produced by pass  6 Test12= 2.94D-14 3.70D-09 XBig12= 8.81D-07 1.13D-04.
      6 vectors produced by pass  7 Test12= 2.94D-14 3.70D-09 XBig12= 2.37D-09 4.52D-06.
      5 vectors produced by pass  8 Test12= 2.94D-14 3.70D-09 XBig12= 6.62D-12 2.55D-07.
      2 vectors produced by pass  9 Test12= 2.94D-14 3.70D-09 XBig12= 1.89D-14 1.26D-08.
 InvSVY:  IOpt=1 It=  1 EMax= 7.11D-15
 Solved reduced A of dimension   197 with    27 vectors.
 Isotropic polarizability for W=    0.000000      171.15 Bohr**3.
 End of Minotr F.D. properties file   721 does not exist.
 End of Minotr F.D. properties file   722 does not exist.
 End of Minotr F.D. properties file   788 does not exist.

 **********************************************************************

            Population analysis using the SCF Density.

 **********************************************************************

 Orbital symmetries:
       Occupied  (B3U) (AG) (B3U) (B1G) (AG) (B2U) (AG) (B3U) (B1G)
                 (B2U) (AG) (B3U) (AG) (B3U) (AG) (B3U) (AG) (B3U)
                 (B2U) (B1G) (AG) (B3U) (B2U) (B1G) (AG) (B3U)
                 (AG) (B3U) (AG) (B2U) (B1G) (B3U) (AG) (B2U) (B1G)
                 (B1U) (B2G) (B3U) (AG) (B2U) (B1G) (B1U) (B2G)
                 (B2U) (B3G) (AU) (B1U)
       Virtual   (B2G) (B3G) (AU) (B1U) (B1G) (AG) (B3U) (B2U)
                 (B2G) (AG) (B1G) (B3U) (B2U) (AG) (B1U) (B3U)
                 (B1G) (B2G) (B3U) (AG) (B3U) (B1G) (B2U) (AG)
                 (B3U) (AG) (B3U) (B2U) (B1G) (AG) (B3U) (AG) (B2U)
                 (B1G) (B2U) (AG) (B3U) (B1U) (AG) (B1G) (B3U)
                 (B2G) (B2U) (B1G) (B3U) (B1U) (AG) (B3G) (B2G)
                 (AU) (B2U) (B1U) (B3G) (AU) (B1G) (B2G) (B2U)
                 (AG) (B1U) (B1G) (B2U) (B3U) (AG) (B2U) (B2G)
                 (B1G) (B3U) (AG) (B1U) (B3U) (B1G) (AG) (B3U)
                 (B2U) (AG) (B3U) (AG) (B2G) (B3U) (B1G) (AG) (B2U)
                 (B2U) (B3U) (B1G) (B3U) (AG) (B2U) (AG) (B3U)
                 (B1G) (B3U) (B1G) (B3G) (AU) (B1U) (B2U) (B1G)
                 (AG) (B3U) (B1U) (B2G) (B3G) (AU) (B2G) (B1U)
                 (B3G) (AU) (AG) (B3U) (B2G) (B3G) (AG) (B2U) (B3U)
                 (AG) (B1G) (B2U) (AG) (B1U) (B3U) (B1G) (B2U)
                 (AU) (B3U) (AG) (B3U) (B1G) (AG) (B2U) (B2G) (B3U)
                 (B1G) (AG) (B2U) (B3U) (B3G) (AU) (B1U) (B2G)
                 (B3G) (B1U) (AU) (B2G) (AG) (B1G) (B1U) (B3U)
                 (B2U) (AG) (B1G) (B3U) (AG) (B3G) (AU) (B3U) (B2U)
                 (B1G) (AG) (B3U) (B2U) (AG) (B1G) (B2G) (B2U)
                 (B1G) (B3U) (AG) (B3U)
 The electronic state is 1-AG.
 Alpha  occ. eigenvalues --  -10.21756 -10.21734 -10.19678 -10.19678 -10.19676
 Alpha  occ. eigenvalues --  -10.19675 -10.19567 -10.19567 -10.19513 -10.19513
 Alpha  occ. eigenvalues --  -10.19503 -10.19503 -10.19071 -10.18866  -0.85987
 Alpha  occ. eigenvalues --   -0.85715  -0.78500  -0.76270  -0.74568  -0.74553
 Alpha  occ. eigenvalues --   -0.70973  -0.63317  -0.60837  -0.60705  -0.60619
 Alpha  occ. eigenvalues --   -0.54770  -0.53321  -0.48805  -0.47685  -0.46601
 Alpha  occ. eigenvalues --   -0.46172  -0.44273  -0.43753  -0.42981  -0.42956
 Alpha  occ. eigenvalues --   -0.39116  -0.38001  -0.36857  -0.36479  -0.35846
 Alpha  occ. eigenvalues --   -0.35523  -0.32297  -0.27732  -0.27429  -0.26338
 Alpha  occ. eigenvalues --   -0.26330  -0.21891
 Alpha virt. eigenvalues --   -0.05697  -0.01409  -0.01387  -0.00115   0.04552
 Alpha virt. eigenvalues --    0.05576   0.06117   0.09006   0.09590   0.10048
 Alpha virt. eigenvalues --    0.10059   0.11772   0.13329   0.14149   0.14828
 Alpha virt. eigenvalues --    0.14991   0.15912   0.20031   0.21205   0.22139
 Alpha virt. eigenvalues --    0.23180   0.28324   0.28350   0.28644   0.29351
 Alpha virt. eigenvalues --    0.30136   0.30639   0.30794   0.32577   0.33174
 Alpha virt. eigenvalues --    0.38505   0.38525   0.39955   0.41422   0.41933
 Alpha virt. eigenvalues --    0.42132   0.43574   0.44858   0.44876   0.45766
 Alpha virt. eigenvalues --    0.46216   0.46588   0.47346   0.48765   0.48829
 Alpha virt. eigenvalues --    0.49118   0.49616   0.53227   0.53266   0.53271
 Alpha virt. eigenvalues --    0.56509   0.57788   0.59470   0.59612   0.61059
 Alpha virt. eigenvalues --    0.61163   0.63715   0.65029   0.65205   0.66392
 Alpha virt. eigenvalues --    0.67238   0.67380   0.67520   0.68297   0.69634
 Alpha virt. eigenvalues --    0.69796   0.69988   0.70325   0.71621   0.71687
 Alpha virt. eigenvalues --    0.73595   0.73754   0.73925   0.75101   0.75355
 Alpha virt. eigenvalues --    0.77016   0.77517   0.78025   0.81705   0.81722
 Alpha virt. eigenvalues --    0.84056   0.84488   0.92492   0.93753   0.94027
 Alpha virt. eigenvalues --    0.98310   1.04481   1.06451   1.07337   1.08556
 Alpha virt. eigenvalues --    1.08886   1.15189   1.15456   1.23689   1.23867
 Alpha virt. eigenvalues --    1.25660   1.26103   1.28206   1.28362   1.31472
 Alpha virt. eigenvalues --    1.41843   1.42733   1.44746   1.46034   1.47455
 Alpha virt. eigenvalues --    1.47782   1.49853   1.49951   1.51340   1.51635
 Alpha virt. eigenvalues --    1.56024   1.56063   1.57863   1.70394   1.73032
 Alpha virt. eigenvalues --    1.74442   1.76464   1.77738   1.81367   1.82748
 Alpha virt. eigenvalues --    1.83042   1.86276   1.86364   1.90981   1.92502
 Alpha virt. eigenvalues --    1.92950   1.93483   1.99641   1.99832   2.02138
 Alpha virt. eigenvalues --    2.05325   2.05965   2.06185   2.06817   2.07940
 Alpha virt. eigenvalues --    2.10592   2.12133   2.12415   2.18540   2.24811
 Alpha virt. eigenvalues --    2.27829   2.29215   2.29241   2.29242   2.32776
 Alpha virt. eigenvalues --    2.34514   2.36099   2.42176   2.43738   2.46262
 Alpha virt. eigenvalues --    2.48801   2.49306   2.57380   2.63195   2.63665
 Alpha virt. eigenvalues --    2.64874   2.68566   2.69158   2.69203   2.70165
 Alpha virt. eigenvalues --    2.73568   2.84795   2.85302   2.91258   3.00096
 Alpha virt. eigenvalues --    3.25690   3.28810   3.36157   3.67075
          Condensed to atoms (all electrons):
               1          2          3          4          5          6
     1  C    5.348673   0.767701  -0.164744  -0.009004   0.000514  -0.000036
     2  C    0.767701   5.348673   0.248455  -0.085421   0.013357   0.000195
     3  C   -0.164744   0.248455   5.378142   0.239080   0.145600  -0.171143
     4  C   -0.009004  -0.085421   0.239080   5.282223   0.212958   0.135987
     5  C    0.000514   0.013357   0.145600   0.212958   5.205645   0.207191
     6  C   -0.000036   0.000195  -0.171143   0.135987   0.207191   5.231030
     7  C    0.000514   0.013357   0.145600  -0.170118   0.143211   0.207191
     8  C   -0.009004  -0.085421   0.239080   0.100003  -0.170118   0.135987
     9  C    0.248455  -0.164744   0.006168  -0.000354   0.000020  -0.000002
    10  C   -0.085421  -0.009004  -0.000354   0.000010  -0.000000  -0.000000
    11  C    0.013357   0.000514   0.000020  -0.000000  -0.000000  -0.000000
    12  C    0.000195  -0.000036  -0.000002  -0.000000  -0.000000   0.000000
    13  C    0.013357   0.000514   0.000020  -0.000000   0.000000  -0.000000
    14  C   -0.085421  -0.009004  -0.000354  -0.000009  -0.000000  -0.000000
    15  H   -0.001041  -0.014255  -0.067101   0.430988  -0.077148   0.014330
    16  H   -0.000006  -0.000395   0.014813  -0.077301   0.433399  -0.078015
    17  H   -0.000000   0.000033  -0.001503   0.014018  -0.076094   0.431753
    18  H   -0.000006  -0.000395   0.014813  -0.001660   0.014240  -0.078015
    19  H   -0.001041  -0.014255  -0.067101   0.015590  -0.002086   0.014330
    20  H   -0.014255  -0.001041  -0.000146   0.000001  -0.000000   0.000000
    21  H   -0.000395  -0.000006   0.000000  -0.000000   0.000000  -0.000000
    22  H    0.000033  -0.000000  -0.000000  -0.000000  -0.000000  -0.000000
    23  H   -0.000395  -0.000006   0.000000   0.000000  -0.000000  -0.000000
    24  H   -0.014255  -0.001041  -0.000146  -0.000003   0.000001   0.000000
               7          8          9         10         11         12
     1  C    0.000514  -0.009004   0.248455  -0.085421   0.013357   0.000195
     2  C    0.013357  -0.085421  -0.164744  -0.009004   0.000514  -0.000036
     3  C    0.145600   0.239080   0.006168  -0.000354   0.000020  -0.000002
     4  C   -0.170118   0.100003  -0.000354   0.000010  -0.000000  -0.000000
     5  C    0.143211  -0.170118   0.000020  -0.000000  -0.000000  -0.000000
     6  C    0.207191   0.135987  -0.000002  -0.000000  -0.000000   0.000000
     7  C    5.205645   0.212958   0.000020  -0.000000   0.000000  -0.000000
     8  C    0.212958   5.282223  -0.000354  -0.000009  -0.000000  -0.000000
     9  C    0.000020  -0.000354   5.378142   0.239080   0.145600  -0.171143
    10  C   -0.000000  -0.000009   0.239080   5.282223   0.212958   0.135987
    11  C    0.000000  -0.000000   0.145600   0.212958   5.205645   0.207191
    12  C   -0.000000  -0.000000  -0.171143   0.135987   0.207191   5.231030
    13  C   -0.000000  -0.000000   0.145600  -0.170118   0.143211   0.207191
    14  C   -0.000000   0.000010   0.239080   0.100003  -0.170118   0.135987
    15  H   -0.002086   0.015590  -0.000146   0.000001  -0.000000   0.000000
    16  H    0.014240  -0.001660   0.000000  -0.000000   0.000000  -0.000000
    17  H   -0.076094   0.014018  -0.000000  -0.000000  -0.000000  -0.000000
    18  H    0.433399  -0.077301   0.000000   0.000000  -0.000000  -0.000000
    19  H   -0.077148   0.430988  -0.000146  -0.000003   0.000001   0.000000
    20  H    0.000001  -0.000003  -0.067101   0.430988  -0.077148   0.014330
    21  H   -0.000000   0.000000   0.014813  -0.077301   0.433399  -0.078015
    22  H   -0.000000  -0.000000  -0.001503   0.014018  -0.076094   0.431753
    23  H    0.000000  -0.000000   0.014813  -0.001660   0.014240  -0.078015
    24  H   -0.000000   0.000001  -0.067101   0.015590  -0.002086   0.014330
              13         14         15         16         17         18
     1  C    0.013357  -0.085421  -0.001041  -0.000006  -0.000000  -0.000006
     2  C    0.000514  -0.009004  -0.014255  -0.000395   0.000033  -0.000395
     3  C    0.000020  -0.000354  -0.067101   0.014813  -0.001503   0.014813
     4  C   -0.000000  -0.000009   0.430988  -0.077301   0.014018  -0.001660
     5  C    0.000000  -0.000000  -0.077148   0.433399  -0.076094   0.014240
     6  C   -0.000000  -0.000000   0.014330  -0.078015   0.431753  -0.078015
     7  C   -0.000000  -0.000000  -0.002086   0.014240  -0.076094   0.433399
     8  C   -0.000000   0.000010   0.015590  -0.001660   0.014018  -0.077301
     9  C    0.145600   0.239080  -0.000146   0.000000  -0.000000   0.000000
    10  C   -0.170118   0.100003   0.000001  -0.000000  -0.000000   0.000000
    11  C    0.143211  -0.170118  -0.000000   0.000000  -0.000000  -0.000000
    12  C    0.207191   0.135987   0.000000  -0.000000  -0.000000  -0.000000
    13  C    5.205645   0.212958   0.000001  -0.000000  -0.000000   0.000000
    14  C    0.212958   5.282223  -0.000003   0.000000  -0.000000  -0.000000
    15  H    0.000001  -0.000003   0.658158  -0.011927  -0.000259   0.000036
    16  H   -0.000000   0.000000  -0.011927   0.657928  -0.011707  -0.000292
    17  H   -0.000000  -0.000000  -0.000259  -0.011707   0.656585  -0.011707
    18  H    0.000000  -0.000000   0.000036  -0.000292  -0.011707   0.657928
    19  H   -0.000000   0.000001  -0.000261   0.000036  -0.000259  -0.011927
    20  H   -0.002086   0.015590  -0.000001   0.000000  -0.000000  -0.000000
    21  H    0.014240  -0.001660   0.000000  -0.000000   0.000000   0.000000
    22  H   -0.076094   0.014018  -0.000000   0.000000  -0.000000   0.000000
    23  H    0.433399  -0.077301  -0.000000   0.000000   0.000000  -0.000000
    24  H   -0.077148   0.430988   0.000065  -0.000000  -0.000000   0.000000
              19         20         21         22         23         24
     1  C   -0.001041  -0.014255  -0.000395   0.000033  -0.000395  -0.014255
     2  C   -0.014255  -0.001041  -0.000006  -0.000000  -0.000006  -0.001041
     3  C   -0.067101  -0.000146   0.000000  -0.000000   0.000000  -0.000146
     4  C    0.015590   0.000001  -0.000000  -0.000000   0.000000  -0.000003
     5  C   -0.002086  -0.000000   0.000000  -0.000000  -0.000000   0.000001
     6  C    0.014330   0.000000  -0.000000  -0.000000  -0.000000   0.000000
     7  C   -0.077148   0.000001  -0.000000  -0.000000   0.000000  -0.000000
     8  C    0.430988  -0.000003   0.000000  -0.000000  -0.000000   0.000001
     9  C   -0.000146  -0.067101   0.014813  -0.001503   0.014813  -0.067101
    10  C   -0.000003   0.430988  -0.077301   0.014018  -0.001660   0.015590
    11  C    0.000001  -0.077148   0.433399  -0.076094   0.014240  -0.002086
    12  C    0.000000   0.014330  -0.078015   0.431753  -0.078015   0.014330
    13  C   -0.000000  -0.002086   0.014240  -0.076094   0.433399  -0.077148
    14  C    0.000001   0.015590  -0.001660   0.014018  -0.077301   0.430988
    15  H   -0.000261  -0.000001   0.000000  -0.000000  -0.000000   0.000065
    16  H    0.000036   0.000000  -0.000000   0.000000   0.000000  -0.000000
    17  H   -0.000259  -0.000000   0.000000  -0.000000   0.000000  -0.000000
    18  H   -0.011927  -0.000000   0.000000   0.000000  -0.000000   0.000000
    19  H    0.658158   0.000065  -0.000000  -0.000000   0.000000  -0.000001
    20  H    0.000065   0.658158  -0.011927  -0.000259   0.000036  -0.000261
    21  H   -0.000000  -0.011927   0.657928  -0.011707  -0.000292   0.000036
    22  H   -0.000000  -0.000259  -0.011707   0.656585  -0.011707  -0.000259
    23  H    0.000000   0.000036  -0.000292  -0.011707   0.657928  -0.011927
    24  H   -0.000001  -0.000261   0.000036  -0.000259  -0.011927   0.658158
 Mulliken charges:
               1
     1  C   -0.007774
     2  C   -0.007774
     3  C    0.040804
     4  C   -0.086988
     5  C   -0.050689
     6  C   -0.050783
     7  C   -0.050689
     8  C   -0.086988
     9  C    0.040804
    10  C   -0.086988
    11  C   -0.050689
    12  C   -0.050783
    13  C   -0.050689
    14  C   -0.086988
    15  H    0.055058
    16  H    0.060887
    17  H    0.061217
    18  H    0.060887
    19  H    0.055058
    20  H    0.055058
    21  H    0.060887
    22  H    0.061217
    23  H    0.060887
    24  H    0.055058
 Sum of Mulliken charges =  -0.00000
 Mulliken charges with hydrogens summed into heavy atoms:
               1
     1  C   -0.007774
     2  C   -0.007774
     3  C    0.040804
     4  C   -0.031930
     5  C    0.010198
     6  C    0.010434
     7  C    0.010198
     8  C   -0.031930
     9  C    0.040804
    10  C   -0.031930
    11  C    0.010198
    12  C    0.010434
    13  C    0.010198
    14  C   -0.031930
 APT charges:
               1
     1  C   -0.092492
     2  C   -0.092492
     3  C    0.208236
     4  C   -0.081489
     5  C   -0.010308
     6  C   -0.077719
     7  C   -0.010308
     8  C   -0.081489
     9  C    0.208236
    10  C   -0.081489
    11  C   -0.010308
    12  C   -0.077719
    13  C   -0.010308
    14  C   -0.081489
    15  H    0.042883
    16  H    0.018501
    17  H    0.022801
    18  H    0.018501
    19  H    0.042883
    20  H    0.042883
    21  H    0.018501
    22  H    0.022801
    23  H    0.018501
    24  H    0.042883
 Sum of APT charges =   0.00000
 APT charges with hydrogens summed into heavy atoms:
               1
     1  C   -0.092492
     2  C   -0.092492
     3  C    0.208236
     4  C   -0.038606
     5  C    0.008193
     6  C   -0.054918
     7  C    0.008193
     8  C   -0.038606
     9  C    0.208236
    10  C   -0.038606
    11  C    0.008193
    12  C   -0.054918
    13  C    0.008193
    14  C   -0.038606
 Electronic spatial extent (au):  <R**2>=           4516.3273
 Charge=              0.0000 electrons
 Dipole moment (field-independent basis, Debye):
    X=             -0.0000    Y=             -0.0000    Z=              0.0000  Tot=              0.0000
 Quadrupole moment (field-independent basis, Debye-Ang):
   XX=            -64.7162   YY=            -72.2942   ZZ=            -87.3578
   XY=              0.0000   XZ=             -0.0000   YZ=             -0.0000
 Traceless Quadrupole moment (field-independent basis, Debye-Ang):
   XX=             10.0732   YY=              2.4952   ZZ=            -12.5684
   XY=              0.0000   XZ=             -0.0000   YZ=             -0.0000
 Octapole moment (field-independent basis, Debye-Ang**2):
  XXX=              0.0000  YYY=              0.0000  ZZZ=              0.0000  XYY=             -0.0000
  XXY=              0.0000  XXZ=              0.0000  XZZ=             -0.0000  YZZ=              0.0000
  YYZ=              0.0000  XYZ=              0.0000
 Hexadecapole moment (field-independent basis, Debye-Ang**3):
 XXXX=          -5029.1185 YYYY=           -558.8814 ZZZZ=            -96.2370 XXXY=              0.0000
 XXXZ=              0.0000 YYYX=             -0.0000 YYYZ=              0.0000 ZZZX=              0.0000
 ZZZY=              0.0000 XXYY=           -939.5049 XXZZ=          -1057.4197 YYZZ=           -126.8702
 XXYZ=              0.0000 YYXZ=              0.0000 ZZXY=             -0.0000
 N-N= 6.917697843913D+02 E-N=-2.630124307956D+03  KE= 5.331266979947D+02
 Symmetry AG   KE= 1.821755004165D+02
 Symmetry B1G  KE= 7.758546191279D+01
 Symmetry B2G  KE= 4.108899202663D+00
 Symmetry B3G  KE= 2.245868995835D+00
 Symmetry AU   KE= 2.246396734899D+00
 Symmetry B1U  KE= 6.469839657996D+00
 Symmetry B2U  KE= 8.003820479400D+01
 Symmetry B3U  KE= 1.782565262800D+02
  Exact polarizability:     310.375      -0.000     143.647       0.000      -0.000      59.425
 Approx polarizability:     452.021       0.000     248.652      -0.000      -0.000      92.143
   8 Symmetry operations used in ECPInt.
 ECPInt:  NShTT=    5460 NPrTT=   21948 LenC2=    4959 LenP2D=   14121.
 LDataN:  DoStor=T MaxTD1= 6 Len=  172
 Calling FoFJK, ICntrl=    100127 FMM=F ISym2X=1 I1Cent= 0 IOpClX= 0 NMat=1 NMatS=1 NMatT=0.
 Full mass-weighted force constant matrix:
 Low frequencies ---   -5.6019   -3.6205   -1.4126   -0.0006   -0.0004   -0.0002
 Low frequencies ---   21.8715   44.5146   51.5442
 Diagonal vibrational polarizability:
        2.6621091       6.8105325      16.9471194
 Harmonic frequencies (cm**-1), IR intensities (KM/Mole), Raman scattering
 activities (A**4/AMU), depolarization ratios for plane and unpolarized
 incident light, reduced masses (AMU), force constants (mDyne/A),
 and normal coordinates:
                      1                      2                      3
                     AU                     B2U                    B1U
 Frequencies --     21.8715                44.5146                51.5442
 Red. masses --      3.6335                 4.7429                 5.4756
 Frc consts  --      0.0010                 0.0055                 0.0086
 IR Inten    --      0.0000                 0.4512                 1.0160
  Atom  AN      X      Y      Z        X      Y      Z        X      Y      Z
     1   6    -0.00   0.00   0.00    -0.00   0.22  -0.00    -0.00   0.00   0.27
     2   6    -0.00   0.00   0.00    -0.00   0.22  -0.00    -0.00   0.00   0.27
     3   6     0.00   0.00   0.00    -0.00   0.11  -0.00    -0.00   0.00   0.16
     4   6    -0.00   0.00   0.17    -0.12   0.04  -0.00    -0.00   0.00   0.07
     5   6    -0.00  -0.00   0.17    -0.12  -0.10  -0.00    -0.00  -0.00  -0.14
     6   6     0.00  -0.00  -0.00     0.00  -0.17   0.00     0.00  -0.00  -0.24
     7   6     0.00  -0.00  -0.17     0.12  -0.10   0.00     0.00  -0.00  -0.14
     8   6     0.00   0.00  -0.17     0.12   0.04   0.00     0.00   0.00   0.07
     9   6    -0.00   0.00   0.00    -0.00   0.11  -0.00    -0.00   0.00   0.16
    10   6    -0.00   0.00   0.17    -0.12   0.04  -0.00    -0.00   0.00   0.07
    11   6    -0.00  -0.00   0.17    -0.12  -0.10  -0.00    -0.00  -0.00  -0.14
    12   6    -0.00  -0.00  -0.00     0.00  -0.17   0.00    -0.00  -0.00  -0.24
    13   6     0.00  -0.00  -0.17     0.12  -0.10   0.00     0.00  -0.00  -0.14
    14   6     0.00   0.00  -0.17     0.12   0.04   0.00     0.00   0.00   0.07
    15   1    -0.00   0.00   0.31    -0.22   0.10  -0.00    -0.00   0.00   0.14
    16   1    -0.00  -0.00   0.31    -0.22  -0.16  -0.00    -0.00  -0.00  -0.21
    17   1     0.00  -0.00  -0.00     0.00  -0.28   0.00     0.00  -0.00  -0.41
    18   1     0.00  -0.00  -0.31     0.22  -0.16   0.00     0.00  -0.00  -0.21
    19   1     0.00   0.00  -0.31     0.22   0.10   0.00     0.00   0.00   0.14
    20   1    -0.00   0.00   0.31    -0.22   0.10  -0.00    -0.00   0.00   0.14
    21   1    -0.00  -0.00   0.31    -0.22  -0.16  -0.00    -0.00  -0.00  -0.21
    22   1    -0.00  -0.00  -0.00     0.00  -0.28   0.00    -0.00  -0.00  -0.41
    23   1     0.00  -0.00  -0.31     0.22  -0.16   0.00     0.00  -0.00  -0.21
    24   1     0.00   0.00  -0.31     0.22   0.10   0.00     0.00   0.00   0.14
                      4                      5                      6
                     B2G                    B1G                    AG
 Frequencies --    141.8819               152.8060               261.2697
 Red. masses --      4.8322                 4.9276                 6.4103
 Frc consts  --      0.0573                 0.0678                 0.2578
 IR Inten    --      0.0000                 0.0000                 0.0000
  Atom  AN      X      Y      Z        X      Y      Z        X      Y      Z
     1   6     0.00   0.00  -0.13    -0.00  -0.18  -0.00    -0.02  -0.00  -0.00
     2   6     0.00  -0.00   0.13     0.00   0.18  -0.00     0.02   0.00  -0.00
     3   6     0.00  -0.00   0.22     0.00   0.21   0.00     0.10  -0.00   0.00
     4   6     0.00  -0.00   0.18    -0.12   0.14   0.00     0.20   0.03   0.00
     5   6     0.00   0.00  -0.04    -0.12  -0.01  -0.00     0.21   0.02  -0.00
     6   6     0.00   0.00  -0.20     0.00  -0.08  -0.00     0.25   0.00  -0.00
     7   6    -0.00   0.00  -0.04     0.12  -0.01   0.00     0.21  -0.02   0.00
     8   6    -0.00  -0.00   0.18     0.12   0.14   0.00     0.20  -0.03   0.00
     9   6     0.00   0.00  -0.22    -0.00  -0.21  -0.00    -0.10   0.00   0.00
    10   6    -0.00   0.00  -0.18     0.12  -0.14  -0.00    -0.20  -0.03   0.00
    11   6    -0.00   0.00   0.04     0.12   0.01  -0.00    -0.21  -0.02  -0.00
    12   6    -0.00  -0.00   0.20    -0.00   0.08   0.00    -0.25  -0.00  -0.00
    13   6     0.00   0.00   0.04    -0.12   0.01   0.00    -0.21   0.02   0.00
    14   6     0.00   0.00  -0.18    -0.12  -0.14  -0.00    -0.20   0.03   0.00
    15   1     0.00  -0.00   0.25    -0.22   0.20   0.00     0.25  -0.00   0.00
    16   1     0.00   0.00  -0.13    -0.22  -0.07  -0.00     0.18   0.01   0.00
    17   1     0.00   0.00  -0.41     0.00  -0.19  -0.00     0.25   0.00  -0.00
    18   1    -0.00   0.00  -0.13     0.22  -0.07   0.00     0.18  -0.01   0.00
    19   1    -0.00  -0.00   0.25     0.22   0.20   0.00     0.25   0.00   0.00
    20   1    -0.00   0.00  -0.25     0.22  -0.20  -0.00    -0.25   0.00   0.00
    21   1    -0.00  -0.00   0.13     0.22   0.07   0.00    -0.18  -0.01   0.00
    22   1    -0.00  -0.00   0.41    -0.00   0.19   0.00    -0.25  -0.00  -0.00
    23   1     0.00  -0.00   0.13    -0.22   0.07   0.00    -0.18   0.01   0.00
    24   1     0.00   0.00  -0.25    -0.22  -0.20   0.00    -0.25  -0.00   0.00
                      7                      8                      9
                     B1U                    B2G                    AU
 Frequencies --    290.5378               413.6312               416.3207
 Red. masses --      5.1300                 4.6293                 2.8938
 Frc consts  --      0.2551                 0.4666                 0.2955
 IR Inten    --      0.1211                 0.0000                 0.0000
  Atom  AN      X      Y      Z        X      Y      Z        X      Y      Z
     1   6    -0.00  -0.00   0.30    -0.00  -0.00   0.28     0.00  -0.00  -0.00
     2   6     0.00   0.00   0.30    -0.00   0.00  -0.28     0.00  -0.00  -0.00
     3   6     0.00   0.00  -0.04    -0.00   0.00  -0.17    -0.00   0.00  -0.00
     4   6     0.00   0.00  -0.18     0.00   0.00   0.09     0.00   0.00  -0.15
     5   6     0.00   0.00  -0.04     0.00   0.00   0.09    -0.00   0.00   0.15
     6   6     0.00  -0.00   0.18     0.00   0.00  -0.17     0.00  -0.00  -0.00
     7   6     0.00  -0.00  -0.04     0.00  -0.00   0.09     0.00  -0.00  -0.15
     8   6     0.00   0.00  -0.18     0.00  -0.00   0.09     0.00  -0.00   0.15
     9   6    -0.00  -0.00  -0.04    -0.00  -0.00   0.17     0.00  -0.00  -0.00
    10   6    -0.00  -0.00  -0.18    -0.00  -0.00  -0.09    -0.00  -0.00  -0.15
    11   6    -0.00  -0.00  -0.04     0.00   0.00  -0.09    -0.00  -0.00   0.15
    12   6    -0.00   0.00   0.18     0.00  -0.00   0.17    -0.00   0.00  -0.00
    13   6    -0.00   0.00  -0.04    -0.00   0.00  -0.09    -0.00   0.00  -0.15
    14   6    -0.00  -0.00  -0.18    -0.00   0.00  -0.09    -0.00   0.00   0.15
    15   1     0.00   0.00  -0.25     0.00   0.00   0.23     0.00   0.00  -0.33
    16   1     0.00  -0.00  -0.03     0.00   0.00   0.22    -0.00  -0.00   0.32
    17   1     0.00  -0.00   0.43     0.00   0.00  -0.36     0.00  -0.00  -0.00
    18   1     0.00  -0.00  -0.03    -0.00   0.00   0.22     0.00  -0.00  -0.32
    19   1     0.00   0.00  -0.25     0.00   0.00   0.23     0.00   0.00   0.33
    20   1    -0.00  -0.00  -0.25     0.00  -0.00  -0.23    -0.00  -0.00  -0.33
    21   1    -0.00   0.00  -0.03     0.00   0.00  -0.22     0.00  -0.00   0.32
    22   1    -0.00   0.00   0.43     0.00  -0.00   0.36    -0.00   0.00  -0.00
    23   1    -0.00   0.00  -0.03     0.00   0.00  -0.22    -0.00   0.00  -0.32
    24   1    -0.00  -0.00  -0.25    -0.00   0.00  -0.23    -0.00  -0.00   0.33
                     10                     11                     12
                     B3G                    B2U                    B1U
 Frequencies --    417.3792               474.7799               536.5429
 Red. masses --      2.8980                 6.8100                 3.1960
 Frc consts  --      0.2974                 0.9044                 0.5421
 IR Inten    --      0.0000                 1.4009                10.1284
  Atom  AN      X      Y      Z        X      Y      Z        X      Y      Z
     1   6    -0.00   0.00  -0.00    -0.00   0.41  -0.00    -0.00   0.00  -0.12
     2   6    -0.00   0.00   0.00    -0.00   0.41   0.00    -0.00  -0.00  -0.12
     3   6    -0.00  -0.00   0.00    -0.00  -0.15  -0.00    -0.00  -0.00   0.22
     4   6     0.00   0.00  -0.15     0.04  -0.16   0.00     0.00   0.00   0.02
     5   6    -0.00   0.00   0.15     0.07   0.01   0.00     0.00   0.00  -0.10
     6   6     0.00  -0.00   0.00     0.00   0.06  -0.00     0.00  -0.00   0.14
     7   6     0.00  -0.00  -0.15    -0.07   0.01   0.00     0.00  -0.00  -0.10
     8   6     0.00  -0.00   0.15    -0.04  -0.16  -0.00     0.00  -0.00   0.02
     9   6    -0.00  -0.00  -0.00    -0.00  -0.15   0.00    -0.00  -0.00   0.22
    10   6     0.00   0.00   0.15     0.04  -0.16  -0.00     0.00  -0.00   0.02
    11   6     0.00   0.00  -0.15     0.07   0.01   0.00     0.00   0.00  -0.10
    12   6     0.00   0.00  -0.00     0.00   0.06  -0.00     0.00  -0.00   0.14
    13   6    -0.00  -0.00   0.15    -0.07   0.01  -0.00     0.00  -0.00  -0.10
    14   6     0.00  -0.00  -0.15    -0.04  -0.16   0.00    -0.00  -0.00   0.02
    15   1     0.00   0.00  -0.32     0.15  -0.23  -0.00     0.00   0.00  -0.22
    16   1    -0.00   0.00   0.32     0.18   0.07   0.00    -0.00   0.00  -0.37
    17   1     0.00  -0.00   0.00     0.00   0.13   0.00     0.00  -0.00   0.18
    18   1    -0.00   0.00  -0.32    -0.18   0.07   0.00     0.00  -0.00  -0.37
    19   1     0.00  -0.00   0.32    -0.15  -0.23   0.00     0.00   0.00  -0.22
    20   1     0.00  -0.00   0.32     0.15  -0.23   0.00     0.00  -0.00  -0.22
    21   1     0.00   0.00  -0.32     0.18   0.07  -0.00     0.00   0.00  -0.37
    22   1     0.00   0.00  -0.00     0.00   0.13  -0.00     0.00   0.00   0.18
    23   1    -0.00  -0.00   0.32    -0.18   0.07  -0.00    -0.00   0.00  -0.37
    24   1     0.00  -0.00  -0.32    -0.15  -0.23  -0.00     0.00  -0.00  -0.22
                     13                     14                     15
                     B3U                    B1G                    B2G
 Frequencies --    547.6214               576.9971               584.8037
 Red. masses --      7.7755                 8.0835                 3.9166
 Frc consts  --      1.3738                 1.5856                 0.7892
 IR Inten    --     16.3253                 0.0000                 0.0000
  Atom  AN      X      Y      Z        X      Y      Z        X      Y      Z
     1   6     0.31   0.00   0.00     0.00   0.48   0.00    -0.00  -0.00   0.27
     2   6     0.31   0.00  -0.00    -0.00  -0.48  -0.00    -0.00   0.00  -0.27
     3   6     0.23  -0.00   0.00    -0.00   0.12   0.00    -0.00  -0.00   0.17
     4   6    -0.03  -0.14  -0.00     0.03   0.17   0.00    -0.00  -0.00   0.05
     5   6    -0.08  -0.13  -0.00     0.01  -0.06  -0.00    -0.00   0.00  -0.08
     6   6    -0.27   0.00   0.00     0.00  -0.08   0.00     0.00   0.00   0.11
     7   6    -0.08   0.13  -0.00    -0.01  -0.06  -0.00     0.00   0.00  -0.08
     8   6    -0.03   0.14   0.00    -0.03   0.17   0.00     0.00  -0.00   0.05
     9   6     0.23  -0.00   0.00     0.00  -0.12  -0.00    -0.00   0.00  -0.17
    10   6    -0.03  -0.14   0.00    -0.03  -0.17  -0.00     0.00   0.00  -0.05
    11   6    -0.08  -0.13  -0.00    -0.01   0.06   0.00     0.00  -0.00   0.08
    12   6    -0.27   0.00   0.00    -0.00   0.08  -0.00     0.00  -0.00  -0.11
    13   6    -0.08   0.13  -0.00     0.01   0.06   0.00    -0.00  -0.00   0.08
    14   6    -0.03   0.14  -0.00     0.03  -0.17  -0.00    -0.00   0.00  -0.05
    15   1    -0.22  -0.03  -0.00    -0.07   0.23  -0.00     0.00  -0.00  -0.21
    16   1     0.09  -0.03  -0.00    -0.11  -0.13  -0.00     0.00   0.00  -0.37
    17   1    -0.27   0.00   0.00     0.00  -0.04   0.00     0.00   0.00   0.08
    18   1     0.09   0.03  -0.00     0.11  -0.13  -0.00    -0.00   0.00  -0.37
    19   1    -0.22   0.03  -0.00     0.07   0.23  -0.00    -0.00  -0.00  -0.21
    20   1    -0.22  -0.03  -0.00     0.07  -0.23   0.00    -0.00   0.00   0.21
    21   1     0.09  -0.03  -0.00     0.11   0.13   0.00    -0.00  -0.00   0.37
    22   1    -0.27   0.00   0.00    -0.00   0.04  -0.00     0.00   0.00  -0.08
    23   1     0.09   0.03  -0.00    -0.11   0.13   0.00     0.00  -0.00   0.37
    24   1    -0.22   0.03  -0.00    -0.07  -0.23   0.00     0.00   0.00   0.21
                     16                     17                     18
                     B2U                    B1G                    B2G
 Frequencies --    634.6014               640.1084               715.8713
 Red. masses --      6.4661                 6.7799                 1.6652
 Frc consts  --      1.5342                 1.6368                 0.5028
 IR Inten    --      0.0056                 0.0000                 0.0000
  Atom  AN      X      Y      Z        X      Y      Z        X      Y      Z
     1   6    -0.00   0.07  -0.00    -0.00  -0.19   0.00     0.00  -0.00   0.00
     2   6    -0.00   0.07   0.00     0.00   0.19  -0.00     0.00  -0.00  -0.00
     3   6     0.00   0.09  -0.00     0.00   0.08   0.00     0.00  -0.00  -0.06
     4   6     0.17   0.13  -0.00     0.17   0.10   0.00     0.00  -0.00   0.05
     5   6     0.19  -0.17   0.00     0.19  -0.17  -0.00     0.00  -0.00  -0.10
     6   6    -0.00  -0.10  -0.00    -0.00  -0.08   0.00    -0.00  -0.00   0.05
     7   6    -0.19  -0.17   0.00    -0.19  -0.17  -0.00     0.00   0.00  -0.10
     8   6    -0.17   0.13  -0.00    -0.17   0.10   0.00     0.00   0.00   0.05
     9   6     0.00   0.09   0.00    -0.00  -0.08  -0.00    -0.00   0.00   0.06
    10   6     0.17   0.13   0.00    -0.17  -0.10   0.00    -0.00   0.00  -0.05
    11   6     0.19  -0.17  -0.00    -0.19   0.17  -0.00    -0.00   0.00   0.10
    12   6    -0.00  -0.10   0.00     0.00   0.08  -0.00     0.00  -0.00  -0.05
    13   6    -0.19  -0.17  -0.00     0.19   0.17  -0.00    -0.00  -0.00   0.10
    14   6    -0.17   0.13   0.00     0.17  -0.10  -0.00    -0.00  -0.00  -0.05
    15   1     0.08   0.19   0.00     0.10   0.15   0.00    -0.00  -0.00   0.36
    16   1     0.09  -0.23   0.00     0.12  -0.21  -0.00     0.00  -0.00   0.11
    17   1    -0.00   0.22  -0.00    -0.00   0.24   0.00    -0.00   0.00   0.43
    18   1    -0.09  -0.23   0.00    -0.12  -0.21  -0.00     0.00   0.00   0.11
    19   1    -0.08   0.19   0.00    -0.10   0.15   0.00    -0.00   0.00   0.36
    20   1     0.08   0.19  -0.00    -0.10  -0.15   0.00     0.00   0.00  -0.36
    21   1     0.09  -0.23  -0.00    -0.12   0.21   0.00    -0.00   0.00  -0.11
    22   1    -0.00   0.22   0.00     0.00  -0.24   0.00     0.00   0.00  -0.43
    23   1    -0.09  -0.23  -0.00     0.12   0.21   0.00    -0.00  -0.00  -0.11
    24   1    -0.08   0.19  -0.00     0.10  -0.15   0.00     0.00  -0.00  -0.36
                     19                     20                     21
                     B1U                    AG                     B1U
 Frequencies --    716.1209               718.0422               787.4987
 Red. masses --      1.6464                 6.0463                 1.9043
 Frc consts  --      0.4975                 1.8367                 0.6958
 IR Inten    --     59.9266                 0.0000                54.3719
  Atom  AN      X      Y      Z        X      Y      Z        X      Y      Z
     1   6    -0.00   0.00  -0.00     0.03  -0.00  -0.00    -0.00   0.00  -0.03
     2   6     0.00  -0.00  -0.00    -0.03   0.00  -0.00    -0.00  -0.00  -0.03
     3   6     0.00   0.00  -0.06    -0.18  -0.00  -0.00    -0.00   0.00   0.15
     4   6     0.00  -0.00   0.05    -0.07   0.17   0.00    -0.00   0.00  -0.06
     5   6     0.00  -0.00  -0.10    -0.06   0.19  -0.00    -0.00   0.00   0.01
     6   6    -0.00   0.00   0.05     0.21   0.00   0.00     0.00   0.00  -0.10
     7   6     0.00   0.00  -0.10    -0.06  -0.19  -0.00    -0.00  -0.00   0.01
     8   6     0.00   0.00   0.05    -0.07  -0.17   0.00    -0.00  -0.00  -0.06
     9   6    -0.00  -0.00  -0.06     0.18   0.00  -0.00    -0.00  -0.00   0.15
    10   6    -0.00   0.00   0.05     0.07  -0.17   0.00     0.00  -0.00  -0.06
    11   6    -0.00   0.00  -0.10     0.06  -0.19  -0.00     0.00  -0.00   0.01
    12   6     0.00  -0.00   0.05    -0.21  -0.00   0.00    -0.00  -0.00  -0.10
    13   6    -0.00  -0.00  -0.10     0.06   0.19  -0.00     0.00   0.00   0.01
    14   6    -0.00  -0.00   0.05     0.07   0.17   0.00     0.00   0.00  -0.06
    15   1    -0.00  -0.00   0.36     0.09   0.09   0.00    -0.00   0.00  -0.00
    16   1     0.00  -0.00   0.12    -0.31   0.05   0.00    -0.00   0.00   0.41
    17   1    -0.00  -0.00   0.43     0.21  -0.00   0.00     0.00   0.00   0.36
    18   1     0.00   0.00   0.12    -0.31  -0.05   0.00    -0.00   0.00   0.41
    19   1    -0.00   0.00   0.36     0.09  -0.09   0.00     0.00  -0.00  -0.00
    20   1     0.00   0.00   0.36    -0.09  -0.09   0.00     0.00  -0.00  -0.00
    21   1    -0.00   0.00   0.12     0.31  -0.05   0.00     0.00  -0.00   0.41
    22   1     0.00   0.00   0.43    -0.21   0.00   0.00    -0.00   0.00   0.36
    23   1    -0.00  -0.00   0.12     0.31   0.05   0.00     0.00  -0.00   0.41
    24   1     0.00  -0.00   0.36    -0.09   0.09   0.00    -0.00   0.00  -0.00
                     22                     23                     24
                     B2G                    B3U                    AU
 Frequencies --    788.4226               862.1229               862.4732
 Red. masses --      1.9368                 5.7338                 1.2499
 Frc consts  --      0.7093                 2.5109                 0.5478
 IR Inten    --      0.0000                 1.4805                 0.0000
  Atom  AN      X      Y      Z        X      Y      Z        X      Y      Z
     1   6     0.00  -0.00   0.06     0.25   0.00  -0.00    -0.00  -0.00   0.00
     2   6     0.00   0.00  -0.06     0.25   0.00   0.00    -0.00   0.00   0.00
     3   6    -0.00  -0.00   0.15     0.07   0.00  -0.00    -0.00  -0.00  -0.00
     4   6    -0.00   0.00  -0.06    -0.06   0.12   0.00     0.00  -0.00  -0.06
     5   6    -0.00   0.00   0.00    -0.13   0.18   0.00     0.00  -0.00  -0.05
     6   6     0.00  -0.00  -0.09     0.11   0.00  -0.00    -0.00  -0.00   0.00
     7   6    -0.00  -0.00   0.00    -0.13  -0.18  -0.00     0.00   0.00   0.05
     8   6    -0.00  -0.00  -0.06    -0.06  -0.12  -0.00     0.00   0.00   0.06
     9   6     0.00   0.00  -0.15     0.07   0.00   0.00    -0.00   0.00  -0.00
    10   6    -0.00   0.00   0.06    -0.06   0.12  -0.00     0.00  -0.00  -0.06
    11   6    -0.00   0.00  -0.00    -0.13   0.18  -0.00     0.00  -0.00  -0.05
    12   6     0.00  -0.00   0.09     0.11   0.00  -0.00    -0.00   0.00   0.00
    13   6    -0.00  -0.00  -0.00    -0.13  -0.18   0.00     0.00   0.00   0.05
    14   6    -0.00  -0.00   0.06    -0.06  -0.12   0.00     0.00   0.00   0.06
    15   1     0.00   0.00  -0.00    -0.05   0.13  -0.00     0.00  -0.00   0.36
    16   1    -0.00   0.00   0.40    -0.34   0.07  -0.00     0.00  -0.00   0.34
    17   1     0.00  -0.00   0.36     0.10   0.00   0.00    -0.00   0.00  -0.00
    18   1    -0.00  -0.00   0.40    -0.34  -0.07   0.00     0.00   0.00  -0.34
    19   1     0.00  -0.00  -0.00    -0.05  -0.13   0.00     0.00   0.00  -0.36
    20   1    -0.00   0.00   0.00    -0.05   0.13   0.00     0.00  -0.00   0.36
    21   1    -0.00  -0.00  -0.40    -0.34   0.07   0.00     0.00  -0.00   0.34
    22   1     0.00  -0.00  -0.36     0.10   0.00   0.00    -0.00  -0.00  -0.00
    23   1    -0.00   0.00  -0.40    -0.34  -0.07  -0.00     0.00   0.00  -0.34
    24   1    -0.00  -0.00   0.00    -0.05  -0.13  -0.00     0.00   0.00  -0.36
                     25                     26                     27
                     B3G                    B2G                    B1U
 Frequencies --    862.6182               946.2976               946.9320
 Red. masses --      1.2485                 1.4551                 1.4535
 Frc consts  --      0.5474                 0.7677                 0.7679
 IR Inten    --      0.0000                 0.0000                 5.4495
  Atom  AN      X      Y      Z        X      Y      Z        X      Y      Z
     1   6     0.00   0.00   0.00     0.00   0.00  -0.02    -0.00   0.00   0.02
     2   6     0.00   0.00  -0.00     0.00  -0.00   0.02     0.00  -0.00   0.02
     3   6     0.00   0.00  -0.00    -0.00  -0.00  -0.06     0.00   0.00  -0.06
     4   6    -0.00   0.00  -0.05     0.00   0.00   0.07    -0.00  -0.00   0.07
     5   6    -0.00   0.00  -0.05     0.00  -0.00  -0.00    -0.00   0.00  -0.00
     6   6     0.00   0.00   0.00    -0.00  -0.00  -0.07     0.00   0.00  -0.07
     7   6    -0.00  -0.00   0.05     0.00   0.00  -0.00    -0.00  -0.00  -0.00
     8   6    -0.00  -0.00   0.05    -0.00   0.00   0.07     0.00  -0.00   0.07
     9   6     0.00   0.00   0.00    -0.00  -0.00   0.06    -0.00  -0.00  -0.06
    10   6    -0.00   0.00   0.05     0.00   0.00  -0.07     0.00   0.00   0.07
    11   6    -0.00   0.00   0.05     0.00  -0.00   0.00     0.00  -0.00  -0.00
    12   6     0.00  -0.00  -0.00    -0.00  -0.00   0.07    -0.00   0.00  -0.07
    13   6    -0.00  -0.00  -0.05     0.00   0.00   0.00     0.00   0.00  -0.00
    14   6    -0.00  -0.00  -0.05    -0.00   0.00  -0.07     0.00   0.00   0.07
    15   1    -0.00   0.00   0.36     0.00  -0.00  -0.38    -0.00   0.00  -0.39
    16   1    -0.00   0.00   0.34    -0.00  -0.00  -0.01     0.00   0.00  -0.01
    17   1     0.00  -0.00  -0.00    -0.00  -0.00   0.43     0.00   0.00   0.43
    18   1    -0.00  -0.00  -0.34     0.00  -0.00  -0.01    -0.00   0.00  -0.01
    19   1    -0.00  -0.00  -0.36    -0.00   0.00  -0.38     0.00  -0.00  -0.39
    20   1    -0.00   0.00  -0.36     0.00  -0.00   0.38     0.00  -0.00  -0.39
    21   1    -0.00   0.00  -0.34    -0.00  -0.00   0.01     0.00  -0.00  -0.01
    22   1     0.00  -0.00   0.00    -0.00  -0.00  -0.43    -0.00  -0.00   0.43
    23   1    -0.00  -0.00   0.34     0.00  -0.00   0.01     0.00  -0.00  -0.01
    24   1    -0.00  -0.00   0.36    -0.00   0.00   0.38     0.00   0.00  -0.39
                     28                     29                     30
                     B3G                    AU                     B3U
 Frequencies --    999.6138               999.6205              1015.5060
 Red. masses --      1.3686                 1.3693                 6.0253
 Frc consts  --      0.8057                 0.8062                 3.6609
 IR Inten    --      0.0000                 0.0000                 0.2384
  Atom  AN      X      Y      Z        X      Y      Z        X      Y      Z
     1   6    -0.00  -0.00   0.00    -0.00   0.00   0.00    -0.00   0.00  -0.00
     2   6    -0.00  -0.00  -0.00     0.00  -0.00   0.00    -0.00   0.00  -0.00
     3   6    -0.00  -0.00  -0.00     0.00   0.00  -0.00    -0.01   0.00   0.00
     4   6     0.00   0.00   0.06    -0.00  -0.00   0.06     0.12   0.25  -0.00
     5   6     0.00  -0.00  -0.07    -0.00   0.00  -0.07     0.02  -0.05   0.00
     6   6    -0.00  -0.00   0.00     0.00   0.00  -0.00    -0.25   0.00   0.00
     7   6     0.00   0.00   0.07    -0.00  -0.00   0.07     0.02   0.05  -0.00
     8   6     0.00  -0.00  -0.06    -0.00   0.00  -0.06     0.12  -0.25   0.00
     9   6    -0.00  -0.00   0.00    -0.00  -0.00  -0.00    -0.01   0.00   0.00
    10   6     0.00   0.00  -0.06     0.00   0.00   0.06     0.12   0.25   0.00
    11   6     0.00  -0.00   0.07     0.00  -0.00  -0.07     0.02  -0.05  -0.00
    12   6    -0.00  -0.00  -0.00    -0.00  -0.00  -0.00    -0.25   0.00  -0.00
    13   6     0.00   0.00  -0.07     0.00   0.00   0.07     0.02   0.05   0.00
    14   6     0.00  -0.00   0.06     0.00  -0.00  -0.06     0.12  -0.25  -0.00
    15   1     0.00   0.00  -0.33    -0.00  -0.00  -0.33     0.06   0.30   0.00
    16   1    -0.00  -0.00   0.36     0.00   0.00   0.36    -0.04  -0.07  -0.00
    17   1    -0.00  -0.00  -0.00     0.00  -0.00   0.00    -0.26   0.00  -0.00
    18   1     0.00   0.00  -0.36    -0.00  -0.00  -0.36    -0.04   0.07   0.00
    19   1     0.00  -0.00   0.33    -0.00   0.00   0.33     0.06  -0.30  -0.00
    20   1     0.00   0.00   0.33     0.00   0.00  -0.33     0.06   0.30  -0.00
    21   1    -0.00  -0.00  -0.36     0.00  -0.00   0.36    -0.04  -0.07   0.00
    22   1    -0.00   0.00   0.00    -0.00   0.00   0.00    -0.26   0.00   0.00
    23   1     0.00   0.00   0.36     0.00   0.00  -0.36    -0.04   0.07  -0.00
    24   1     0.00  -0.00  -0.33     0.00  -0.00   0.33     0.06  -0.30   0.00
                     31                     32                     33
                     AG                     B1U                    B2G
 Frequencies --   1016.0151              1025.3025              1025.3293
 Red. masses --      6.0200                 1.3376                 1.3373
 Frc consts  --      3.6614                 0.8285                 0.8284
 IR Inten    --      0.0000                 0.1209                 0.0000
  Atom  AN      X      Y      Z        X      Y      Z        X      Y      Z
     1   6     0.00  -0.00   0.00     0.00  -0.00  -0.00    -0.00  -0.00   0.01
     2   6    -0.00   0.00  -0.00    -0.00   0.00  -0.00    -0.00  -0.00  -0.01
     3   6    -0.00   0.00   0.00    -0.00  -0.00   0.01     0.00   0.00   0.01
     4   6     0.12   0.25   0.00     0.00   0.00  -0.03    -0.00  -0.00  -0.03
     5   6     0.02  -0.05  -0.00     0.00  -0.00   0.06    -0.00   0.00   0.06
     6   6    -0.25   0.00  -0.00    -0.00  -0.00  -0.07     0.00   0.00  -0.07
     7   6     0.02   0.05   0.00     0.00   0.00   0.06    -0.00  -0.00   0.06
     8   6     0.12  -0.25  -0.00    -0.00   0.00  -0.03     0.00   0.00  -0.03
     9   6     0.00  -0.00  -0.00     0.00   0.00   0.01     0.00   0.00  -0.01
    10   6    -0.12  -0.25   0.00    -0.00  -0.00  -0.03     0.00   0.00   0.03
    11   6    -0.02   0.05  -0.00    -0.00   0.00   0.06     0.00  -0.00  -0.06
    12   6     0.25  -0.00   0.00     0.00   0.00  -0.07    -0.00  -0.00   0.07
    13   6    -0.02  -0.05   0.00    -0.00  -0.00   0.06     0.00   0.00  -0.06
    14   6    -0.12   0.25  -0.00    -0.00   0.00  -0.03     0.00  -0.00   0.03
    15   1     0.06   0.30  -0.00     0.00  -0.00   0.20    -0.00  -0.00   0.20
    16   1    -0.04  -0.07   0.00    -0.00  -0.00  -0.36     0.00   0.00  -0.36
    17   1    -0.26   0.00   0.00    -0.00  -0.00   0.38    -0.00   0.00   0.38
    18   1    -0.04   0.07  -0.00     0.00  -0.00  -0.36    -0.00   0.00  -0.36
    19   1     0.06  -0.30   0.00    -0.00   0.00   0.20     0.00   0.00   0.20
    20   1    -0.06  -0.30  -0.00    -0.00  -0.00   0.20    -0.00   0.00  -0.20
    21   1     0.04   0.07   0.00     0.00   0.00  -0.36    -0.00  -0.00   0.36
    22   1     0.26  -0.00  -0.00     0.00   0.00   0.38    -0.00   0.00  -0.38
    23   1     0.04  -0.07  -0.00    -0.00  -0.00  -0.36    -0.00   0.00   0.36
    24   1    -0.06   0.30   0.00     0.00   0.00   0.20    -0.00  -0.00  -0.20
                     34                     35                     36
                     AG                     B3U                    B1G
 Frequencies --   1051.3936              1053.2539              1100.0760
 Red. masses --      2.2318                 2.0128                 1.5035
 Frc consts  --      1.4536                 1.3156                 1.0720
 IR Inten    --      0.0000                 6.8811                 0.0000
  Atom  AN      X      Y      Z        X      Y      Z        X      Y      Z
     1   6    -0.01  -0.00  -0.00    -0.02   0.00  -0.00     0.00   0.02   0.00
     2   6     0.01   0.00  -0.00    -0.02   0.00   0.00    -0.00  -0.02  -0.00
     3   6     0.03  -0.00   0.00    -0.00   0.00  -0.00    -0.00   0.04   0.00
     4   6     0.04  -0.03  -0.00     0.04  -0.03  -0.00    -0.07  -0.03  -0.00
     5   6    -0.02   0.14   0.00    -0.01   0.12  -0.00     0.04  -0.04   0.00
     6   6    -0.11   0.00   0.00    -0.11   0.00   0.00     0.00   0.06  -0.00
     7   6    -0.02  -0.14   0.00    -0.01  -0.12  -0.00    -0.04  -0.04   0.00
     8   6     0.04   0.03   0.00     0.04   0.03   0.00     0.07  -0.03  -0.00
     9   6    -0.03   0.00   0.00    -0.00   0.00  -0.00     0.00  -0.04   0.00
    10   6    -0.04   0.03  -0.00     0.04  -0.03   0.00     0.07   0.03  -0.00
    11   6     0.02  -0.14   0.00    -0.01   0.12  -0.00    -0.04   0.04   0.00
    12   6     0.11  -0.00  -0.00    -0.11   0.00   0.00    -0.00  -0.06  -0.00
    13   6     0.02   0.14   0.00    -0.01  -0.12  -0.00     0.04   0.04   0.00
    14   6    -0.04  -0.03  -0.00     0.04   0.03   0.00    -0.07   0.03  -0.00
    15   1     0.25  -0.15   0.00     0.26  -0.16  -0.00    -0.33   0.11   0.00
    16   1     0.22   0.28  -0.00     0.23   0.27   0.00     0.20   0.05  -0.00
    17   1    -0.12   0.00  -0.00    -0.12   0.00  -0.00     0.00   0.38  -0.00
    18   1     0.22  -0.28  -0.00     0.23  -0.27   0.00    -0.20   0.05  -0.00
    19   1     0.25   0.15  -0.00     0.26   0.16  -0.00     0.33   0.11   0.00
    20   1    -0.25   0.15   0.00     0.26  -0.16  -0.00     0.33  -0.11   0.00
    21   1    -0.22  -0.28  -0.00     0.23   0.27   0.00    -0.20  -0.05  -0.00
    22   1     0.12  -0.00   0.00    -0.12   0.00  -0.00    -0.00  -0.38   0.00
    23   1    -0.22   0.28  -0.00     0.23  -0.27   0.00     0.20  -0.05  -0.00
    24   1    -0.25  -0.15   0.00     0.26   0.16  -0.00    -0.33  -0.11   0.00
                     37                     38                     39
                     B2U                    AG                     B1G
 Frequencies --   1100.8313              1170.2711              1172.4984
 Red. masses --      1.4978                 2.7533                 1.0792
 Frc consts  --      1.0694                 2.2216                 0.8741
 IR Inten    --     10.4876                 0.0000                 0.0000
  Atom  AN      X      Y      Z        X      Y      Z        X      Y      Z
     1   6    -0.00  -0.01  -0.00    -0.04   0.00   0.00     0.00   0.00  -0.00
     2   6    -0.00  -0.01   0.00     0.04  -0.00   0.00    -0.00  -0.00  -0.00
     3   6    -0.00   0.04  -0.00     0.25  -0.00   0.00    -0.00  -0.01  -0.00
     4   6    -0.07  -0.03   0.00     0.00   0.02  -0.00    -0.00  -0.00   0.00
     5   6     0.04  -0.04  -0.00    -0.05   0.07   0.00    -0.02  -0.01  -0.00
     6   6     0.00   0.06  -0.00     0.03   0.00   0.00    -0.00   0.04  -0.00
     7   6    -0.04  -0.04  -0.00    -0.05  -0.07   0.00     0.02  -0.01  -0.00
     8   6     0.07  -0.03   0.00     0.00  -0.02   0.00     0.00  -0.00   0.00
     9   6    -0.00   0.04   0.00    -0.25   0.00   0.00     0.00   0.01  -0.00
    10   6    -0.07  -0.03  -0.00    -0.00  -0.02  -0.00     0.00   0.00   0.00
    11   6     0.04  -0.04   0.00     0.05  -0.07   0.00     0.02   0.01  -0.00
    12   6     0.00   0.06   0.00    -0.03  -0.00   0.00     0.00  -0.04  -0.00
    13   6    -0.04  -0.04  -0.00     0.05   0.07   0.00    -0.02   0.01  -0.00
    14   6     0.07  -0.03  -0.00    -0.00   0.02   0.00    -0.00   0.00   0.00
    15   1    -0.33   0.11  -0.00    -0.37   0.25   0.00     0.10  -0.06  -0.00
    16   1     0.20   0.05   0.00    -0.08   0.05  -0.00    -0.30  -0.17   0.00
    17   1     0.00   0.39   0.00     0.03   0.00  -0.00    -0.00   0.49   0.00
    18   1    -0.20   0.05   0.00    -0.08  -0.05  -0.00     0.30  -0.17   0.00
    19   1     0.33   0.11  -0.00    -0.37  -0.25  -0.00    -0.10  -0.06   0.00
    20   1    -0.33   0.11   0.00     0.37  -0.25   0.00    -0.10   0.06  -0.00
    21   1     0.20   0.05  -0.00     0.08  -0.05  -0.00     0.30   0.17   0.00
    22   1     0.00   0.39  -0.00    -0.03  -0.00  -0.00     0.00  -0.49   0.00
    23   1    -0.20   0.05  -0.00     0.08   0.05  -0.00    -0.30   0.17   0.00
    24   1     0.33   0.11   0.00     0.37   0.25  -0.00     0.10   0.06   0.00
                     40                     41                     42
                     B2U                    B3U                    AG
 Frequencies --   1172.5077              1191.4322              1194.7230
 Red. masses --      1.0792                 1.1143                 1.2479
 Frc consts  --      0.8741                 0.9320                 1.0495
 IR Inten    --      0.0001                 0.4353                 0.0000
  Atom  AN      X      Y      Z        X      Y      Z        X      Y      Z
     1   6     0.00  -0.00   0.00     0.01   0.00   0.00     0.01  -0.00  -0.00
     2   6     0.00  -0.00  -0.00     0.01   0.00   0.00    -0.01   0.00  -0.00
     3   6     0.00  -0.01   0.00    -0.01   0.00   0.00    -0.06   0.00  -0.00
     4   6    -0.00  -0.00  -0.00     0.03  -0.02  -0.00    -0.04   0.02   0.00
     5   6    -0.02  -0.01   0.00    -0.03  -0.02   0.00     0.04   0.00  -0.00
     6   6     0.00   0.04   0.00    -0.01  -0.00   0.00     0.00  -0.00  -0.00
     7   6     0.02  -0.01   0.00    -0.03   0.02  -0.00     0.04  -0.00  -0.00
     8   6     0.00  -0.00  -0.00     0.03   0.02   0.00    -0.04  -0.02   0.00
     9   6     0.00  -0.01  -0.00    -0.01   0.00  -0.00     0.06  -0.00  -0.00
    10   6    -0.00  -0.00   0.00     0.03  -0.02   0.00     0.04  -0.02   0.00
    11   6    -0.02  -0.01  -0.00    -0.03  -0.02  -0.00    -0.04  -0.00  -0.00
    12   6     0.00   0.04   0.00    -0.01  -0.00  -0.00    -0.00   0.00   0.00
    13   6     0.02  -0.01  -0.00    -0.03   0.02   0.00    -0.04   0.00  -0.00
    14   6     0.00  -0.00   0.00     0.03   0.02  -0.00     0.04   0.02   0.00
    15   1     0.10  -0.06   0.00     0.31  -0.18   0.00    -0.26   0.14  -0.00
    16   1    -0.30  -0.17  -0.00    -0.29  -0.17  -0.00     0.36   0.18   0.00
    17   1     0.00   0.49  -0.00    -0.01  -0.00  -0.00     0.00  -0.00   0.00
    18   1     0.30  -0.17  -0.00    -0.29   0.17   0.00     0.36  -0.18   0.00
    19   1    -0.10  -0.06   0.00     0.31   0.18  -0.00    -0.26  -0.14  -0.00
    20   1     0.10  -0.06  -0.00     0.31  -0.18  -0.00     0.26  -0.14  -0.00
    21   1    -0.30  -0.17   0.00    -0.29  -0.17   0.00    -0.36  -0.18   0.00
    22   1     0.00   0.49   0.00    -0.01  -0.00   0.00    -0.00   0.00   0.00
    23   1     0.30  -0.17   0.00    -0.29   0.17  -0.00    -0.36   0.18   0.00
    24   1    -0.10  -0.06  -0.00     0.31   0.18   0.00     0.26   0.14  -0.00
                     43                     44                     45
                     B1G                    B2U                    B3U
 Frequencies --   1326.0394              1329.2114              1357.2564
 Red. masses --      1.7987                 1.7691                 3.5061
 Frc consts  --      1.8635                 1.8416                 3.8054
 IR Inten    --      0.0000                 0.1985                 2.1428
  Atom  AN      X      Y      Z        X      Y      Z        X      Y      Z
     1   6    -0.00   0.02   0.00    -0.00  -0.01  -0.00    -0.19   0.00  -0.00
     2   6     0.00  -0.02  -0.00    -0.00  -0.01   0.00    -0.19   0.00   0.00
     3   6     0.00   0.16   0.00     0.00   0.16  -0.00     0.22  -0.00  -0.00
     4   6    -0.00  -0.03  -0.00    -0.00  -0.03   0.00     0.08  -0.04   0.00
     5   6    -0.05  -0.04   0.00    -0.05  -0.04  -0.00    -0.04   0.07  -0.00
     6   6     0.00   0.02   0.00     0.00   0.02  -0.00    -0.02  -0.00  -0.00
     7   6     0.05  -0.04   0.00     0.05  -0.04   0.00    -0.04  -0.07   0.00
     8   6     0.00  -0.03   0.00     0.00  -0.03   0.00     0.08   0.04   0.00
     9   6    -0.00  -0.16  -0.00     0.00   0.16   0.00     0.22  -0.00   0.00
    10   6     0.00   0.03  -0.00    -0.00  -0.03  -0.00     0.08  -0.04  -0.00
    11   6     0.05   0.04   0.00    -0.05  -0.04   0.00    -0.04   0.07   0.00
    12   6    -0.00  -0.02  -0.00     0.00   0.02   0.00    -0.02  -0.00   0.00
    13   6    -0.05   0.04   0.00     0.05  -0.04  -0.00    -0.04  -0.07  -0.00
    14   6    -0.00   0.03   0.00     0.00  -0.03  -0.00     0.08   0.04  -0.00
    15   1     0.33  -0.23   0.00     0.32  -0.22  -0.00    -0.27   0.17  -0.00
    16   1     0.24   0.11  -0.00     0.24   0.12   0.00    -0.29  -0.07   0.00
    17   1     0.00   0.09  -0.00     0.00   0.10   0.00    -0.03   0.00   0.00
    18   1    -0.24   0.11  -0.00    -0.24   0.12   0.00    -0.29   0.07   0.00
    19   1    -0.33  -0.23  -0.00    -0.32  -0.22  -0.00    -0.27  -0.17  -0.00
    20   1    -0.33   0.23   0.00     0.32  -0.22   0.00    -0.27   0.17   0.00
    21   1    -0.24  -0.11  -0.00     0.24   0.12  -0.00    -0.29  -0.07  -0.00
    22   1    -0.00  -0.09  -0.00     0.00   0.10  -0.00    -0.03   0.00  -0.00
    23   1     0.24  -0.11  -0.00    -0.24   0.12  -0.00    -0.29   0.07  -0.00
    24   1     0.33   0.23  -0.00    -0.32  -0.22   0.00    -0.27  -0.17   0.00
                     46                     47                     48
                     B1G                    B2U                    B1G
 Frequencies --   1365.3554              1365.5548              1480.5112
 Red. masses --      3.1640                 3.2567                 2.3574
 Frc consts  --      3.4752                 3.5780                 3.0444
 IR Inten    --      0.0000                 0.5733                 0.0000
  Atom  AN      X      Y      Z        X      Y      Z        X      Y      Z
     1   6    -0.00   0.00   0.00    -0.00   0.00  -0.00     0.00  -0.02  -0.00
     2   6     0.00  -0.00   0.00    -0.00   0.00   0.00    -0.00   0.02  -0.00
     3   6     0.00   0.09   0.00     0.00   0.09  -0.00    -0.00  -0.10  -0.00
     4   6     0.14  -0.08  -0.00     0.14  -0.08   0.00     0.08   0.04   0.00
     5   6    -0.08  -0.04   0.00    -0.08  -0.04  -0.00    -0.12  -0.01  -0.00
     6   6     0.00   0.16   0.00    -0.00   0.16  -0.00     0.00  -0.07  -0.00
     7   6     0.08  -0.04   0.00     0.08  -0.04  -0.00     0.12  -0.01  -0.00
     8   6    -0.14  -0.08  -0.00    -0.14  -0.08   0.00    -0.08   0.04  -0.00
     9   6    -0.00  -0.09  -0.00     0.00   0.09   0.00     0.00   0.10   0.00
    10   6    -0.14   0.08  -0.00     0.14  -0.08  -0.00    -0.08  -0.04   0.00
    11   6     0.08   0.04   0.00    -0.08  -0.04  -0.00     0.12   0.01  -0.00
    12   6    -0.00  -0.16  -0.00    -0.00   0.16   0.00    -0.00   0.07  -0.00
    13   6    -0.08   0.04   0.00     0.08  -0.04  -0.00    -0.12   0.01  -0.00
    14   6     0.14   0.08   0.00    -0.14  -0.08  -0.00     0.08  -0.04  -0.00
    15   1    -0.29   0.17   0.00    -0.29   0.17  -0.00    -0.06   0.14  -0.00
    16   1    -0.15  -0.08  -0.00    -0.15  -0.08   0.00     0.24   0.21   0.00
    17   1    -0.00  -0.34  -0.00    -0.00  -0.34   0.00     0.00   0.43   0.00
    18   1     0.15  -0.08  -0.00     0.15  -0.08   0.00    -0.24   0.21   0.00
    19   1     0.29   0.17  -0.00     0.29   0.17  -0.00     0.06   0.14   0.00
    20   1     0.29  -0.17   0.00    -0.29   0.17   0.00     0.06  -0.14  -0.00
    21   1     0.15   0.08  -0.00    -0.15  -0.08  -0.00    -0.24  -0.21   0.00
    22   1     0.00   0.34   0.00    -0.00  -0.34  -0.00    -0.00  -0.43   0.00
    23   1    -0.15   0.08  -0.00     0.15  -0.08  -0.00     0.24  -0.21   0.00
    24   1    -0.29  -0.17  -0.00     0.29   0.17   0.00    -0.06  -0.14   0.00
                     49                     50                     51
                     B2U                    AG                     B3U
 Frequencies --   1482.3301              1523.7963              1547.6581
 Red. masses --      2.3672                 2.2541                 2.8510
 Frc consts  --      3.0646                 3.0837                 4.0235
 IR Inten    --      9.9645                 0.0000                47.1755
  Atom  AN      X      Y      Z        X      Y      Z        X      Y      Z
     1   6     0.00   0.01   0.00    -0.01   0.00   0.00    -0.08  -0.00  -0.00
     2   6     0.00   0.01  -0.00     0.01  -0.00   0.00    -0.08  -0.00   0.00
     3   6     0.00  -0.11   0.00     0.10   0.00   0.00     0.16   0.00  -0.00
     4   6     0.08   0.04  -0.00    -0.06   0.07  -0.00    -0.04   0.07   0.00
     5   6    -0.12  -0.01  -0.00    -0.07  -0.08   0.00    -0.10  -0.08  -0.00
     6   6     0.00  -0.07   0.00     0.07   0.00   0.00     0.09   0.00  -0.00
     7   6     0.12  -0.01  -0.00    -0.07   0.08   0.00    -0.10   0.08   0.00
     8   6    -0.08   0.04  -0.00    -0.06  -0.07   0.00    -0.04  -0.07   0.00
     9   6     0.00  -0.11  -0.00    -0.10  -0.00  -0.00     0.16   0.00   0.00
    10   6     0.08   0.04   0.00     0.06  -0.07  -0.00    -0.04   0.07  -0.00
    11   6    -0.12  -0.01  -0.00     0.07   0.08   0.00    -0.10  -0.08   0.00
    12   6     0.00  -0.07  -0.00    -0.07  -0.00   0.00     0.09   0.00   0.00
    13   6     0.12  -0.01   0.00     0.07  -0.08   0.00    -0.10   0.08   0.00
    14   6    -0.08   0.04   0.00     0.06   0.07   0.00    -0.04  -0.07  -0.00
    15   1    -0.07   0.14   0.00     0.31  -0.13   0.00     0.28  -0.10  -0.00
    16   1     0.24   0.21  -0.00     0.30   0.13  -0.00     0.31   0.15   0.00
    17   1     0.00   0.43  -0.00     0.09  -0.00  -0.00     0.10  -0.00   0.00
    18   1    -0.24   0.21   0.00     0.30  -0.13  -0.00     0.31  -0.15   0.00
    19   1     0.07   0.14  -0.00     0.31   0.13  -0.00     0.28   0.10  -0.00
    20   1    -0.07   0.14  -0.00    -0.31   0.13   0.00     0.28  -0.10   0.00
    21   1     0.24   0.21   0.00    -0.30  -0.13  -0.00     0.31   0.15  -0.00
    22   1     0.00   0.43   0.00    -0.09   0.00  -0.00     0.10  -0.00  -0.00
    23   1    -0.24   0.21  -0.00    -0.30   0.13  -0.00     0.31  -0.15  -0.00
    24   1     0.07   0.14   0.00    -0.31  -0.13  -0.00     0.28   0.10   0.00
                     52                     53                     54
                     B1G                    B2U                    AG
 Frequencies --   1628.3381              1629.7384              1659.2458
 Red. masses --      5.5872                 5.6447                 5.8445
 Frc consts  --      8.7284                 8.8334                 9.4802
 IR Inten    --      0.0000                 2.9585                 0.0000
  Atom  AN      X      Y      Z        X      Y      Z        X      Y      Z
     1   6    -0.00  -0.01  -0.00    -0.00   0.01   0.00    -0.00   0.00   0.00
     2   6     0.00   0.01  -0.00    -0.00   0.01  -0.00     0.00  -0.00   0.00
     3   6     0.00  -0.19  -0.00     0.00  -0.19  -0.00     0.13   0.00   0.00
     4   6    -0.08   0.13   0.00    -0.08   0.13  -0.00    -0.21   0.05  -0.00
     5   6    -0.04  -0.15  -0.00    -0.04  -0.15   0.00     0.21   0.06   0.00
     6   6    -0.00   0.28   0.00     0.00   0.28   0.00    -0.11  -0.00   0.00
     7   6     0.04  -0.15  -0.00     0.04  -0.15  -0.00     0.21  -0.06   0.00
     8   6     0.08   0.13   0.00     0.08   0.13  -0.00    -0.21  -0.05   0.00
     9   6    -0.00   0.19   0.00     0.00  -0.19  -0.00    -0.13  -0.00  -0.00
    10   6     0.08  -0.13   0.00    -0.08   0.13   0.00     0.21  -0.05  -0.00
    11   6     0.04   0.15  -0.00    -0.04  -0.15  -0.00    -0.21  -0.06   0.00
    12   6     0.00  -0.28  -0.00     0.00   0.28   0.00     0.11   0.00  -0.00
    13   6    -0.04   0.15   0.00     0.04  -0.15  -0.00    -0.21   0.06  -0.00
    14   6    -0.08  -0.13  -0.00     0.08   0.13   0.00     0.21   0.05   0.00
    15   1     0.21  -0.03  -0.00     0.21  -0.03   0.00     0.18  -0.19   0.00
    16   1     0.16  -0.06   0.00     0.16  -0.05  -0.00    -0.19  -0.18  -0.00
    17   1    -0.00  -0.38   0.00     0.00  -0.38  -0.00    -0.12  -0.00  -0.00
    18   1    -0.16  -0.06   0.00    -0.16  -0.05   0.00    -0.19   0.18  -0.00
    19   1    -0.21  -0.03   0.00    -0.21  -0.03  -0.00     0.18   0.19  -0.00
    20   1    -0.21   0.03  -0.00     0.21  -0.03  -0.00    -0.18   0.19   0.00
    21   1    -0.16   0.06   0.00     0.16  -0.05   0.00     0.19   0.18  -0.00
    22   1     0.00   0.38   0.00     0.00  -0.38   0.00     0.12   0.00  -0.00
    23   1     0.16   0.06   0.00    -0.16  -0.05   0.00     0.19  -0.18  -0.00
    24   1     0.21   0.03   0.00    -0.21  -0.03  -0.00    -0.18  -0.19  -0.00
                     55                     56                     57
                     B3U                    AG                     B3U
 Frequencies --   1668.9684              2314.4250              3169.4637
 Red. masses --      6.0891                11.9963                 1.0854
 Frc consts  --      9.9931                37.8602                 6.4242
 IR Inten    --     26.2785                 0.0000                 3.8924
  Atom  AN      X      Y      Z        X      Y      Z        X      Y      Z
     1   6     0.05   0.00   0.00     0.70  -0.00   0.00    -0.00   0.00  -0.00
     2   6     0.05   0.00  -0.00    -0.70   0.00  -0.00    -0.00   0.00   0.00
     3   6    -0.18   0.00   0.00     0.10  -0.00   0.00     0.00  -0.00  -0.00
     4   6     0.22  -0.06  -0.00     0.01  -0.01   0.00     0.00   0.01   0.00
     5   6    -0.20  -0.05   0.00    -0.01  -0.00  -0.00     0.02  -0.03  -0.00
     6   6     0.10  -0.00   0.00     0.00  -0.00  -0.00    -0.04  -0.00  -0.00
     7   6    -0.20   0.05  -0.00    -0.01   0.00  -0.00     0.02   0.03   0.00
     8   6     0.22   0.06  -0.00     0.01   0.01  -0.00     0.00  -0.01  -0.00
     9   6    -0.18   0.00  -0.00    -0.10   0.00  -0.00     0.00  -0.00   0.00
    10   6     0.22  -0.06   0.00    -0.01   0.01   0.00     0.00   0.01  -0.00
    11   6    -0.20  -0.05  -0.00     0.01   0.00  -0.00     0.02  -0.03   0.00
    12   6     0.10  -0.00  -0.00    -0.00   0.00  -0.00    -0.04  -0.00   0.00
    13   6    -0.20   0.05  -0.00     0.01  -0.00  -0.00     0.02   0.03   0.00
    14   6     0.22   0.06   0.00    -0.01  -0.01  -0.00     0.00  -0.01   0.00
    15   1    -0.20   0.19   0.00    -0.00   0.00  -0.00    -0.07  -0.12  -0.00
    16   1     0.16   0.16  -0.00    -0.00   0.00   0.00    -0.19   0.33   0.00
    17   1     0.11   0.00  -0.00     0.01  -0.00   0.00     0.42  -0.00   0.00
    18   1     0.16  -0.16   0.00    -0.00  -0.00   0.00    -0.19  -0.33  -0.00
    19   1    -0.20  -0.19   0.00    -0.00  -0.00   0.00    -0.07   0.12   0.00
    20   1    -0.20   0.19  -0.00     0.00  -0.00  -0.00    -0.07  -0.12   0.00
    21   1     0.16   0.16   0.00     0.00  -0.00   0.00    -0.19   0.33  -0.00
    22   1     0.11   0.00   0.00    -0.01   0.00   0.00     0.42  -0.00  -0.00
    23   1     0.16  -0.16   0.00     0.00   0.00   0.00    -0.19  -0.33  -0.00
    24   1    -0.20  -0.19  -0.00     0.00   0.00   0.00    -0.07   0.12  -0.00
                     58                     59                     60
                     AG                     B1G                    B2U
 Frequencies --   3169.5260              3178.4070              3178.4400
 Red. masses --      1.0854                 1.0892                 1.0893
 Frc consts  --      6.4245                 6.4832                 6.4835
 IR Inten    --      0.0000                 0.0000                10.5956
  Atom  AN      X      Y      Z        X      Y      Z        X      Y      Z
     1   6    -0.00   0.00   0.00     0.00  -0.00   0.00     0.00   0.00  -0.00
     2   6     0.00  -0.00   0.00    -0.00   0.00   0.00     0.00   0.00   0.00
     3   6     0.00  -0.00   0.00    -0.00  -0.00  -0.00     0.00  -0.00  -0.00
     4   6     0.00   0.01  -0.00     0.01   0.02  -0.00     0.01   0.02   0.00
     5   6     0.02  -0.03   0.00     0.02  -0.03   0.00     0.02  -0.03  -0.00
     6   6    -0.04   0.00  -0.00    -0.00   0.00   0.00    -0.00   0.00  -0.00
     7   6     0.02   0.03   0.00    -0.02  -0.03  -0.00    -0.02  -0.03  -0.00
     8   6     0.00  -0.01   0.00    -0.01   0.02   0.00    -0.01   0.02   0.00
     9   6    -0.00   0.00   0.00     0.00   0.00   0.00     0.00  -0.00   0.00
    10   6    -0.00  -0.01  -0.00    -0.01  -0.02  -0.00     0.01   0.02  -0.00
    11   6    -0.02   0.03   0.00    -0.02   0.03   0.00     0.02  -0.03   0.00
    12   6     0.04  -0.00   0.00     0.00  -0.00  -0.00    -0.00   0.00   0.00
    13   6    -0.02  -0.03  -0.00     0.02   0.03   0.00    -0.02  -0.03  -0.00
    14   6    -0.00   0.01   0.00     0.01  -0.02   0.00    -0.01   0.02  -0.00
    15   1    -0.07  -0.12   0.00    -0.11  -0.19  -0.00    -0.11  -0.19  -0.00
    16   1    -0.19   0.32  -0.00    -0.22   0.39  -0.00    -0.22   0.39   0.00
    17   1     0.42  -0.00   0.00     0.00  -0.00  -0.00     0.00  -0.00   0.00
    18   1    -0.19  -0.32  -0.00     0.22   0.39   0.00     0.22   0.39   0.00
    19   1    -0.07   0.12  -0.00     0.11  -0.19  -0.00     0.11  -0.19  -0.00
    20   1     0.07   0.12   0.00     0.11   0.19   0.00    -0.11  -0.19   0.00
    21   1     0.19  -0.32  -0.00     0.22  -0.39  -0.00    -0.22   0.39  -0.00
    22   1    -0.42   0.00  -0.00    -0.00   0.00  -0.00     0.00  -0.00  -0.00
    23   1     0.19   0.32   0.00    -0.22  -0.39  -0.00     0.22   0.39   0.00
    24   1     0.07  -0.12  -0.00    -0.11   0.19  -0.00     0.11  -0.19   0.00
                     61                     62                     63
                     B3U                    AG                     B1G
 Frequencies --   3189.5303              3189.6073              3197.2713
 Red. masses --      1.0933                 1.0932                 1.0951
 Frc consts  --      6.5528                 6.5530                 6.5956
 IR Inten    --     36.0298                 0.0000                 0.0000
  Atom  AN      X      Y      Z        X      Y      Z        X      Y      Z
     1   6     0.00   0.00  -0.00     0.00   0.00   0.00    -0.00   0.00  -0.00
     2   6     0.00   0.00   0.00    -0.00  -0.00   0.00     0.00  -0.00  -0.00
     3   6    -0.00  -0.00  -0.00    -0.00   0.00  -0.00    -0.00   0.00   0.00
     4   6    -0.01  -0.02   0.00    -0.01  -0.02  -0.00    -0.02  -0.03   0.00
     5   6    -0.01   0.01   0.00    -0.01   0.01   0.00     0.01  -0.02  -0.00
     6   6    -0.04  -0.00  -0.00    -0.04  -0.00   0.00    -0.00   0.00  -0.00
     7   6    -0.01  -0.01  -0.00    -0.01  -0.01   0.00    -0.01  -0.02  -0.00
     8   6    -0.01   0.02   0.00    -0.01   0.02   0.00     0.02  -0.03  -0.00
     9   6    -0.00  -0.00   0.00     0.00  -0.00   0.00     0.00  -0.00  -0.00
    10   6    -0.01  -0.02  -0.00     0.01   0.02  -0.00     0.02   0.03   0.00
    11   6    -0.01   0.01   0.00     0.01  -0.01   0.00    -0.01   0.02  -0.00
    12   6    -0.04  -0.00   0.00     0.04   0.00  -0.00     0.00  -0.00  -0.00
    13   6    -0.01  -0.01  -0.00     0.01   0.01   0.00     0.01   0.02   0.00
    14   6    -0.01   0.02  -0.00     0.01  -0.02  -0.00    -0.02   0.03  -0.00
    15   1     0.15   0.27   0.00     0.15   0.27  -0.00     0.23   0.39   0.00
    16   1     0.08  -0.15   0.00     0.08  -0.15  -0.00    -0.11   0.19   0.00
    17   1     0.50   0.00   0.00     0.50   0.00   0.00     0.00  -0.00   0.00
    18   1     0.08   0.15   0.00     0.08   0.15  -0.00     0.11   0.19   0.00
    19   1     0.15  -0.27  -0.00     0.15  -0.27  -0.00    -0.23   0.39   0.00
    20   1     0.15   0.27   0.00    -0.15  -0.27  -0.00    -0.23  -0.39   0.00
    21   1     0.08  -0.15  -0.00    -0.08   0.15  -0.00     0.11  -0.19   0.00
    22   1     0.50   0.00  -0.00    -0.50  -0.00  -0.00    -0.00   0.00   0.00
    23   1     0.08   0.15  -0.00    -0.08  -0.15  -0.00    -0.11  -0.19   0.00
    24   1     0.15  -0.27   0.00    -0.15   0.27  -0.00     0.23  -0.39   0.00
                     64                     65                     66
                     B2U                    B3U                    AG
 Frequencies --   3197.4110              3201.0670              3201.2459
 Red. masses --      1.0951                 1.0985                 1.0985
 Frc consts  --      6.5964                 6.6319                 6.6329
 IR Inten    --     34.3143                15.6725                 0.0000
  Atom  AN      X      Y      Z        X      Y      Z        X      Y      Z
     1   6    -0.00  -0.00   0.00     0.00   0.00   0.00     0.00  -0.00  -0.00
     2   6    -0.00  -0.00  -0.00     0.00   0.00  -0.00    -0.00   0.00  -0.00
     3   6    -0.00   0.00   0.00    -0.00  -0.00   0.00    -0.00  -0.00  -0.00
     4   6    -0.02  -0.03  -0.00    -0.02  -0.03  -0.00    -0.02  -0.03   0.00
     5   6     0.01  -0.02   0.00     0.01  -0.02   0.00     0.01  -0.02  -0.00
     6   6    -0.00   0.00   0.00     0.02  -0.00   0.00     0.02  -0.00  -0.00
     7   6    -0.01  -0.02  -0.00     0.01   0.02   0.00     0.01   0.02   0.00
     8   6     0.02  -0.03  -0.00    -0.02   0.03   0.00    -0.02   0.03  -0.00
     9   6    -0.00   0.00  -0.00    -0.00  -0.00  -0.00     0.00   0.00   0.00
    10   6    -0.02  -0.03   0.00    -0.02  -0.03   0.00     0.02   0.03   0.00
    11   6     0.01  -0.02  -0.00     0.01  -0.02  -0.00    -0.01   0.02  -0.00
    12   6    -0.00   0.00  -0.00     0.02  -0.00  -0.00    -0.02   0.00   0.00
    13   6    -0.01  -0.02  -0.00     0.01   0.02   0.00    -0.01  -0.02  -0.00
    14   6     0.02  -0.03   0.00    -0.02   0.03  -0.00     0.02  -0.03  -0.00
    15   1     0.23   0.39   0.00     0.19   0.32   0.00     0.19   0.32  -0.00
    16   1    -0.11   0.19   0.00    -0.14   0.24  -0.00    -0.14   0.24   0.00
    17   1     0.00  -0.00  -0.00    -0.26  -0.00  -0.00    -0.26   0.00  -0.00
    18   1     0.11   0.19   0.00    -0.14  -0.24  -0.00    -0.14  -0.24  -0.00
    19   1    -0.23   0.39   0.00     0.19  -0.32  -0.00     0.19  -0.32   0.00
    20   1     0.23   0.39   0.00     0.19   0.32  -0.00    -0.19  -0.32  -0.00
    21   1    -0.11   0.19  -0.00    -0.14   0.24   0.00     0.14  -0.24  -0.00
    22   1     0.00  -0.00   0.00    -0.26  -0.00   0.00     0.26  -0.00   0.00
    23   1     0.11   0.19  -0.00    -0.14  -0.24  -0.00     0.14   0.24   0.00
    24   1    -0.23   0.39  -0.00     0.19  -0.32   0.00    -0.19   0.32   0.00

 -------------------
 - Thermochemistry -
 -------------------
 Temperature   298.150 Kelvin.  Pressure   0.98700 Atm.
 Thermochemistry will use frequencies scaled by 0.9610.
 Atom     1 has atomic number  6 and mass  12.00000
 Atom     2 has atomic number  6 and mass  12.00000
 Atom     3 has atomic number  6 and mass  12.00000
 Atom     4 has atomic number  6 and mass  12.00000
 Atom     5 has atomic number  6 and mass  12.00000
 Atom     6 has atomic number  6 and mass  12.00000
 Atom     7 has atomic number  6 and mass  12.00000
 Atom     8 has atomic number  6 and mass  12.00000
 Atom     9 has atomic number  6 and mass  12.00000
 Atom    10 has atomic number  6 and mass  12.00000
 Atom    11 has atomic number  6 and mass  12.00000
 Atom    12 has atomic number  6 and mass  12.00000
 Atom    13 has atomic number  6 and mass  12.00000
 Atom    14 has atomic number  6 and mass  12.00000
 Atom    15 has atomic number  1 and mass   1.00783
 Atom    16 has atomic number  1 and mass   1.00783
 Atom    17 has atomic number  1 and mass   1.00783
 Atom    18 has atomic number  1 and mass   1.00783
 Atom    19 has atomic number  1 and mass   1.00783
 Atom    20 has atomic number  1 and mass   1.00783
 Atom    21 has atomic number  1 and mass   1.00783
 Atom    22 has atomic number  1 and mass   1.00783
 Atom    23 has atomic number  1 and mass   1.00783
 Atom    24 has atomic number  1 and mass   1.00783
 Molecular mass:   178.07825 amu.
 Principal axes and moments of inertia in atomic units:
                           1         2         3
     Eigenvalues --   638.129437297.318707935.44812
           X            1.00000  -0.00000   0.00000
           Y            0.00000   1.00000   0.00000
           Z            0.00000  -0.00000   1.00000
 This molecule is an asymmetric top.
 Rotational symmetry number  4.
 Warning -- assumption of classical behavior for rotation
           may cause significant error
 Rotational temperatures (Kelvin)      0.13573     0.01187     0.01091
 Rotational constants (GHZ):           2.82817     0.24732     0.22743
 Zero-point vibrational energy     484287.5 (Joules/Mol)
                                  115.74748 (Kcal/Mol)
 Warning -- explicit consideration of  17 degrees of freedom as
           vibrations may cause significant error
 Vibrational temperatures:     30.24    61.55    71.27   196.18   211.28
          (Kelvin)            361.25   401.72   571.91   575.63   577.10
                              656.46   741.86   757.18   797.79   808.59
                              877.44   885.06   989.81   990.15   992.81
                             1088.85  1090.12  1192.03  1192.51  1192.71
                             1308.41  1309.29  1382.13  1382.14  1404.10
                             1404.81  1417.65  1417.69  1453.72  1456.30
                             1521.04  1522.08  1618.09  1621.17  1621.18
                             1647.35  1651.90  1833.47  1837.85  1876.63
                             1887.83  1888.10  2047.05  2049.57  2106.90
                             2139.89  2251.45  2253.38  2294.18  2307.62
                             3200.07  4382.31  4382.39  4394.67  4394.72
                             4410.05  4410.16  4420.75  4420.95  4426.00
                             4426.25
 
 Zero-point correction=                           0.184455 (Hartree/Particle)
 Thermal correction to Energy=                    0.195830
 Thermal correction to Enthalpy=                  0.196774
 Thermal correction to Gibbs Free Energy=         0.146153
 Sum of electronic and zero-point Energies=           -538.918893
 Sum of electronic and thermal Energies=              -538.907519
 Sum of electronic and thermal Enthalpies=            -538.906574
 Sum of electronic and thermal Free Energies=         -538.957195
 
                     E (Thermal)             CV                S
                      KCal/Mol        Cal/Mol-Kelvin    Cal/Mol-Kelvin
 Total                  122.885             44.818            106.540
 Electronic               0.000              0.000              0.000
 Translational            0.889              2.981             41.464
 Rotational               0.889              2.981             29.225
 Vibrational            121.107             38.856             35.851
 Vibration     1          0.593              1.986              6.536
 Vibration     2          0.595              1.980              5.126
 Vibration     3          0.595              1.978              4.836
 Vibration     4          0.614              1.917              2.854
 Vibration     5          0.617              1.906              2.713
 Vibration     6          0.663              1.761              1.723
 Vibration     7          0.680              1.712              1.539
 Vibration     8          0.764              1.475              0.972
 Vibration     9          0.766              1.470              0.962
 Vibration    10          0.767              1.468              0.959
 Vibration    11          0.814              1.347              0.777
 Vibration    12          0.871              1.215              0.620
 Vibration    13          0.881              1.192              0.596
 Vibration    14          0.910              1.130              0.535
 Vibration    15          0.918              1.114              0.520
 Vibration    16          0.969              1.011              0.433
 Vibration    17          0.975              1.000              0.424
                       Q            Log10(Q)             Ln(Q)
 Total Bot       0.594706D-67        -67.225698       -154.792890
 Total V=0       0.414762D+18         17.617799         40.566482
 Vib (Bot)       0.115516D-80        -80.937358       -186.365155
 Vib (Bot)    1  0.985494D+01          0.993654          2.287973
 Vib (Bot)    2  0.483553D+01          0.684444          1.575991
 Vib (Bot)    3  0.417355D+01          0.620505          1.428766
 Vib (Bot)    4  0.149274D+01          0.173985          0.400615
 Vib (Bot)    5  0.138206D+01          0.140528          0.323579
 Vib (Bot)    6  0.776929D+00         -0.109619         -0.252406
 Vib (Bot)    7  0.688887D+00         -0.161852         -0.372678
 Vib (Bot)    8  0.449212D+00         -0.347548         -0.800260
 Vib (Bot)    9  0.445469D+00         -0.351182         -0.808627
 Vib (Bot)   10  0.444008D+00         -0.352609         -0.811912
 Vib (Bot)   11  0.373934D+00         -0.427205         -0.983676
 Vib (Bot)   12  0.314305D+00         -0.502649         -1.157391
 Vib (Bot)   13  0.304950D+00         -0.515771         -1.187606
 Vib (Bot)   14  0.281796D+00         -0.550065         -1.266570
 Vib (Bot)   15  0.276016D+00         -0.559066         -1.287298
 Vib (Bot)   16  0.242361D+00         -0.615537         -1.417326
 Vib (Bot)   17  0.238951D+00         -0.621691         -1.431497
 Vib (V=0)       0.805636D+04          3.906139          8.994217
 Vib (V=0)    1  0.103676D+02          1.015679          2.338687
 Vib (V=0)    2  0.536131D+01          0.729271          1.679209
 Vib (V=0)    3  0.470339D+01          0.672411          1.548283
 Vib (V=0)    4  0.207426D+01          0.316862          0.729602
 Vib (V=0)    5  0.196973D+01          0.294406          0.677896
 Vib (V=0)    6  0.142391D+01          0.153484          0.353410
 Vib (V=0)    7  0.135121D+01          0.130724          0.301003
 Vib (V=0)    8  0.117215D+01          0.068985          0.158844
 Vib (V=0)    9  0.116966D+01          0.068059          0.156712
 Vib (V=0)   10  0.116869D+01          0.067698          0.155881
 Vib (V=0)   11  0.112436D+01          0.050906          0.117215
 Vib (V=0)   12  0.109058D+01          0.037659          0.086712
 Vib (V=0)   13  0.108566D+01          0.035693          0.082186
 Vib (V=0)   14  0.107394D+01          0.030981          0.071336
 Vib (V=0)   15  0.107113D+01          0.029840          0.068710
 Vib (V=0)   16  0.105564D+01          0.023517          0.054150
 Vib (V=0)   17  0.105416D+01          0.022908          0.052748
 Electronic      0.100000D+01          0.000000          0.000000
 Translational   0.946353D+08          7.976053         18.365541
 Rotational      0.544011D+06          5.735607         13.206724
 ***** Axes restored to original set *****
 -------------------------------------------------------------------
 Center     Atomic                   Forces (Hartrees/Bohr)
 Number     Number              X              Y              Z
 -------------------------------------------------------------------
      1        6           0.000011504   -0.000000047   -0.000000018
      2        6          -0.000011504    0.000000047    0.000000018
      3        6          -0.000031274    0.000000127    0.000000049
      4        6           0.000028772    0.000022415    0.000000255
      5        6           0.000007202   -0.000037709   -0.000000512
      6        6          -0.000042582    0.000000174    0.000000066
      7        6           0.000007511    0.000037649    0.000000489
      8        6           0.000028588   -0.000022649   -0.000000344
      9        6           0.000031274   -0.000000127   -0.000000049
     10        6          -0.000028772   -0.000022415   -0.000000255
     11        6          -0.000007202    0.000037709    0.000000512
     12        6           0.000042582   -0.000000174   -0.000000066
     13        6          -0.000007511   -0.000037649   -0.000000489
     14        6          -0.000028588    0.000022649    0.000000344
     15        1          -0.000001656   -0.000002445   -0.000000030
     16        1           0.000003831   -0.000004637   -0.000000067
     17        1          -0.000000210    0.000000001    0.000000000
     18        1           0.000003869    0.000004605    0.000000055
     19        1          -0.000001636    0.000002458    0.000000035
     20        1           0.000001656    0.000002445    0.000000030
     21        1          -0.000003831    0.000004637    0.000000067
     22        1           0.000000210   -0.000000001   -0.000000000
     23        1          -0.000003869   -0.000004605   -0.000000055
     24        1           0.000001636   -0.000002458   -0.000000035
 -------------------------------------------------------------------
 Cartesian Forces:  Max     0.000042582 RMS     0.000015476
 FormGI is forming the generalized inverse of G from B-inverse, IUseBI=4.

 GradGradGradGradGradGradGradGradGradGradGradGradGradGradGradGradGradGrad
 Berny optimization.
 Internal  Forces:  Max     0.000042134 RMS     0.000009872
 Search for a local minimum.
 Step number   1 out of a maximum of    2
 All quantities printed in internal units (Hartrees-Bohrs-Radians)
 Second derivative matrix not updated -- analytic derivatives used.
 ITU=  0
     Eigenvalues ---    0.00074   0.01552   0.01673   0.01788   0.01793
     Eigenvalues ---    0.01806   0.01856   0.02106   0.02232   0.02405
     Eigenvalues ---    0.02407   0.02538   0.02561   0.02746   0.02747
     Eigenvalues ---    0.02883   0.02900   0.02990   0.02992   0.04011
     Eigenvalues ---    0.05161   0.05233   0.09259   0.10804   0.10820
     Eigenvalues ---    0.11290   0.11312   0.11707   0.11742   0.12351
     Eigenvalues ---    0.12353   0.12644   0.12649   0.16141   0.17013
     Eigenvalues ---    0.19357   0.19393   0.19403   0.19470   0.19555
     Eigenvalues ---    0.19686   0.29579   0.29623   0.35329   0.35558
     Eigenvalues ---    0.35607   0.35607   0.35848   0.35869   0.35953
     Eigenvalues ---    0.35960   0.35963   0.36035   0.36671   0.37741
     Eigenvalues ---    0.42263   0.42275   0.43624   0.43830   0.46800
     Eigenvalues ---    0.46858   0.47724   0.47767   0.51881   0.51938
     Eigenvalues ---    1.04649
 Angle between quadratic step and forces=  22.07 degrees.
 Linear search not attempted -- first point.
 Iteration  1 RMS(Cart)=  0.00004315 RMS(Int)=  0.00000001
 Iteration  2 RMS(Cart)=  0.00000001 RMS(Int)=  0.00000001
 ClnCor:  largest displacement from symmetrization is 3.25D-08 for atom    15.
 Variable       Old X    -DE/DX   Delta X   Delta X   Delta X     New X
                                 (Linear)    (Quad)   (Total)
    R1        2.30371   0.00001   0.00000   0.00001   0.00001   2.30371
    R2        2.69530  -0.00000   0.00000   0.00001   0.00001   2.69531
    R3        2.69530  -0.00000   0.00000   0.00001   0.00001   2.69531
    R4        2.66733  -0.00002   0.00000  -0.00006  -0.00006   2.66727
    R5        2.66733  -0.00002   0.00000  -0.00006  -0.00006   2.66727
    R6        2.63466   0.00001   0.00000   0.00002   0.00002   2.63469
    R7        2.06515   0.00000   0.00000   0.00000   0.00000   2.06515
    R8        2.64432   0.00004   0.00000   0.00009   0.00009   2.64441
    R9        2.06763   0.00000   0.00000   0.00000   0.00000   2.06763
   R10        2.64432   0.00004   0.00000   0.00009   0.00009   2.64441
   R11        2.06736   0.00000   0.00000  -0.00000  -0.00000   2.06735
   R12        2.63466   0.00001   0.00000   0.00002   0.00002   2.63469
   R13        2.06763   0.00000   0.00000   0.00000   0.00000   2.06763
   R14        2.06515   0.00000   0.00000   0.00000   0.00000   2.06515
   R15        2.66733  -0.00002   0.00000  -0.00006  -0.00006   2.66727
   R16        2.66733  -0.00002   0.00000  -0.00006  -0.00006   2.66727
   R17        2.63466   0.00001   0.00000   0.00002   0.00002   2.63469
   R18        2.06515   0.00000   0.00000   0.00000   0.00000   2.06515
   R19        2.64432   0.00004   0.00000   0.00009   0.00009   2.64441
   R20        2.06763   0.00000   0.00000   0.00000   0.00000   2.06763
   R21        2.64432   0.00004   0.00000   0.00009   0.00009   2.64441
   R22        2.06736   0.00000   0.00000  -0.00000  -0.00000   2.06735
   R23        2.63466   0.00001   0.00000   0.00002   0.00002   2.63469
   R24        2.06763   0.00000   0.00000   0.00000   0.00000   2.06763
   R25        2.06515   0.00000   0.00000   0.00000   0.00000   2.06515
    A1        2.10527  -0.00001   0.00000  -0.00002  -0.00002   2.10525
    A2        2.10527  -0.00001   0.00000  -0.00002  -0.00002   2.10525
    A3        2.07264   0.00002   0.00000   0.00004   0.00004   2.07268
    A4        2.10212   0.00001   0.00000   0.00001   0.00001   2.10213
    A5        2.07825   0.00000   0.00000   0.00003   0.00003   2.07827
    A6        2.10282  -0.00001   0.00000  -0.00004  -0.00004   2.10278
    A7        2.09984  -0.00001   0.00000  -0.00002  -0.00002   2.09982
    A8        2.08839  -0.00000   0.00000  -0.00003  -0.00003   2.08836
    A9        2.09495   0.00001   0.00000   0.00005   0.00005   2.09500
   A10        2.08982  -0.00001   0.00000  -0.00003  -0.00003   2.08979
   A11        2.09668   0.00001   0.00000   0.00002   0.00002   2.09670
   A12        2.09668   0.00001   0.00000   0.00002   0.00002   2.09670
   A13        2.09984  -0.00001   0.00000  -0.00002  -0.00002   2.09982
   A14        2.09495   0.00001   0.00000   0.00005   0.00005   2.09500
   A15        2.08839  -0.00000   0.00000  -0.00003  -0.00003   2.08836
   A16        2.10212   0.00001   0.00000   0.00001   0.00001   2.10213
   A17        2.07825   0.00000   0.00000   0.00003   0.00003   2.07827
   A18        2.10282  -0.00001   0.00000  -0.00004  -0.00004   2.10278
   A19        2.10527  -0.00001   0.00000  -0.00002  -0.00002   2.10525
   A20        2.10527  -0.00001   0.00000  -0.00002  -0.00002   2.10525
   A21        2.07264   0.00002   0.00000   0.00004   0.00004   2.07268
   A22        2.10212   0.00001   0.00000   0.00001   0.00001   2.10213
   A23        2.07825   0.00000   0.00000   0.00003   0.00003   2.07827
   A24        2.10282  -0.00001   0.00000  -0.00004  -0.00004   2.10278
   A25        2.09984  -0.00001   0.00000  -0.00002  -0.00002   2.09982
   A26        2.08839  -0.00000   0.00000  -0.00003  -0.00003   2.08836
   A27        2.09495   0.00001   0.00000   0.00005   0.00005   2.09500
   A28        2.08982  -0.00001   0.00000  -0.00003  -0.00003   2.08979
   A29        2.09668   0.00001   0.00000   0.00002   0.00002   2.09670
   A30        2.09668   0.00001   0.00000   0.00002   0.00002   2.09670
   A31        2.09984  -0.00001   0.00000  -0.00002  -0.00002   2.09982
   A32        2.09495   0.00001   0.00000   0.00005   0.00005   2.09500
   A33        2.08839  -0.00000   0.00000  -0.00003  -0.00003   2.08836
   A34        2.10212   0.00001   0.00000   0.00001   0.00001   2.10213
   A35        2.07825   0.00000   0.00000   0.00003   0.00003   2.07827
   A36        2.10282  -0.00001   0.00000  -0.00004  -0.00004   2.10278
   A37        3.14159   0.00000   0.00000  -0.00000   0.00000   3.14159
   A38        3.14159   0.00000   0.00000   0.00000   0.00000   3.14159
   A39        3.14159  -0.00000   0.00000  -0.00000   0.00000   3.14159
   A40        3.14159   0.00000   0.00000   0.00000   0.00000   3.14159
    D1        3.14159  -0.00000   0.00000  -0.00000   0.00000   3.14159
    D2       -0.00000  -0.00000   0.00000  -0.00000   0.00000   0.00000
    D3        0.00000  -0.00000   0.00000  -0.00000   0.00000   0.00000
    D4        3.14159  -0.00000   0.00000  -0.00000   0.00000   3.14159
    D5        3.14159   0.00000   0.00000   0.00000   0.00000   3.14159
    D6       -0.00000  -0.00000   0.00000  -0.00000  -0.00000  -0.00000
    D7       -0.00000  -0.00000   0.00000  -0.00000   0.00000   0.00000
    D8        3.14159  -0.00000   0.00000  -0.00000   0.00000   3.14159
    D9        3.14159   0.00000   0.00000   0.00000   0.00000  -3.14159
   D10        0.00000  -0.00000   0.00000  -0.00000   0.00000   0.00000
   D11        0.00000   0.00000   0.00000   0.00000   0.00000   0.00000
   D12        3.14159  -0.00000   0.00000  -0.00000   0.00000   3.14159
   D13        0.00000  -0.00000   0.00000  -0.00000  -0.00000   0.00000
   D14        3.14159  -0.00000   0.00000  -0.00000   0.00000   3.14159
   D15        3.14159   0.00000   0.00000   0.00000  -0.00000   3.14159
   D16       -0.00000   0.00000   0.00000   0.00000   0.00000   0.00000
   D17        0.00000   0.00000   0.00000   0.00000   0.00000   0.00000
   D18        3.14159   0.00000   0.00000   0.00000   0.00000   3.14159
   D19        3.14159   0.00000   0.00000   0.00000   0.00000   3.14159
   D20        0.00000   0.00000   0.00000   0.00000  -0.00000   0.00000
   D21       -0.00000  -0.00000   0.00000  -0.00000   0.00000   0.00000
   D22        3.14159   0.00000   0.00000   0.00000   0.00000   3.14159
   D23        3.14159   0.00000   0.00000   0.00000   0.00000   3.14159
   D24        0.00000   0.00000   0.00000   0.00000   0.00000   0.00000
   D25       -0.00000  -0.00000   0.00000  -0.00000   0.00000   0.00000
   D26        3.14159   0.00000   0.00000   0.00000   0.00000   3.14159
   D27        3.14159  -0.00000   0.00000  -0.00000   0.00000   3.14159
   D28       -0.00000   0.00000   0.00000   0.00000   0.00000  -0.00000
   D29        3.14159   0.00000   0.00000   0.00000   0.00000   3.14159
   D30        0.00000   0.00000   0.00000  -0.00000   0.00000   0.00000
   D31        0.00000   0.00000   0.00000   0.00000   0.00000   0.00000
   D32        3.14159   0.00000   0.00000   0.00000   0.00000  -3.14159
   D33        3.14159   0.00000   0.00000   0.00000   0.00000   3.14159
   D34        0.00000   0.00000   0.00000   0.00000   0.00000   0.00000
   D35       -0.00000  -0.00000   0.00000  -0.00000   0.00000   0.00000
   D36        3.14159   0.00000   0.00000  -0.00000   0.00000  -3.14159
   D37       -0.00000  -0.00000   0.00000  -0.00000   0.00000   0.00000
   D38        3.14159  -0.00000   0.00000  -0.00000   0.00000   3.14159
   D39        3.14159  -0.00000   0.00000  -0.00000   0.00000   3.14159
   D40        0.00000   0.00000   0.00000  -0.00000   0.00000   0.00000
   D41       -0.00000  -0.00000   0.00000  -0.00000   0.00000   0.00000
   D42        3.14159   0.00000   0.00000   0.00000   0.00000   3.14159
   D43        3.14159  -0.00000   0.00000  -0.00000   0.00000   3.14159
   D44       -0.00000  -0.00000   0.00000  -0.00000   0.00000   0.00000
   D45        0.00000   0.00000   0.00000   0.00000   0.00000   0.00000
   D46        3.14159   0.00000   0.00000   0.00000   0.00000   3.14159
   D47        3.14159   0.00000   0.00000   0.00000   0.00000   3.14159
   D48       -0.00000  -0.00000   0.00000  -0.00000   0.00000   0.00000
   D49       -0.00000  -0.00000   0.00000  -0.00000   0.00000   0.00000
   D50        3.14159  -0.00000   0.00000  -0.00000   0.00000   3.14159
   D51       -3.14159   0.00000   0.00000   0.00000  -0.00000   3.14159
   D52       -0.00000   0.00000   0.00000   0.00000   0.00000   0.00000
         Item               Value     Threshold  Converged?
 Maximum Force            0.000042     0.000450     YES
 RMS     Force            0.000010     0.000300     YES
 Maximum Displacement     0.000152     0.001800     YES
 RMS     Displacement     0.000043     0.001200     YES
 Predicted change in Energy=-1.416859D-08
 Optimization completed.
    -- Stationary point found.
                           ----------------------------
                           !   Optimized Parameters   !
                           ! (Angstroms and Degrees)  !
 --------------------------                            --------------------------
 ! Name  Definition              Value          Derivative Info.                !
 --------------------------------------------------------------------------------
 ! R1    R(1,2)                  1.2191         -DE/DX =    0.0                 !
 ! R2    R(1,9)                  1.4263         -DE/DX =    0.0                 !
 ! R3    R(2,3)                  1.4263         -DE/DX =    0.0                 !
 ! R4    R(3,4)                  1.4115         -DE/DX =    0.0                 !
 ! R5    R(3,8)                  1.4115         -DE/DX =    0.0                 !
 ! R6    R(4,5)                  1.3942         -DE/DX =    0.0                 !
 ! R7    R(4,15)                 1.0928         -DE/DX =    0.0                 !
 ! R8    R(5,6)                  1.3993         -DE/DX =    0.0                 !
 ! R9    R(5,16)                 1.0941         -DE/DX =    0.0                 !
 ! R10   R(6,7)                  1.3993         -DE/DX =    0.0                 !
 ! R11   R(6,17)                 1.094          -DE/DX =    0.0                 !
 ! R12   R(7,8)                  1.3942         -DE/DX =    0.0                 !
 ! R13   R(7,18)                 1.0941         -DE/DX =    0.0                 !
 ! R14   R(8,19)                 1.0928         -DE/DX =    0.0                 !
 ! R15   R(9,10)                 1.4115         -DE/DX =    0.0                 !
 ! R16   R(9,14)                 1.4115         -DE/DX =    0.0                 !
 ! R17   R(10,11)                1.3942         -DE/DX =    0.0                 !
 ! R18   R(10,20)                1.0928         -DE/DX =    0.0                 !
 ! R19   R(11,12)                1.3993         -DE/DX =    0.0                 !
 ! R20   R(11,21)                1.0941         -DE/DX =    0.0                 !
 ! R21   R(12,13)                1.3993         -DE/DX =    0.0                 !
 ! R22   R(12,22)                1.094          -DE/DX =    0.0                 !
 ! R23   R(13,14)                1.3942         -DE/DX =    0.0                 !
 ! R24   R(13,23)                1.0941         -DE/DX =    0.0                 !
 ! R25   R(14,24)                1.0928         -DE/DX =    0.0                 !
 ! A1    A(2,3,4)              120.6233         -DE/DX =    0.0                 !
 ! A2    A(2,3,8)              120.6233         -DE/DX =    0.0                 !
 ! A3    A(4,3,8)              118.7535         -DE/DX =    0.0                 !
 ! A4    A(3,4,5)              120.4423         -DE/DX =    0.0                 !
 ! A5    A(3,4,15)             119.0749         -DE/DX =    0.0                 !
 ! A6    A(5,4,15)             120.4828         -DE/DX =    0.0                 !
 ! A7    A(4,5,6)              120.3121         -DE/DX =    0.0                 !
 ! A8    A(4,5,16)             119.6561         -DE/DX =    0.0                 !
 ! A9    A(6,5,16)             120.0319         -DE/DX =    0.0                 !
 ! A10   A(5,6,7)              119.7378         -DE/DX =    0.0                 !
 ! A11   A(5,6,17)             120.1311         -DE/DX =    0.0                 !
 ! A12   A(7,6,17)             120.1311         -DE/DX =    0.0                 !
 ! A13   A(6,7,8)              120.3121         -DE/DX =    0.0                 !
 ! A14   A(6,7,18)             120.0319         -DE/DX =    0.0                 !
 ! A15   A(8,7,18)             119.6561         -DE/DX =    0.0                 !
 ! A16   A(3,8,7)              120.4423         -DE/DX =    0.0                 !
 ! A17   A(3,8,19)             119.0749         -DE/DX =    0.0                 !
 ! A18   A(7,8,19)             120.4828         -DE/DX =    0.0                 !
 ! A19   A(1,9,10)             120.6233         -DE/DX =    0.0                 !
 ! A20   A(1,9,14)             120.6233         -DE/DX =    0.0                 !
 ! A21   A(10,9,14)            118.7535         -DE/DX =    0.0                 !
 ! A22   A(9,10,11)            120.4423         -DE/DX =    0.0                 !
 ! A23   A(9,10,20)            119.0749         -DE/DX =    0.0                 !
 ! A24   A(11,10,20)           120.4828         -DE/DX =    0.0                 !
 ! A25   A(10,11,12)           120.3121         -DE/DX =    0.0                 !
 ! A26   A(10,11,21)           119.6561         -DE/DX =    0.0                 !
 ! A27   A(12,11,21)           120.0319         -DE/DX =    0.0                 !
 ! A28   A(11,12,13)           119.7378         -DE/DX =    0.0                 !
 ! A29   A(11,12,22)           120.1311         -DE/DX =    0.0                 !
 ! A30   A(13,12,22)           120.1311         -DE/DX =    0.0                 !
 ! A31   A(12,13,14)           120.3121         -DE/DX =    0.0                 !
 ! A32   A(12,13,23)           120.0319         -DE/DX =    0.0                 !
 ! A33   A(14,13,23)           119.6561         -DE/DX =    0.0                 !
 ! A34   A(9,14,13)            120.4423         -DE/DX =    0.0                 !
 ! A35   A(9,14,24)            119.0749         -DE/DX =    0.0                 !
 ! A36   A(13,14,24)           120.4828         -DE/DX =    0.0                 !
 ! A37   L(2,1,9,20,-1)        180.0            -DE/DX =    0.0                 !
 ! A38   L(1,2,3,19,-1)        180.0            -DE/DX =    0.0                 !
 ! A39   L(2,1,9,20,-2)        180.0            -DE/DX =    0.0                 !
 ! A40   L(1,2,3,19,-2)        180.0            -DE/DX =    0.0                 !
 ! D1    D(4,3,9,10)           180.0            -DE/DX =    0.0                 !
 ! D2    D(4,3,9,14)             0.0            -DE/DX =    0.0                 !
 ! D3    D(8,3,9,10)             0.0            -DE/DX =    0.0                 !
 ! D4    D(8,3,9,14)           180.0            -DE/DX =    0.0                 !
 ! D5    D(2,3,4,5)            180.0            -DE/DX =    0.0                 !
 ! D6    D(2,3,4,15)             0.0            -DE/DX =    0.0                 !
 ! D7    D(8,3,4,5)              0.0            -DE/DX =    0.0                 !
 ! D8    D(8,3,4,15)           180.0            -DE/DX =    0.0                 !
 ! D9    D(2,3,8,7)           -180.0            -DE/DX =    0.0                 !
 ! D10   D(2,3,8,19)             0.0            -DE/DX =    0.0                 !
 ! D11   D(4,3,8,7)              0.0            -DE/DX =    0.0                 !
 ! D12   D(4,3,8,19)           180.0            -DE/DX =    0.0                 !
 ! D13   D(3,4,5,6)              0.0            -DE/DX =    0.0                 !
 ! D14   D(3,4,5,16)           180.0            -DE/DX =    0.0                 !
 ! D15   D(15,4,5,6)           180.0            -DE/DX =    0.0                 !
 ! D16   D(15,4,5,16)            0.0            -DE/DX =    0.0                 !
 ! D17   D(4,5,6,7)              0.0            -DE/DX =    0.0                 !
 ! D18   D(4,5,6,17)           180.0            -DE/DX =    0.0                 !
 ! D19   D(16,5,6,7)           180.0            -DE/DX =    0.0                 !
 ! D20   D(16,5,6,17)            0.0            -DE/DX =    0.0                 !
 ! D21   D(5,6,7,8)              0.0            -DE/DX =    0.0                 !
 ! D22   D(5,6,7,18)           180.0            -DE/DX =    0.0                 !
 ! D23   D(17,6,7,8)           180.0            -DE/DX =    0.0                 !
 ! D24   D(17,6,7,18)            0.0            -DE/DX =    0.0                 !
 ! D25   D(6,7,8,3)              0.0            -DE/DX =    0.0                 !
 ! D26   D(6,7,8,19)           180.0            -DE/DX =    0.0                 !
 ! D27   D(18,7,8,3)           180.0            -DE/DX =    0.0                 !
 ! D28   D(18,7,8,19)            0.0            -DE/DX =    0.0                 !
 ! D29   D(1,9,10,11)          180.0            -DE/DX =    0.0                 !
 ! D30   D(1,9,10,20)            0.0            -DE/DX =    0.0                 !
 ! D31   D(14,9,10,11)           0.0            -DE/DX =    0.0                 !
 ! D32   D(14,9,10,20)        -180.0            -DE/DX =    0.0                 !
 ! D33   D(1,9,14,13)          180.0            -DE/DX =    0.0                 !
 ! D34   D(1,9,14,24)            0.0            -DE/DX =    0.0                 !
 ! D35   D(10,9,14,13)           0.0            -DE/DX =    0.0                 !
 ! D36   D(10,9,14,24)        -180.0            -DE/DX =    0.0                 !
 ! D37   D(9,10,11,12)           0.0            -DE/DX =    0.0                 !
 ! D38   D(9,10,11,21)         180.0            -DE/DX =    0.0                 !
 ! D39   D(20,10,11,12)        180.0            -DE/DX =    0.0                 !
 ! D40   D(20,10,11,21)          0.0            -DE/DX =    0.0                 !
 ! D41   D(10,11,12,13)          0.0            -DE/DX =    0.0                 !
 ! D42   D(10,11,12,22)        180.0            -DE/DX =    0.0                 !
 ! D43   D(21,11,12,13)        180.0            -DE/DX =    0.0                 !
 ! D44   D(21,11,12,22)          0.0            -DE/DX =    0.0                 !
 ! D45   D(11,12,13,14)          0.0            -DE/DX =    0.0                 !
 ! D46   D(11,12,13,23)        180.0            -DE/DX =    0.0                 !
 ! D47   D(22,12,13,14)        180.0            -DE/DX =    0.0                 !
 ! D48   D(22,12,13,23)          0.0            -DE/DX =    0.0                 !
 ! D49   D(12,13,14,9)           0.0            -DE/DX =    0.0                 !
 ! D50   D(12,13,14,24)        180.0            -DE/DX =    0.0                 !
 ! D51   D(23,13,14,9)         180.0            -DE/DX =    0.0                 !
 ! D52   D(23,13,14,24)          0.0            -DE/DX =    0.0                 !
 --------------------------------------------------------------------------------
 GradGradGradGradGradGradGradGradGradGradGradGradGradGradGradGradGradGrad

 Dipole is zero, so no output in dipole orientation.

 ----------------------------------------------------------------------

 Electric dipole moment (input orientation):
 (Debye = 10**-18 statcoulomb cm , SI units = C m)
                  (au)            (Debye)         (10**-30 SI)
   Tot        0.000000D+00      0.000000D+00      0.000000D+00
   x          0.000000D+00      0.000000D+00      0.000000D+00
   y          0.000000D+00      0.000000D+00      0.000000D+00
   z          0.000000D+00      0.000000D+00      0.000000D+00

 Dipole polarizability, Alpha (input orientation).
 (esu units = cm**3 , SI units = C**2 m**2 J**-1)
 Alpha(0;0):
               (au)            (10**-24 esu)      (10**-40 SI)
   iso        0.171149D+03      0.253616D+02      0.282186D+02
   aniso      0.221210D+03      0.327799D+02      0.364726D+02
   xx         0.310371D+03      0.459923D+02      0.511733D+02
   yx        -0.678030D+00     -0.100474D+00     -0.111792D+00
   yy         0.143635D+03      0.212845D+02      0.236821D+02
   zx        -0.385552D+00     -0.571329D-01     -0.635689D-01
   zy         0.112004D+01      0.165972D+00      0.184669D+00
   zz         0.594401D+02      0.880811D+01      0.980035D+01

 ----------------------------------------------------------------------
 Unable to Open any file for archive entry.
 1\1\GINC-NODE02\Freq\RB3LYP\def2SVPP\C14H10\XUHJ\12-Mar-2024\0\\#N Geo
 m=AllCheck Guess=TCheck SCRF=Check GenChk RB3LYP/def2SVPP Freq\\C(#Cc1
 ccccc1)c1ccccc1_1\\0,1\C,0.6096434266,0.0074898154,-0.0132146997\C,-0.
 6094135089,0.0124597109,-0.01131948\C,-2.0356926097,0.0182744174,-0.00
 91021001\C,-2.7596638977,-1.1933161151,-0.0241159518\C,-4.1538303096,-
 1.1832295311,-0.0218899899\C,-4.8512923919,0.0297531568,-0.0047247982\
 C,-4.1439134186,1.2370085377,0.0102563425\C,-2.7497109265,1.2357273981
 ,0.0081473373\C,2.0359225273,0.0016751089,-0.0154320795\C,2.7598938154
 ,1.2132656414,-0.0004182279\C,4.1540602273,1.2031790574,-0.0026441897\
 C,4.8515223096,-0.0098036305,-0.0198093814\C,4.1441433363,-1.217059011
 4,-0.0347905222\C,2.7499408442,-1.2157778718,-0.0326815169\H,-2.212141
 718,-2.1389998054,-0.0375041715\H,-4.7020876376,-2.1300267954,-0.03364
 88058\H,-5.9452797114,0.0342131641,-0.0030240193\H,-4.6843935827,2.188
 2444065,0.0237077756\H,-2.1944573174,2.176915252,0.0198211149\H,2.2123
 716357,2.1589493317,0.0129699918\H,4.7023175552,2.1499763217,0.0091146
 261\H,5.9455096291,-0.0142636378,-0.0215101603\H,4.6846235004,-2.16829
 48802,-0.0482419552\H,2.194687235,-2.1569657258,-0.0443552946\\Version
 =ES64L-G16RevC.01\State=1-AG\HF=-539.1033483\RMSD=7.586e-09\RMSF=1.548
 e-05\ZeroPoint=0.1844554\Thermal=0.1958296\ETot=-538.9075186\HTot=-538
 .9065745\GTot=-538.9571952\Dipole=0.,0.,0.\DipoleDeriv=-0.1040958,0.00
 00186,0.0000454,0.0000189,-0.0994024,-0.000338,0.0000455,-0.000338,-0.
 0739768,-0.104096,0.0000186,0.0000454,0.0000184,-0.0994025,-0.000338,0
 .0000454,-0.000338,-0.073977,0.5742122,-0.0022761,-0.0008401,-0.002276
 ,0.0159942,-0.0002425,-0.0008401,-0.0002425,0.0345005,-0.1821403,-0.08
 0934,-0.0009455,-0.0131076,0.0331599,0.0017295,-0.0000442,0.0018313,-0
 .0954861,0.0006572,0.0965683,0.0011165,0.1700753,0.0788432,0.0022603,0
 .0020933,0.0023706,-0.110425,-0.075369,0.0001056,-0.0000476,0.0001059,
 -0.049757,0.0007743,-0.0000476,0.0007743,-0.1080303,-0.0015224,-0.0959
 052,-0.0014379,-0.1694125,0.081012,0.0027985,-0.0024147,0.0026882,-0.1
 10414,-0.1813554,0.0826884,0.0012276,0.014862,0.0323787,0.0016771,0.00
 03263,0.0015754,-0.0954901,0.5742122,-0.0022762,-0.0008401,-0.0022767,
 0.0159941,-0.0002425,-0.0008401,-0.0002425,0.0345005,-0.18214,-0.08093
 4,-0.0009455,-0.0131069,0.0331598,0.0017295,-0.0000442,0.0018313,-0.09
 54861,0.0006566,0.0965683,0.0011165,0.1700756,0.0788433,0.0022603,0.00
 20933,0.0023706,-0.1104249,-0.0753684,0.0001056,-0.0000476,0.0001059,-
 0.049757,0.0007743,-0.0000476,0.0007743,-0.1080303,-0.001523,-0.095905
 2,-0.0014379,-0.1694127,0.081012,0.0027985,-0.0024147,0.0026882,-0.110
 414,-0.1813554,0.0826884,0.0012276,0.0148614,0.0323788,0.0016772,0.000
 3263,0.0015754,-0.0954901,0.0458021,0.0748017,0.0010865,0.0578228,-0.0
 245843,-0.0018414,0.0008609,-0.0018669,0.1074311,-0.0042079,-0.0663792
 ,-0.0007043,-0.0939917,-0.054537,-0.0021022,-0.0010712,-0.0021437,0.11
 42487,-0.113794,0.0007329,0.0003545,0.0007328,0.0662322,-0.0006621,0.0
 003545,-0.0006621,0.1159634,-0.0028972,0.0659512,0.0010522,0.0935636,-
 0.0558411,-0.002401,0.0014191,-0.0023595,0.1142421,0.0447105,-0.075372
 1,-0.0009074,-0.0583934,-0.0234983,-0.0016526,-0.0006818,-0.0016271,0.
 1074366,0.0458023,0.0748017,0.0010865,0.0578226,-0.0245844,-0.0018414,
 0.0008609,-0.0018669,0.1074311,-0.0042079,-0.0663792,-0.0007043,-0.093
 9917,-0.054537,-0.0021022,-0.0010712,-0.0021437,0.1142487,-0.1137939,0
 .0007329,0.0003545,0.0007329,0.0662322,-0.0006621,0.0003545,-0.0006621
 ,0.1159634,-0.0028973,0.0659512,0.0010522,0.0935637,-0.0558411,-0.0024
 01,0.0014191,-0.0023595,0.1142421,0.0447107,-0.0753721,-0.0009074,-0.0
 58393,-0.0234983,-0.0016526,-0.0006818,-0.0016271,0.1074366\Polar=310.
 3712667,-0.6780304,143.6346067,-0.3855518,1.1200374,59.4400958\Quadrup
 ole=7.4890676,1.8532311,-9.3422987,-0.0227455,-0.0255605,0.1488322\PG=
 D02H [C2(H1C1C1C1.C1C1C1H1),SG"(C8H8)]\NImag=0\\1.39666979,-0.00526127
 ,0.10601668,-0.00204889,0.00038310,0.07778941,-0.99370775,0.00391150,0
 .00148127,1.39666979,0.00391150,-0.03430960,0.00008506,-0.00526127,0.1
 0601668,0.00148127,0.00008506,-0.04115311,-0.00204889,0.00038310,0.077
 78941,-0.03838673,0.00017474,0.00006747,-0.30379340,0.00092664,0.00038
 228,0.69594429,0.00017474,0.00447669,-0.00000766,0.00092664,-0.0764066
 3,-0.00025627,-0.00020975,0.64204765,0.00006747,-0.00000766,0.00503320
 ,0.00038228,-0.00025627,-0.05722974,-0.00080955,0.00642889,0.15836241,
 0.00783702,-0.00060722,-0.00001817,-0.04196715,-0.03116584,-0.00034382
 ,-0.15864970,-0.05453423,-0.00059337,0.70953109,0.01080424,-0.00104854
 ,-0.00004484,-0.02017507,0.00483355,0.00002936,-0.10335486,-0.27071940
 ,-0.00249700,-0.04101312,0.70822713,0.00013347,-0.00002772,0.00110522,
 -0.00019777,0.00004586,0.00490276,-0.00124212,-0.00257025,-0.07117389,
 -0.00139976,0.00761401,0.13998175,-0.00368774,0.00066598,0.00001386,0.
 00755742,-0.00214102,-0.00002969,-0.03162791,-0.07248092,-0.00090212,-
 0.35614247,0.03378710,0.00088425,0.70127811,0.00060699,0.00006639,0.00
 000459,-0.00464079,-0.00452762,-0.00014268,-0.02612221,0.03338544,0.00
 036255,-0.03167125,-0.12935065,-0.00079357,0.02859410,0.72739755,0.000
 01308,0.00000450,-0.00034778,-0.00006290,-0.00014643,0.00673174,-0.000
 28608,0.00043211,0.00905787,0.00001441,-0.00089179,-0.06606722,-0.0004
 6204,0.00776112,0.14022287,0.00233486,-0.00000666,-0.00000352,-0.00424
 677,0.00001347,0.00000496,0.00340381,-0.00028697,-0.00002172,-0.027692
 02,0.02915599,0.00044393,-0.18195147,0.12683540,0.00185781,0.74526695,
 -0.00000666,0.00069803,0.00000861,0.00001347,-0.00094399,0.00000152,-0
 .00028697,-0.06668940,-0.00077241,0.07813643,0.03226582,0.00017918,0.0
 5916854,-0.29172415,-0.00307399,-0.00027108,0.67605581,-0.00000352,0.0
 0000861,0.00005091,0.00000496,0.00000152,-0.00106014,-0.00002172,-0.00
 077241,-0.00854111,0.00109481,0.00025268,0.00996043,0.00095863,-0.0031
 7552,-0.06712097,-0.00091331,0.00713715,0.13908814,-0.00369792,-0.0006
 3527,-0.00000342,0.00761219,0.00204157,0.00002581,-0.03081555,0.073005
 41,0.00102995,-0.05062562,-0.02645820,-0.00028801,0.06505964,-0.024718
 14,-0.00041069,-0.18348310,-0.06006039,-0.00062344,0.70081142,-0.00057
 628,0.00007652,0.00000650,0.00454133,-0.00458210,-0.00015718,0.0266467
 0,0.03257717,0.00027263,-0.02852283,-0.01671536,-0.00006962,0.02371693
 ,-0.05738808,-0.00093456,-0.12772726,-0.29020024,-0.00277330,-0.028353
 07,0.72786189,-0.00000263,0.00000659,-0.00034772,0.00005903,-0.0001534
 3,0.00673147,0.00041391,0.00020307,0.00905378,-0.00031545,-0.00007272,
 -0.00825603,0.00023294,-0.00086189,0.01025108,-0.00152263,-0.00287484,
 -0.06711325,-0.00121808,0.00785273,0.14022522,0.00775287,0.00053536,-0
 .00000286,-0.04154332,0.03154399,0.00048886,-0.15736342,0.05360171,0.0
 0084166,0.06065974,0.01968800,0.00018792,-0.05017281,0.02879529,0.0004
 4554,-0.02856722,-0.07763948,-0.00097390,-0.35614467,0.03351788,0.0008
 8068,0.71020336,-0.01087610,-0.00096481,-0.00001120,0.02055321,0.00441
 184,-0.00003735,0.10242233,-0.27199919,-0.00282277,-0.02062723,-0.0541
 9615,-0.00084255,0.02673066,-0.01716589,-0.00015851,-0.02865905,0.0331
 3662,0.00035100,-0.03194048,-0.12934845,-0.00079314,0.04102048,0.70755
 824,-0.00015450,-0.00002832,0.00110564,0.00034281,-0.00005384,0.004900
 63,0.00149041,-0.00274951,-0.07118037,-0.00034781,-0.00090304,0.011526
 26,0.00041811,-0.00016161,-0.00825832,-0.00032303,0.00042450,0.0099648
 4,0.00001084,-0.00089136,-0.06606721,-0.00031067,0.00748203,0.13997836
 ,-0.30379340,0.00092664,0.00038228,-0.03838673,0.00017474,0.00006747,0
 .01149015,-0.00001758,-0.00001029,-0.00194464,-0.00301293,-0.00003708,
 0.00131232,-0.00065310,-0.00001115,-0.00045435,0.00000195,0.00000082,0
 .00131725,0.00064469,0.00000608,-0.00193010,0.00302617,0.00004315,0.69
 594429,0.00092664,-0.07640663,-0.00025627,0.00017474,0.00447669,-0.000
 00766,-0.00001758,0.00716496,0.00003160,0.00125303,-0.00030362,-0.0000
 0626,0.00004312,0.00028195,0.00000816,0.00000195,0.00002442,-0.0000007
 0,-0.00005154,0.00027705,0.00000824,-0.00123978,-0.00031809,-0.0000027
 1,-0.00020975,0.64204765,0.00038228,-0.00025627,-0.05722974,0.00006747
 ,-0.00000766,0.00503320,-0.00001029,0.00003160,0.00478956,0.00001961,0
 .00000014,0.00002615,-0.00000190,0.00000920,-0.00033686,0.00000082,-0.
 00000070,0.00007665,-0.00000317,0.00000719,-0.00033688,-0.00001354,-0.
 00000912,0.00002608,-0.00080955,0.00642889,0.15836241,-0.04196715,-0.0
 3116584,-0.00034382,0.00783702,-0.00060722,-0.00001817,-0.00194464,0.0
 0125303,0.00001961,0.00037546,0.00074218,0.00000958,-0.00028127,0.0001
 5181,0.00000253,0.00006295,0.00003360,0.00000035,-0.00036067,-0.000026
 32,0.00000008,-0.00000901,-0.00095265,-0.00001290,-0.15864970,-0.05453
 423,-0.00059337,0.70953109,-0.02017507,0.00483355,0.00002936,0.0108042
 4,-0.00104854,-0.00004484,-0.00301293,-0.00030362,0.00000014,0.0007421
 8,0.00053997,0.00000360,-0.00033012,0.00011133,0.00000113,0.00027262,-
 0.00000731,-0.00000052,-0.00029363,-0.00022014,-0.00000153,0.00094986,
 -0.00035040,-0.00000379,-0.10335486,-0.27071940,-0.00249700,-0.0410131
 2,0.70822713,-0.00019777,0.00004586,0.00490276,0.00013347,-0.00002772,
 0.00110522,-0.00003708,-0.00000626,0.00002615,0.00000958,0.00000360,0.
 00018547,-0.00000387,0.00000040,0.00006372,0.00000353,-0.00000016,0.00
 000123,-0.00000347,-0.00000193,-0.00007209,0.00001238,-0.00000093,-0.0
 0017279,-0.00124212,-0.00257025,-0.07117389,-0.00139976,0.00761401,0.1
 3998175,0.00755742,-0.00214102,-0.00002969,-0.00368774,0.00066598,0.00
 001386,0.00131232,0.00004312,-0.00000190,-0.00028127,-0.00033012,-0.00
 000387,0.00016011,-0.00009484,-0.00000160,-0.00008261,-0.00001829,-0.0
 0000013,0.00018699,0.00013040,0.00000162,-0.00035804,0.00029475,0.0000
 0435,-0.03162791,-0.07248092,-0.00090212,-0.35614247,0.03378710,0.0008
 8425,0.70127811,-0.00464079,-0.00452762,-0.00014268,0.00060699,0.00006
 639,0.00000459,-0.00065310,0.00028195,0.00000920,0.00015181,0.00011133
 ,0.00000040,-0.00009484,-0.00006119,0.00000023,0.00017854,0.00001235,-
 0.00000004,-0.00013097,0.00011662,0.00000025,0.00002744,-0.00022276,-0
 .00000204,-0.02612221,0.03338544,0.00036255,-0.03167125,-0.12935065,-0
 .00079357,0.02859410,0.72739755,-0.00006290,-0.00014643,0.00673174,0.0
 0001308,0.00000450,-0.00034778,-0.00001115,0.00000816,-0.00033686,0.00
 000253,0.00000113,0.00006372,-0.00000160,0.00000023,-0.00006765,0.0000
 0249,0.00000026,-0.00000485,-0.00000185,-0.00000015,0.00011293,0.00000
 079,-0.00000244,-0.00007211,-0.00028608,0.00043211,0.00905787,0.000014
 41,-0.00089179,-0.06606722,-0.00046204,0.00776112,0.14022287,-0.004246
 77,0.00001347,0.00000496,0.00233486,-0.00000666,-0.00000352,-0.0004543
 5,0.00000195,0.00000082,0.00006295,0.00027262,0.00000353,-0.00008261,0
 .00017854,0.00000249,-0.00014141,0.00000049,0.00000022,-0.00008392,-0.
 00017775,-0.00000224,0.00006044,-0.00027318,-0.00000372,0.00340381,-0.
 00028697,-0.00002172,-0.02769202,0.02915599,0.00044393,-0.18195147,0.1
 2683540,0.00185781,0.74526695,0.00001347,-0.00094399,0.00000152,-0.000
 00666,0.00069803,0.00000861,0.00000195,0.00002442,-0.00000070,0.000033
 60,-0.00000731,-0.00000016,-0.00001829,0.00001235,0.00000026,0.0000004
 9,-0.00002205,-0.00000028,0.00001908,0.00001365,0.00000022,-0.00003415
 ,-0.00000481,-0.00000003,-0.00028697,-0.06668940,-0.00077241,0.0781364
 3,0.03226582,0.00017918,0.05916854,-0.29172415,-0.00307399,-0.00027108
 ,0.67605581,0.00000496,0.00000152,-0.00106014,-0.00000352,0.00000861,0
 .00005091,0.00000082,-0.00000070,0.00007665,0.00000035,-0.00000052,0.0
 0000123,-0.00000013,-0.00000004,-0.00000485,0.00000022,-0.00000028,-0.
 00000073,0.00000037,0.00000051,-0.00000485,-0.00000054,0.00000033,0.00
 000125,-0.00002172,-0.00077241,-0.00854111,0.00109481,0.00025268,0.009
 96043,0.00095863,-0.00317552,-0.06712097,-0.00091331,0.00713715,0.1390
 8814,0.00761219,0.00204157,0.00002581,-0.00369792,-0.00063527,-0.00000
 342,0.00131725,-0.00005154,-0.00000317,-0.00036067,-0.00029363,-0.0000
 0347,0.00018699,-0.00013097,-0.00000185,-0.00008392,0.00001908,0.00000
 037,0.00016165,0.00009302,0.00000089,-0.00027978,0.00033331,0.00000494
 ,-0.03081555,0.07300541,0.00102995,-0.05062562,-0.02645820,-0.00028801
 ,0.06505964,-0.02471814,-0.00041069,-0.18348310,-0.06006039,-0.0006234
 4,0.70081142,0.00454133,-0.00458210,-0.00015718,-0.00057628,0.00007652
 ,0.00000650,0.00064469,0.00027705,0.00000719,-0.00002632,-0.00022014,-
 0.00000193,0.00013040,0.00011662,-0.00000015,-0.00017775,0.00001365,0.
 00000051,0.00009302,-0.00006272,-0.00000007,-0.00014862,0.00010985,0.0
 0000084,0.02664670,0.03257717,0.00027263,-0.02852283,-0.01671536,-0.00
 006962,0.02371693,-0.05738808,-0.00093456,-0.12772726,-0.29020024,-0.0
 0277330,-0.02835307,0.72786189,0.00005903,-0.00015343,0.00673147,-0.00
 000263,0.00000659,-0.00034772,0.00000608,0.00000824,-0.00033688,0.0000
 0008,-0.00000153,-0.00007209,0.00000162,0.00000025,0.00011293,-0.00000
 224,0.00000022,-0.00000485,0.00000089,-0.00000007,-0.00006766,-0.00000
 146,0.00000011,0.00006372,0.00041391,0.00020307,0.00905378,-0.00031545
 ,-0.00007272,-0.00825603,0.00023294,-0.00086189,0.01025108,-0.00152263
 ,-0.00287484,-0.06711325,-0.00121808,0.00785273,0.14022522,-0.04154332
 ,0.03154399,0.00048886,0.00775287,0.00053536,-0.00000286,-0.00193010,-
 0.00123978,-0.00001354,-0.00000901,0.00094986,0.00001238,-0.00035804,0
 .00002744,0.00000079,0.00006044,-0.00003415,-0.00000054,-0.00027978,-0
 .00014862,-0.00000146,0.00036330,-0.00074073,-0.00001011,-0.15736342,0
 .05360171,0.00084166,0.06065974,0.01968800,0.00018792,-0.05017281,0.02
 879529,0.00044554,-0.02856722,-0.07763948,-0.00097390,-0.35614467,0.03
 351788,0.00088068,0.71020336,0.02055321,0.00441184,-0.00003735,-0.0108
 7610,-0.00096481,-0.00001120,0.00302617,-0.00031809,-0.00000912,-0.000
 95265,-0.00035040,-0.00000093,0.00029475,-0.00022276,-0.00000244,-0.00
 027318,-0.00000481,0.00000033,0.00033331,0.00010985,0.00000011,-0.0007
 4073,0.00055206,0.00000598,0.10242233,-0.27199919,-0.00282277,-0.02062
 723,-0.05419615,-0.00084255,0.02673066,-0.01716589,-0.00015851,-0.0286
 5905,0.03313662,0.00035100,-0.03194048,-0.12934845,-0.00079314,0.04102
 048,0.70755824,0.00034281,-0.00005384,0.00490063,-0.00015450,-0.000028
 32,0.00110564,0.00004315,-0.00000271,0.00002608,-0.00001290,-0.0000037
 9,-0.00017279,0.00000435,-0.00000204,-0.00007211,-0.00000372,-0.000000
 03,0.00000125,0.00000494,0.00000084,0.00006372,-0.00001011,0.00000598,
 0.00018553,0.00149041,-0.00274951,-0.07118037,-0.00034781,-0.00090304,
 0.01152626,0.00041811,-0.00016161,-0.00825832,-0.00032303,0.00042450,0
 .00996484,0.00001084,-0.00089136,-0.06606721,-0.00031067,0.00748203,0.
 13997836,-0.00004062,0.00014211,0.00000207,0.00132698,-0.00060392,-0.0
 0001579,0.01021445,-0.01564070,-0.00021709,-0.12853626,0.12310779,0.00
 177171,-0.00995541,0.02831787,0.00039746,-0.00525332,-0.00154233,-0.00
 000179,-0.00049043,-0.00076991,-0.00001044,-0.00141479,-0.00278176,-0.
 00002577,-0.00012679,0.00003212,0.00000085,0.00007631,-0.00002987,-0.0
 0000056,0.00000420,0.00001806,0.00000026,0.00001896,-0.00000005,-0.000
 00003,-0.00000340,0.00001109,0.00000010,0.00003286,-0.00002702,-0.0000
 0039,0.13287339,-0.00078821,0.00027009,0.00000373,0.00148803,0.0006702
 9,0.00005784,0.01532623,-0.01806063,-0.00031678,0.12129027,-0.27003695
 ,-0.00326495,-0.00263923,0.00411525,0.00000356,-0.00043133,0.00153080,
 -0.00007488,-0.00076943,0.00034682,0.00001415,-0.00407752,-0.00255681,
 -0.00010817,0.00000926,-0.00001502,-0.00000231,0.00003239,-0.00004760,
 -0.00000025,0.00001408,0.00002490,0.00000011,-0.00000553,0.00000315,0.
 00000002,-0.00000014,0.00000683,0.00000056,-0.00000719,-0.00003294,-0.
 00000058,-0.13049913,0.28385432,-0.00001030,0.00000234,0.00007817,0.00
 001200,0.00006098,-0.00384979,0.00019441,-0.00027032,0.00404391,0.0017
 4756,-0.00326768,-0.03808037,-0.00001391,-0.00004289,0.00414491,0.0000
 1298,-0.00007322,0.00721363,-0.00001044,0.00001415,-0.00063107,-0.0000
 4299,-0.00011011,0.00604217,0.00000055,-0.00000234,0.00015761,0.000000
 27,-0.00000016,-0.00003222,0.00000020,0.00000011,0.00001476,-0.0000001
 0,0.,0.00000264,-0.00000005,0.00000055,-0.00003545,-0.00000013,-0.0000
 0055,0.00001142,-0.00189487,0.00362562,0.02580117,-0.00035238,0.000073
 68,0.00000129,-0.00030592,-0.00128849,-0.00001622,-0.00494613,0.001416
 41,0.00003731,-0.01081613,-0.02897227,-0.00036308,-0.12878884,-0.12034
 260,-0.00146326,0.01172459,0.01507329,0.00018843,-0.00094320,0.0028686
 8,0.00004978,-0.00056571,0.00085616,0.00001121,0.00014214,0.00007382,0
 .00000076,-0.00005959,0.00001925,0.00000033,0.00000215,0.00000130,0.,-
 0.00002881,0.00000029,0.00000005,0.00000190,0.00001057,0.00000014,-0.0
 0009531,-0.00003756,-0.00000034,0.00126011,0.00040977,-0.00000298,0.13
 247482,0.00004952,-0.00004697,0.00000125,0.00000531,0.00012229,-0.0000
 0231,0.00083866,0.00171786,-0.00007645,0.00229006,0.00374460,-0.000004
 06,-0.12050782,-0.26707963,-0.00286045,-0.01635421,-0.01818930,-0.0002
 6785,0.00403558,-0.00301419,-0.00013680,0.00087039,0.00038775,0.000012
 87,0.00005818,-0.00001037,-0.00000012,-0.00002407,0.00000939,0.0000003
 2,0.00000304,0.00001379,0.00000022,-0.00002592,0.00000036,0.00000006,0
 .00000279,-0.00001327,-0.00000020,-0.00002392,-0.00001180,-0.00000023,
 -0.00032405,0.00078792,0.00006880,0.12981922,0.28134243,0.00000097,0.0
 0000122,-0.00014671,0.00000097,-0.00000037,0.00029559,0.00002963,-0.00
 007732,0.00737545,0.00005235,0.00004285,0.00379205,-0.00146546,-0.0028
 6070,-0.03824991,-0.00022919,-0.00031501,0.00381003,0.00006528,-0.0001
 3505,0.00682319,0.00001140,0.00001289,-0.00067859,0.00000055,-0.000000
 14,-0.00000822,-0.00000025,0.00000025,-0.00001194,0.00000003,0.0000002
 2,-0.00000327,-0.00000030,0.00000002,-0.00000122,0.00000004,-0.0000002
 1,0.00000128,-0.00000016,-0.00000021,0.00000845,-0.00001273,0.00006770
 ,-0.00435231,0.00156565,0.00319550,0.02625150,-0.00010142,0.00000055,0
 .00000030,0.00010434,0.00000020,-0.00000175,0.00085883,-0.00000789,-0.
 00000260,0.00057750,0.00312091,0.00005102,-0.01103656,-0.00302824,-0.0
 0001802,-0.33735339,0.00113323,0.00046522,-0.01124295,0.00315762,0.000
 06449,0.00053539,-0.00316220,-0.00003241,0.00009060,-0.00000040,-0.000
 00008,-0.00003545,0.00000398,0.00000010,0.00000355,0.00000587,0.000000
 07,-0.00002094,0.00000009,0.00000003,0.00000350,-0.00000586,-0.0000000
 8,-0.00003550,-0.00000376,0.,-0.00057000,-0.00019457,-0.00000151,0.000
 87279,0.00012250,-0.00000578,0.35705258,0.00000055,0.00003375,-0.00000
 081,0.00000019,0.00014598,0.00001605,-0.00000789,-0.00107450,-0.000003
 56,0.00197576,-0.00447097,-0.00015464,0.02834149,0.00462015,-0.0000312
 6,0.00113323,-0.05927946,-0.00029319,-0.02821211,0.00482549,0.00005633
 ,-0.00201705,-0.00442908,-0.00014809,-0.00000040,-0.00000685,-0.000000
 64,0.00000306,-0.00000828,-0.00000008,0.00000094,0.00000403,0.00000007
 ,0.00000009,-0.00000005,-0.00000002,-0.00000094,0.00000409,0.00000007,
 -0.00000284,-0.00000822,-0.00000007,0.00127869,0.00007955,-0.00000277,
 -0.00065464,0.00118550,0.00007075,-0.00122222,0.05710211,0.00000030,-0
 .00000081,0.00009478,-0.00000175,0.00001605,-0.00106174,-0.00000260,-0
 .00000356,-0.00080582,0.00003581,-0.00015636,0.00694076,0.00039884,0.0
 0001581,0.00377197,0.00046522,-0.00029319,-0.03734872,-0.00035236,0.00
 000926,0.00377301,-0.00001719,-0.00014637,0.00694097,-0.00000008,-0.00
 000064,0.00004138,0.00000009,-0.00000008,-0.00000249,0.,0.00000006,-0.
 00000110,0.00000003,-0.00000002,0.00000113,-0.00000002,0.00000008,-0.0
 0000110,0.00000001,-0.00000007,-0.00000249,0.00001806,-0.00000056,0.00
 014381,-0.00001611,0.00006959,-0.00406394,-0.00051375,0.00042190,0.025
 49716,-0.00035336,-0.00007118,-0.00000064,-0.00029537,0.00129189,0.000
 01805,-0.00496417,-0.00136216,0.00000042,-0.00057980,-0.00084822,-0.00
 001142,-0.00099992,-0.00288551,-0.00002660,0.01173308,-0.01531818,-0.0
 0021544,-0.12682449,0.11918953,0.00171680,-0.01059651,0.02908920,0.000
 40814,0.00014105,-0.00007505,-0.00000122,-0.00009480,0.00003824,0.0000
 0066,0.00000179,-0.00001069,-0.00000014,-0.00002860,-0.00000005,0.0000
 0004,0.00000212,-0.00000120,-0.00000002,-0.00005954,-0.00001868,-0.000
 00018,0.00004507,0.00006884,-0.00000072,0.00038803,-0.00074874,-0.0000
 1024,0.00087717,0.00065737,0.00000132,0.13035723,-0.00004702,-0.000045
 98,0.00000141,-0.00000191,0.00011180,-0.00000244,-0.00078441,0.0017358
 0,-0.00007378,-0.00086246,0.00040176,0.00001565,-0.00405241,-0.0029577
 6,-0.00012392,0.01610932,-0.01819774,-0.00031667,0.11935475,-0.2690340
 8,-0.00324633,-0.00217313,0.00352608,-0.00000027,-0.00005942,-0.000009
 28,0.00000008,0.00002460,-0.00001231,-0.00000031,-0.00000292,-0.000013
 16,-0.00000019,0.00002616,0.00000015,-0.00000002,-0.00000294,0.0000138
 2,0.00000023,0.00002463,0.00000934,0.00000025,0.00008283,-0.00002488,0
 .00001341,0.00073799,-0.00092457,-0.00001594,-0.00011977,0.00118114,0.
 00006989,-0.12857758,0.28344935,-0.00000031,0.00000145,-0.00014671,0.0
 0000086,-0.00000438,0.00029553,0.00000809,-0.00007291,0.00737554,-0.00
 001161,0.00001563,-0.00067852,-0.00004211,-0.00012567,0.00682347,0.000
 20219,-0.00026952,0.00380999,0.00171900,-0.00324608,-0.03825981,-0.000
 00729,-0.00004718,0.00379095,-0.00000101,0.00000010,-0.00000821,0.0000
 0048,-0.00000033,0.00000845,-0.00000004,-0.00000018,0.00000128,0.00000
 039,0.00000002,-0.00000122,-0.00000005,0.00000023,-0.00000327,0.000000
 40,0.00000031,-0.00001194,-0.00000053,0.00001343,-0.00104322,0.0000095
 1,-0.00001371,0.00019131,-0.00000901,0.00006873,-0.00406397,-0.0018648
 7,0.00361122,0.02626217,-0.00003530,-0.00013961,-0.00000168,0.00131969
 ,0.00059882,0.00000020,0.01021513,0.01540923,0.00019551,-0.00135867,0.
 00277164,0.00004794,-0.00047776,0.00077668,0.00001009,-0.00523670,0.00
 159728,0.00003991,-0.01016490,-0.02820144,-0.00035328,-0.13054853,-0.1
 2425473,-0.00151234,-0.00012712,-0.00003121,0.00000001,0.00003314,0.00
 002648,0.00000032,-0.00000349,-0.00001101,-0.00000019,0.00001901,-0.00
 000008,-0.00000003,0.00000394,-0.00001789,-0.00000022,0.00007628,0.000
 02886,0.00000022,0.00053912,0.00078334,0.00001010,0.00004382,-0.000083
 35,-0.00000274,-0.00057885,-0.00127333,-0.00001584,0.00125938,0.000320
 42,-0.00000416,0.13502233,0.00079072,0.00026480,0.00000129,-0.00149314
 ,0.00067754,0.00006241,-0.01555770,-0.01806131,-0.00027045,0.00406740,
 -0.00261265,-0.00012113,0.00077619,0.00033421,0.00001167,0.00048627,0.
 00151426,-0.00007648,0.00275566,0.00432368,-0.00000177,-0.12243721,-0.
 26803482,-0.00287263,-0.00000835,-0.00001469,-0.00000228,0.00000665,-0
 .00003322,-0.00000060,0.00000023,0.00000692,0.00000056,0.00000541,0.00
 000311,0.,-0.00001391,0.00002516,0.00000016,-0.00003340,-0.00004757,-0
 .00000015,-0.00079557,-0.00095323,-0.00001590,-0.00006935,-0.00002364,
 0.00001366,0.00019993,0.00008834,-0.00000104,-0.00041340,0.00078865,0.
 00006895,0.13172334,0.28171621,0.00001068,0.00000269,0.00007815,-0.000
 02760,0.00005927,-0.00384975,-0.00021599,-0.00031692,0.00404391,0.0000
 6516,-0.00011919,0.00604189,0.00001008,0.00001166,-0.00063113,0.000025
 14,-0.00007815,0.00721355,0.00005809,0.00004468,0.00414597,-0.00148818
 ,-0.00286991,-0.03807023,0.00000032,-0.00000224,0.00015761,0.00000006,
 -0.00000063,0.00001142,-0.00000004,0.00000058,-0.00003545,0.00000005,0
 .,0.00000264,-0.00000017,0.00000017,0.00001476,-0.00000061,-0.00000025
 ,-0.00003222,-0.00001088,-0.00001827,0.00033298,-0.00000255,0.00001368
 ,-0.00104321,0.00000374,0.00000117,0.00014385,-0.00001392,0.00006785,-
 0.00435230,0.00158644,0.00320374,0.02579034,0.00132698,-0.00060392,-0.
 00001579,-0.00004062,0.00014211,0.00000207,-0.00012679,0.00003212,0.00
 000085,0.00007631,-0.00002987,-0.00000056,0.00000420,0.00001806,0.0000
 0026,0.00001896,-0.00000005,-0.00000003,-0.00000340,0.00001109,0.00000
 010,0.00003286,-0.00002702,-0.00000039,0.01021445,-0.01564070,-0.00021
 709,-0.12853626,0.12310779,0.00177171,-0.00995541,0.02831787,0.0003974
 6,-0.00525332,-0.00154233,-0.00000179,-0.00049043,-0.00076991,-0.00001
 044,-0.00141479,-0.00278176,-0.00002577,-0.00001092,-0.00000603,-0.000
 00006,0.00001288,0.00000597,0.00000006,0.00000895,0.00000280,0.0000000
 2,0.00001174,-0.00000602,-0.00000009,-0.00002306,0.00002704,0.00000044
 ,0.13287339,0.00148803,0.00067029,0.00005784,-0.00078821,0.00027009,0.
 00000373,0.00000926,-0.00001502,-0.00000231,0.00003239,-0.00004760,-0.
 00000025,0.00001408,0.00002490,0.00000011,-0.00000553,0.00000315,0.000
 00002,-0.00000014,0.00000683,0.00000056,-0.00000719,-0.00003294,-0.000
 00058,0.01532623,-0.01806063,-0.00031678,0.12129027,-0.27003695,-0.003
 26495,-0.00263923,0.00411525,0.00000356,-0.00043133,0.00153080,-0.0000
 7488,-0.00076943,0.00034682,0.00001415,-0.00407752,-0.00255681,-0.0001
 0817,-0.00000603,-0.00000077,-0.00000002,0.00000993,0.00000337,0.,0.00
 000609,0.00000308,0.00000002,0.00000665,-0.00000196,-0.00000009,-0.000
 02657,0.00003444,0.00000012,-0.13049913,0.28385432,0.00001200,0.000060
 98,-0.00384979,-0.00001030,0.00000234,0.00007817,0.00000055,-0.0000023
 4,0.00015761,0.00000027,-0.00000016,-0.00003222,0.00000020,0.00000011,
 0.00001476,-0.00000010,0.,0.00000264,-0.00000005,0.00000055,-0.0000354
 5,-0.00000013,-0.00000055,0.00001142,0.00019441,-0.00027032,0.00404391
 ,0.00174756,-0.00326768,-0.03808037,-0.00001391,-0.00004289,0.00414491
 ,0.00001298,-0.00007322,0.00721363,-0.00001044,0.00001415,-0.00063107,
 -0.00004299,-0.00011011,0.00604217,-0.00000006,-0.00000002,0.00000146,
 0.00000012,0.,0.00000281,0.00000007,0.00000003,0.00000055,0.00000008,-
 0.00000007,0.00000379,-0.00000028,0.00000004,0.00002860,-0.00189487,0.
 00362562,0.02580117,-0.00030592,-0.00128849,-0.00001622,-0.00035238,0.
 00007368,0.00000129,0.00014214,0.00007382,0.00000076,-0.00005959,0.000
 01925,0.00000033,0.00000215,0.00000130,0.,-0.00002881,0.00000029,0.000
 00005,0.00000190,0.00001057,0.00000014,-0.00009531,-0.00003756,-0.0000
 0034,-0.00494613,0.00141641,0.00003731,-0.01081613,-0.02897227,-0.0003
 6308,-0.12878884,-0.12034260,-0.00146326,0.01172459,0.01507329,0.00018
 843,-0.00094320,0.00286868,0.00004978,-0.00056571,0.00085616,0.0000112
 1,0.00001288,0.00000993,0.00000012,-0.00001069,-0.00000480,-0.00000005
 ,-0.00000652,0.00000037,0.00000002,-0.00001573,0.00000576,0.00000010,0
 .00001173,-0.00000677,-0.00000010,0.00126011,0.00040977,-0.00000298,0.
 13247482,0.00000531,0.00012229,-0.00000231,0.00004952,-0.00004697,0.00
 000125,0.00005818,-0.00001037,-0.00000012,-0.00002407,0.00000939,0.000
 00032,0.00000304,0.00001379,0.00000022,-0.00002592,0.00000036,0.000000
 06,0.00000279,-0.00001327,-0.00000020,-0.00002392,-0.00001180,-0.00000
 023,0.00083866,0.00171786,-0.00007645,0.00229006,0.00374460,-0.0000040
 6,-0.12050782,-0.26707963,-0.00286045,-0.01635421,-0.01818930,-0.00026
 785,0.00403558,-0.00301419,-0.00013680,0.00087039,0.00038775,0.0000128
 7,0.00000597,0.00000337,0.,-0.00000480,-0.00000431,-0.00000007,-0.0000
 0468,0.00000008,0.,-0.00000559,0.00000469,0.00000006,0.00000591,-0.000
 00196,-0.00000009,-0.00032405,0.00078792,0.00006880,0.12981922,0.28134
 243,0.00000097,-0.00000037,0.00029559,0.00000097,0.00000122,-0.0001467
 1,0.00000055,-0.00000014,-0.00000822,-0.00000025,0.00000025,-0.0000119
 4,0.00000003,0.00000022,-0.00000327,-0.00000030,0.00000002,-0.00000122
 ,0.00000004,-0.00000021,0.00000128,-0.00000016,-0.00000021,0.00000845,
 0.00002963,-0.00007732,0.00737545,0.00005235,0.00004285,0.00379205,-0.
 00146546,-0.00286070,-0.03824991,-0.00022919,-0.00031501,0.00381003,0.
 00006528,-0.00013505,0.00682319,0.00001140,0.00001289,-0.00067859,0.00
 000006,0.,0.00000281,-0.00000005,-0.00000007,0.00000166,-0.00000005,-0
 .00000001,0.00000117,-0.00000005,0.00000004,0.00000106,0.00000007,-0.0
 0000007,0.00000379,-0.00001273,0.00006770,-0.00435231,0.00156565,0.003
 19550,0.02625150,0.00010434,0.00000020,-0.00000175,-0.00010142,0.00000
 055,0.00000030,0.00009060,-0.00000040,-0.00000008,-0.00003545,0.000003
 98,0.00000010,0.00000355,0.00000587,0.00000007,-0.00002094,0.00000009,
 0.00000003,0.00000350,-0.00000586,-0.00000008,-0.00003550,-0.00000376,
 0.,0.00085883,-0.00000789,-0.00000260,0.00057750,0.00312091,0.00005102
 ,-0.01103656,-0.00302824,-0.00001802,-0.33735339,0.00113323,0.00046522
 ,-0.01124295,0.00315762,0.00006449,0.00053539,-0.00316220,-0.00003241,
 0.00000895,0.00000609,0.00000007,-0.00000652,-0.00000468,-0.00000005,-
 0.00000599,0.00000003,0.,-0.00000649,0.00000473,0.00000007,0.00000887,
 -0.00000613,-0.00000009,-0.00057000,-0.00019457,-0.00000151,0.00087279
 ,0.00012250,-0.00000578,0.35705258,0.00000019,0.00014598,0.00001605,0.
 00000055,0.00003375,-0.00000081,-0.00000040,-0.00000685,-0.00000064,0.
 00000306,-0.00000828,-0.00000008,0.00000094,0.00000403,0.00000007,0.00
 000009,-0.00000005,-0.00000002,-0.00000094,0.00000409,0.00000007,-0.00
 000284,-0.00000822,-0.00000007,-0.00000789,-0.00107450,-0.00000356,0.0
 0197576,-0.00447097,-0.00015464,0.02834149,0.00462015,-0.00003126,0.00
 113323,-0.05927946,-0.00029319,-0.02821211,0.00482549,0.00005633,-0.00
 201705,-0.00442908,-0.00014809,0.00000280,0.00000308,0.00000003,0.0000
 0037,0.00000008,-0.00000001,0.00000003,0.00000092,0.00000002,-0.000000
 32,0.00000005,-0.00000001,-0.00000284,0.00000315,0.00000004,0.00127869
 ,0.00007955,-0.00000277,-0.00065464,0.00118550,0.00007075,-0.00122222,
 0.05710211,-0.00000175,0.00001605,-0.00106174,0.00000030,-0.00000081,0
 .00009478,-0.00000008,-0.00000064,0.00004138,0.00000009,-0.00000008,-0
 .00000249,0.,0.00000006,-0.00000110,0.00000003,-0.00000002,0.00000113,
 -0.00000002,0.00000008,-0.00000110,0.00000001,-0.00000007,-0.00000249,
 -0.00000260,-0.00000356,-0.00080582,0.00003581,-0.00015636,0.00694076,
 0.00039884,0.00001581,0.00377197,0.00046522,-0.00029319,-0.03734872,-0
 .00035236,0.00000926,0.00377301,-0.00001719,-0.00014637,0.00694097,0.0
 0000002,0.00000002,0.00000055,0.00000002,0.,0.00000117,0.,0.00000002,-
 0.00000087,0.,-0.00000002,0.00000117,-0.00000005,0.00000004,0.00000055
 ,0.00001806,-0.00000056,0.00014381,-0.00001611,0.00006959,-0.00406394,
 -0.00051375,0.00042190,0.02549716,-0.00029537,0.00129189,0.00001805,-0
 .00035336,-0.00007118,-0.00000064,0.00014105,-0.00007505,-0.00000122,-
 0.00009480,0.00003824,0.00000066,0.00000179,-0.00001069,-0.00000014,-0
 .00002860,-0.00000005,0.00000004,0.00000212,-0.00000120,-0.00000002,-0
 .00005954,-0.00001868,-0.00000018,-0.00496417,-0.00136216,0.00000042,-
 0.00057980,-0.00084822,-0.00001142,-0.00099992,-0.00288551,-0.00002660
 ,0.01173308,-0.01531818,-0.00021544,-0.12682449,0.11918953,0.00171680,
 -0.01059651,0.02908920,0.00040814,0.00001174,0.00000665,0.00000008,-0.
 00001573,-0.00000559,-0.00000005,-0.00000649,-0.00000032,0.,-0.0000106
 1,0.00000485,0.00000008,0.00001274,-0.00001001,-0.00000015,0.00004507,
 0.00006884,-0.00000072,0.00038803,-0.00074874,-0.00001024,0.00087717,0
 .00065737,0.00000132,0.13035723,-0.00000191,0.00011180,-0.00000244,-0.
 00004702,-0.00004598,0.00000141,-0.00005942,-0.00000928,0.00000008,0.0
 0002460,-0.00001231,-0.00000031,-0.00000292,-0.00001316,-0.00000019,0.
 00002616,0.00000015,-0.00000002,-0.00000294,0.00001382,0.00000023,0.00
 002463,0.00000934,0.00000025,-0.00078441,0.00173580,-0.00007378,-0.000
 86246,0.00040176,0.00001565,-0.00405241,-0.00295776,-0.00012392,0.0161
 0932,-0.01819774,-0.00031667,0.11935475,-0.26903408,-0.00324633,-0.002
 17313,0.00352608,-0.00000027,-0.00000602,-0.00000196,-0.00000007,0.000
 00576,0.00000469,0.00000004,0.00000473,0.00000005,-0.00000002,0.000004
 85,-0.00000439,-0.00000009,-0.00000605,0.00000350,0.00000002,0.0000828
 3,-0.00002488,0.00001341,0.00073799,-0.00092457,-0.00001594,-0.0001197
 7,0.00118114,0.00006989,-0.12857758,0.28344935,0.00000086,-0.00000438,
 0.00029553,-0.00000031,0.00000145,-0.00014671,-0.00000101,0.00000010,-
 0.00000821,0.00000048,-0.00000033,0.00000845,-0.00000004,-0.00000018,0
 .00000128,0.00000039,0.00000002,-0.00000122,-0.00000005,0.00000023,-0.
 00000327,0.00000040,0.00000031,-0.00001194,0.00000809,-0.00007291,0.00
 737554,-0.00001161,0.00001563,-0.00067852,-0.00004211,-0.00012567,0.00
 682347,0.00020219,-0.00026952,0.00380999,0.00171900,-0.00324608,-0.038
 25981,-0.00000729,-0.00004718,0.00379095,-0.00000009,-0.00000009,0.000
 00379,0.00000010,0.00000006,0.00000106,0.00000007,-0.00000001,0.000001
 17,0.00000008,-0.00000009,0.00000166,-0.00000010,0.00000002,0.00000281
 ,-0.00000053,0.00001343,-0.00104322,0.00000951,-0.00001371,0.00019131,
 -0.00000901,0.00006873,-0.00406397,-0.00186487,0.00361122,0.02626217,0
 .00131969,0.00059882,0.00000020,-0.00003530,-0.00013961,-0.00000168,-0
 .00012712,-0.00003121,0.00000001,0.00003314,0.00002648,0.00000032,-0.0
 0000349,-0.00001101,-0.00000019,0.00001901,-0.00000008,-0.00000003,0.0
 0000394,-0.00001789,-0.00000022,0.00007628,0.00002886,0.00000022,0.010
 21513,0.01540923,0.00019551,-0.00135867,0.00277164,0.00004794,-0.00047
 776,0.00077668,0.00001009,-0.00523670,0.00159728,0.00003991,-0.0101649
 0,-0.02820144,-0.00035328,-0.13054853,-0.12425473,-0.00151234,-0.00002
 306,-0.00002657,-0.00000028,0.00001173,0.00000591,0.00000007,0.0000088
 7,-0.00000284,-0.00000005,0.00001274,-0.00000605,-0.00000010,-0.000010
 82,0.00000611,0.00000010,0.00053912,0.00078334,0.00001010,0.00004382,-
 0.00008335,-0.00000274,-0.00057885,-0.00127333,-0.00001584,0.00125938,
 0.00032042,-0.00000416,0.13502233,-0.00149314,0.00067754,0.00006241,0.
 00079072,0.00026480,0.00000129,-0.00000835,-0.00001469,-0.00000228,0.0
 0000665,-0.00003322,-0.00000060,0.00000023,0.00000692,0.00000056,0.000
 00541,0.00000311,0.,-0.00001391,0.00002516,0.00000016,-0.00003340,-0.0
 0004757,-0.00000015,-0.01555770,-0.01806131,-0.00027045,0.00406740,-0.
 00261265,-0.00012113,0.00077619,0.00033421,0.00001167,0.00048627,0.001
 51426,-0.00007648,0.00275566,0.00432368,-0.00000177,-0.12243721,-0.268
 03482,-0.00287263,0.00002704,0.00003444,0.00000004,-0.00000677,-0.0000
 0196,-0.00000007,-0.00000613,0.00000315,0.00000004,-0.00001001,0.00000
 350,0.00000002,0.00000611,-0.00000087,-0.00000004,-0.00079557,-0.00095
 323,-0.00001590,-0.00006935,-0.00002364,0.00001366,0.00019993,0.000088
 34,-0.00000104,-0.00041340,0.00078865,0.00006895,0.13172334,0.28171621
 ,-0.00002760,0.00005927,-0.00384975,0.00001068,0.00000269,0.00007815,0
 .00000032,-0.00000224,0.00015761,0.00000006,-0.00000063,0.00001142,-0.
 00000004,0.00000058,-0.00003545,0.00000005,0.,0.00000264,-0.00000017,0
 .00000017,0.00001476,-0.00000061,-0.00000025,-0.00003222,-0.00021599,-
 0.00031692,0.00404391,0.00006516,-0.00011919,0.00604189,0.00001008,0.0
 0001166,-0.00063113,0.00002514,-0.00007815,0.00721355,0.00005809,0.000
 04468,0.00414597,-0.00148818,-0.00286991,-0.03807023,0.00000044,0.0000
 0012,0.00002860,-0.00000010,-0.00000009,0.00000379,-0.00000009,0.00000
 004,0.00000055,-0.00000015,0.00000002,0.00000281,0.00000010,-0.0000000
 4,0.00000146,-0.00001088,-0.00001827,0.00033298,-0.00000255,0.00001368
 ,-0.00104321,0.00000374,0.00000117,0.00014385,-0.00001392,0.00006785,-
 0.00435230,0.00158644,0.00320374,0.02579034\\-0.00001150,0.00000005,0.
 00000002,0.00001150,-0.00000005,-0.00000002,0.00003127,-0.00000013,-0.
 00000005,-0.00002877,-0.00002241,-0.00000025,-0.00000720,0.00003771,0.
 00000051,0.00004258,-0.00000017,-0.00000007,-0.00000751,-0.00003765,-0
 .00000049,-0.00002859,0.00002265,0.00000034,-0.00003127,0.00000013,0.0
 0000005,0.00002877,0.00002241,0.00000025,0.00000720,-0.00003771,-0.000
 00051,-0.00004258,0.00000017,0.00000007,0.00000751,0.00003765,0.000000
 49,0.00002859,-0.00002265,-0.00000034,0.00000166,0.00000244,0.00000003
 ,-0.00000383,0.00000464,0.00000007,0.00000021,0.,0.,-0.00000387,-0.000
 00461,-0.00000006,0.00000164,-0.00000246,-0.00000004,-0.00000166,-0.00
 000244,-0.00000003,0.00000383,-0.00000464,-0.00000007,-0.00000021,0.,0
 .,0.00000387,0.00000461,0.00000006,-0.00000164,0.00000246,0.00000004\\
 \@
 The archive entry for this job was punched.


 I FIND THAT THE THREE TRULY GREAT TIMES FOR THINKING THOUGHTS
 ARE WHEN I AM STANDING IN THE SHOWER, SITTING ON THE JOHN, OR WALKING.

                                    -- COLIN FLETCHER
 Job cpu time:       0 days  0 hours 25 minutes 40.7 seconds.
 Elapsed time:       0 days  0 hours  3 minutes 15.7 seconds.
 File lengths (MBytes):  RWF=    128 Int=      0 D2E=      0 Chk=      6 Scr=      2
 Normal termination of Gaussian 16 at Tue Mar 12 01:35:22 2024.
