%nprocshared=8
%mem=8800MB
#N opt freq B3LYP/def2SVPP symm=veryloose em=gd3bj scale=0.961 press=0.987

c1ccc2cc3cc4c(ccc5ccccc54)cc3cc2c1_2

0 1
C         -5.97270       -0.14910        0.04510
C         -5.73100        1.19430       -0.22460
C         -4.41900        1.66040       -0.32130
C         -3.33160        0.78770       -0.14930
C         -2.00490        1.24010       -0.24330
C         -0.91670        0.36650       -0.07110
C          0.41450        0.81660       -0.16460
C          1.53390       -0.03890        0.00390
C          1.25440       -1.39980        0.27720
C          2.30360       -2.30550        0.45590
C          3.62900       -1.89010        0.36930
C          3.94460       -0.55620        0.10140
C          5.29330       -0.16890        0.02040
C          5.64750        1.15080       -0.24490
C          4.65480        2.09980       -0.43240
C          3.30940        1.72640       -0.35420
C          2.90690        0.39290       -0.08610
C         -0.07290       -1.85340        0.37140
C         -1.16240       -0.98820        0.20090
C         -2.48850       -1.44520        0.29580
C         -3.57680       -0.57430        0.12410
C         -4.90280       -1.02840        0.21850
H         -6.99360       -0.51430        0.12080
H         -6.56260        1.88080       -0.36000
H         -4.25030        2.71400       -0.53280
H         -1.81620        2.29110       -0.45430
H          0.57090        1.87090       -0.37620
H          2.10050       -3.35360        0.66630
H          4.41640       -2.62670        0.51490
H          6.08560       -0.90070        0.16490
H          6.69480        1.43390       -0.30420
H          4.91980        3.13320       -0.64010
H          2.57350        2.50990       -0.50930
H         -0.26300       -2.90480        0.58250
H         -2.67650       -2.49630        0.50680
H         -5.11190       -2.07500        0.42860

