%nprocshared=8
%mem=10400MB
#N opt freq B3LYP/def2SVPP symm=veryloose em=gd3bj scale=0.961 press=0.987

c1ccc2cc3c(ccc4c3ccc3c5ccccc5ccc34)cc2c1_2

0 1
C          6.86440        0.94810        0.32510
C          6.25790        1.85980        1.18290
C          4.86740        1.88420        1.30210
C          4.06470        0.99650        0.56440
C          2.65970        1.00450        0.66980
C          1.81640        0.12210       -0.06040
C          2.47000       -0.78720       -0.91940
C          1.71660       -1.68360       -1.66840
C          0.32480       -1.69480       -1.58110
C         -0.39830       -0.81600       -0.74440
C          0.37030        0.10170        0.02270
C         -0.34440        0.97700        0.85560
C         -1.73830        0.96400        0.94160
C         -2.53270        0.07460        0.20170
C         -3.97730        0.06860        0.29750
C         -4.73930        0.93600        1.12660
C         -6.13650        0.89000        1.18330
C         -6.82840       -0.02790        0.41070
C         -6.12080       -0.89560       -0.41490
C         -4.71650       -0.85480       -0.47680
C         -4.04520       -1.73810       -1.31380
C         -2.65290       -1.72310       -1.39780
C         -1.84820       -0.82980       -0.65520
C          3.87210       -0.80360       -1.03230
C          4.67920        0.07680       -0.30130
C          6.08010        0.06120       -0.41340
H          7.94670        0.92600        0.22950
H          6.86500        2.55240        1.75990
H          4.41190        2.60440        1.97810
H          2.22270        1.73040        1.34970
H          2.20020       -2.39310       -2.33700
H         -0.18220       -2.42780       -2.20120
H          0.16580        1.70900        1.47460
H         -2.18380        1.68660        1.61900
H         -4.25350        1.67650        1.75500
H         -6.67590        1.57410        1.83300
H         -7.91320       -0.07090        0.44830
H         -6.67790       -1.61130       -1.01610
H         -4.59500       -2.45680       -1.91820
H         -2.21250       -2.44720       -2.07640
H          4.34600       -1.51770       -1.70420
H          6.57060       -0.64510       -1.07940

