%nprocshared=8
%mem=8800MB
#N opt freq B3LYP/def2SVPP symm=veryloose em=gd3bj scale=0.961 press=0.987

c1ccc2c(c1)ccc1c3ccccc3c3ccccc3c21_2

0 1
C          4.86960        0.06620        0.38410
C          4.14360        1.20140        0.69400
C          2.74840        1.18670        0.57790
C          2.00970        0.06110        0.11870
C          2.78680       -1.10400       -0.08480
C          4.19060       -1.08710        0.01160
C          2.15350       -2.30400       -0.35110
C          0.76580       -2.37910       -0.32420
C         -0.06940       -1.25260       -0.13740
C         -1.49530       -1.38880       -0.01580
C         -2.14540       -2.65610        0.06350
C         -3.52240       -2.80540        0.22350
C         -4.31220       -1.68250        0.31740
C         -3.71530       -0.42570        0.24030
C         -2.31310       -0.23460        0.06680
C         -1.71990        1.05850       -0.07110
C         -2.49730        2.25260       -0.11660
C         -1.95250        3.50950       -0.36780
C         -0.60460        3.61180       -0.61920
C          0.18520        2.46460       -0.55340
C         -0.30980        1.17720       -0.20440
C          0.55300        0.02250       -0.07150
H          5.95230        0.06350        0.46890
H          4.64970        2.09760        1.04270
H          2.23060        2.07990        0.91940
H          4.76760       -1.99000       -0.17890
H          2.72370       -3.21580       -0.51430
H          0.35080       -3.37110       -0.47590
H         -1.57880       -3.58190        0.02770
H         -3.96250       -3.79670        0.28430
H         -5.38670       -1.77190        0.44910
H         -4.39220        0.41940        0.32090
H         -3.57470        2.22860        0.01540
H         -2.59140        4.38680       -0.40850
H         -0.16090        4.56810       -0.88070
H          1.22350        2.59120       -0.85070

