%nprocshared=16
%mem=1280MB
#N opt freq B3LYP/def2SVPP symm=veryloose em=gd3bj scale=0.961 press=0.987

C=CC=C_1

0 1
C          1.07648       -0.05425        0.06936
C          2.41141       -0.04845        0.07433
C          3.16710        0.85041        0.96989
C          4.50204        0.85658        0.97454
H          0.53970       -0.72237       -0.59637
H          0.50923        0.60153        0.72339
H          2.94365       -0.71931       -0.59480
H          2.63485        1.52105        1.63923
H          5.06933        0.20113        0.32022
H          5.03878        1.52476        1.64025

