 Entering Gaussian System, Link 0=g16
 Initial command:
 /home/software/g16/l1.exe "/home/software/g16tmp/Gau-99783.inp" -scrdir="/home/software/g16tmp/"
 Default is to use a total of   8 processors:
                                8 via shared-memory
                                1 via Linda
 Entering Link 1 = /home/software/g16/l1.exe PID=     99786.
  
 Copyright (c) 1988-2019, Gaussian, Inc.  All Rights Reserved.
  
 This is part of the Gaussian(R) 16 program.  It is based on
 the Gaussian(R) 09 system (copyright 2009, Gaussian, Inc.),
 the Gaussian(R) 03 system (copyright 2003, Gaussian, Inc.),
 the Gaussian(R) 98 system (copyright 1998, Gaussian, Inc.),
 the Gaussian(R) 94 system (copyright 1995, Gaussian, Inc.),
 the Gaussian 92(TM) system (copyright 1992, Gaussian, Inc.),
 the Gaussian 90(TM) system (copyright 1990, Gaussian, Inc.),
 the Gaussian 88(TM) system (copyright 1988, Gaussian, Inc.),
 the Gaussian 86(TM) system (copyright 1986, Carnegie Mellon
 University), and the Gaussian 82(TM) system (copyright 1983,
 Carnegie Mellon University). Gaussian is a federally registered
 trademark of Gaussian, Inc.
  
 This software contains proprietary and confidential information,
 including trade secrets, belonging to Gaussian, Inc.
  
 This software is provided under written license and may be
 used, copied, transmitted, or stored only in accord with that
 written license.
  
 The following legend is applicable only to US Government
 contracts under FAR:
  
                    RESTRICTED RIGHTS LEGEND
  
 Use, reproduction and disclosure by the US Government is
 subject to restrictions as set forth in subparagraphs (a)
 and (c) of the Commercial Computer Software - Restricted
 Rights clause in FAR 52.227-19.
  
 Gaussian, Inc.
 340 Quinnipiac St., Bldg. 40, Wallingford CT 06492
  
  
 ---------------------------------------------------------------
 Warning -- This program may not be used in any manner that
 competes with the business of Gaussian, Inc. or will provide
 assistance to any competitor of Gaussian, Inc.  The licensee
 of this program is prohibited from giving any competitor of
 Gaussian, Inc. access to this program.  By using this program,
 the user acknowledges that Gaussian, Inc. is engaged in the
 business of creating and licensing software in the field of
 computational chemistry and represents and warrants to the
 licensee that it is not a competitor of Gaussian, Inc. and that
 it will not use this program in any manner prohibited above.
 ---------------------------------------------------------------
  

 Cite this work as:
 Gaussian 16, Revision C.01,
 M. J. Frisch, G. W. Trucks, H. B. Schlegel, G. E. Scuseria, 
 M. A. Robb, J. R. Cheeseman, G. Scalmani, V. Barone, 
 G. A. Petersson, H. Nakatsuji, X. Li, M. Caricato, A. V. Marenich, 
 J. Bloino, B. G. Janesko, R. Gomperts, B. Mennucci, H. P. Hratchian, 
 J. V. Ortiz, A. F. Izmaylov, J. L. Sonnenberg, D. Williams-Young, 
 F. Ding, F. Lipparini, F. Egidi, J. Goings, B. Peng, A. Petrone, 
 T. Henderson, D. Ranasinghe, V. G. Zakrzewski, J. Gao, N. Rega, 
 G. Zheng, W. Liang, M. Hada, M. Ehara, K. Toyota, R. Fukuda, 
 J. Hasegawa, M. Ishida, T. Nakajima, Y. Honda, O. Kitao, H. Nakai, 
 T. Vreven, K. Throssell, J. A. Montgomery, Jr., J. E. Peralta, 
 F. Ogliaro, M. J. Bearpark, J. J. Heyd, E. N. Brothers, K. N. Kudin, 
 V. N. Staroverov, T. A. Keith, R. Kobayashi, J. Normand, 
 K. Raghavachari, A. P. Rendell, J. C. Burant, S. S. Iyengar, 
 J. Tomasi, M. Cossi, J. M. Millam, M. Klene, C. Adamo, R. Cammi, 
 J. W. Ochterski, R. L. Martin, K. Morokuma, O. Farkas, 
 J. B. Foresman, and D. J. Fox, Gaussian, Inc., Wallingford CT, 2019.
 
 ******************************************
 Gaussian 16:  ES64L-G16RevC.01  3-Jul-2019
                20-Dec-2023 
 ******************************************
 %nprocshared=16
 Will use up to   16 processors via shared memory.
 %mem=1280MB
 ----------------------------------------------------------------------
 #N opt freq B3LYP/def2SVPP symm=veryloose em=gd3bj scale=0.961 press=0
 .987
 ----------------------------------------------------------------------
 1/18=20,19=15,26=3,38=1,113=-987000,114=961000/1,3;
 2/9=110,12=2,17=2,18=2,40=1/2;
 3/5=43,7=202,11=2,25=1,30=1,71=1,74=-5,124=41/1,2,3;
 4//1;
 5/5=2,38=5/2;
 6/7=2,8=2,9=2,10=2,28=1/1;
 7//1,2,3,16;
 1/18=20,19=15,26=3/3(2);
 2/9=110/2;
 99//99;
 2/9=110/2;
 3/5=43,7=202,11=2,25=1,30=1,71=1,74=-5,124=41/1,2,3;
 4/5=5,16=3,69=1/1;
 5/5=2,38=5/2;
 7//1,2,3,16;
 1/18=20,19=15,26=3/3(-5);
 2/9=110/2;
 6/7=2,8=2,9=2,10=2,19=2,28=1/1;
 99/9=1/99;
 --------
 CC(C)O_1
 --------
 Symbolic Z-matrix:
 Charge =  0 Multiplicity = 1
 C                     0.28521  -0.6095    1.27161 
 C                     0.28521   0.23958   0. 
 C                     0.28521  -0.6095   -1.27161 
 O                    -0.7954    1.16394   0. 
 H                     1.17346  -1.26472   1.3235 
 H                    -0.6125   -1.25775   1.3041 
 H                     0.2726    0.03877   2.1644 
 H                     1.18646   0.87764   0. 
 H                    -0.6125   -1.25775  -1.3041 
 H                     1.17346  -1.26472  -1.3235 
 H                     0.2726    0.03877  -2.1644 
 H                    -0.75019   1.67652  -0.82555 
 

 GradGradGradGradGradGradGradGradGradGradGradGradGradGradGradGradGradGrad
 Berny optimization.
 Initialization pass.
                           ----------------------------
                           !    Initial Parameters    !
                           ! (Angstroms and Degrees)  !
 --------------------------                            --------------------------
 ! Name  Definition              Value          Derivative Info.                !
 --------------------------------------------------------------------------------
 ! R1    R(1,2)                  1.529          estimate D2E/DX2                !
 ! R2    R(1,5)                  1.105          estimate D2E/DX2                !
 ! R3    R(1,6)                  1.1078         estimate D2E/DX2                !
 ! R4    R(1,7)                  1.1034         estimate D2E/DX2                !
 ! R5    R(2,3)                  1.529          estimate D2E/DX2                !
 ! R6    R(2,4)                  1.422          estimate D2E/DX2                !
 ! R7    R(2,8)                  1.1042         estimate D2E/DX2                !
 ! R8    R(3,9)                  1.1078         estimate D2E/DX2                !
 ! R9    R(3,10)                 1.105          estimate D2E/DX2                !
 ! R10   R(3,11)                 1.1034         estimate D2E/DX2                !
 ! R11   R(4,12)                 0.9728         estimate D2E/DX2                !
 ! A1    A(2,1,5)              111.6129         estimate D2E/DX2                !
 ! A2    A(2,1,6)              110.4475         estimate D2E/DX2                !
 ! A3    A(2,1,7)              110.2826         estimate D2E/DX2                !
 ! A4    A(5,1,6)              107.6415         estimate D2E/DX2                !
 ! A5    A(5,1,7)              108.6372         estimate D2E/DX2                !
 ! A6    A(6,1,7)              108.1075         estimate D2E/DX2                !
 ! A7    A(1,2,3)              112.5359         estimate D2E/DX2                !
 ! A8    A(1,2,4)              111.1597         estimate D2E/DX2                !
 ! A9    A(1,2,8)              108.7155         estimate D2E/DX2                !
 ! A10   A(3,2,4)              111.1597         estimate D2E/DX2                !
 ! A11   A(3,2,8)              108.7155         estimate D2E/DX2                !
 ! A12   A(4,2,8)              104.1587         estimate D2E/DX2                !
 ! A13   A(2,3,9)              110.4475         estimate D2E/DX2                !
 ! A14   A(2,3,10)             111.6129         estimate D2E/DX2                !
 ! A15   A(2,3,11)             110.2826         estimate D2E/DX2                !
 ! A16   A(9,3,10)             107.6415         estimate D2E/DX2                !
 ! A17   A(9,3,11)             108.1075         estimate D2E/DX2                !
 ! A18   A(10,3,11)            108.6372         estimate D2E/DX2                !
 ! A19   A(2,4,12)             107.8907         estimate D2E/DX2                !
 ! D1    D(5,1,2,3)             59.8424         estimate D2E/DX2                !
 ! D2    D(5,1,2,4)           -174.7298         estimate D2E/DX2                !
 ! D3    D(5,1,2,8)            -60.6463         estimate D2E/DX2                !
 ! D4    D(6,1,2,3)            -59.8678         estimate D2E/DX2                !
 ! D5    D(6,1,2,4)             65.56           estimate D2E/DX2                !
 ! D6    D(6,1,2,8)            179.6434         estimate D2E/DX2                !
 ! D7    D(7,1,2,3)           -179.3016         estimate D2E/DX2                !
 ! D8    D(7,1,2,4)            -53.8738         estimate D2E/DX2                !
 ! D9    D(7,1,2,8)             60.2097         estimate D2E/DX2                !
 ! D10   D(1,2,3,9)             59.8678         estimate D2E/DX2                !
 ! D11   D(1,2,3,10)           -59.8424         estimate D2E/DX2                !
 ! D12   D(1,2,3,11)           179.3016         estimate D2E/DX2                !
 ! D13   D(4,2,3,9)            -65.56           estimate D2E/DX2                !
 ! D14   D(4,2,3,10)           174.7298         estimate D2E/DX2                !
 ! D15   D(4,2,3,11)            53.8738         estimate D2E/DX2                !
 ! D16   D(8,2,3,9)           -179.6434         estimate D2E/DX2                !
 ! D17   D(8,2,3,10)            60.6463         estimate D2E/DX2                !
 ! D18   D(8,2,3,11)           -60.2097         estimate D2E/DX2                !
 ! D19   D(1,2,4,12)           180.0            estimate D2E/DX2                !
 ! D20   D(3,2,4,12)           -53.8074         estimate D2E/DX2                !
 ! D21   D(8,2,4,12)            63.0963         estimate D2E/DX2                !
 --------------------------------------------------------------------------------
 Trust Radius=3.00D-01 FncErr=1.00D-07 GrdErr=1.00D-06 EigMax=2.50D+02 EigMin=1.00D-04
 Number of steps in this run=     61 maximum allowed number of steps=    100.
 GradGradGradGradGradGradGradGradGradGradGradGradGradGradGradGradGradGrad

                          Input orientation:                          
 ---------------------------------------------------------------------
 Center     Atomic      Atomic             Coordinates (Angstroms)
 Number     Number       Type             X           Y           Z
 ---------------------------------------------------------------------
      1          6           0        0.285214   -0.609501    1.271607
      2          6           0        0.285214    0.239583    0.000000
      3          6           0        0.285214   -0.609501   -1.271607
      4          8           0       -0.795395    1.163943    0.000000
      5          1           0        1.173458   -1.264716    1.323496
      6          1           0       -0.612504   -1.257745    1.304104
      7          1           0        0.272599    0.038768    2.164398
      8          1           0        1.186460    0.877639    0.000000
      9          1           0       -0.612504   -1.257745   -1.304104
     10          1           0        1.173458   -1.264716   -1.323496
     11          1           0        0.272599    0.038768   -2.164398
     12          1           0       -0.750194    1.676520   -0.825552
 ---------------------------------------------------------------------
                    Distance matrix (angstroms):
                    1          2          3          4          5
     1  C    0.000000
     2  C    1.529028   0.000000
     3  C    2.543214   1.529028   0.000000
     4  O    2.435119   1.422026   2.435119   0.000000
     5  H    1.104978   2.191697   2.820079   3.395056   0.000000
     6  H    1.107779   2.179123   2.803641   2.756576   1.786081
     7  H    1.103398   2.173731   3.496647   2.662940   1.793804
     8  H    2.154255   1.104246   2.154255   2.002428   2.518233
     9  H    2.803641   2.179123   1.107779   2.756576   3.177104
    10  H    2.820079   2.191697   1.104978   3.395056   2.646992
    11  H    3.496647   2.173731   1.103398   2.662940   3.830930
    12  H    3.270479   1.954071   2.548907   0.972786   4.119431
                    6          7          8          9         10
     6  H    0.000000
     7  H    1.790100   0.000000
     8  H    3.081692   2.494687   0.000000
     9  H    2.608208   3.807211   3.081692   0.000000
    10  H    3.177104   3.830930   2.518233   1.786081   0.000000
    11  H    3.807211   4.328796   2.494687   1.790100   1.793804
    12  H    3.628264   3.559232   2.251749   2.976219   3.549543
                   11         12
    11  H    0.000000
    12  H    2.349648   0.000000
 Stoichiometry    C3H8O
 Framework group  C1[X(C3H8O)]
 Deg. of freedom    30
 Full point group                 C1      NOp   1
 Largest Abelian subgroup         C1      NOp   1
 Largest concise Abelian subgroup C1      NOp   1
                         Standard orientation:                         
 ---------------------------------------------------------------------
 Center     Atomic      Atomic             Coordinates (Angstroms)
 Number     Number       Type             X           Y           Z
 ---------------------------------------------------------------------
      1          6           0        1.434244   -0.304035    0.078776
      2          6           0        0.006577    0.061645   -0.328622
      3          6           0       -1.011732   -1.000504    0.087088
      4          8           0       -0.356717    1.343451    0.168516
      5          1           0        1.757557   -1.255506   -0.380731
      6          1           0        1.505069   -0.420985    1.178085
      7          1           0        2.134989    0.491418   -0.227326
      8          1           0       -0.030079    0.177280   -1.426185
      9          1           0       -1.003416   -1.135253    1.186609
     10          1           0       -0.788229   -1.980396   -0.372080
     11          1           0       -2.028299   -0.694040   -0.213179
     12          1           0       -1.268389    1.527241   -0.116769
 ---------------------------------------------------------------------
 Rotational constants (GHZ):           8.5461310           7.9477546           4.6615241
 Standard basis: def2SVPP (5D, 7F)
 There are    76 symmetry adapted cartesian basis functions of A   symmetry.
 There are    72 symmetry adapted basis functions of A   symmetry.
    72 basis functions,   132 primitive gaussians,    76 cartesian basis functions
    17 alpha electrons       17 beta electrons
       nuclear repulsion energy       133.8921739271 Hartrees.
 NAtoms=   12 NActive=   12 NUniq=   12 SFac= 1.00D+00 NAtFMM=   60 NAOKFM=F Big=F
 Integral buffers will be    131072 words long.
 Raffenetti 2 integral format.
 Two-electron integral symmetry is turned on.
 Nuclear repulsion after empirical dispersion term =      133.8802090871 Hartrees.
 One-electron integrals computed using PRISM.
   1 Symmetry operations used in ECPInt.
 ECPInt:  NShTT=     820 NPrTT=    3316 LenC2=     821 LenP2D=    2881.
 LDataN:  DoStor=T MaxTD1= 4 Len=   56
 NBasis=    72 RedAO= T EigKep=  2.67D-03  NBF=    72
 NBsUse=    72 1.00D-06 EigRej= -1.00D+00 NBFU=    72
 ExpMin= 1.22D-01 ExpMax= 2.27D+03 ExpMxC= 3.41D+02 IAcc=3 IRadAn=         5 AccDes= 0.00D+00
 Harris functional with IExCor=  402 and IRadAn=       5 diagonalized for initial guess.
 HarFok:  IExCor=  402 AccDes= 0.00D+00 IRadAn=         5 IDoV= 1 UseB2=F ITyADJ=14
 ICtDFT=  3500011 ScaDFX=  1.000000  1.000000  1.000000  1.000000
 FoFCou: FMM=F IPFlag=           0 FMFlag=      100000 FMFlg1=           0
         NFxFlg=           0 DoJE=T BraDBF=F KetDBF=T FulRan=T
         wScrn=  0.000000 ICntrl=       500 IOpCl=  0 I1Cent=   200000004 NGrid=           0
         NMat0=    1 NMatS0=      1 NMatT0=    0 NMatD0=    1 NMtDS0=    0 NMtDT0=    0
 Petite list used in FoFCou.
 Keep R1 ints in memory in canonical form, NReq=17884574.
 Requested convergence on RMS density matrix=1.00D-08 within 128 cycles.
 Requested convergence on MAX density matrix=1.00D-06.
 Requested convergence on             energy=1.00D-06.
 No special actions if energy rises.
 Integral accuracy reduced to 1.0D-05 until final iterations.
 Initial convergence to 1.0D-05 achieved.  Increase integral accuracy.
 SCF Done:  E(RB3LYP) =  -194.198984665     A.U. after   12 cycles
            NFock= 12  Conv=0.61D-08     -V/T= 2.0096

 **********************************************************************

            Population analysis using the SCF Density.

 **********************************************************************

 Orbital symmetries:
       Occupied  (A) (A) (A) (A) (A) (A) (A) (A) (A) (A) (A) (A)
                 (A) (A) (A) (A) (A)
       Virtual   (A) (A) (A) (A) (A) (A) (A) (A) (A) (A) (A) (A)
                 (A) (A) (A) (A) (A) (A) (A) (A) (A) (A) (A) (A)
                 (A) (A) (A) (A) (A) (A) (A) (A) (A) (A) (A) (A)
                 (A) (A) (A) (A) (A) (A) (A) (A) (A) (A) (A) (A)
                 (A) (A) (A) (A) (A) (A) (A)
 The electronic state is 1-A.
 Alpha  occ. eigenvalues --  -19.11671 -10.23104 -10.17503 -10.17182  -1.00116
 Alpha  occ. eigenvalues --   -0.76094  -0.68241  -0.58170  -0.50702  -0.45333
 Alpha  occ. eigenvalues --   -0.43535  -0.39135  -0.38459  -0.36952  -0.35753
 Alpha  occ. eigenvalues --   -0.31756  -0.26189
 Alpha virt. eigenvalues --    0.04005   0.08490   0.10146   0.11405   0.11511
 Alpha virt. eigenvalues --    0.13726   0.15700   0.16228   0.21658   0.22775
 Alpha virt. eigenvalues --    0.25040   0.39815   0.43302   0.46949   0.48564
 Alpha virt. eigenvalues --    0.51678   0.58992   0.61618   0.63895   0.64423
 Alpha virt. eigenvalues --    0.65704   0.67544   0.69828   0.70218   0.70778
 Alpha virt. eigenvalues --    0.71249   0.72837   0.73306   0.74851   0.93532
 Alpha virt. eigenvalues --    0.99829   1.02899   1.10262   1.23765   1.45435
 Alpha virt. eigenvalues --    1.49895   1.57394   1.73220   1.81015   1.85824
 Alpha virt. eigenvalues --    1.91423   1.96612   2.02691   2.12720   2.13719
 Alpha virt. eigenvalues --    2.17573   2.25063   2.30466   2.48986   2.56722
 Alpha virt. eigenvalues --    2.64833   2.89172   2.95152   3.02081   3.36414
          Condensed to atoms (all electrons):
               1          2          3          4          5          6
     1  C    4.947813   0.382743  -0.056930  -0.060442   0.357489   0.355576
     2  C    0.382743   4.511162   0.430706   0.328968  -0.007739  -0.011211
     3  C   -0.056930   0.430706   4.953238  -0.052125  -0.002929  -0.014284
     4  O   -0.060442   0.328968  -0.052125   8.007555   0.003258   0.003259
     5  H    0.357489  -0.007739  -0.002929   0.003258   0.601420  -0.022682
     6  H    0.355576  -0.011211  -0.014284   0.003259  -0.022682   0.602145
     7  H    0.355506  -0.008449   0.010247   0.004329  -0.019965  -0.024175
     8  H   -0.050330   0.377325  -0.058902  -0.039050  -0.002534   0.009869
     9  H   -0.014722  -0.013232   0.356355   0.004255  -0.000189   0.009839
    10  H   -0.001336  -0.007695   0.334993   0.005003   0.002906   0.000061
    11  H    0.010404  -0.018950   0.359751  -0.000894  -0.000146  -0.000244
    12  H    0.010819  -0.036387  -0.003058   0.265977  -0.000498  -0.000326
               7          8          9         10         11         12
     1  C    0.355506  -0.050330  -0.014722  -0.001336   0.010404   0.010819
     2  C   -0.008449   0.377325  -0.013232  -0.007695  -0.018950  -0.036387
     3  C    0.010247  -0.058902   0.356355   0.334993   0.359751  -0.003058
     4  O    0.004329  -0.039050   0.004255   0.005003  -0.000894   0.265977
     5  H   -0.019965  -0.002534  -0.000189   0.002906  -0.000146  -0.000498
     6  H   -0.024175   0.009869   0.009839   0.000061  -0.000244  -0.000326
     7  H    0.590812  -0.008651  -0.000273  -0.000531  -0.000486  -0.000416
     8  H   -0.008651   0.730744   0.010246  -0.000377  -0.008542  -0.003192
     9  H   -0.000273   0.010246   0.600509  -0.019697  -0.027526  -0.000940
    10  H   -0.000531  -0.000377  -0.019697   0.616421  -0.018809  -0.000154
    11  H   -0.000486  -0.008542  -0.027526  -0.018809   0.618415   0.008197
    12  H   -0.000416  -0.003192  -0.000940  -0.000154   0.008197   0.461640
 Mulliken charges:
               1
     1  C   -0.236592
     2  C    0.072757
     3  C   -0.257062
     4  O   -0.470091
     5  H    0.091610
     6  H    0.092173
     7  H    0.102052
     8  H    0.043395
     9  H    0.095375
    10  H    0.089216
    11  H    0.078830
    12  H    0.298339
 Sum of Mulliken charges =   0.00000
 Mulliken charges with hydrogens summed into heavy atoms:
               1
     1  C    0.049242
     2  C    0.116152
     3  C    0.006358
     4  O   -0.171752
 Electronic spatial extent (au):  <R**2>=            323.3133
 Charge=              0.0000 electrons
 Dipole moment (field-independent basis, Debye):
    X=             -0.9650    Y=             -0.9232    Z=             -0.8506  Tot=              1.5834
 Quadrupole moment (field-independent basis, Debye-Ang):
   XX=            -24.2900   YY=            -28.0692   ZZ=            -26.9646
   XY=             -2.2609   XZ=              0.5326   YZ=             -1.1644
 Traceless Quadrupole moment (field-independent basis, Debye-Ang):
   XX=              2.1512   YY=             -1.6279   ZZ=             -0.5233
   XY=             -2.2609   XZ=              0.5326   YZ=             -1.1644
 Octapole moment (field-independent basis, Debye-Ang**2):
  XXX=             -5.7426  YYY=              4.2231  ZZZ=              0.9992  XYY=             -3.5541
  XXY=              7.2409  XXZ=             -0.8778  XZZ=             -0.5364  YZZ=              1.5837
  YYZ=             -2.0619  XYZ=              0.8025
 Hexadecapole moment (field-independent basis, Debye-Ang**3):
 XXXX=           -201.8256 YYYY=           -163.5394 ZZZZ=            -54.2336 XXXY=             -9.3406
 XXXZ=              0.2123 YYYX=            -11.7122 YYYZ=              0.3166 ZZZX=              0.3696
 ZZZY=             -0.7106 XXYY=            -55.1997 XXZZ=            -43.6554 YYZZ=            -36.8702
 XXYZ=             -0.2979 YYXZ=              0.4814 ZZXY=             -1.3531
 N-N= 1.338802090871D+02 E-N=-7.199241920789D+02  KE= 1.923429185008D+02
   1 Symmetry operations used in ECPInt.
 ECPInt:  NShTT=     820 NPrTT=    3316 LenC2=     821 LenP2D=    2881.
 LDataN:  DoStor=T MaxTD1= 5 Len=  102
 Calling FoFJK, ICntrl=      2127 FMM=F ISym2X=0 I1Cent= 0 IOpClX= 0 NMat=1 NMatS=1 NMatT=0.
 ***** Axes restored to original set *****
 -------------------------------------------------------------------
 Center     Atomic                   Forces (Hartrees/Bohr)
 Number     Number              X              Y              Z
 -------------------------------------------------------------------
      1        6          -0.008151037    0.003793524   -0.001535858
      2        6           0.008279261    0.006679224   -0.005241880
      3        6          -0.002886079   -0.003625757    0.003008713
      4        8          -0.010536093   -0.006328820    0.005528762
      5        1           0.000316829    0.002352970   -0.002187868
      6        1           0.000390897    0.001623951    0.000038306
      7        1          -0.000126967   -0.000132575    0.000213341
      8        1           0.010273044   -0.005476864    0.000832941
      9        1           0.000325413    0.001837828   -0.000012900
     10        1           0.000720009    0.001215490   -0.000625317
     11        1           0.001068084   -0.000137603   -0.002221900
     12        1           0.000326639   -0.001801368    0.002203661
 -------------------------------------------------------------------
 Cartesian Forces:  Max     0.010536093 RMS     0.004101752

 GradGradGradGradGradGradGradGradGradGradGradGradGradGradGradGradGradGrad
 Berny optimization.
 FormGI is forming the generalized inverse of G from B-inverse, IUseBI=4.
 Internal  Forces:  Max     0.011270121 RMS     0.003280613
 Search for a local minimum.
 Step number   1 out of a maximum of   61
 All quantities printed in internal units (Hartrees-Bohrs-Radians)
 Mixed Optimization -- RFO/linear search
 Second derivative matrix not updated -- first step.
 ITU=  0
     Eigenvalues ---    0.00382   0.00382   0.01400   0.04017   0.04729
     Eigenvalues ---    0.05500   0.05500   0.05646   0.05646   0.07538
     Eigenvalues ---    0.16000   0.16000   0.16000   0.16000   0.16000
     Eigenvalues ---    0.16000   0.16000   0.17254   0.20274   0.29513
     Eigenvalues ---    0.29513   0.32836   0.32836   0.33138   0.33138
     Eigenvalues ---    0.33217   0.33309   0.33309   0.42157   0.52812
 RFO step:  Lambda=-5.20484249D-03 EMin= 3.81956781D-03
 Linear search not attempted -- first point.
 Iteration  1 RMS(Cart)=  0.04726425 RMS(Int)=  0.00153847
 Iteration  2 RMS(Cart)=  0.00174804 RMS(Int)=  0.00079795
 Iteration  3 RMS(Cart)=  0.00000161 RMS(Int)=  0.00079795
 Iteration  4 RMS(Cart)=  0.00000000 RMS(Int)=  0.00079795
 Variable       Old X    -DE/DX   Delta X   Delta X   Delta X     New X
                                 (Linear)    (Quad)   (Total)
    R1        2.88945  -0.00713   0.00000  -0.02374  -0.02374   2.86571
    R2        2.08811  -0.00124   0.00000  -0.00369  -0.00369   2.08441
    R3        2.09340  -0.00127   0.00000  -0.00379  -0.00379   2.08960
    R4        2.08512   0.00010   0.00000   0.00028   0.00028   2.08540
    R5        2.88945   0.00027   0.00000   0.00090   0.00090   2.89035
    R6        2.68724   0.00247   0.00000   0.00580   0.00580   2.69304
    R7        2.08672   0.00522   0.00000   0.01547   0.01547   2.10219
    R8        2.09340  -0.00134   0.00000  -0.00401  -0.00401   2.08938
    R9        2.08811  -0.00011   0.00000  -0.00033  -0.00033   2.08777
   R10        2.08512   0.00170   0.00000   0.00504   0.00504   2.09016
   R11        1.83830  -0.00280   0.00000  -0.00526  -0.00526   1.83304
    A1        1.94801  -0.00417   0.00000  -0.02637  -0.02639   1.92162
    A2        1.92767   0.00011   0.00000   0.00254   0.00253   1.93020
    A3        1.92479   0.00100   0.00000   0.00528   0.00525   1.93004
    A4        1.87870   0.00227   0.00000   0.01515   0.01515   1.89385
    A5        1.89608   0.00122   0.00000   0.00384   0.00379   1.89987
    A6        1.88683  -0.00029   0.00000   0.00054   0.00052   1.88736
    A7        1.96412   0.00503   0.00000  -0.00863  -0.01039   1.95373
    A8        1.94010  -0.01127   0.00000  -0.08531  -0.08570   1.85440
    A9        1.89744  -0.00089   0.00000  -0.00959  -0.00801   1.88944
   A10        1.94010   0.00257   0.00000  -0.00163  -0.00489   1.93521
   A11        1.89744  -0.00312   0.00000  -0.00035  -0.00131   1.89614
   A12        1.81791   0.00791   0.00000   0.11655   0.11672   1.93463
   A13        1.92767  -0.00083   0.00000  -0.00241  -0.00241   1.92526
   A14        1.94801  -0.00041   0.00000  -0.00290  -0.00289   1.94512
   A15        1.92479   0.00195   0.00000   0.00957   0.00957   1.93437
   A16        1.87870   0.00116   0.00000   0.01119   0.01119   1.88989
   A17        1.88683  -0.00047   0.00000  -0.00201  -0.00201   1.88482
   A18        1.89608  -0.00144   0.00000  -0.01362  -0.01361   1.88247
   A19        1.88305  -0.00108   0.00000  -0.00652  -0.00652   1.87653
    D1        1.04445   0.00031   0.00000   0.02359   0.02276   1.06721
    D2       -3.04961  -0.00123   0.00000  -0.05215  -0.05150  -3.10111
    D3       -1.05848   0.00163   0.00000   0.03606   0.03620  -1.02228
    D4       -1.04489   0.00011   0.00000   0.02009   0.01928  -1.02561
    D5        1.14424  -0.00144   0.00000  -0.05565  -0.05498   1.08926
    D6        3.13537   0.00143   0.00000   0.03257   0.03272  -3.11509
    D7       -3.12940  -0.00024   0.00000   0.01445   0.01364  -3.11576
    D8       -0.94028  -0.00179   0.00000  -0.06129  -0.06062  -1.00090
    D9        1.05086   0.00108   0.00000   0.02692   0.02708   1.07794
   D10        1.04489  -0.00269   0.00000  -0.01419  -0.01446   1.03044
   D11       -1.04445  -0.00332   0.00000  -0.02478  -0.02504  -1.06949
   D12        3.12940  -0.00256   0.00000  -0.01213  -0.01239   3.11702
   D13       -1.14424   0.00639   0.00000   0.10707   0.10718  -1.03706
   D14        3.04961   0.00576   0.00000   0.09649   0.09660  -3.13698
   D15        0.94028   0.00652   0.00000   0.10914   0.10925   1.04953
   D16       -3.13537  -0.00272   0.00000  -0.03198  -0.03183   3.11599
   D17        1.05848  -0.00336   0.00000  -0.04257  -0.04241   1.01606
   D18       -1.05086  -0.00260   0.00000  -0.02992  -0.02976  -1.08062
   D19        3.14159  -0.00064   0.00000   0.03138   0.02916  -3.11243
   D20       -0.93912  -0.00066   0.00000  -0.04629  -0.04660  -0.98571
   D21        1.10124   0.00136   0.00000   0.01803   0.02055   1.12179
         Item               Value     Threshold  Converged?
 Maximum Force            0.011270     0.000450     NO 
 RMS     Force            0.003281     0.000300     NO 
 Maximum Displacement     0.144764     0.001800     NO 
 RMS     Displacement     0.047419     0.001200     NO 
 Predicted change in Energy=-2.785263D-03
 GradGradGradGradGradGradGradGradGradGradGradGradGradGradGradGradGradGrad

                          Input orientation:                          
 ---------------------------------------------------------------------
 Center     Atomic      Atomic             Coordinates (Angstroms)
 Number     Number       Type             X           Y           Z
 ---------------------------------------------------------------------
      1          6           0        0.275126   -0.585763    1.253268
      2          6           0        0.320674    0.254485   -0.008312
      3          6           0        0.296545   -0.608467   -1.270895
      4          8           0       -0.816325    1.112121    0.042521
      5          1           0        1.155642   -1.248509    1.299318
      6          1           0       -0.636462   -1.211396    1.271164
      7          1           0        0.266876    0.059050    2.148793
      8          1           0        1.263066    0.845526    0.000454
      9          1           0       -0.618576   -1.228522   -1.294501
     10          1           0        1.172012   -1.280755   -1.317492
     11          1           0        0.304992    0.022861   -2.179043
     12          1           0       -0.819948    1.640666   -0.770827
 ---------------------------------------------------------------------
                    Distance matrix (angstroms):
                    1          2          3          4          5
     1  C    0.000000
     2  C    1.516468   0.000000
     3  C    2.524356   1.529505   0.000000
     4  O    2.353717   1.425093   2.433920   0.000000
     5  H    1.103023   2.160106   2.784546   3.322765   0.000000
     6  H    1.105771   2.168404   2.774182   2.634510   1.792709
     7  H    1.103548   2.166608   3.484355   2.592039   1.794777
     8  H    2.143399   1.112434   2.159766   2.096833   2.466489
     9  H    2.775422   2.176186   1.105655   2.702840   3.142634
    10  H    2.810022   2.189907   1.104801   3.395435   2.617060
    11  H    3.485983   2.183110   1.106065   2.716466   3.799866
    12  H    3.202051   1.950370   2.560317   0.970004   4.066422
                    6          7          8          9         10
     6  H    0.000000
     7  H    1.788935   0.000000
     8  H    3.074710   2.495256   0.000000
     9  H    2.565784   3.781289   3.085314   0.000000
    10  H    3.158564   3.824851   2.503267   1.791497   0.000000
    11  H    3.783339   4.328156   2.518907   1.789233   1.787011
    12  H    3.512499   3.493834   2.359252   2.923530   3.577912
                   11         12
    11  H    0.000000
    12  H    2.421953   0.000000
 Stoichiometry    C3H8O
 Framework group  C1[X(C3H8O)]
 Deg. of freedom    30
 Full point group                 C1      NOp   1
 Largest Abelian subgroup         C1      NOp   1
 Largest concise Abelian subgroup C1      NOp   1
                         Standard orientation:                         
 ---------------------------------------------------------------------
 Center     Atomic      Atomic             Coordinates (Angstroms)
 Number     Number       Type             X           Y           Z
 ---------------------------------------------------------------------
      1          6           0        1.318044   -0.555826    0.091201
      2          6           0        0.004901    0.046386   -0.369964
      3          6           0       -1.196929   -0.772961    0.102963
      4          8           0       -0.038125    1.366495    0.165152
      5          1           0        1.436449   -1.570608   -0.324562
      6          1           0        1.349052   -0.622675    1.194514
      7          1           0        2.167473    0.066326   -0.239276
      8          1           0        0.003783    0.069828   -1.482150
      9          1           0       -1.207795   -0.836298    1.206749
     10          1           0       -1.170433   -1.800174   -0.302890
     11          1           0       -2.144746   -0.304335   -0.221708
     12          1           0       -0.884877    1.760382   -0.097095
 ---------------------------------------------------------------------
 Rotational constants (GHZ):           8.6688685           8.0451456           4.7823995
 Standard basis: def2SVPP (5D, 7F)
 There are    76 symmetry adapted cartesian basis functions of A   symmetry.
 There are    72 symmetry adapted basis functions of A   symmetry.
    72 basis functions,   132 primitive gaussians,    76 cartesian basis functions
    17 alpha electrons       17 beta electrons
       nuclear repulsion energy       134.5293312646 Hartrees.
 NAtoms=   12 NActive=   12 NUniq=   12 SFac= 1.00D+00 NAtFMM=   60 NAOKFM=F Big=F
 Integral buffers will be    131072 words long.
 Raffenetti 2 integral format.
 Two-electron integral symmetry is turned on.
 Nuclear repulsion after empirical dispersion term =      134.5172856897 Hartrees.
 One-electron integrals computed using PRISM.
   1 Symmetry operations used in ECPInt.
 ECPInt:  NShTT=     820 NPrTT=    3316 LenC2=     821 LenP2D=    2889.
 LDataN:  DoStor=T MaxTD1= 4 Len=   56
 NBasis=    72 RedAO= T EigKep=  2.52D-03  NBF=    72
 NBsUse=    72 1.00D-06 EigRej= -1.00D+00 NBFU=    72
 Initial guess from the checkpoint file:  "/home/software/g16tmp/Gau-99786.chk"
 B after Tr=    -0.000000    0.000000   -0.000000
         Rot=    0.994574    0.010254   -0.000113    0.103529 Ang=  11.94 deg.
 ExpMin= 1.22D-01 ExpMax= 2.27D+03 ExpMxC= 3.41D+02 IAcc=3 IRadAn=         5 AccDes= 0.00D+00
 Harris functional with IExCor=  402 and IRadAn=       5 diagonalized for initial guess.
 HarFok:  IExCor=  402 AccDes= 0.00D+00 IRadAn=         5 IDoV= 1 UseB2=F ITyADJ=14
 ICtDFT=  3500011 ScaDFX=  1.000000  1.000000  1.000000  1.000000
 FoFCou: FMM=F IPFlag=           0 FMFlag=      100000 FMFlg1=           0
         NFxFlg=           0 DoJE=T BraDBF=F KetDBF=T FulRan=T
         wScrn=  0.000000 ICntrl=       500 IOpCl=  0 I1Cent=   200000004 NGrid=           0
         NMat0=    1 NMatS0=      1 NMatT0=    0 NMatD0=    1 NMtDS0=    0 NMtDT0=    0
 Petite list used in FoFCou.
 Keep R1 ints in memory in canonical form, NReq=17884574.
 Requested convergence on RMS density matrix=1.00D-08 within 128 cycles.
 Requested convergence on MAX density matrix=1.00D-06.
 Requested convergence on             energy=1.00D-06.
 No special actions if energy rises.
 Integral accuracy reduced to 1.0D-05 until final iterations.
 Initial convergence to 1.0D-05 achieved.  Increase integral accuracy.
 SCF Done:  E(RB3LYP) =  -194.201038867     A.U. after   11 cycles
            NFock= 11  Conv=0.17D-08     -V/T= 2.0095
   1 Symmetry operations used in ECPInt.
 ECPInt:  NShTT=     820 NPrTT=    3316 LenC2=     821 LenP2D=    2889.
 LDataN:  DoStor=T MaxTD1= 5 Len=  102
 Calling FoFJK, ICntrl=      2127 FMM=F ISym2X=0 I1Cent= 0 IOpClX= 0 NMat=1 NMatS=1 NMatT=0.
 ***** Axes restored to original set *****
 -------------------------------------------------------------------
 Center     Atomic                   Forces (Hartrees/Bohr)
 Number     Number              X              Y              Z
 -------------------------------------------------------------------
      1        6           0.001401047   -0.002494747    0.002608498
      2        6          -0.004382829   -0.002241824   -0.000088969
      3        6          -0.000196101   -0.000018790   -0.000228261
      4        8           0.003940215    0.000278202   -0.001188976
      5        1           0.000497116   -0.000755576    0.001354082
      6        1           0.000237677    0.000906569   -0.000436504
      7        1           0.000081236    0.000036606   -0.000203225
      8        1          -0.001349279    0.001633321   -0.000458290
      9        1           0.000129956    0.000778086    0.000330782
     10        1           0.000464197    0.000402527   -0.000341058
     11        1           0.000433602   -0.000045266   -0.000648072
     12        1          -0.001256838    0.001520892   -0.000700009
 -------------------------------------------------------------------
 Cartesian Forces:  Max     0.004382829 RMS     0.001404630

 GradGradGradGradGradGradGradGradGradGradGradGradGradGradGradGradGradGrad
 Berny optimization.
 Using GEDIIS/GDIIS optimizer.
 FormGI is forming the generalized inverse of G from B-inverse, IUseBI=4.
 Internal  Forces:  Max     0.003975861 RMS     0.001007487
 Search for a local minimum.
 Step number   2 out of a maximum of   61
 All quantities printed in internal units (Hartrees-Bohrs-Radians)
 Mixed Optimization -- RFO/linear search
 Update second derivatives using D2CorX and points    1    2
 DE= -2.05D-03 DEPred=-2.79D-03 R= 7.38D-01
 TightC=F SS=  1.41D+00  RLast= 2.79D-01 DXNew= 5.0454D-01 8.3766D-01
 Trust test= 7.38D-01 RLast= 2.79D-01 DXMaxT set to 5.05D-01
 ITU=  1  0
 Use linear search instead of GDIIS.
     Eigenvalues ---    0.00382   0.00383   0.01400   0.04466   0.05445
     Eigenvalues ---    0.05545   0.05613   0.05647   0.06028   0.07372
     Eigenvalues ---    0.15639   0.16000   0.16000   0.16000   0.16000
     Eigenvalues ---    0.16000   0.16145   0.17365   0.19500   0.29512
     Eigenvalues ---    0.30563   0.32756   0.32837   0.33114   0.33138
     Eigenvalues ---    0.33244   0.33308   0.33348   0.42255   0.52952
 RFO step:  Lambda=-1.28569000D-04 EMin= 3.81954057D-03
 Quartic linear search produced a step of -0.17437.
 Iteration  1 RMS(Cart)=  0.00981209 RMS(Int)=  0.00012910
 Iteration  2 RMS(Cart)=  0.00006644 RMS(Int)=  0.00011703
 Iteration  3 RMS(Cart)=  0.00000000 RMS(Int)=  0.00011703
 Variable       Old X    -DE/DX   Delta X   Delta X   Delta X     New X
                                 (Linear)    (Quad)   (Total)
    R1        2.86571   0.00398   0.00414   0.00639   0.01053   2.87624
    R2        2.08441   0.00091   0.00064   0.00153   0.00217   2.08658
    R3        2.08960  -0.00072   0.00066  -0.00256  -0.00190   2.08771
    R4        2.08540  -0.00014  -0.00005  -0.00030  -0.00035   2.08505
    R5        2.89035   0.00009  -0.00016   0.00043   0.00027   2.89062
    R6        2.69304  -0.00113  -0.00101  -0.00105  -0.00207   2.69097
    R7        2.10219  -0.00028  -0.00270   0.00239  -0.00031   2.10189
    R8        2.08938  -0.00055   0.00070  -0.00219  -0.00149   2.08790
    R9        2.08777   0.00014   0.00006   0.00028   0.00033   2.08811
   R10        2.09016   0.00051  -0.00088   0.00227   0.00139   2.09155
   R11        1.83304   0.00142   0.00092   0.00118   0.00210   1.83514
    A1        1.92162   0.00223   0.00460   0.00812   0.01273   1.93435
    A2        1.93020  -0.00125  -0.00044  -0.00649  -0.00695   1.92325
    A3        1.93004  -0.00050  -0.00092  -0.00292  -0.00385   1.92619
    A4        1.89385  -0.00015  -0.00264   0.00503   0.00240   1.89625
    A5        1.89987  -0.00076  -0.00066  -0.00216  -0.00281   1.89706
    A6        1.88736   0.00040  -0.00009  -0.00156  -0.00169   1.88566
    A7        1.95373   0.00065   0.00181   0.00789   0.00994   1.96367
    A8        1.85440   0.00114   0.01494  -0.00602   0.00893   1.86332
    A9        1.88944  -0.00007   0.00140  -0.00153  -0.00037   1.88907
   A10        1.93521  -0.00029   0.00085   0.00237   0.00365   1.93886
   A11        1.89614  -0.00011   0.00023  -0.00444  -0.00406   1.89207
   A12        1.93463  -0.00133  -0.02035   0.00180  -0.01857   1.91606
   A13        1.92526  -0.00079   0.00042  -0.00366  -0.00324   1.92202
   A14        1.94512   0.00002   0.00050  -0.00054  -0.00004   1.94508
   A15        1.93437   0.00060  -0.00167   0.00424   0.00257   1.93694
   A16        1.88989   0.00060  -0.00195   0.00689   0.00494   1.89483
   A17        1.88482   0.00011   0.00035   0.00030   0.00065   1.88548
   A18        1.88247  -0.00054   0.00237  -0.00718  -0.00481   1.87766
   A19        1.87653   0.00282   0.00114   0.01321   0.01435   1.89088
    D1        1.06721  -0.00009  -0.00397  -0.00194  -0.00579   1.06142
    D2       -3.10111   0.00066   0.00898   0.00169   0.01059  -3.09052
    D3       -1.02228  -0.00031  -0.00631  -0.00025  -0.00660  -1.02887
    D4       -1.02561  -0.00055  -0.00336  -0.00928  -0.01252  -1.03813
    D5        1.08926   0.00021   0.00959  -0.00566   0.00386   1.09313
    D6       -3.11509  -0.00077  -0.00571  -0.00759  -0.01332  -3.12841
    D7       -3.11576   0.00008  -0.00238  -0.00123  -0.00351  -3.11928
    D8       -1.00090   0.00084   0.01057   0.00239   0.01287  -0.98803
    D9        1.07794  -0.00014  -0.00472   0.00045  -0.00432   1.07362
   D10        1.03044   0.00057   0.00252   0.01339   0.01597   1.04641
   D11       -1.06949   0.00033   0.00437   0.00753   0.01195  -1.05753
   D12        3.11702   0.00059   0.00216   0.01412   0.01634   3.13335
   D13       -1.03706  -0.00110  -0.01869   0.01426  -0.00445  -1.04151
   D14       -3.13698  -0.00134  -0.01684   0.00840  -0.00847   3.13774
   D15        1.04953  -0.00108  -0.01905   0.01499  -0.00409   1.04544
   D16        3.11599   0.00081   0.00555   0.01345   0.01897   3.13495
   D17        1.01606   0.00057   0.00740   0.00758   0.01495   1.03101
   D18       -1.08062   0.00083   0.00519   0.01417   0.01933  -1.06129
   D19       -3.11243  -0.00052  -0.00508  -0.00558  -0.01030  -3.12273
   D20       -0.98571   0.00082   0.00813   0.00160   0.00978  -0.97593
   D21        1.12179  -0.00040  -0.00358  -0.00121  -0.00521   1.11658
         Item               Value     Threshold  Converged?
 Maximum Force            0.003976     0.000450     NO 
 RMS     Force            0.001007     0.000300     NO 
 Maximum Displacement     0.033728     0.001800     NO 
 RMS     Displacement     0.009791     0.001200     NO 
 Predicted change in Energy=-1.604848D-04
 GradGradGradGradGradGradGradGradGradGradGradGradGradGradGradGradGradGrad

                          Input orientation:                          
 ---------------------------------------------------------------------
 Center     Atomic      Atomic             Coordinates (Angstroms)
 Number     Number       Type             X           Y           Z
 ---------------------------------------------------------------------
      1          6           0        0.279393   -0.590739    1.260610
      2          6           0        0.314494    0.247155   -0.009549
      3          6           0        0.296143   -0.609316   -1.276808
      4          8           0       -0.814003    1.114273    0.039208
      5          1           0        1.159510   -1.255111    1.317166
      6          1           0       -0.634010   -1.211802    1.282666
      7          1           0        0.270784    0.061360    2.150611
      8          1           0        1.250906    0.847368   -0.004804
      9          1           0       -0.621521   -1.223903   -1.306987
     10          1           0        1.171669   -1.281875   -1.322572
     11          1           0        0.313814    0.024690   -2.183852
     12          1           0       -0.823559    1.649198   -0.771240
 ---------------------------------------------------------------------
                    Distance matrix (angstroms):
                    1          2          3          4          5
     1  C    0.000000
     2  C    1.522039   0.000000
     3  C    2.537541   1.529649   0.000000
     4  O    2.365250   1.424000   2.436202   0.000000
     5  H    1.104171   2.175093   2.809120   3.337951   0.000000
     6  H    1.104768   2.167496   2.789101   2.643712   1.794375
     7  H    1.103363   2.168576   3.492514   2.596808   1.793757
     8  H    2.147850   1.112270   2.156732   2.082552   2.485232
     9  H    2.793761   2.173358   1.104869   2.704877   3.171628
    10  H    2.818981   2.190140   1.104978   3.396890   2.639902
    11  H    3.499180   2.185655   1.106800   2.720507   3.822332
    12  H    3.219043   1.959863   2.571034   0.971114   4.090112
                    6          7          8          9         10
     6  H    0.000000
     7  H    1.786876   0.000000
     8  H    3.074194   2.494847   0.000000
     9  H    2.589712   3.795141   3.080881   0.000000
    10  H    3.170592   3.831302   2.505287   1.794195   0.000000
    11  H    3.800531   4.334832   2.510616   1.789617   1.784609
    12  H    3.527008   3.500862   2.352395   2.929600   3.588327
                   11         12
    11  H    0.000000
    12  H    2.434773   0.000000
 Stoichiometry    C3H8O
 Framework group  C1[X(C3H8O)]
 Deg. of freedom    30
 Full point group                 C1      NOp   1
 Largest Abelian subgroup         C1      NOp   1
 Largest concise Abelian subgroup C1      NOp   1
                         Standard orientation:                         
 ---------------------------------------------------------------------
 Center     Atomic      Atomic             Coordinates (Angstroms)
 Number     Number       Type             X           Y           Z
 ---------------------------------------------------------------------
      1          6           0        1.336787   -0.535103    0.088988
      2          6           0        0.003744    0.045135   -0.361482
      3          6           0       -1.187336   -0.795399    0.101830
      4          8           0       -0.067025    1.367057    0.163198
      5          1           0        1.485158   -1.547113   -0.326963
      6          1           0        1.372500   -0.597570    1.191410
      7          1           0        2.168173    0.109433   -0.243851
      8          1           0       -0.002587    0.080523   -1.473171
      9          1           0       -1.204348   -0.855012    1.204958
     10          1           0       -1.140348   -1.821575   -0.305272
     11          1           0       -2.142568   -0.346793   -0.231769
     12          1           0       -0.918952    1.753851   -0.096941
 ---------------------------------------------------------------------
 Rotational constants (GHZ):           8.6528878           7.9939675           4.7486269
 Standard basis: def2SVPP (5D, 7F)
 There are    76 symmetry adapted cartesian basis functions of A   symmetry.
 There are    72 symmetry adapted basis functions of A   symmetry.
    72 basis functions,   132 primitive gaussians,    76 cartesian basis functions
    17 alpha electrons       17 beta electrons
       nuclear repulsion energy       134.3101910840 Hartrees.
 NAtoms=   12 NActive=   12 NUniq=   12 SFac= 1.00D+00 NAtFMM=   60 NAOKFM=F Big=F
 Integral buffers will be    131072 words long.
 Raffenetti 2 integral format.
 Two-electron integral symmetry is turned on.
 Nuclear repulsion after empirical dispersion term =      134.2981790566 Hartrees.
 One-electron integrals computed using PRISM.
   1 Symmetry operations used in ECPInt.
 ECPInt:  NShTT=     820 NPrTT=    3316 LenC2=     821 LenP2D=    2887.
 LDataN:  DoStor=T MaxTD1= 4 Len=   56
 NBasis=    72 RedAO= T EigKep=  2.58D-03  NBF=    72
 NBsUse=    72 1.00D-06 EigRej= -1.00D+00 NBFU=    72
 Initial guess from the checkpoint file:  "/home/software/g16tmp/Gau-99786.chk"
 B after Tr=    -0.000000   -0.000000    0.000000
         Rot=    0.999955   -0.000239    0.000005   -0.009503 Ang=  -1.09 deg.
 ExpMin= 1.22D-01 ExpMax= 2.27D+03 ExpMxC= 3.41D+02 IAcc=3 IRadAn=         5 AccDes= 0.00D+00
 Harris functional with IExCor=  402 and IRadAn=       5 diagonalized for initial guess.
 HarFok:  IExCor=  402 AccDes= 0.00D+00 IRadAn=         5 IDoV= 1 UseB2=F ITyADJ=14
 ICtDFT=  3500011 ScaDFX=  1.000000  1.000000  1.000000  1.000000
 FoFCou: FMM=F IPFlag=           0 FMFlag=      100000 FMFlg1=           0
         NFxFlg=           0 DoJE=T BraDBF=F KetDBF=T FulRan=T
         wScrn=  0.000000 ICntrl=       500 IOpCl=  0 I1Cent=   200000004 NGrid=           0
         NMat0=    1 NMatS0=      1 NMatT0=    0 NMatD0=    1 NMtDS0=    0 NMtDT0=    0
 Petite list used in FoFCou.
 Keep R1 ints in memory in canonical form, NReq=17884574.
 Requested convergence on RMS density matrix=1.00D-08 within 128 cycles.
 Requested convergence on MAX density matrix=1.00D-06.
 Requested convergence on             energy=1.00D-06.
 No special actions if energy rises.
 Integral accuracy reduced to 1.0D-05 until final iterations.
 Initial convergence to 1.0D-05 achieved.  Increase integral accuracy.
 SCF Done:  E(RB3LYP) =  -194.201200721     A.U. after    9 cycles
            NFock=  9  Conv=0.66D-08     -V/T= 2.0096
   1 Symmetry operations used in ECPInt.
 ECPInt:  NShTT=     820 NPrTT=    3316 LenC2=     821 LenP2D=    2887.
 LDataN:  DoStor=T MaxTD1= 5 Len=  102
 Calling FoFJK, ICntrl=      2127 FMM=F ISym2X=0 I1Cent= 0 IOpClX= 0 NMat=1 NMatS=1 NMatT=0.
 ***** Axes restored to original set *****
 -------------------------------------------------------------------
 Center     Atomic                   Forces (Hartrees/Bohr)
 Number     Number              X              Y              Z
 -------------------------------------------------------------------
      1        6           0.000021314   -0.000435843    0.000092051
      2        6          -0.000457390    0.000468739   -0.000374894
      3        6          -0.000242946   -0.000085190    0.000347639
      4        8           0.000828819   -0.000704621    0.000178827
      5        1          -0.000066265    0.000099697    0.000035545
      6        1          -0.000146394    0.000065689   -0.000080503
      7        1           0.000012009    0.000189492   -0.000183403
      8        1          -0.000164321    0.000276476   -0.000075275
      9        1          -0.000084049    0.000027904   -0.000018914
     10        1           0.000092496    0.000107801   -0.000025505
     11        1           0.000097533    0.000062024    0.000095068
     12        1           0.000109195   -0.000072168    0.000009365
 -------------------------------------------------------------------
 Cartesian Forces:  Max     0.000828819 RMS     0.000261734

 GradGradGradGradGradGradGradGradGradGradGradGradGradGradGradGradGradGrad
 Berny optimization.
 Using GEDIIS/GDIIS optimizer.
 FormGI is forming the generalized inverse of G from B-inverse, IUseBI=4.
 Internal  Forces:  Max     0.001209796 RMS     0.000210179
 Search for a local minimum.
 Step number   3 out of a maximum of   61
 All quantities printed in internal units (Hartrees-Bohrs-Radians)
 Mixed Optimization -- En-DIIS/RFO-DIIS
 Update second derivatives using D2CorX and points    1    2    3
 DE= -1.62D-04 DEPred=-1.60D-04 R= 1.01D+00
 TightC=F SS=  1.41D+00  RLast= 6.24D-02 DXNew= 8.4853D-01 1.8716D-01
 Trust test= 1.01D+00 RLast= 6.24D-02 DXMaxT set to 5.05D-01
 ITU=  1  1  0
 Use linear search instead of GDIIS.
     Eigenvalues ---    0.00380   0.00383   0.01400   0.04418   0.05346
     Eigenvalues ---    0.05570   0.05573   0.05616   0.05829   0.07472
     Eigenvalues ---    0.15183   0.15976   0.16000   0.16000   0.16000
     Eigenvalues ---    0.16000   0.16275   0.18188   0.19591   0.29380
     Eigenvalues ---    0.30924   0.32819   0.32842   0.33124   0.33139
     Eigenvalues ---    0.33265   0.33308   0.33527   0.42166   0.53051
 RFO step:  Lambda=-1.11721983D-05 EMin= 3.80222801D-03
 Quartic linear search produced a step of  0.01444.
 Iteration  1 RMS(Cart)=  0.00213128 RMS(Int)=  0.00000354
 Iteration  2 RMS(Cart)=  0.00000348 RMS(Int)=  0.00000142
 Iteration  3 RMS(Cart)=  0.00000000 RMS(Int)=  0.00000142
 Variable       Old X    -DE/DX   Delta X   Delta X   Delta X     New X
                                 (Linear)    (Quad)   (Total)
    R1        2.87624  -0.00007   0.00015  -0.00000   0.00015   2.87639
    R2        2.08658  -0.00011   0.00003  -0.00029  -0.00026   2.08632
    R3        2.08771   0.00008  -0.00003   0.00019   0.00016   2.08787
    R4        2.08505  -0.00004  -0.00001  -0.00012  -0.00012   2.08493
    R5        2.89062  -0.00039   0.00000  -0.00134  -0.00133   2.88928
    R6        2.69097  -0.00121  -0.00003  -0.00296  -0.00299   2.68798
    R7        2.10189   0.00001  -0.00000   0.00008   0.00007   2.10196
    R8        2.08790   0.00005  -0.00002   0.00011   0.00009   2.08799
    R9        2.08811   0.00001   0.00000   0.00004   0.00004   2.08815
   R10        2.09155  -0.00004   0.00002  -0.00007  -0.00005   2.09150
   R11        1.83514  -0.00005   0.00003  -0.00005  -0.00002   1.83512
    A1        1.93435   0.00014   0.00018   0.00155   0.00174   1.93609
    A2        1.92325  -0.00014  -0.00010  -0.00098  -0.00108   1.92217
    A3        1.92619  -0.00039  -0.00006  -0.00303  -0.00309   1.92310
    A4        1.89625   0.00009   0.00003   0.00161   0.00164   1.89789
    A5        1.89706   0.00011  -0.00004   0.00047   0.00043   1.89750
    A6        1.88566   0.00019  -0.00002   0.00044   0.00042   1.88608
    A7        1.96367  -0.00001   0.00014   0.00029   0.00043   1.96410
    A8        1.86332  -0.00020   0.00013  -0.00212  -0.00199   1.86133
    A9        1.88907   0.00017  -0.00001   0.00254   0.00253   1.89160
   A10        1.93886   0.00012   0.00005  -0.00006  -0.00001   1.93885
   A11        1.89207   0.00001  -0.00006   0.00132   0.00126   1.89334
   A12        1.91606  -0.00009  -0.00027  -0.00202  -0.00228   1.91378
   A13        1.92202   0.00004  -0.00005   0.00066   0.00061   1.92263
   A14        1.94508  -0.00004  -0.00000  -0.00031  -0.00031   1.94477
   A15        1.93694  -0.00018   0.00004  -0.00146  -0.00142   1.93552
   A16        1.89483   0.00009   0.00007   0.00158   0.00165   1.89648
   A17        1.88548   0.00007   0.00001   0.00053   0.00054   1.88601
   A18        1.87766   0.00002  -0.00007  -0.00095  -0.00102   1.87664
   A19        1.89088  -0.00022   0.00021  -0.00102  -0.00081   1.89007
    D1        1.06142   0.00008  -0.00008   0.00054   0.00046   1.06188
    D2       -3.09052   0.00009   0.00015  -0.00079  -0.00064  -3.09116
    D3       -1.02887  -0.00004  -0.00010  -0.00298  -0.00307  -1.03194
    D4       -1.03813  -0.00004  -0.00018  -0.00183  -0.00201  -1.04013
    D5        1.09313  -0.00003   0.00006  -0.00316  -0.00311   1.09002
    D6       -3.12841  -0.00016  -0.00019  -0.00535  -0.00554  -3.13395
    D7       -3.11928   0.00005  -0.00005   0.00015   0.00010  -3.11918
    D8       -0.98803   0.00006   0.00019  -0.00119  -0.00100  -0.98903
    D9        1.07362  -0.00006  -0.00006  -0.00337  -0.00344   1.07018
   D10        1.04641  -0.00009   0.00023   0.00051   0.00074   1.04715
   D11       -1.05753  -0.00020   0.00017  -0.00172  -0.00154  -1.05908
   D12        3.13335  -0.00008   0.00024   0.00066   0.00090   3.13425
   D13       -1.04151   0.00009  -0.00006   0.00306   0.00300  -1.03851
   D14        3.13774  -0.00002  -0.00012   0.00084   0.00071   3.13845
   D15        1.04544   0.00010  -0.00006   0.00322   0.00316   1.04860
   D16        3.13495   0.00012   0.00027   0.00474   0.00501   3.13997
   D17        1.03101   0.00001   0.00022   0.00251   0.00273   1.03374
   D18       -1.06129   0.00013   0.00028   0.00489   0.00517  -1.05612
   D19       -3.12273   0.00003  -0.00015  -0.00004  -0.00019  -3.12292
   D20       -0.97593  -0.00004   0.00014  -0.00111  -0.00097  -0.97690
   D21        1.11658  -0.00001  -0.00008  -0.00082  -0.00089   1.11569
         Item               Value     Threshold  Converged?
 Maximum Force            0.001210     0.000450     NO 
 RMS     Force            0.000210     0.000300     YES
 Maximum Displacement     0.005830     0.001800     NO 
 RMS     Displacement     0.002131     0.001200     NO 
 Predicted change in Energy=-5.614111D-06
 GradGradGradGradGradGradGradGradGradGradGradGradGradGradGradGradGradGrad

                          Input orientation:                          
 ---------------------------------------------------------------------
 Center     Atomic      Atomic             Coordinates (Angstroms)
 Number     Number       Type             X           Y           Z
 ---------------------------------------------------------------------
      1          6           0        0.279626   -0.591359    1.260475
      2          6           0        0.315184    0.246276   -0.009938
      3          6           0        0.295981   -0.609517   -1.276790
      4          8           0       -0.812934    1.111188    0.040549
      5          1           0        1.158729   -1.256680    1.318931
      6          1           0       -0.635681   -1.209758    1.282741
      7          1           0        0.271651    0.063647    2.148264
      8          1           0        1.249605    0.849660   -0.006185
      9          1           0       -0.622377   -1.223105   -1.307929
     10          1           0        1.171920   -1.281522   -1.323301
     11          1           0        0.314976    0.025916   -2.182778
     12          1           0       -0.823060    1.646549   -0.769590
 ---------------------------------------------------------------------
                    Distance matrix (angstroms):
                    1          2          3          4          5
     1  C    0.000000
     2  C    1.522119   0.000000
     3  C    2.537383   1.528943   0.000000
     4  O    2.362324   1.422417   2.434317   0.000000
     5  H    1.104034   2.176313   2.810858   3.335943   0.000000
     6  H    1.104852   2.166840   2.789172   2.638418   1.795389
     7  H    1.103298   2.166352   3.490664   2.591549   1.793869
     8  H    2.149843   1.112308   2.157089   2.079579   2.490152
     9  H    2.794533   2.173219   1.104917   2.702522   3.173935
    10  H    2.819293   2.189312   1.104999   3.394819   2.642382
    11  H    3.498325   2.183986   1.106775   2.719041   3.823472
    12  H    3.216414   1.957916   2.568918   0.971103   4.088783
                    6          7          8          9         10
     6  H    0.000000
     7  H    1.787160   0.000000
     8  H    3.075197   2.493163   0.000000
     9  H    2.590738   3.794771   3.081429   0.000000
    10  H    3.172385   3.830369   2.506544   1.795314   0.000000
    11  H    3.800061   4.331423   2.507916   1.789985   1.783942
    12  H    3.522167   3.495403   2.348140   2.926601   3.586104
                   11         12
    11  H    0.000000
    12  H    2.432834   0.000000
 Stoichiometry    C3H8O
 Framework group  C1[X(C3H8O)]
 Deg. of freedom    30
 Full point group                 C1      NOp   1
 Largest Abelian subgroup         C1      NOp   1
 Largest concise Abelian subgroup C1      NOp   1
                         Standard orientation:                         
 ---------------------------------------------------------------------
 Center     Atomic      Atomic             Coordinates (Angstroms)
 Number     Number       Type             X           Y           Z
 ---------------------------------------------------------------------
      1          6           0        1.334414   -0.539868    0.088870
      2          6           0        0.003295    0.044827   -0.361796
      3          6           0       -1.190567   -0.790085    0.102190
      4          8           0       -0.060517    1.365172    0.163452
      5          1           0        1.480850   -1.552627   -0.325580
      6          1           0        1.369947   -0.599007    1.191566
      7          1           0        2.165767    0.103439   -0.246204
      8          1           0       -0.004363    0.083684   -1.473399
      9          1           0       -1.208731   -0.848316    1.205422
     10          1           0       -1.148265   -1.816306   -0.305370
     11          1           0       -2.143155   -0.337306   -0.233246
     12          1           0       -0.910765    1.755817   -0.096385
 ---------------------------------------------------------------------
 Rotational constants (GHZ):           8.6718822           7.9941193           4.7550832
 Standard basis: def2SVPP (5D, 7F)
 There are    76 symmetry adapted cartesian basis functions of A   symmetry.
 There are    72 symmetry adapted basis functions of A   symmetry.
    72 basis functions,   132 primitive gaussians,    76 cartesian basis functions
    17 alpha electrons       17 beta electrons
       nuclear repulsion energy       134.3748752390 Hartrees.
 NAtoms=   12 NActive=   12 NUniq=   12 SFac= 1.00D+00 NAtFMM=   60 NAOKFM=F Big=F
 Integral buffers will be    131072 words long.
 Raffenetti 2 integral format.
 Two-electron integral symmetry is turned on.
 Nuclear repulsion after empirical dispersion term =      134.3628596553 Hartrees.
 One-electron integrals computed using PRISM.
   1 Symmetry operations used in ECPInt.
 ECPInt:  NShTT=     820 NPrTT=    3316 LenC2=     821 LenP2D=    2887.
 LDataN:  DoStor=T MaxTD1= 4 Len=   56
 NBasis=    72 RedAO= T EigKep=  2.57D-03  NBF=    72
 NBsUse=    72 1.00D-06 EigRej= -1.00D+00 NBFU=    72
 Initial guess from the checkpoint file:  "/home/software/g16tmp/Gau-99786.chk"
 B after Tr=     0.000000    0.000000   -0.000000
         Rot=    0.999998   -0.000003   -0.000100    0.002019 Ang=  -0.23 deg.
 Keep R1 ints in memory in canonical form, NReq=17884574.
 Requested convergence on RMS density matrix=1.00D-08 within 128 cycles.
 Requested convergence on MAX density matrix=1.00D-06.
 Requested convergence on             energy=1.00D-06.
 No special actions if energy rises.
 SCF Done:  E(RB3LYP) =  -194.201205781     A.U. after    8 cycles
            NFock=  8  Conv=0.31D-08     -V/T= 2.0096
   1 Symmetry operations used in ECPInt.
 ECPInt:  NShTT=     820 NPrTT=    3316 LenC2=     821 LenP2D=    2887.
 LDataN:  DoStor=T MaxTD1= 5 Len=  102
 Calling FoFJK, ICntrl=      2127 FMM=F ISym2X=0 I1Cent= 0 IOpClX= 0 NMat=1 NMatS=1 NMatT=0.
 ***** Axes restored to original set *****
 -------------------------------------------------------------------
 Center     Atomic                   Forces (Hartrees/Bohr)
 Number     Number              X              Y              Z
 -------------------------------------------------------------------
      1        6           0.000162726   -0.000110562    0.000083263
      2        6          -0.000126589    0.000131709   -0.000018172
      3        6           0.000069724   -0.000049438    0.000017553
      4        8          -0.000082597    0.000027641   -0.000037892
      5        1          -0.000045757    0.000023953   -0.000003555
      6        1          -0.000014218    0.000037892   -0.000054068
      7        1          -0.000012687    0.000030690    0.000004570
      8        1           0.000078296   -0.000119677    0.000006349
      9        1           0.000011830    0.000008008    0.000010282
     10        1          -0.000004017   -0.000008473   -0.000024325
     11        1           0.000000595    0.000007602   -0.000016767
     12        1          -0.000037306    0.000020656    0.000032763
 -------------------------------------------------------------------
 Cartesian Forces:  Max     0.000162726 RMS     0.000059873

 GradGradGradGradGradGradGradGradGradGradGradGradGradGradGradGradGradGrad
 Berny optimization.
 Using GEDIIS/GDIIS optimizer.
 FormGI is forming the generalized inverse of G from B-inverse, IUseBI=4.
 Internal  Forces:  Max     0.000124369 RMS     0.000036592
 Search for a local minimum.
 Step number   4 out of a maximum of   61
 All quantities printed in internal units (Hartrees-Bohrs-Radians)
 Mixed Optimization -- En-DIIS/RFO-DIIS
 Swapping is turned off.
 Update second derivatives using D2CorX and points    1    2    3    4
 DE= -5.06D-06 DEPred=-5.61D-06 R= 9.01D-01
 TightC=F SS=  1.41D+00  RLast= 1.43D-02 DXNew= 8.4853D-01 4.2825D-02
 Trust test= 9.01D-01 RLast= 1.43D-02 DXMaxT set to 5.05D-01
 ITU=  1  1  1  0
     Eigenvalues ---    0.00379   0.00384   0.01397   0.04824   0.05148
     Eigenvalues ---    0.05562   0.05617   0.05700   0.06010   0.07489
     Eigenvalues ---    0.14018   0.15941   0.16000   0.16000   0.16000
     Eigenvalues ---    0.16134   0.16395   0.18289   0.19535   0.29416
     Eigenvalues ---    0.30908   0.32832   0.32862   0.33134   0.33139
     Eigenvalues ---    0.33253   0.33325   0.33550   0.43959   0.53049
 En-DIIS/RFO-DIIS/Sim-DIIS IScMMF=       -3 using points:     4    3
 RFO step:  Lambda=-5.60135091D-07.
 DidBck=F Rises=F RFO-DIIS coefs:    0.92047    0.07953
 Iteration  1 RMS(Cart)=  0.00048152 RMS(Int)=  0.00000018
 Iteration  2 RMS(Cart)=  0.00000016 RMS(Int)=  0.00000007
 Variable       Old X    -DE/DX   Delta X   Delta X   Delta X     New X
                                 (Linear)    (Quad)   (Total)
    R1        2.87639   0.00003  -0.00001   0.00013   0.00011   2.87650
    R2        2.08632  -0.00005   0.00002  -0.00017  -0.00015   2.08617
    R3        2.08787  -0.00001  -0.00001  -0.00001  -0.00002   2.08784
    R4        2.08493   0.00002   0.00001   0.00004   0.00005   2.08499
    R5        2.88928   0.00003   0.00011  -0.00006   0.00005   2.88933
    R6        2.68798   0.00012   0.00024  -0.00010   0.00014   2.68812
    R7        2.10196   0.00000  -0.00001   0.00001   0.00001   2.10197
    R8        2.08799  -0.00001  -0.00001  -0.00003  -0.00004   2.08795
    R9        2.08815   0.00000  -0.00000   0.00001   0.00001   2.08816
   R10        2.09150   0.00002   0.00000   0.00005   0.00005   2.09155
   R11        1.83512  -0.00002   0.00000  -0.00003  -0.00003   1.83509
    A1        1.93609   0.00003  -0.00014   0.00048   0.00034   1.93643
    A2        1.92217  -0.00010   0.00009  -0.00080  -0.00071   1.92146
    A3        1.92310  -0.00002   0.00025  -0.00047  -0.00023   1.92288
    A4        1.89789   0.00003  -0.00013   0.00038   0.00025   1.89814
    A5        1.89750   0.00001  -0.00003   0.00030   0.00027   1.89776
    A6        1.88608   0.00004  -0.00003   0.00012   0.00009   1.88617
    A7        1.96410  -0.00000  -0.00003  -0.00014  -0.00018   1.96392
    A8        1.86133  -0.00002   0.00016  -0.00017  -0.00001   1.86132
    A9        1.89160  -0.00003  -0.00020  -0.00032  -0.00052   1.89108
   A10        1.93885   0.00003   0.00000   0.00032   0.00032   1.93917
   A11        1.89334  -0.00003  -0.00010  -0.00039  -0.00049   1.89285
   A12        1.91378   0.00006   0.00018   0.00073   0.00091   1.91468
   A13        1.92263  -0.00002  -0.00005  -0.00006  -0.00011   1.92252
   A14        1.94477   0.00004   0.00002   0.00021   0.00023   1.94501
   A15        1.93552   0.00000   0.00011  -0.00017  -0.00006   1.93546
   A16        1.89648  -0.00001  -0.00013   0.00016   0.00003   1.89651
   A17        1.88601   0.00001  -0.00004   0.00005   0.00001   1.88602
   A18        1.87664  -0.00002   0.00008  -0.00019  -0.00011   1.87653
   A19        1.89007   0.00009   0.00006   0.00044   0.00051   1.89058
    D1        1.06188  -0.00004  -0.00004  -0.00082  -0.00085   1.06103
    D2       -3.09116  -0.00002   0.00005  -0.00062  -0.00057  -3.09172
    D3       -1.03194   0.00002   0.00024  -0.00002   0.00022  -1.03172
    D4       -1.04013  -0.00004   0.00016  -0.00108  -0.00092  -1.04105
    D5        1.09002  -0.00002   0.00025  -0.00088  -0.00064   1.08938
    D6       -3.13395   0.00003   0.00044  -0.00029   0.00015  -3.13380
    D7       -3.11918  -0.00001  -0.00001  -0.00044  -0.00044  -3.11963
    D8       -0.98903   0.00001   0.00008  -0.00024  -0.00016  -0.98919
    D9        1.07018   0.00005   0.00027   0.00035   0.00063   1.07081
   D10        1.04715   0.00002  -0.00006   0.00010   0.00004   1.04719
   D11       -1.05908   0.00002   0.00012  -0.00019  -0.00007  -1.05915
   D12        3.13425   0.00001  -0.00007   0.00002  -0.00005   3.13420
   D13       -1.03851   0.00002  -0.00024   0.00020  -0.00004  -1.03855
   D14        3.13845   0.00002  -0.00006  -0.00010  -0.00016   3.13829
   D15        1.04860   0.00002  -0.00025   0.00011  -0.00014   1.04846
   D16        3.13997  -0.00004  -0.00040  -0.00065  -0.00105   3.13892
   D17        1.03374  -0.00004  -0.00022  -0.00094  -0.00116   1.03258
   D18       -1.05612  -0.00005  -0.00041  -0.00073  -0.00114  -1.05726
   D19       -3.12292  -0.00001   0.00002  -0.00040  -0.00039  -3.12331
   D20       -0.97690  -0.00001   0.00008  -0.00050  -0.00042  -0.97732
   D21        1.11569   0.00000   0.00007  -0.00031  -0.00023   1.11546
         Item               Value     Threshold  Converged?
 Maximum Force            0.000124     0.000450     YES
 RMS     Force            0.000037     0.000300     YES
 Maximum Displacement     0.001310     0.001800     YES
 RMS     Displacement     0.000482     0.001200     YES
 Predicted change in Energy=-2.800101D-07
 Optimization completed.
    -- Stationary point found.
                           ----------------------------
                           !   Optimized Parameters   !
                           ! (Angstroms and Degrees)  !
 --------------------------                            --------------------------
 ! Name  Definition              Value          Derivative Info.                !
 --------------------------------------------------------------------------------
 ! R1    R(1,2)                  1.5221         -DE/DX =    0.0                 !
 ! R2    R(1,5)                  1.104          -DE/DX =   -0.0001              !
 ! R3    R(1,6)                  1.1049         -DE/DX =    0.0                 !
 ! R4    R(1,7)                  1.1033         -DE/DX =    0.0                 !
 ! R5    R(2,3)                  1.5289         -DE/DX =    0.0                 !
 ! R6    R(2,4)                  1.4224         -DE/DX =    0.0001              !
 ! R7    R(2,8)                  1.1123         -DE/DX =    0.0                 !
 ! R8    R(3,9)                  1.1049         -DE/DX =    0.0                 !
 ! R9    R(3,10)                 1.105          -DE/DX =    0.0                 !
 ! R10   R(3,11)                 1.1068         -DE/DX =    0.0                 !
 ! R11   R(4,12)                 0.9711         -DE/DX =    0.0                 !
 ! A1    A(2,1,5)              110.9296         -DE/DX =    0.0                 !
 ! A2    A(2,1,6)              110.1322         -DE/DX =   -0.0001              !
 ! A3    A(2,1,7)              110.1858         -DE/DX =    0.0                 !
 ! A4    A(5,1,6)              108.7413         -DE/DX =    0.0                 !
 ! A5    A(5,1,7)              108.7185         -DE/DX =    0.0                 !
 ! A6    A(6,1,7)              108.0644         -DE/DX =    0.0                 !
 ! A7    A(1,2,3)              112.5348         -DE/DX =    0.0                 !
 ! A8    A(1,2,4)              106.6466         -DE/DX =    0.0                 !
 ! A9    A(1,2,8)              108.3808         -DE/DX =    0.0                 !
 ! A10   A(3,2,4)              111.0877         -DE/DX =    0.0                 !
 ! A11   A(3,2,8)              108.4802         -DE/DX =    0.0                 !
 ! A12   A(4,2,8)              109.6513         -DE/DX =    0.0001              !
 ! A13   A(2,3,9)              110.1587         -DE/DX =    0.0                 !
 ! A14   A(2,3,10)             111.4272         -DE/DX =    0.0                 !
 ! A15   A(2,3,11)             110.8971         -DE/DX =    0.0                 !
 ! A16   A(9,3,10)             108.6602         -DE/DX =    0.0                 !
 ! A17   A(9,3,11)             108.0607         -DE/DX =    0.0                 !
 ! A18   A(10,3,11)            107.5235         -DE/DX =    0.0                 !
 ! A19   A(2,4,12)             108.293          -DE/DX =    0.0001              !
 ! D1    D(5,1,2,3)             60.8411         -DE/DX =    0.0                 !
 ! D2    D(5,1,2,4)           -177.1102         -DE/DX =    0.0                 !
 ! D3    D(5,1,2,8)            -59.126          -DE/DX =    0.0                 !
 ! D4    D(6,1,2,3)            -59.5952         -DE/DX =    0.0                 !
 ! D5    D(6,1,2,4)             62.4535         -DE/DX =    0.0                 !
 ! D6    D(6,1,2,8)           -179.5623         -DE/DX =    0.0                 !
 ! D7    D(7,1,2,3)           -178.7159         -DE/DX =    0.0                 !
 ! D8    D(7,1,2,4)            -56.6671         -DE/DX =    0.0                 !
 ! D9    D(7,1,2,8)             61.317          -DE/DX =    0.0001              !
 ! D10   D(1,2,3,9)             59.9972         -DE/DX =    0.0                 !
 ! D11   D(1,2,3,10)           -60.6806         -DE/DX =    0.0                 !
 ! D12   D(1,2,3,11)           179.5794         -DE/DX =    0.0                 !
 ! D13   D(4,2,3,9)            -59.5021         -DE/DX =    0.0                 !
 ! D14   D(4,2,3,10)           179.82           -DE/DX =    0.0                 !
 ! D15   D(4,2,3,11)            60.0801         -DE/DX =    0.0                 !
 ! D16   D(8,2,3,9)            179.9068         -DE/DX =    0.0                 !
 ! D17   D(8,2,3,10)            59.2289         -DE/DX =    0.0                 !
 ! D18   D(8,2,3,11)           -60.511          -DE/DX =    0.0                 !
 ! D19   D(1,2,4,12)          -178.9303         -DE/DX =    0.0                 !
 ! D20   D(3,2,4,12)           -55.9725         -DE/DX =    0.0                 !
 ! D21   D(8,2,4,12)            63.9244         -DE/DX =    0.0                 !
 --------------------------------------------------------------------------------
 GradGradGradGradGradGradGradGradGradGradGradGradGradGradGradGradGradGrad

                          Input orientation:                          
 ---------------------------------------------------------------------
 Center     Atomic      Atomic             Coordinates (Angstroms)
 Number     Number       Type             X           Y           Z
 ---------------------------------------------------------------------
      1          6           0        0.279626   -0.591359    1.260475
      2          6           0        0.315184    0.246276   -0.009938
      3          6           0        0.295981   -0.609517   -1.276790
      4          8           0       -0.812934    1.111188    0.040549
      5          1           0        1.158729   -1.256680    1.318931
      6          1           0       -0.635681   -1.209758    1.282741
      7          1           0        0.271651    0.063647    2.148264
      8          1           0        1.249605    0.849660   -0.006185
      9          1           0       -0.622377   -1.223105   -1.307929
     10          1           0        1.171920   -1.281522   -1.323301
     11          1           0        0.314976    0.025916   -2.182778
     12          1           0       -0.823060    1.646549   -0.769590
 ---------------------------------------------------------------------
                    Distance matrix (angstroms):
                    1          2          3          4          5
     1  C    0.000000
     2  C    1.522119   0.000000
     3  C    2.537383   1.528943   0.000000
     4  O    2.362324   1.422417   2.434317   0.000000
     5  H    1.104034   2.176313   2.810858   3.335943   0.000000
     6  H    1.104852   2.166840   2.789172   2.638418   1.795389
     7  H    1.103298   2.166352   3.490664   2.591549   1.793869
     8  H    2.149843   1.112308   2.157089   2.079579   2.490152
     9  H    2.794533   2.173219   1.104917   2.702522   3.173935
    10  H    2.819293   2.189312   1.104999   3.394819   2.642382
    11  H    3.498325   2.183986   1.106775   2.719041   3.823472
    12  H    3.216414   1.957916   2.568918   0.971103   4.088783
                    6          7          8          9         10
     6  H    0.000000
     7  H    1.787160   0.000000
     8  H    3.075197   2.493163   0.000000
     9  H    2.590738   3.794771   3.081429   0.000000
    10  H    3.172385   3.830369   2.506544   1.795314   0.000000
    11  H    3.800061   4.331423   2.507916   1.789985   1.783942
    12  H    3.522167   3.495403   2.348140   2.926601   3.586104
                   11         12
    11  H    0.000000
    12  H    2.432834   0.000000
 Stoichiometry    C3H8O
 Framework group  C1[X(C3H8O)]
 Deg. of freedom    30
 Full point group                 C1      NOp   1
 Largest Abelian subgroup         C1      NOp   1
 Largest concise Abelian subgroup C1      NOp   1
                         Standard orientation:                         
 ---------------------------------------------------------------------
 Center     Atomic      Atomic             Coordinates (Angstroms)
 Number     Number       Type             X           Y           Z
 ---------------------------------------------------------------------
      1          6           0        1.334414   -0.539868    0.088870
      2          6           0        0.003295    0.044827   -0.361796
      3          6           0       -1.190567   -0.790085    0.102190
      4          8           0       -0.060517    1.365172    0.163452
      5          1           0        1.480850   -1.552627   -0.325580
      6          1           0        1.369947   -0.599007    1.191566
      7          1           0        2.165767    0.103439   -0.246204
      8          1           0       -0.004363    0.083684   -1.473399
      9          1           0       -1.208731   -0.848316    1.205422
     10          1           0       -1.148265   -1.816306   -0.305370
     11          1           0       -2.143155   -0.337306   -0.233246
     12          1           0       -0.910765    1.755817   -0.096385
 ---------------------------------------------------------------------
 Rotational constants (GHZ):           8.6718822           7.9941193           4.7550832

 **********************************************************************

            Population analysis using the SCF Density.

 **********************************************************************

 Orbital symmetries:
       Occupied  (A) (A) (A) (A) (A) (A) (A) (A) (A) (A) (A) (A)
                 (A) (A) (A) (A) (A)
       Virtual   (A) (A) (A) (A) (A) (A) (A) (A) (A) (A) (A) (A)
                 (A) (A) (A) (A) (A) (A) (A) (A) (A) (A) (A) (A)
                 (A) (A) (A) (A) (A) (A) (A) (A) (A) (A) (A) (A)
                 (A) (A) (A) (A) (A) (A) (A) (A) (A) (A) (A) (A)
                 (A) (A) (A) (A) (A) (A) (A)
 The electronic state is 1-A.
 Alpha  occ. eigenvalues --  -19.11899 -10.23138 -10.17474 -10.16802  -1.00263
 Alpha  occ. eigenvalues --   -0.76148  -0.68217  -0.57959  -0.51115  -0.45279
 Alpha  occ. eigenvalues --   -0.43341  -0.39078  -0.38161  -0.36642  -0.35567
 Alpha  occ. eigenvalues --   -0.32108  -0.26631
 Alpha virt. eigenvalues --    0.04207   0.08635   0.10210   0.11204   0.11509
 Alpha virt. eigenvalues --    0.13804   0.15661   0.16481   0.21202   0.22966
 Alpha virt. eigenvalues --    0.25169   0.39810   0.43163   0.47435   0.48684
 Alpha virt. eigenvalues --    0.51741   0.59247   0.61299   0.63727   0.64762
 Alpha virt. eigenvalues --    0.65739   0.67915   0.69733   0.69927   0.71156
 Alpha virt. eigenvalues --    0.71332   0.73134   0.73659   0.74976   0.91674
 Alpha virt. eigenvalues --    0.99013   1.03333   1.10537   1.25618   1.45091
 Alpha virt. eigenvalues --    1.51630   1.56036   1.73133   1.82948   1.87083
 Alpha virt. eigenvalues --    1.91630   1.96767   2.02823   2.12942   2.13813
 Alpha virt. eigenvalues --    2.15549   2.25082   2.31666   2.48937   2.58162
 Alpha virt. eigenvalues --    2.64821   2.88071   2.94725   3.02256   3.36506
          Condensed to atoms (all electrons):
               1          2          3          4          5          6
     1  C    4.936263   0.397193  -0.056440  -0.070471   0.352005   0.359026
     2  C    0.397193   4.514652   0.435213   0.329786  -0.009638  -0.012405
     3  C   -0.056440   0.435213   4.947052  -0.052456  -0.002845  -0.014515
     4  O   -0.070471   0.329786  -0.052456   8.006278   0.004099   0.004225
     5  H    0.352005  -0.009638  -0.002845   0.004099   0.611100  -0.021389
     6  H    0.359026  -0.012405  -0.014515   0.004225  -0.021389   0.598515
     7  H    0.357902  -0.009680   0.010319   0.004649  -0.019894  -0.024443
     8  H   -0.048742   0.370163  -0.061607  -0.033375  -0.001898   0.009973
     9  H   -0.014829  -0.012633   0.356487   0.004861  -0.000029   0.009885
    10  H   -0.002122  -0.008865   0.336505   0.005097   0.002925   0.000137
    11  H    0.010239  -0.019867   0.361364  -0.000958  -0.000199  -0.000223
    12  H    0.011889  -0.037943  -0.001562   0.263151  -0.000613  -0.000380
               7          8          9         10         11         12
     1  C    0.357902  -0.048742  -0.014829  -0.002122   0.010239   0.011889
     2  C   -0.009680   0.370163  -0.012633  -0.008865  -0.019867  -0.037943
     3  C    0.010319  -0.061607   0.356487   0.336505   0.361364  -0.001562
     4  O    0.004649  -0.033375   0.004861   0.005097  -0.000958   0.263151
     5  H   -0.019894  -0.001898  -0.000029   0.002925  -0.000199  -0.000613
     6  H   -0.024443   0.009973   0.009885   0.000137  -0.000223  -0.000380
     7  H    0.590898  -0.008937  -0.000281  -0.000497  -0.000483  -0.000394
     8  H   -0.008937   0.726286   0.010241   0.000708  -0.008013  -0.003764
     9  H   -0.000281   0.010241   0.598419  -0.018543  -0.027851  -0.001210
    10  H   -0.000497   0.000708  -0.018543   0.615972  -0.020257  -0.000171
    11  H   -0.000483  -0.008013  -0.027851  -0.020257   0.617900   0.007211
    12  H   -0.000394  -0.003764  -0.001210  -0.000171   0.007211   0.467009
 Mulliken charges:
               1
     1  C   -0.231911
     2  C    0.064024
     3  C   -0.257514
     4  O   -0.464887
     5  H    0.086378
     6  H    0.091593
     7  H    0.100841
     8  H    0.048964
     9  H    0.095484
    10  H    0.089112
    11  H    0.081138
    12  H    0.296778
 Sum of Mulliken charges =   0.00000
 Mulliken charges with hydrogens summed into heavy atoms:
               1
     1  C    0.046901
     2  C    0.112989
     3  C    0.008220
     4  O   -0.168110
 Electronic spatial extent (au):  <R**2>=            319.9035
 Charge=              0.0000 electrons
 Dipole moment (field-independent basis, Debye):
    X=             -1.1954    Y=             -0.6032    Z=             -0.8252  Tot=              1.5728
 Quadrupole moment (field-independent basis, Debye-Ang):
   XX=            -25.4981   YY=            -26.9073   ZZ=            -26.8811
   XY=             -2.7196   XZ=              0.2403   YZ=             -1.0440
 Traceless Quadrupole moment (field-independent basis, Debye-Ang):
   XX=              0.9307   YY=             -0.4785   ZZ=             -0.4522
   XY=             -2.7196   XZ=              0.2403   YZ=             -1.0440
 Octapole moment (field-independent basis, Debye-Ang**2):
  XXX=             -1.7020  YYY=              7.5496  ZZZ=              1.0208  XYY=             -5.2574
  XXY=              6.0585  XXZ=             -0.5877  XZZ=             -0.1908  YZZ=              1.6991
  YYZ=             -2.0739  XYZ=              0.3631
 Hexadecapole moment (field-independent basis, Debye-Ang**3):
 XXXX=           -205.2080 YYYY=           -149.7645 ZZZZ=            -55.4075 XXXY=             -4.0241
 XXXZ=              0.1829 YYYX=            -12.1665 YYYZ=              0.4180 ZZZX=              0.1608
 ZZZY=             -0.4526 XXYY=            -56.9545 XXZZ=            -43.8420 YYZZ=            -36.4406
 XXYZ=              0.0288 YYXZ=              0.4732 ZZXY=             -0.7401
 N-N= 1.343628596553D+02 E-N=-7.209077990415D+02  KE= 1.923558947848D+02
 Unable to Open any file for archive entry.
 1\1\GINC-NODE05\FOpt\RB3LYP\def2SVPP\C3H8O1\XUHJ\20-Dec-2023\0\\#N opt
  freq B3LYP/def2SVPP symm=veryloose em=gd3bj scale=0.961 press=0.987\\
 CC(C)O_1\\0,1\C,0.2796257379,-0.5913591603,1.2604754156\C,0.3151836678
 ,0.2462761026,-0.0099376434\C,0.295981013,-0.6095168363,-1.2767901783\
 O,-0.8129339272,1.111188031,0.0405491232\H,1.1587293193,-1.2566795522,
 1.3189312895\H,-0.6356811258,-1.2097575887,1.2827406873\H,0.2716505851
 ,0.0636472656,2.1482640163\H,1.2496048779,0.8496599841,-0.0061854459\H
 ,-0.6223774663,-1.2231045264,-1.3079292198\H,1.1719200012,-1.281522080
 3,-1.3233008371\H,0.314976178,0.0259157647,-2.1827783835\H,-0.82306020
 09,1.6465492462,-0.7695904339\\Version=ES64L-G16RevC.01\State=1-A\HF=-
 194.2012058\RMSD=3.114e-09\RMSF=5.987e-05\Dipole=0.3814051,0.001176,-0
 .4872666\Quadrupole=-0.951088,0.628345,0.322743,0.2292962,0.9669677,-1
 .841902\PG=C01 [X(C3H8O1)]\\@
 The archive entry for this job was punched.


 FLOATING POINT NUMBERS ARE LIKE SANDPILES:
 EVERY TIME THAT YOU MOVE ONE, YOU LOSE A LITTLE SAND 
 AND YOU PICK UP A LITTLE DIRT.
 Job cpu time:       0 days  0 hours  1 minutes 55.7 seconds.
 Elapsed time:       0 days  0 hours  0 minutes  8.3 seconds.
 File lengths (MBytes):  RWF=     17 Int=      0 D2E=      0 Chk=      2 Scr=      2
 Normal termination of Gaussian 16 at Wed Dec 20 00:40:37 2023.
 Link1:  Proceeding to internal job step number  2.
 --------------------------------------------------------------------
 #N Geom=AllCheck Guess=TCheck SCRF=Check GenChk RB3LYP/def2SVPP Freq
 --------------------------------------------------------------------
 1/10=4,29=7,30=1,38=1,40=1,113=-987000,114=961000/1,3;
 2/12=2,17=2,18=2,40=1/2;
 3/5=43,7=202,11=2,14=-4,25=1,30=1,70=2,71=2,74=-5,116=1,124=41,140=1/1,2,3;
 4/5=101/1;
 5/5=2,38=6,98=1/2;
 8/6=4,10=90,11=11/1;
 11/6=1,8=1,9=11,15=111,16=1/1,2,10;
 10/6=1/2;
 6/7=2,8=2,9=2,10=2,28=1/1;
 7/8=1,10=1,25=1/1,2,3,16;
 1/10=4,30=1/3;
 99//99;
 Structure from the checkpoint file:  "/home/software/g16tmp/Gau-99786.chk"
 --------
 CC(C)O_1
 --------
 Charge =  0 Multiplicity = 1
 Redundant internal coordinates found in file.  (old form).
 C,0,0.2796257379,-0.5913591603,1.2604754156
 C,0,0.3151836678,0.2462761026,-0.0099376434
 C,0,0.295981013,-0.6095168363,-1.2767901783
 O,0,-0.8129339272,1.111188031,0.0405491232
 H,0,1.1587293193,-1.2566795522,1.3189312895
 H,0,-0.6356811258,-1.2097575887,1.2827406873
 H,0,0.2716505851,0.0636472656,2.1482640163
 H,0,1.2496048779,0.8496599841,-0.0061854459
 H,0,-0.6223774663,-1.2231045264,-1.3079292198
 H,0,1.1719200012,-1.2815220803,-1.3233008371
 H,0,0.314976178,0.0259157647,-2.1827783835
 H,0,-0.8230602009,1.6465492462,-0.7695904339
 Recover connectivity data from disk.

 GradGradGradGradGradGradGradGradGradGradGradGradGradGradGradGradGradGrad
 Berny optimization.
 Initialization pass.
                           ----------------------------
                           !    Initial Parameters    !
                           ! (Angstroms and Degrees)  !
 --------------------------                            --------------------------
 ! Name  Definition              Value          Derivative Info.                !
 --------------------------------------------------------------------------------
 ! R1    R(1,2)                  1.5221         calculate D2E/DX2 analytically  !
 ! R2    R(1,5)                  1.104          calculate D2E/DX2 analytically  !
 ! R3    R(1,6)                  1.1049         calculate D2E/DX2 analytically  !
 ! R4    R(1,7)                  1.1033         calculate D2E/DX2 analytically  !
 ! R5    R(2,3)                  1.5289         calculate D2E/DX2 analytically  !
 ! R6    R(2,4)                  1.4224         calculate D2E/DX2 analytically  !
 ! R7    R(2,8)                  1.1123         calculate D2E/DX2 analytically  !
 ! R8    R(3,9)                  1.1049         calculate D2E/DX2 analytically  !
 ! R9    R(3,10)                 1.105          calculate D2E/DX2 analytically  !
 ! R10   R(3,11)                 1.1068         calculate D2E/DX2 analytically  !
 ! R11   R(4,12)                 0.9711         calculate D2E/DX2 analytically  !
 ! A1    A(2,1,5)              110.9296         calculate D2E/DX2 analytically  !
 ! A2    A(2,1,6)              110.1322         calculate D2E/DX2 analytically  !
 ! A3    A(2,1,7)              110.1858         calculate D2E/DX2 analytically  !
 ! A4    A(5,1,6)              108.7413         calculate D2E/DX2 analytically  !
 ! A5    A(5,1,7)              108.7185         calculate D2E/DX2 analytically  !
 ! A6    A(6,1,7)              108.0644         calculate D2E/DX2 analytically  !
 ! A7    A(1,2,3)              112.5348         calculate D2E/DX2 analytically  !
 ! A8    A(1,2,4)              106.6466         calculate D2E/DX2 analytically  !
 ! A9    A(1,2,8)              108.3808         calculate D2E/DX2 analytically  !
 ! A10   A(3,2,4)              111.0877         calculate D2E/DX2 analytically  !
 ! A11   A(3,2,8)              108.4802         calculate D2E/DX2 analytically  !
 ! A12   A(4,2,8)              109.6513         calculate D2E/DX2 analytically  !
 ! A13   A(2,3,9)              110.1587         calculate D2E/DX2 analytically  !
 ! A14   A(2,3,10)             111.4272         calculate D2E/DX2 analytically  !
 ! A15   A(2,3,11)             110.8971         calculate D2E/DX2 analytically  !
 ! A16   A(9,3,10)             108.6602         calculate D2E/DX2 analytically  !
 ! A17   A(9,3,11)             108.0607         calculate D2E/DX2 analytically  !
 ! A18   A(10,3,11)            107.5235         calculate D2E/DX2 analytically  !
 ! A19   A(2,4,12)             108.293          calculate D2E/DX2 analytically  !
 ! D1    D(5,1,2,3)             60.8411         calculate D2E/DX2 analytically  !
 ! D2    D(5,1,2,4)           -177.1102         calculate D2E/DX2 analytically  !
 ! D3    D(5,1,2,8)            -59.126          calculate D2E/DX2 analytically  !
 ! D4    D(6,1,2,3)            -59.5952         calculate D2E/DX2 analytically  !
 ! D5    D(6,1,2,4)             62.4535         calculate D2E/DX2 analytically  !
 ! D6    D(6,1,2,8)           -179.5623         calculate D2E/DX2 analytically  !
 ! D7    D(7,1,2,3)           -178.7159         calculate D2E/DX2 analytically  !
 ! D8    D(7,1,2,4)            -56.6671         calculate D2E/DX2 analytically  !
 ! D9    D(7,1,2,8)             61.317          calculate D2E/DX2 analytically  !
 ! D10   D(1,2,3,9)             59.9972         calculate D2E/DX2 analytically  !
 ! D11   D(1,2,3,10)           -60.6806         calculate D2E/DX2 analytically  !
 ! D12   D(1,2,3,11)           179.5794         calculate D2E/DX2 analytically  !
 ! D13   D(4,2,3,9)            -59.5021         calculate D2E/DX2 analytically  !
 ! D14   D(4,2,3,10)           179.82           calculate D2E/DX2 analytically  !
 ! D15   D(4,2,3,11)            60.0801         calculate D2E/DX2 analytically  !
 ! D16   D(8,2,3,9)            179.9068         calculate D2E/DX2 analytically  !
 ! D17   D(8,2,3,10)            59.2289         calculate D2E/DX2 analytically  !
 ! D18   D(8,2,3,11)           -60.511          calculate D2E/DX2 analytically  !
 ! D19   D(1,2,4,12)          -178.9303         calculate D2E/DX2 analytically  !
 ! D20   D(3,2,4,12)           -55.9725         calculate D2E/DX2 analytically  !
 ! D21   D(8,2,4,12)            63.9244         calculate D2E/DX2 analytically  !
 --------------------------------------------------------------------------------
 Trust Radius=3.00D-01 FncErr=1.00D-07 GrdErr=1.00D-07 EigMax=2.50D+02 EigMin=1.00D-04
 Number of steps in this run=      2 maximum allowed number of steps=      2.
 GradGradGradGradGradGradGradGradGradGradGradGradGradGradGradGradGradGrad

                          Input orientation:                          
 ---------------------------------------------------------------------
 Center     Atomic      Atomic             Coordinates (Angstroms)
 Number     Number       Type             X           Y           Z
 ---------------------------------------------------------------------
      1          6           0        0.279626   -0.591359    1.260475
      2          6           0        0.315184    0.246276   -0.009938
      3          6           0        0.295981   -0.609517   -1.276790
      4          8           0       -0.812934    1.111188    0.040549
      5          1           0        1.158729   -1.256680    1.318931
      6          1           0       -0.635681   -1.209758    1.282741
      7          1           0        0.271651    0.063647    2.148264
      8          1           0        1.249605    0.849660   -0.006185
      9          1           0       -0.622377   -1.223105   -1.307929
     10          1           0        1.171920   -1.281522   -1.323301
     11          1           0        0.314976    0.025916   -2.182778
     12          1           0       -0.823060    1.646549   -0.769590
 ---------------------------------------------------------------------
                    Distance matrix (angstroms):
                    1          2          3          4          5
     1  C    0.000000
     2  C    1.522119   0.000000
     3  C    2.537383   1.528943   0.000000
     4  O    2.362324   1.422417   2.434317   0.000000
     5  H    1.104034   2.176313   2.810858   3.335943   0.000000
     6  H    1.104852   2.166840   2.789172   2.638418   1.795389
     7  H    1.103298   2.166352   3.490664   2.591549   1.793869
     8  H    2.149843   1.112308   2.157089   2.079579   2.490152
     9  H    2.794533   2.173219   1.104917   2.702522   3.173935
    10  H    2.819293   2.189312   1.104999   3.394819   2.642382
    11  H    3.498325   2.183986   1.106775   2.719041   3.823472
    12  H    3.216414   1.957916   2.568918   0.971103   4.088783
                    6          7          8          9         10
     6  H    0.000000
     7  H    1.787160   0.000000
     8  H    3.075197   2.493163   0.000000
     9  H    2.590738   3.794771   3.081429   0.000000
    10  H    3.172385   3.830369   2.506544   1.795314   0.000000
    11  H    3.800061   4.331423   2.507916   1.789985   1.783942
    12  H    3.522167   3.495403   2.348140   2.926601   3.586104
                   11         12
    11  H    0.000000
    12  H    2.432834   0.000000
 Stoichiometry    C3H8O
 Framework group  C1[X(C3H8O)]
 Deg. of freedom    30
 Full point group                 C1      NOp   1
 Largest Abelian subgroup         C1      NOp   1
 Largest concise Abelian subgroup C1      NOp   1
                         Standard orientation:                         
 ---------------------------------------------------------------------
 Center     Atomic      Atomic             Coordinates (Angstroms)
 Number     Number       Type             X           Y           Z
 ---------------------------------------------------------------------
      1          6           0        1.334414   -0.539868    0.088870
      2          6           0        0.003295    0.044827   -0.361796
      3          6           0       -1.190567   -0.790085    0.102190
      4          8           0       -0.060517    1.365172    0.163452
      5          1           0        1.480850   -1.552627   -0.325580
      6          1           0        1.369947   -0.599007    1.191566
      7          1           0        2.165767    0.103439   -0.246204
      8          1           0       -0.004363    0.083684   -1.473399
      9          1           0       -1.208731   -0.848316    1.205422
     10          1           0       -1.148265   -1.816306   -0.305370
     11          1           0       -2.143155   -0.337306   -0.233246
     12          1           0       -0.910765    1.755817   -0.096385
 ---------------------------------------------------------------------
 Rotational constants (GHZ):           8.6718822           7.9941193           4.7550832
 Standard basis: def2SVPP (5D, 7F)
 There are    76 symmetry adapted cartesian basis functions of A   symmetry.
 There are    72 symmetry adapted basis functions of A   symmetry.
    72 basis functions,   132 primitive gaussians,    76 cartesian basis functions
    17 alpha electrons       17 beta electrons
       nuclear repulsion energy       134.3748752390 Hartrees.
 NAtoms=   12 NActive=   12 NUniq=   12 SFac= 1.00D+00 NAtFMM=   60 NAOKFM=F Big=F
 Integral buffers will be    131072 words long.
 Raffenetti 2 integral format.
 Two-electron integral symmetry is turned on.
 Nuclear repulsion after empirical dispersion term =      134.3628596553 Hartrees.
 One-electron integrals computed using PRISM.
   1 Symmetry operations used in ECPInt.
 ECPInt:  NShTT=     820 NPrTT=    3316 LenC2=     821 LenP2D=    2887.
 LDataN:  DoStor=T MaxTD1= 4 Len=   56
 NBasis=    72 RedAO= T EigKep=  2.57D-03  NBF=    72
 NBsUse=    72 1.00D-06 EigRej= -1.00D+00 NBFU=    72
 Initial guess from the checkpoint file:  "/home/software/g16tmp/Gau-99786.chk"
 B after Tr=    -0.000000   -0.000000    0.000000
         Rot=    1.000000    0.000000    0.000000    0.000000 Ang=   0.00 deg.
 Keep R1 ints in memory in canonical form, NReq=17884574.
 Requested convergence on RMS density matrix=1.00D-08 within 128 cycles.
 Requested convergence on MAX density matrix=1.00D-06.
 Requested convergence on             energy=1.00D-06.
 No special actions if energy rises.
 SCF Done:  E(RB3LYP) =  -194.201205781     A.U. after    1 cycles
            NFock=  1  Conv=0.15D-08     -V/T= 2.0096
 DoSCS=F DFT=T ScalE2(SS,OS)=  1.000000  1.000000
 Range of M.O.s used for correlation:     1    72
 NBasis=    72 NAE=    17 NBE=    17 NFC=     0 NFV=     0
 NROrb=     72 NOA=    17 NOB=    17 NVA=    55 NVB=    55
   1 Symmetry operations used in ECPInt.
 ECPInt:  NShTT=     820 NPrTT=    3316 LenC2=     821 LenP2D=    2887.
 LDataN:  DoStor=T MaxTD1= 5 Len=  102
 Symmetrizing basis deriv contribution to polar:
 IMax=3 JMax=2 DiffMx= 0.00D+00
 G2DrvN: will do    13 centers at a time, making    1 passes.
 Calling FoFCou, ICntrl=  3107 FMM=F I1Cent=   0 AccDes= 0.00D+00.
 End of G2Drv F.D. properties file   721 does not exist.
 End of G2Drv F.D. properties file   722 does not exist.
 End of G2Drv F.D. properties file   788 does not exist.
          IDoAtm=111111111111
          Differentiating once with respect to electric field.
                with respect to dipole field.
          Differentiating once with respect to nuclear coordinates.
 Keep R1 ints in memory in canonical form, NReq=17840308.
          There are    39 degrees of freedom in the 1st order CPHF.  IDoFFX=6 NUNeed=     3.
     36 vectors produced by pass  0 Test12= 2.40D-15 2.56D-09 XBig12= 2.17D+01 1.52D+00.
 AX will form    36 AO Fock derivatives at one time.
     36 vectors produced by pass  1 Test12= 2.40D-15 2.56D-09 XBig12= 8.64D-01 1.66D-01.
     36 vectors produced by pass  2 Test12= 2.40D-15 2.56D-09 XBig12= 6.64D-03 1.56D-02.
     36 vectors produced by pass  3 Test12= 2.40D-15 2.56D-09 XBig12= 8.51D-06 4.02D-04.
     36 vectors produced by pass  4 Test12= 2.40D-15 2.56D-09 XBig12= 6.22D-09 9.19D-06.
     11 vectors produced by pass  5 Test12= 2.40D-15 2.56D-09 XBig12= 2.35D-12 2.09D-07.
      2 vectors produced by pass  6 Test12= 2.40D-15 2.56D-09 XBig12= 1.29D-15 6.38D-09.
 InvSVY:  IOpt=1 It=  1 EMax= 5.33D-15
 Solved reduced A of dimension   193 with    39 vectors.
 Isotropic polarizability for W=    0.000000       37.50 Bohr**3.
 End of Minotr F.D. properties file   721 does not exist.
 End of Minotr F.D. properties file   722 does not exist.
 End of Minotr F.D. properties file   788 does not exist.

 **********************************************************************

            Population analysis using the SCF Density.

 **********************************************************************

 Orbital symmetries:
       Occupied  (A) (A) (A) (A) (A) (A) (A) (A) (A) (A) (A) (A)
                 (A) (A) (A) (A) (A)
       Virtual   (A) (A) (A) (A) (A) (A) (A) (A) (A) (A) (A) (A)
                 (A) (A) (A) (A) (A) (A) (A) (A) (A) (A) (A) (A)
                 (A) (A) (A) (A) (A) (A) (A) (A) (A) (A) (A) (A)
                 (A) (A) (A) (A) (A) (A) (A) (A) (A) (A) (A) (A)
                 (A) (A) (A) (A) (A) (A) (A)
 The electronic state is 1-A.
 Alpha  occ. eigenvalues --  -19.11899 -10.23138 -10.17474 -10.16802  -1.00263
 Alpha  occ. eigenvalues --   -0.76148  -0.68217  -0.57959  -0.51115  -0.45279
 Alpha  occ. eigenvalues --   -0.43341  -0.39078  -0.38161  -0.36642  -0.35567
 Alpha  occ. eigenvalues --   -0.32108  -0.26631
 Alpha virt. eigenvalues --    0.04207   0.08635   0.10210   0.11204   0.11509
 Alpha virt. eigenvalues --    0.13804   0.15661   0.16481   0.21202   0.22966
 Alpha virt. eigenvalues --    0.25169   0.39810   0.43163   0.47435   0.48684
 Alpha virt. eigenvalues --    0.51741   0.59247   0.61299   0.63727   0.64762
 Alpha virt. eigenvalues --    0.65739   0.67915   0.69733   0.69927   0.71156
 Alpha virt. eigenvalues --    0.71332   0.73134   0.73659   0.74976   0.91674
 Alpha virt. eigenvalues --    0.99013   1.03333   1.10537   1.25618   1.45091
 Alpha virt. eigenvalues --    1.51630   1.56036   1.73133   1.82948   1.87083
 Alpha virt. eigenvalues --    1.91630   1.96767   2.02823   2.12942   2.13813
 Alpha virt. eigenvalues --    2.15549   2.25082   2.31666   2.48937   2.58162
 Alpha virt. eigenvalues --    2.64821   2.88071   2.94725   3.02256   3.36506
          Condensed to atoms (all electrons):
               1          2          3          4          5          6
     1  C    4.936262   0.397193  -0.056440  -0.070471   0.352005   0.359026
     2  C    0.397193   4.514652   0.435213   0.329786  -0.009638  -0.012405
     3  C   -0.056440   0.435213   4.947052  -0.052456  -0.002845  -0.014515
     4  O   -0.070471   0.329786  -0.052456   8.006278   0.004099   0.004225
     5  H    0.352005  -0.009638  -0.002845   0.004099   0.611100  -0.021389
     6  H    0.359026  -0.012405  -0.014515   0.004225  -0.021389   0.598515
     7  H    0.357902  -0.009680   0.010319   0.004649  -0.019894  -0.024443
     8  H   -0.048742   0.370163  -0.061607  -0.033375  -0.001898   0.009973
     9  H   -0.014829  -0.012633   0.356487   0.004861  -0.000029   0.009885
    10  H   -0.002122  -0.008865   0.336505   0.005097   0.002925   0.000137
    11  H    0.010239  -0.019867   0.361364  -0.000958  -0.000199  -0.000223
    12  H    0.011889  -0.037943  -0.001562   0.263151  -0.000613  -0.000380
               7          8          9         10         11         12
     1  C    0.357902  -0.048742  -0.014829  -0.002122   0.010239   0.011889
     2  C   -0.009680   0.370163  -0.012633  -0.008865  -0.019867  -0.037943
     3  C    0.010319  -0.061607   0.356487   0.336505   0.361364  -0.001562
     4  O    0.004649  -0.033375   0.004861   0.005097  -0.000958   0.263151
     5  H   -0.019894  -0.001898  -0.000029   0.002925  -0.000199  -0.000613
     6  H   -0.024443   0.009973   0.009885   0.000137  -0.000223  -0.000380
     7  H    0.590898  -0.008937  -0.000281  -0.000497  -0.000483  -0.000394
     8  H   -0.008937   0.726286   0.010241   0.000708  -0.008013  -0.003764
     9  H   -0.000281   0.010241   0.598419  -0.018543  -0.027851  -0.001210
    10  H   -0.000497   0.000708  -0.018543   0.615972  -0.020257  -0.000171
    11  H   -0.000483  -0.008013  -0.027851  -0.020257   0.617900   0.007211
    12  H   -0.000394  -0.003764  -0.001210  -0.000171   0.007211   0.467009
 Mulliken charges:
               1
     1  C   -0.231911
     2  C    0.064024
     3  C   -0.257514
     4  O   -0.464887
     5  H    0.086378
     6  H    0.091593
     7  H    0.100841
     8  H    0.048964
     9  H    0.095484
    10  H    0.089112
    11  H    0.081138
    12  H    0.296778
 Sum of Mulliken charges =  -0.00000
 Mulliken charges with hydrogens summed into heavy atoms:
               1
     1  C    0.046901
     2  C    0.112989
     3  C    0.008220
     4  O   -0.168110
 APT charges:
               1
     1  C    0.017155
     2  C    0.581804
     3  C   -0.003272
     4  O   -0.622976
     5  H   -0.009775
     6  H   -0.008211
     7  H   -0.009621
     8  H   -0.124964
     9  H   -0.009368
    10  H   -0.012657
    11  H   -0.034698
    12  H    0.236583
 Sum of APT charges =   0.00000
 APT charges with hydrogens summed into heavy atoms:
               1
     1  C   -0.010453
     2  C    0.456840
     3  C   -0.059995
     4  O   -0.386393
 Electronic spatial extent (au):  <R**2>=            319.9035
 Charge=             -0.0000 electrons
 Dipole moment (field-independent basis, Debye):
    X=             -1.1954    Y=             -0.6032    Z=             -0.8252  Tot=              1.5728
 Quadrupole moment (field-independent basis, Debye-Ang):
   XX=            -25.4981   YY=            -26.9073   ZZ=            -26.8811
   XY=             -2.7196   XZ=              0.2403   YZ=             -1.0440
 Traceless Quadrupole moment (field-independent basis, Debye-Ang):
   XX=              0.9307   YY=             -0.4785   ZZ=             -0.4522
   XY=             -2.7196   XZ=              0.2403   YZ=             -1.0440
 Octapole moment (field-independent basis, Debye-Ang**2):
  XXX=             -1.7020  YYY=              7.5496  ZZZ=              1.0208  XYY=             -5.2574
  XXY=              6.0585  XXZ=             -0.5877  XZZ=             -0.1908  YZZ=              1.6991
  YYZ=             -2.0739  XYZ=              0.3631
 Hexadecapole moment (field-independent basis, Debye-Ang**3):
 XXXX=           -205.2080 YYYY=           -149.7645 ZZZZ=            -55.4075 XXXY=             -4.0241
 XXXZ=              0.1829 YYYX=            -12.1665 YYYZ=              0.4180 ZZZX=              0.1608
 ZZZY=             -0.4526 XXYY=            -56.9545 XXZZ=            -43.8420 YYZZ=            -36.4406
 XXYZ=              0.0288 YYXZ=              0.4732 ZZXY=             -0.7401
 N-N= 1.343628596553D+02 E-N=-7.209077972543D+02  KE= 1.923558940893D+02
  Exact polarizability:      40.321      -1.106      37.642       0.411       0.020      34.539
 Approx polarizability:      48.276      -1.416      49.329       0.990       1.171      46.701
   1 Symmetry operations used in ECPInt.
 ECPInt:  NShTT=     820 NPrTT=    3316 LenC2=     821 LenP2D=    2887.
 LDataN:  DoStor=T MaxTD1= 6 Len=  172
 Calling FoFJK, ICntrl=    100127 FMM=F ISym2X=0 I1Cent= 0 IOpClX= 0 NMat=1 NMatS=1 NMatT=0.
 Full mass-weighted force constant matrix:
 Low frequencies ---  -10.1110   -7.5042   -0.0013   -0.0011    0.0013    3.4083
 Low frequencies ---  229.7047  278.0908  326.4419
 Diagonal vibrational polarizability:
        7.0698634      11.3951425      22.4616900
 Harmonic frequencies (cm**-1), IR intensities (KM/Mole), Raman scattering
 activities (A**4/AMU), depolarization ratios for plane and unpolarized
 incident light, reduced masses (AMU), force constants (mDyne/A),
 and normal coordinates:
                      1                      2                      3
                      A                      A                      A
 Frequencies --    229.7046               278.0907               326.4417
 Red. masses --      1.0331                 1.0804                 1.0692
 Frc consts  --      0.0321                 0.0492                 0.0671
 IR Inten    --      4.0508                 0.5922               116.5947
  Atom  AN      X      Y      Z        X      Y      Z        X      Y      Z
     1   6     0.00   0.02   0.01    -0.01   0.00   0.04     0.01   0.00   0.02
     2   6    -0.00   0.00   0.00    -0.00  -0.00  -0.00     0.02  -0.01  -0.02
     3   6     0.00  -0.02  -0.03     0.01  -0.01   0.02    -0.01   0.03  -0.01
     4   8    -0.00  -0.00   0.02     0.00   0.01  -0.05     0.01  -0.01  -0.04
     5   1    -0.20  -0.18   0.42     0.13   0.11  -0.18    -0.00  -0.04   0.11
     6   1     0.15   0.48   0.03    -0.14  -0.25   0.03     0.01   0.12   0.03
     7   1     0.04  -0.24  -0.38    -0.03   0.15   0.29     0.02  -0.04  -0.05
     8   1    -0.00   0.02   0.00     0.00  -0.04  -0.00     0.01  -0.04  -0.02
     9   1     0.13  -0.29  -0.04     0.29  -0.43   0.01    -0.01   0.01  -0.01
    10   1    -0.12   0.08  -0.28    -0.24   0.14  -0.38    -0.08   0.04  -0.04
    11   1    -0.01   0.13   0.20    -0.02   0.25   0.44     0.01   0.09  -0.01
    12   1     0.07   0.07  -0.13    -0.01  -0.01  -0.04    -0.41  -0.37   0.80
                      4                      5                      6
                      A                      A                      A
 Frequencies --    365.0330               418.5680               489.9401
 Red. masses --      2.1453                 2.8192                 2.2585
 Frc consts  --      0.1684                 0.2910                 0.3194
 IR Inten    --      3.7746                12.1279                 8.0663
  Atom  AN      X      Y      Z        X      Y      Z        X      Y      Z
     1   6    -0.14  -0.12   0.02    -0.10   0.14   0.02     0.09  -0.05  -0.02
     2   6    -0.01   0.12  -0.02    -0.13  -0.01  -0.01     0.00   0.01   0.23
     3   6     0.16  -0.08   0.01    -0.07  -0.16  -0.02    -0.09  -0.07  -0.03
     4   8    -0.01   0.13  -0.03     0.25   0.01  -0.02     0.00   0.14  -0.08
     5   1    -0.41  -0.16   0.02     0.15   0.15   0.11    -0.08   0.00  -0.23
     6   1    -0.24  -0.17   0.02    -0.18   0.26   0.03     0.46  -0.23  -0.04
     7   1     0.09  -0.37   0.09    -0.23   0.32   0.05     0.02  -0.06  -0.23
     8   1    -0.01   0.14  -0.02    -0.21  -0.02  -0.01    -0.00  -0.12   0.22
     9   1     0.25  -0.11   0.01    -0.12  -0.25  -0.02    -0.43  -0.34  -0.04
    10   1     0.44  -0.07   0.02     0.20  -0.13  -0.07     0.08   0.03  -0.26
    11   1     0.00  -0.36   0.07    -0.16  -0.37  -0.07    -0.01  -0.06  -0.24
    12   1    -0.11   0.04   0.16     0.25   0.22   0.29    -0.10  -0.03  -0.01
                      7                      8                      9
                      A                      A                      A
 Frequencies --    834.9299               935.4122               955.4218
 Red. masses --      2.6123                 1.2202                 1.4051
 Frc consts  --      1.0729                 0.6291                 0.7557
 IR Inten    --      2.5704                 0.1231                 2.1022
  Atom  AN      X      Y      Z        X      Y      Z        X      Y      Z
     1   6     0.19  -0.07   0.01    -0.01  -0.06   0.06     0.06  -0.11  -0.04
     2   6     0.01   0.03  -0.15    -0.05  -0.01  -0.00    -0.07  -0.03  -0.01
     3   6    -0.18  -0.13   0.01    -0.02   0.06  -0.07     0.04   0.10   0.03
     4   8    -0.01   0.14   0.04    -0.00   0.01   0.00    -0.02   0.02   0.01
     5   1     0.28  -0.14   0.20     0.21   0.03  -0.08     0.51  -0.17   0.27
     6   1    -0.10   0.02   0.02     0.44  -0.03   0.05    -0.20   0.21  -0.01
     7   1     0.35  -0.16   0.22    -0.32   0.19  -0.25    -0.06   0.13   0.15
     8   1     0.00   0.23  -0.13     0.28   0.01  -0.00    -0.36  -0.02  -0.00
     9   1     0.10   0.07   0.03     0.43   0.12  -0.06    -0.13  -0.20   0.01
    10   1    -0.33  -0.23   0.25     0.22   0.01   0.08     0.39   0.22  -0.23
    11   1    -0.29  -0.18   0.24    -0.28  -0.25   0.25    -0.00  -0.10  -0.13
    12   1    -0.03   0.14   0.08    -0.00   0.03   0.03    -0.02  -0.01  -0.04
                     10                     11                     12
                      A                      A                      A
 Frequencies --    983.3982              1094.7214              1173.3414
 Red. masses --      2.1758                 1.6033                 1.9899
 Frc consts  --      1.2397                 1.1321                 1.6141
 IR Inten    --     39.0142                26.8841                16.4947
  Atom  AN      X      Y      Z        X      Y      Z        X      Y      Z
     1   6    -0.11  -0.06  -0.04     0.08  -0.00   0.08     0.03  -0.03  -0.06
     2   6     0.04  -0.16   0.01    -0.17  -0.03  -0.03    -0.07   0.09   0.20
     3   6     0.10  -0.08  -0.04     0.09  -0.01  -0.03     0.02  -0.04  -0.12
     4   8     0.00   0.17   0.05    -0.02  -0.00  -0.01     0.02  -0.06  -0.07
     5   1     0.28  -0.04   0.07    -0.07   0.02  -0.05     0.14  -0.11   0.20
     6   1    -0.06   0.19  -0.03     0.27  -0.21   0.06    -0.21   0.13  -0.04
     7   1    -0.41   0.28  -0.11     0.14  -0.14  -0.03     0.08   0.05   0.20
     8   1     0.06  -0.03   0.03    -0.31  -0.16  -0.04    -0.25   0.44   0.22
     9   1     0.03   0.22  -0.03     0.04   0.17  -0.03     0.32   0.35  -0.09
    10   1    -0.42  -0.16   0.13    -0.13  -0.02  -0.02    -0.17  -0.17   0.22
    11   1     0.32   0.36  -0.09     0.24   0.25  -0.10     0.00   0.15   0.20
    12   1    -0.07  -0.02  -0.03     0.15   0.59   0.32    -0.02  -0.15  -0.07
                     13                     14                     15
                      A                      A                      A
 Frequencies --   1196.5308              1284.9845              1378.4480
 Red. masses --      2.0380                 1.1936                 1.2405
 Frc consts  --      1.7191                 1.1611                 1.3887
 IR Inten    --     45.6434                62.3591                14.4816
  Atom  AN      X      Y      Z        X      Y      Z        X      Y      Z
     1   6    -0.04  -0.11   0.05     0.00  -0.02  -0.08    -0.02   0.04  -0.03
     2   6     0.03   0.22  -0.07     0.03   0.02   0.06    -0.08  -0.07  -0.01
     3   6     0.03  -0.08   0.09    -0.01   0.00   0.01    -0.03  -0.03   0.07
     4   8    -0.01  -0.08  -0.04    -0.05  -0.02  -0.03     0.01   0.01  -0.01
     5   1     0.35  -0.00  -0.05     0.03  -0.08   0.09     0.14  -0.03   0.19
     6   1     0.33   0.14   0.05    -0.25   0.17  -0.06     0.13  -0.19  -0.04
     7   1    -0.33   0.19  -0.13    -0.01   0.10   0.13     0.17  -0.16   0.07
     8   1     0.10   0.38  -0.07     0.58  -0.26   0.04     0.49   0.52   0.02
     9   1    -0.40  -0.08   0.08    -0.01  -0.05   0.01     0.14   0.13   0.07
    10   1    -0.26  -0.04  -0.05     0.04  -0.00   0.03     0.22   0.12  -0.26
    11   1     0.19   0.14  -0.13    -0.02  -0.00   0.03     0.18   0.18  -0.23
    12   1     0.04   0.09   0.06     0.14   0.57   0.32    -0.02  -0.07  -0.03
                     16                     17                     18
                      A                      A                      A
 Frequencies --   1392.5712              1410.5303              1435.4802
 Red. masses --      1.2426                 1.3089                 1.3813
 Frc consts  --      1.4197                 1.5343                 1.6770
 IR Inten    --      4.2852                19.7060                21.3227
  Atom  AN      X      Y      Z        X      Y      Z        X      Y      Z
     1   6     0.09  -0.02   0.04     0.03  -0.04   0.03    -0.09   0.02   0.00
     2   6    -0.00  -0.09  -0.00     0.07   0.03  -0.00     0.12  -0.06   0.02
     3   6     0.02   0.04   0.01    -0.11  -0.08   0.03    -0.05   0.04  -0.02
     4   8    -0.01  -0.00  -0.03    -0.01  -0.00  -0.00    -0.03  -0.01  -0.03
     5   1    -0.42  -0.00  -0.18    -0.16   0.05  -0.23     0.28   0.10  -0.05
     6   1    -0.35   0.07   0.05    -0.14   0.22   0.05     0.22   0.02  -0.01
     7   1    -0.23   0.25  -0.21    -0.14   0.13  -0.07     0.14  -0.25   0.04
     8   1     0.02   0.62   0.04    -0.23  -0.12  -0.02    -0.33   0.32   0.05
     9   1    -0.07  -0.18   0.00     0.40   0.32   0.05     0.18  -0.40  -0.03
    10   1    -0.06   0.01   0.07     0.43   0.06  -0.26     0.17  -0.11   0.36
    11   1    -0.03  -0.11  -0.04     0.17   0.36  -0.16     0.04   0.12  -0.10
    12   1     0.03   0.15   0.07     0.01   0.06   0.03     0.07   0.31   0.16
                     19                     20                     21
                      A                      A                      A
 Frequencies --   1466.1830              1472.9173              1485.2190
 Red. masses --      1.0559                 1.0681                 1.1447
 Frc consts  --      1.3373                 1.3653                 1.4877
 IR Inten    --      1.2749                 4.1507                 5.4439
  Atom  AN      X      Y      Z        X      Y      Z        X      Y      Z
     1   6    -0.00   0.00  -0.04    -0.01  -0.04   0.01     0.03  -0.02  -0.01
     2   6     0.04   0.01  -0.01    -0.05  -0.01   0.01    -0.08   0.03  -0.03
     3   6    -0.02   0.01   0.02     0.01   0.02   0.02    -0.02   0.01  -0.02
     4   8    -0.01  -0.00  -0.00     0.01   0.00   0.00     0.02   0.01   0.02
     5   1    -0.32  -0.21   0.39     0.00   0.15  -0.43    -0.23  -0.06  -0.01
     6   1     0.31  -0.19  -0.05     0.09   0.53   0.03     0.12   0.12   0.00
     7   1    -0.14   0.36   0.31     0.19  -0.14   0.25    -0.02   0.17   0.22
     8   1    -0.16  -0.02  -0.01     0.11  -0.03   0.01     0.20  -0.11  -0.05
     9   1     0.30  -0.07   0.02     0.26  -0.08   0.01    -0.02  -0.42  -0.04
    10   1    -0.21   0.03  -0.06    -0.31   0.04  -0.05     0.28  -0.17   0.47
    11   1     0.01  -0.19  -0.33     0.02  -0.24  -0.35     0.18   0.42   0.01
    12   1     0.01   0.05   0.03    -0.01  -0.07  -0.05    -0.05  -0.21  -0.11
                     22                     23                     24
                      A                      A                      A
 Frequencies --   1494.5768              2948.6660              3003.6739
 Red. masses --      1.0825                 1.0848                 1.0379
 Frc consts  --      1.4246                 5.5573                 5.5171
 IR Inten    --      5.0793                71.8381                21.4713
  Atom  AN      X      Y      Z        X      Y      Z        X      Y      Z
     1   6    -0.03  -0.02  -0.02    -0.00   0.00   0.01    -0.01   0.00  -0.00
     2   6     0.03  -0.06  -0.01    -0.00   0.01  -0.08     0.00   0.00  -0.00
     3   6     0.02  -0.01  -0.01     0.00   0.00   0.01    -0.05  -0.02   0.01
     4   8    -0.01   0.00  -0.01     0.00  -0.00  -0.00    -0.00  -0.00  -0.00
     5   1    -0.22  -0.01  -0.09    -0.00  -0.03  -0.01     0.01  -0.08  -0.03
     6   1     0.38   0.29  -0.01     0.00   0.00  -0.05     0.00  -0.00   0.08
     7   1     0.08   0.10   0.46     0.02   0.02  -0.01     0.05   0.04  -0.02
     8   1    -0.07   0.18   0.00     0.01  -0.06   0.99    -0.00  -0.00   0.04
     9   1    -0.36   0.26  -0.00    -0.00   0.00  -0.04    -0.00   0.03  -0.52
    10   1     0.17   0.06  -0.16     0.01  -0.04  -0.02    -0.03   0.47   0.19
    11   1    -0.11   0.02   0.40    -0.05   0.03  -0.02     0.57  -0.28   0.21
    12   1     0.01   0.08   0.04    -0.00  -0.00  -0.00     0.00  -0.00   0.00
                     25                     26                     27
                      A                      A                      A
 Frequencies --   3020.9610              3079.1276              3097.4343
 Red. masses --      1.0371                 1.1025                 1.1055
 Frc consts  --      5.5763                 6.1586                 6.2488
 IR Inten    --     11.2478                30.9048                 4.3553
  Atom  AN      X      Y      Z        X      Y      Z        X      Y      Z
     1   6    -0.04   0.02  -0.02    -0.00  -0.00   0.00    -0.01   0.02   0.04
     2   6     0.00  -0.00   0.00    -0.00   0.00  -0.00     0.00  -0.00  -0.00
     3   6     0.01   0.00  -0.00    -0.05   0.07  -0.04    -0.00  -0.04  -0.07
     4   8     0.00  -0.00   0.00     0.00  -0.00   0.00    -0.00   0.00   0.00
     5   1     0.07  -0.51  -0.21    -0.00   0.01   0.00     0.04  -0.28  -0.11
     6   1     0.01  -0.03   0.63     0.00  -0.00   0.01    -0.01   0.02  -0.35
     7   1     0.38   0.30  -0.16     0.02   0.02  -0.01     0.07   0.06  -0.02
     8   1    -0.00   0.00  -0.01     0.00  -0.00   0.04    -0.00  -0.00   0.03
     9   1    -0.00  -0.00   0.07    -0.01  -0.01   0.42    -0.01  -0.04   0.65
    10   1     0.00  -0.05  -0.02     0.02  -0.50  -0.21    -0.03   0.54   0.21
    11   1    -0.09   0.04  -0.03     0.62  -0.29   0.22     0.05  -0.03   0.01
    12   1     0.00   0.00   0.00    -0.00  -0.01  -0.00     0.00  -0.00  -0.00
                     28                     29                     30
                      A                      A                      A
 Frequencies --   3104.8596              3111.9191              3673.6634
 Red. masses --      1.1042                 1.1051                 1.0659
 Frc consts  --      6.2717                 6.3055                 8.4759
 IR Inten    --     43.9502                21.2840                11.9194
  Atom  AN      X      Y      Z        X      Y      Z        X      Y      Z
     1   6     0.02  -0.02  -0.08    -0.04  -0.08   0.01     0.00   0.00   0.00
     2   6    -0.00   0.00  -0.01    -0.00  -0.00   0.00    -0.00  -0.00  -0.00
     3   6    -0.00  -0.02  -0.04     0.00  -0.01  -0.01     0.00  -0.00  -0.00
     4   8    -0.00   0.00   0.00    -0.00   0.00   0.00    -0.05   0.03  -0.02
     5   1    -0.06   0.44   0.17    -0.08   0.54   0.23    -0.00  -0.00  -0.00
     6   1     0.02  -0.04   0.66    -0.01  -0.00  -0.11     0.00  -0.00   0.00
     7   1    -0.23  -0.19   0.09     0.59   0.46  -0.24     0.00  -0.00  -0.00
     8   1     0.00  -0.01   0.09     0.00   0.00  -0.01     0.00  -0.00  -0.00
     9   1    -0.01  -0.02   0.34     0.00  -0.00   0.04    -0.00   0.00   0.00
    10   1    -0.01   0.30   0.11    -0.00   0.07   0.03    -0.00  -0.00   0.00
    11   1     0.03  -0.02   0.01    -0.01   0.00  -0.00    -0.00   0.00  -0.00
    12   1     0.00  -0.00   0.00     0.00   0.00   0.00     0.87  -0.41   0.26

 -------------------
 - Thermochemistry -
 -------------------
 Temperature   298.150 Kelvin.  Pressure   0.98700 Atm.
 Thermochemistry will use frequencies scaled by 0.9610.
 Atom     1 has atomic number  6 and mass  12.00000
 Atom     2 has atomic number  6 and mass  12.00000
 Atom     3 has atomic number  6 and mass  12.00000
 Atom     4 has atomic number  8 and mass  15.99491
 Atom     5 has atomic number  1 and mass   1.00783
 Atom     6 has atomic number  1 and mass   1.00783
 Atom     7 has atomic number  1 and mass   1.00783
 Atom     8 has atomic number  1 and mass   1.00783
 Atom     9 has atomic number  1 and mass   1.00783
 Atom    10 has atomic number  1 and mass   1.00783
 Atom    11 has atomic number  1 and mass   1.00783
 Atom    12 has atomic number  1 and mass   1.00783
 Molecular mass:    60.05751 amu.
 Principal axes and moments of inertia in atomic units:
                           1         2         3
     Eigenvalues --   208.11413 225.75860 379.53935
           X            0.99161  -0.12927   0.00248
           Y            0.12930   0.99139  -0.02072
           Z            0.00022   0.02087   0.99978
 This molecule is an asymmetric top.
 Rotational symmetry number  1.
 Rotational temperatures (Kelvin)      0.41618     0.38366     0.22821
 Rotational constants (GHZ):           8.67188     7.99412     4.75508
 Zero-point vibrational energy     270979.2 (Joules/Mol)
                                   64.76558 (Kcal/Mol)
 Warning -- explicit consideration of   6 degrees of freedom as
           vibrations may cause significant error
 Vibrational temperatures:    317.60   384.51   451.36   504.72   578.74
          (Kelvin)            677.42  1154.43  1293.36  1321.03  1359.71
                             1513.63  1622.34  1654.40  1776.70  1905.93
                             1925.46  1950.29  1984.79  2027.24  2036.55
                             2053.56  2066.50  4077.02  4153.07  4176.98
                             4257.40  4282.71  4292.98  4302.74  5079.44
 
 Zero-point correction=                           0.103211 (Hartree/Particle)
 Thermal correction to Energy=                    0.108731
 Thermal correction to Enthalpy=                  0.109676
 Thermal correction to Gibbs Free Energy=         0.075778
 Sum of electronic and zero-point Energies=           -194.097995
 Sum of electronic and thermal Energies=              -194.092474
 Sum of electronic and thermal Enthalpies=            -194.091530
 Sum of electronic and thermal Free Energies=         -194.125428
 
                     E (Thermal)             CV                S
                      KCal/Mol        Cal/Mol-Kelvin    Cal/Mol-Kelvin
 Total                   68.230             19.473             71.344
 Electronic               0.000              0.000              0.000
 Translational            0.889              2.981             38.224
 Rotational               0.889              2.981             24.393
 Vibrational             66.453             13.511              8.727
 Vibration     1          0.647              1.809              1.953
 Vibration     2          0.672              1.733              1.614
 Vibration     3          0.702              1.648              1.343
 Vibration     4          0.728              1.574              1.163
 Vibration     5          0.768              1.465              0.954
 Vibration     6          0.828              1.315              0.735
                       Q            Log10(Q)             Ln(Q)
 Total Bot       0.139504D-34        -34.855413        -80.257555
 Total V=0       0.415039D+13         12.618089         29.054223
 Vib (Bot)       0.157453D-46        -46.802848       -107.767540
 Vib (Bot)    1  0.895787D+00         -0.047795         -0.110052
 Vib (Bot)    2  0.724172D+00         -0.140158         -0.322726
 Vib (Bot)    3  0.601458D+00         -0.220795         -0.508399
 Vib (Bot)    4  0.525672D+00         -0.279286         -0.643079
 Vib (Bot)    5  0.442376D+00         -0.354209         -0.815596
 Vib (Bot)    6  0.357995D+00         -0.446123         -1.027236
 Vib (V=0)       0.468440D+01          0.670654          1.544238
 Vib (V=0)    1  0.152588D+01          0.183521          0.422573
 Vib (V=0)    2  0.138001D+01          0.139884          0.322094
 Vib (V=0)    3  0.128215D+01          0.107937          0.248535
 Vib (V=0)    4  0.122549D+01          0.088309          0.203338
 Vib (V=0)    5  0.116760D+01          0.067296          0.154954
 Vib (V=0)    6  0.111495D+01          0.047254          0.108807
 Electronic      0.100000D+01          0.000000          0.000000
 Translational   0.185348D+08          7.267988         16.735160
 Rotational      0.478021D+05          4.679447         10.774825
 ***** Axes restored to original set *****
 -------------------------------------------------------------------
 Center     Atomic                   Forces (Hartrees/Bohr)
 Number     Number              X              Y              Z
 -------------------------------------------------------------------
      1        6           0.000162725   -0.000110549    0.000083257
      2        6          -0.000126594    0.000131703   -0.000018153
      3        6           0.000069722   -0.000049432    0.000017552
      4        8          -0.000082594    0.000027639   -0.000037897
      5        1          -0.000045758    0.000023953   -0.000003554
      6        1          -0.000014214    0.000037894   -0.000054068
      7        1          -0.000012687    0.000030683    0.000004562
      8        1           0.000078294   -0.000119679    0.000006347
      9        1           0.000011831    0.000008008    0.000010281
     10        1          -0.000004014   -0.000008475   -0.000024325
     11        1           0.000000595    0.000007600   -0.000016766
     12        1          -0.000037305    0.000020654    0.000032765
 -------------------------------------------------------------------
 Cartesian Forces:  Max     0.000162725 RMS     0.000059872
 FormGI is forming the generalized inverse of G from B-inverse, IUseBI=4.

 GradGradGradGradGradGradGradGradGradGradGradGradGradGradGradGradGradGrad
 Berny optimization.
 Internal  Forces:  Max     0.000124364 RMS     0.000036591
 Search for a local minimum.
 Step number   1 out of a maximum of    2
 All quantities printed in internal units (Hartrees-Bohrs-Radians)
 Second derivative matrix not updated -- analytic derivatives used.
 ITU=  0
     Eigenvalues ---    0.00246   0.00341   0.00400   0.04087   0.04426
     Eigenvalues ---    0.04454   0.04575   0.04653   0.05826   0.06911
     Eigenvalues ---    0.12043   0.12299   0.12681   0.13153   0.14488
     Eigenvalues ---    0.15036   0.16437   0.19616   0.20372   0.28838
     Eigenvalues ---    0.30381   0.30688   0.32831   0.33285   0.33412
     Eigenvalues ---    0.33619   0.33663   0.33991   0.38201   0.48645
 Angle between quadratic step and forces=  62.00 degrees.
 Linear search not attempted -- first point.
 Iteration  1 RMS(Cart)=  0.00072609 RMS(Int)=  0.00000042
 Iteration  2 RMS(Cart)=  0.00000039 RMS(Int)=  0.00000009
 Variable       Old X    -DE/DX   Delta X   Delta X   Delta X     New X
                                 (Linear)    (Quad)   (Total)
    R1        2.87639   0.00003   0.00000   0.00025   0.00025   2.87664
    R2        2.08632  -0.00005   0.00000  -0.00020  -0.00020   2.08612
    R3        2.08787  -0.00001   0.00000  -0.00001  -0.00001   2.08786
    R4        2.08493   0.00002   0.00000   0.00006   0.00006   2.08499
    R5        2.88928   0.00003   0.00000   0.00015   0.00015   2.88943
    R6        2.68798   0.00012   0.00000  -0.00000  -0.00000   2.68798
    R7        2.10196   0.00000   0.00000   0.00003   0.00003   2.10199
    R8        2.08799  -0.00001   0.00000  -0.00003  -0.00003   2.08796
    R9        2.08815   0.00000   0.00000  -0.00001  -0.00001   2.08814
   R10        2.09150   0.00002   0.00000   0.00006   0.00006   2.09156
   R11        1.83512  -0.00002   0.00000  -0.00004  -0.00004   1.83508
    A1        1.93609   0.00003   0.00000   0.00024   0.00024   1.93632
    A2        1.92217  -0.00010   0.00000  -0.00079  -0.00079   1.92137
    A3        1.92310  -0.00002   0.00000  -0.00014  -0.00014   1.92296
    A4        1.89789   0.00003   0.00000   0.00028   0.00028   1.89817
    A5        1.89750   0.00001   0.00000   0.00038   0.00038   1.89788
    A6        1.88608   0.00004   0.00000   0.00006   0.00006   1.88614
    A7        1.96410  -0.00000   0.00000  -0.00021  -0.00021   1.96389
    A8        1.86133  -0.00002   0.00000  -0.00004  -0.00004   1.86129
    A9        1.89160  -0.00003   0.00000  -0.00052  -0.00052   1.89108
   A10        1.93885   0.00003   0.00000   0.00034   0.00034   1.93919
   A11        1.89334  -0.00003   0.00000  -0.00056  -0.00056   1.89278
   A12        1.91378   0.00006   0.00000   0.00102   0.00102   1.91480
   A13        1.92263  -0.00002   0.00000  -0.00001  -0.00001   1.92262
   A14        1.94477   0.00004   0.00000   0.00017   0.00017   1.94494
   A15        1.93552   0.00000   0.00000  -0.00001  -0.00001   1.93550
   A16        1.89648  -0.00001   0.00000  -0.00004  -0.00004   1.89644
   A17        1.88601   0.00001   0.00000  -0.00005  -0.00005   1.88596
   A18        1.87664  -0.00002   0.00000  -0.00006  -0.00006   1.87658
   A19        1.89007   0.00009   0.00000   0.00053   0.00053   1.89060
    D1        1.06188  -0.00004   0.00000  -0.00133  -0.00133   1.06055
    D2       -3.09116  -0.00002   0.00000  -0.00106  -0.00106  -3.09222
    D3       -1.03194   0.00002   0.00000  -0.00015  -0.00015  -1.03210
    D4       -1.04013  -0.00004   0.00000  -0.00130  -0.00130  -1.04144
    D5        1.09002  -0.00002   0.00000  -0.00104  -0.00104   1.08898
    D6       -3.13395   0.00003   0.00000  -0.00013  -0.00013  -3.13408
    D7       -3.11918  -0.00001   0.00000  -0.00079  -0.00079  -3.11997
    D8       -0.98903   0.00001   0.00000  -0.00053  -0.00053  -0.98955
    D9        1.07018   0.00005   0.00000   0.00038   0.00038   1.07057
   D10        1.04715   0.00002   0.00000  -0.00040  -0.00040   1.04675
   D11       -1.05908   0.00002   0.00000  -0.00045  -0.00045  -1.05953
   D12        3.13425   0.00001   0.00000  -0.00048  -0.00048   3.13377
   D13       -1.03851   0.00002   0.00000  -0.00044  -0.00044  -1.03895
   D14        3.13845   0.00002   0.00000  -0.00049  -0.00049   3.13796
   D15        1.04860   0.00002   0.00000  -0.00052  -0.00052   1.04807
   D16        3.13997  -0.00004   0.00000  -0.00155  -0.00155   3.13842
   D17        1.03374  -0.00004   0.00000  -0.00160  -0.00160   1.03214
   D18       -1.05612  -0.00005   0.00000  -0.00164  -0.00164  -1.05775
   D19       -3.12292  -0.00001   0.00000  -0.00146  -0.00146  -3.12438
   D20       -0.97690  -0.00001   0.00000  -0.00154  -0.00154  -0.97844
   D21        1.11569   0.00000   0.00000  -0.00135  -0.00135   1.11434
         Item               Value     Threshold  Converged?
 Maximum Force            0.000124     0.000450     YES
 RMS     Force            0.000037     0.000300     YES
 Maximum Displacement     0.001904     0.001800     NO 
 RMS     Displacement     0.000726     0.001200     YES
 Predicted change in Energy=-3.080534D-07
                           ----------------------------
                           ! Non-Optimized Parameters !
                           ! (Angstroms and Degrees)  !
 --------------------------                            --------------------------
 ! Name  Definition              Value          Derivative Info.                !
 --------------------------------------------------------------------------------
 ! R1    R(1,2)                  1.5223         -DE/DX =    0.0                 !
 ! R2    R(1,5)                  1.1039         -DE/DX =   -0.0001              !
 ! R3    R(1,6)                  1.1048         -DE/DX =    0.0                 !
 ! R4    R(1,7)                  1.1033         -DE/DX =    0.0                 !
 ! R5    R(2,3)                  1.529          -DE/DX =    0.0                 !
 ! R6    R(2,4)                  1.4224         -DE/DX =    0.0001              !
 ! R7    R(2,8)                  1.1123         -DE/DX =    0.0                 !
 ! R8    R(3,9)                  1.1049         -DE/DX =    0.0                 !
 ! R9    R(3,10)                 1.105          -DE/DX =    0.0                 !
 ! R10   R(3,11)                 1.1068         -DE/DX =    0.0                 !
 ! R11   R(4,12)                 0.9711         -DE/DX =    0.0                 !
 ! A1    A(2,1,5)              110.9431         -DE/DX =    0.0                 !
 ! A2    A(2,1,6)              110.0866         -DE/DX =   -0.0001              !
 ! A3    A(2,1,7)              110.1776         -DE/DX =    0.0                 !
 ! A4    A(5,1,6)              108.7571         -DE/DX =    0.0                 !
 ! A5    A(5,1,7)              108.7403         -DE/DX =    0.0                 !
 ! A6    A(6,1,7)              108.0678         -DE/DX =    0.0                 !
 ! A7    A(1,2,3)              112.5228         -DE/DX =    0.0                 !
 ! A8    A(1,2,4)              106.6441         -DE/DX =    0.0                 !
 ! A9    A(1,2,8)              108.3511         -DE/DX =    0.0                 !
 ! A10   A(3,2,4)              111.1072         -DE/DX =    0.0                 !
 ! A11   A(3,2,8)              108.4482         -DE/DX =    0.0                 !
 ! A12   A(4,2,8)              109.7098         -DE/DX =    0.0001              !
 ! A13   A(2,3,9)              110.1579         -DE/DX =    0.0                 !
 ! A14   A(2,3,10)             111.4368         -DE/DX =    0.0                 !
 ! A15   A(2,3,11)             110.8962         -DE/DX =    0.0                 !
 ! A16   A(9,3,10)             108.6581         -DE/DX =    0.0                 !
 ! A17   A(9,3,11)             108.0576         -DE/DX =    0.0                 !
 ! A18   A(10,3,11)            107.5203         -DE/DX =    0.0                 !
 ! A19   A(2,4,12)             108.3232         -DE/DX =    0.0001              !
 ! D1    D(5,1,2,3)             60.7649         -DE/DX =    0.0                 !
 ! D2    D(5,1,2,4)           -177.1711         -DE/DX =    0.0                 !
 ! D3    D(5,1,2,8)            -59.1349         -DE/DX =    0.0                 !
 ! D4    D(6,1,2,3)            -59.6699         -DE/DX =    0.0                 !
 ! D5    D(6,1,2,4)             62.3941         -DE/DX =    0.0                 !
 ! D6    D(6,1,2,8)           -179.5697         -DE/DX =    0.0                 !
 ! D7    D(7,1,2,3)           -178.7612         -DE/DX =    0.0                 !
 ! D8    D(7,1,2,4)            -56.6972         -DE/DX =    0.0                 !
 ! D9    D(7,1,2,8)             61.3389         -DE/DX =    0.0001              !
 ! D10   D(1,2,3,9)             59.9744         -DE/DX =    0.0                 !
 ! D11   D(1,2,3,10)           -60.7066         -DE/DX =    0.0                 !
 ! D12   D(1,2,3,11)           179.5517         -DE/DX =    0.0                 !
 ! D13   D(4,2,3,9)            -59.5272         -DE/DX =    0.0                 !
 ! D14   D(4,2,3,10)           179.7918         -DE/DX =    0.0                 !
 ! D15   D(4,2,3,11)            60.0501         -DE/DX =    0.0                 !
 ! D16   D(8,2,3,9)            179.8179         -DE/DX =    0.0                 !
 ! D17   D(8,2,3,10)            59.137          -DE/DX =    0.0                 !
 ! D18   D(8,2,3,11)           -60.6048         -DE/DX =    0.0                 !
 ! D19   D(1,2,4,12)          -179.0139         -DE/DX =    0.0                 !
 ! D20   D(3,2,4,12)           -56.0607         -DE/DX =    0.0                 !
 ! D21   D(8,2,4,12)            63.8468         -DE/DX =    0.0                 !
 --------------------------------------------------------------------------------
 GradGradGradGradGradGradGradGradGradGradGradGradGradGradGradGradGradGrad


 ----------------------------------------------------------------------

 Electric dipole moment (input orientation):
 (Debye = 10**-18 statcoulomb cm , SI units = C m)
                  (au)            (Debye)         (10**-30 SI)
   Tot        0.618789D+00      0.157280D+01      0.524631D+01
   x          0.381405D+00      0.969435D+00      0.323369D+01
   y          0.117609D-02      0.298932D-02      0.997130D-02
   z         -0.487267D+00     -0.123851D+01     -0.413122D+01

 Dipole polarizability, Alpha (input orientation).
 (esu units = cm**3 , SI units = C**2 m**2 J**-1)
 Alpha(0;0):
               (au)            (10**-24 esu)      (10**-40 SI)
   iso        0.375007D+02      0.555703D+01      0.618303D+01
   aniso      0.541302D+01      0.802127D+00      0.892486D+00
   xx         0.353922D+02      0.524459D+01      0.583539D+01
   yx        -0.144632D+01     -0.214322D+00     -0.238465D+00
   yy         0.370123D+02      0.548466D+01      0.610251D+01
   zx         0.291886D+00      0.432531D-01      0.481255D-01
   zy        -0.136974D+01     -0.202975D+00     -0.225840D+00
   zz         0.400975D+02      0.594183D+01      0.661118D+01

 ----------------------------------------------------------------------

 Dipole orientation:
     6          1.88500806          1.11332371         -1.55209590
     6          0.45713586         -0.46496739          0.38279103
     6         -1.04597946          1.15676995          2.24251355
     8         -1.16384985         -2.10098929         -1.00323533
     1          3.26208962          2.37147333         -0.61751248
     1          0.54966544          2.28071141         -2.65357733
     1          2.90640468         -0.12765507         -2.88012265
     1          1.85124515         -1.60405154          1.46776670
     1         -2.44807316          2.31525472          1.21696421
     1          0.20413867          2.42792518          3.32958429
     1         -2.07377423         -0.04074367          3.61509325
     1         -2.12321321         -3.10977611          0.19243563

 Electric dipole moment (dipole orientation):
 (Debye = 10**-18 statcoulomb cm , SI units = C m)
                  (au)            (Debye)         (10**-30 SI)
   Tot        0.618789D+00      0.157280D+01      0.524631D+01
   x          0.000000D+00      0.000000D+00      0.000000D+00
   y          0.000000D+00      0.000000D+00      0.000000D+00
   z          0.618789D+00      0.157280D+01      0.524631D+01

 Dipole polarizability, Alpha (dipole orientation).
 (esu units = cm**3 , SI units = C**2 m**2 J**-1)
 Alpha(0;0):
               (au)            (10**-24 esu)      (10**-40 SI)
   iso        0.375007D+02      0.555703D+01      0.618303D+01
   aniso      0.541302D+01      0.802127D+00      0.892486D+00
   xx         0.374658D+02      0.555185D+01      0.617727D+01
   yx         0.197841D+01      0.293170D+00      0.326195D+00
   yy         0.370090D+02      0.548417D+01      0.610196D+01
   zx        -0.235775D+01     -0.349383D+00     -0.388741D+00
   zy        -0.183663D+00     -0.272161D-01     -0.302820D-01
   zz         0.380272D+02      0.563506D+01      0.626984D+01

 ----------------------------------------------------------------------
 Unable to Open any file for archive entry.
 1\1\GINC-NODE05\Freq\RB3LYP\def2SVPP\C3H8O1\XUHJ\20-Dec-2023\0\\#N Geo
 m=AllCheck Guess=TCheck SCRF=Check GenChk RB3LYP/def2SVPP Freq\\CC(C)O
 _1\\0,1\C,0.2796257379,-0.5913591603,1.2604754156\C,0.3151836678,0.246
 2761026,-0.0099376434\C,0.295981013,-0.6095168363,-1.2767901783\O,-0.8
 129339272,1.111188031,0.0405491232\H,1.1587293193,-1.2566795522,1.3189
 312895\H,-0.6356811258,-1.2097575887,1.2827406873\H,0.2716505851,0.063
 6472656,2.1482640163\H,1.2496048779,0.8496599841,-0.0061854459\H,-0.62
 23774663,-1.2231045264,-1.3079292198\H,1.1719200012,-1.2815220803,-1.3
 233008371\H,0.314976178,0.0259157647,-2.1827783835\H,-0.8230602009,1.6
 465492462,-0.7695904339\\Version=ES64L-G16RevC.01\State=1-A\HF=-194.20
 12058\RMSD=1.508e-09\RMSF=5.987e-05\ZeroPoint=0.1032105\Thermal=0.1087
 315\ETot=-194.0924743\HTot=-194.0915301\GTot=-194.1254278\Dipole=0.381
 405,0.0011761,-0.4872666\DipoleDeriv=0.0838026,0.0055954,0.0120249,0.0
 200708,0.0202107,0.0106144,-0.0281358,0.0685726,-0.0525484,0.6541201,-
 0.2076832,0.0344699,-0.2400184,0.6216062,0.0457575,0.0209651,0.0475656
 ,0.4696859,0.0590759,0.0156235,-0.0348147,0.0277383,-0.0062317,-0.0456
 05,0.0330562,-0.1167908,-0.0626598,-0.7460204,0.2814086,-0.0703338,0.2
 7695,-0.7391879,-0.1325925,-0.0601339,-0.1263442,-0.3837192,-0.0653843
 ,0.1035022,-0.0120012,0.0845767,-0.0127475,0.0325488,0.024053,0.002499
 1,0.0488054,-0.0661246,-0.1040903,0.0164725,-0.0785401,0.0034331,0.026
 2293,-0.0271918,-0.0027689,0.0380587,0.07692,-0.0070786,0.013826,-0.00
 4563,-0.0094443,-0.0919945,0.0037864,-0.055316,-0.09634,-0.2112013,-0.
 0734251,-0.0117737,-0.1105616,-0.1178123,0.002081,0.0079132,-0.0026574
 ,-0.0458777,-0.0683871,-0.1030499,-0.0180546,-0.0710572,0.004928,-0.02
 56786,0.0240491,0.0003102,0.0353561,-0.0665196,0.1091604,0.0140971,0.0
 900975,-0.0218476,-0.0313854,-0.0166948,-0.0086627,0.0503957,0.0681582
 ,-0.0015752,-0.0117779,0.0007033,-0.0476372,0.1135743,-0.0044158,0.068
 3285,-0.1246151,0.2815605,-0.0183879,0.0678655,0.0046036,0.3047305,0.0
 964505,0.0227492,0.1252639,0.1234583\Polar=35.392232,-1.4463161,37.012
 3325,0.2918862,-1.3697443,40.0974794\Quadrupole=-0.9510879,0.6283449,0
 .322743,0.2292963,0.9669676,-1.8419019\PG=C01 [X(C3H8O1)]\NImag=0\\0.5
 8412912,-0.00968032,0.55809853,0.00317387,0.04352159,0.52078191,-0.080
 00312,-0.00765889,0.00522299,0.54793019,-0.01394404,-0.11597984,0.0590
 9432,0.05844378,0.52073149,0.01467124,0.05410642,-0.17116805,0.0004663
 9,-0.02218287,0.52247112,0.00105354,-0.00095971,0.00146722,-0.08055893
 ,-0.01283617,-0.01446530,0.58331732,-0.00081834,0.01340147,0.01337292,
 -0.01061131,-0.11366357,-0.04712148,-0.00388680,0.54402312,-0.00132286
 ,-0.01385093,-0.03181066,-0.00674201,-0.05248868,-0.16260518,-0.002211
 19,-0.04460388,0.50756804,-0.00589779,0.01058498,-0.00435605,-0.174971
 67,0.05922288,0.03219067,-0.01138540,0.01626979,0.00316572,0.25438797,
 0.02793507,-0.02278258,0.00623921,0.07715255,-0.12352051,-0.00924636,0
 .03221531,-0.02411408,-0.00397442,-0.13934812,0.30532414,-0.03006143,0
 .02505412,-0.00136735,-0.00123073,0.01877801,-0.09007604,0.02887356,-0
 .02135401,-0.00034717,-0.03276662,-0.21435731,0.43037323,-0.21734247,0
 .12765322,-0.01104430,0.00008586,-0.00270836,0.00116609,-0.00019633,0.
 00005316,0.00046471,0.00109464,-0.00006690,-0.00026593,0.22971998,0.12
 556628,-0.14322615,0.00924254,0.01426124,-0.00947672,-0.00408214,0.000
 08054,0.00022766,-0.00094933,-0.00013278,-0.00237632,0.00464873,-0.139
 14209,0.15102423,-0.00739366,0.00654046,-0.04984025,-0.02348234,0.0124
 9156,0.00231113,-0.00030562,-0.00018885,0.00074800,-0.00023704,0.00438
 907,-0.00555831,0.01052662,-0.01064069,0.04952079,-0.22958674,-0.12189
 346,0.00300500,-0.00278633,-0.00061175,0.00015903,0.00034995,0.0004710
 7,-0.00050652,0.00172246,0.00012984,-0.00017065,-0.01685340,-0.0141065
 0,0.00021099,0.24324929,-0.12040721,-0.12904267,0.00083787,-0.01702351
 ,-0.01165164,0.00057048,0.00074164,0.00045848,-0.00132758,0.00029432,0
 .00151028,-0.00101491,0.01611977,0.01341234,-0.00035347,0.13392601,0.1
 3485230,0.00006926,-0.00034926,-0.04844520,0.02624156,0.01684148,-0.00
 146918,0.00120773,0.00063161,0.00183874,-0.00042671,-0.00228320,0.0016
 5813,-0.00111682,-0.00107529,-0.00119593,-0.00348208,-0.00393821,0.050
 17935,-0.04863441,-0.00006395,0.00144654,-0.00130740,0.00111562,0.0016
 1078,0.00021408,-0.00008510,0.00009756,0.00014800,-0.00032686,-0.00064
 858,0.00159578,0.01350554,0.02104685,0.00205986,-0.01482318,-0.0216498
 6,0.04519792,0.00021274,-0.14596190,-0.13129884,0.00026954,0.01186862,
 0.01686842,0.00054694,-0.00196338,0.00257898,-0.00089034,0.00122741,-0
 .00076537,-0.00179614,-0.00977660,-0.01322646,0.00167277,-0.00924747,-
 0.01227903,0.00001761,0.15192270,0.00098585,-0.12678868,-0.21710155,0.
 00014770,-0.01902853,-0.02324695,0.00007353,0.00515636,-0.00352076,0.0
 0056271,-0.00067231,0.00292282,0.00073914,0.00279349,0.00355097,-0.000
 41458,0.00173713,0.00189293,-0.00255782,0.13761093,0.23494344,0.000742
 29,-0.00134396,0.00015910,-0.19999970,-0.11131409,-0.00253216,0.000796
 59,-0.00262589,0.00017758,-0.03783119,0.00273009,0.00054908,0.00061146
 ,-0.00052917,0.00051273,0.00129691,0.00044697,-0.00015559,-0.00006453,
 0.00013654,0.00030101,0.23230664,-0.01567011,-0.01088093,0.00056595,-0
 .11240285,-0.13110835,0.00038515,-0.01619998,-0.01035545,-0.00054456,0
 .02982559,0.01143401,-0.00064751,0.00014170,0.00003932,-0.00032300,0.0
 0012978,-0.00134085,0.00363217,0.00064946,0.00117227,-0.00000852,0.113
 13092,0.13959042,0.02300559,0.01746305,-0.00138997,-0.00166857,-0.0007
 7002,-0.05394480,-0.02288986,-0.01859127,-0.00192842,0.00143165,0.0011
 5257,0.00378042,-0.00050633,-0.00041632,0.00088748,0.00051018,0.003449
 65,-0.00438510,0.00025919,-0.00061461,0.00111553,0.00083309,0.00130365
 ,0.05813021,0.00032492,0.00038988,0.00050006,-0.00278819,-0.00017149,0
 .00017234,-0.23132161,-0.12141417,-0.00477793,0.00238353,0.00000218,0.
 00013716,-0.00003925,-0.00009507,-0.00003483,0.00025820,0.00018545,-0.
 00054690,0.00024910,0.00020307,-0.00003615,0.00132575,0.00015371,-0.00
 039012,0.24472288,0.00076312,0.00048443,0.00135563,-0.01763932,-0.0114
 6606,-0.00120998,-0.11967623,-0.12793783,-0.00171131,0.00105990,0.0022
 0296,0.00185994,0.00010315,0.00001500,0.00001390,0.00018676,0.00068487
 ,-0.00042846,0.00019739,-0.00000414,0.00008224,0.00044648,-0.00138381,
 -0.00357722,0.13308109,0.13392953,-0.00119557,-0.00067307,0.00194175,-
 0.02618114,-0.01628403,-0.00149603,-0.00213541,-0.00097947,-0.04807182
 ,0.00058376,0.00282205,0.00181606,-0.00000755,0.00002817,-0.00007232,0
 .00059937,0.00043258,-0.00045677,0.00030854,0.00021295,0.00024575,0.00
 011467,-0.00371031,-0.00441525,0.00521254,0.00485368,0.04991524,-0.000
 14825,0.00001530,-0.00048202,-0.00008617,-0.00222735,-0.00084047,-0.21
 452128,0.12663496,0.00780432,0.00205330,0.00078689,0.00050058,0.000528
 50,-0.00025470,0.00016744,-0.00003621,0.00011305,0.00001672,0.00014724
 ,-0.00017516,0.00010488,0.00043331,0.00017703,0.00057192,-0.01666674,0
 .01625974,0.00075379,0.22650564,0.00004801,0.00036109,0.00101928,0.014
 73468,-0.00939965,0.00431103,0.12527155,-0.14441062,-0.00724898,0.0012
 5409,-0.00305351,-0.00483647,-0.00025589,0.00050788,-0.00013321,-0.000
 08082,0.00000354,-0.00004133,-0.00024452,-0.00009407,0.00007421,-0.000
 85017,0.00016235,0.00032903,-0.01392824,0.01336168,0.00072649,-0.13891
 226,0.15169434,0.00031027,0.00026700,0.00089157,0.02291844,-0.01213777
 ,0.00355261,0.00507286,-0.00519006,-0.04876976,0.00231615,-0.00642483,
 -0.00524570,-0.00016369,0.00011170,-0.00077187,0.00005239,-0.00001944,
 -0.00007344,-0.00019259,0.00002012,0.00035251,-0.00082116,0.00042793,0
 .00078588,-0.00038683,0.00037242,-0.00109901,-0.00789051,0.00792190,0.
 04852798,0.00033585,-0.00014225,0.00001456,-0.00146636,0.00150612,-0.0
 0111975,-0.04875980,-0.00392935,0.00398381,-0.00009446,-0.00075039,0.0
 0033644,0.00018415,-0.00026604,0.00020455,0.00025176,0.00020493,-0.000
 31756,0.00055995,0.00004024,-0.00010561,-0.00002647,0.00058409,-0.0002
 0588,0.00172326,-0.01426212,0.02175627,0.00199320,0.01341119,-0.021027
 92,0.04513387,0.00045877,-0.00174799,-0.00254273,0.00162857,0.01070076
 ,-0.01747283,-0.00302438,-0.13678779,0.12311993,-0.00212328,0.00275161
 ,0.00028725,-0.00021312,-0.00004175,-0.00004654,0.00022815,-0.00001142
 ,-0.00025612,0.00004996,0.00065341,-0.00089214,0.00025034,0.00119477,0
 .00093462,0.00155382,-0.00933792,0.01264151,-0.00205736,-0.01021908,0.
 01449510,0.00307776,0.14310731,-0.00009453,-0.00551007,-0.00358353,0.0
 0014402,0.01918801,-0.02269411,0.00414432,0.12105300,-0.21620832,-0.00
 065287,0.00046466,0.00311048,-0.00012472,-0.00003097,0.00036587,0.0000
 2721,-0.00006554,0.00029009,0.00006434,0.00102450,-0.00155765,-0.00019
 692,-0.00025612,0.00127879,0.00033225,-0.00160477,0.00182919,-0.000603
 90,-0.00189312,0.00243867,-0.00396500,-0.13098114,0.23514933,-0.004972
 96,0.00309917,0.00089305,-0.00404818,0.02352484,-0.03147885,0.00101186
 ,-0.00005802,-0.00013320,-0.03160940,-0.00045966,0.03474713,0.00061107
 ,0.00111274,-0.00121569,0.00007425,0.00022177,0.00016025,-0.00016560,-
 0.00023783,0.00019932,0.00040893,-0.00051933,-0.00095085,-0.00017185,-
 0.00051995,0.00019073,-0.00020254,-0.00044762,-0.00018741,0.00016507,0
 .00017076,0.00092580,0.03889935,0.00553602,-0.00272347,-0.00140772,-0.
 00115450,-0.01703455,0.02507417,-0.00227270,0.00112198,0.00100075,0.02
 398297,-0.14860343,0.19234754,0.00011151,-0.00032890,0.00147725,-0.000
 05186,0.00037221,-0.00045437,0.00000804,0.00020316,-0.00006419,-0.0004
 7806,0.00147624,-0.00066313,0.00003977,-0.00054871,-0.00007056,-0.0003
 6015,0.00108604,0.00015592,0.00052582,-0.00026190,-0.00138845,-0.02588
 686,0.16524131,-0.00214802,0.00021938,0.00109134,0.00416368,-0.0035014
 9,-0.00163452,0.00116814,-0.00218486,0.00310733,-0.00181135,0.22189087
 ,-0.34106656,0.00033278,0.00037011,0.00005444,0.00000965,-0.00030855,0
 .00016639,0.00021506,-0.00013158,0.00040294,0.00105857,-0.00082484,0.0
 0008524,-0.00018158,-0.00000608,-0.00013678,-0.00010275,-0.00022884,-0
 .00058945,0.00044609,0.00071309,-0.00041880,-0.00315027,-0.21600721,0.
 33893843\\-0.00016272,0.00011055,-0.00008326,0.00012659,-0.00013170,0.
 00001815,-0.00006972,0.00004943,-0.00001755,0.00008259,-0.00002764,0.0
 0003790,0.00004576,-0.00002395,0.00000355,0.00001421,-0.00003789,0.000
 05407,0.00001269,-0.00003068,-0.00000456,-0.00007829,0.00011968,-0.000
 00635,-0.00001183,-0.00000801,-0.00001028,0.00000401,0.00000848,0.0000
 2433,-0.00000060,-0.00000760,0.00001677,0.00003731,-0.00002065,-0.0000
 3277\\\@
 The archive entry for this job was punched.


 WE MIGHT AS WELL ATTEMPT TO INTRODUCE A NEW PLANET 
 INTO THE SOLAR SYSTEM, OR TO ANNIHILATE ONE ALREADYIN EXISTENCE, 
 AS TO CREATE OR DESTROY A PARTICLE OF HYDROGEN.
 ALL THE CHANGES WE CAN PRODUCE CONSIST IN SEPARATING PARTICLES
 THAT ARE IN A STATE OF ... COMBINATION, AND JOINING 
 THOSE THAT WERE PREVIOUSLY AT A DISTANCE.

                                    -- JOHN DALTON, 1810
 Job cpu time:       0 days  0 hours  1 minutes 52.3 seconds.
 Elapsed time:       0 days  0 hours  0 minutes  7.4 seconds.
 File lengths (MBytes):  RWF=     88 Int=      0 D2E=      0 Chk=      2 Scr=      2
 Normal termination of Gaussian 16 at Wed Dec 20 00:40:45 2023.
