%nprocshared=16
%mem=1280MB
#N opt freq B3LYP/def2SVPP symm=veryloose em=gd3bj scale=0.961 press=0.987

CC(C)O_1

0 1
C                  0.28521400   -0.60950100    1.27160700
C                  0.28521400    0.23958300    0.00000000
C                  0.28521400   -0.60950100   -1.27160700
O                 -0.79539500    1.16394300    0.00000000
H                  1.17345800   -1.26471600    1.32349600
H                 -0.61250400   -1.25774500    1.30410400
H                  0.27259900    0.03876800    2.16439800
H                  1.18646000    0.87763900    0.00000000
H                 -0.61250400   -1.25774500   -1.30410400
H                  1.17345800   -1.26471600   -1.32349600
H                  0.27259900    0.03876800   -2.16439800
H                 -0.75019434    1.67651965   -0.82555161

