%nprocshared=8
%mem=10400MB
#N opt freq B3LYP/def2SVPP symm=veryloose em=gd3bj scale=0.961 press=0.987

c1ccc2c(c1)ccc1cc3cc4c(ccc5ccccc54)cc3cc12_2

0 1
C          6.78880        0.87220       -0.20680
C          5.88980        1.92670       -0.17600
C          4.51670        1.67080       -0.10830
C          3.99210        0.35360       -0.06900
C          4.93570       -0.70540       -0.10180
C          6.31330       -0.43560       -0.16990
C          4.49710       -2.03090       -0.06640
C          3.13980       -2.33120        0.00100
C          2.18090       -1.31510        0.03500
C          0.81780       -1.65280        0.10310
C         -0.18580       -0.67370        0.13970
C         -1.55200       -1.01110        0.20800
C         -2.58610       -0.04070        0.24610
C         -2.18090        1.31510        0.21190
C         -3.13980        2.33120        0.24600
C         -4.49710        2.03090        0.31340
C         -4.93570        0.70540        0.34880
C         -6.31330        0.43560        0.41680
C         -6.78880       -0.87220        0.45370
C         -5.88980       -1.92670        0.42290
C         -4.51670       -1.67080        0.35530
C         -3.99210       -0.35360        0.31590
C         -0.81780        1.65280        0.14380
C          0.18580        0.67370        0.10730
C          1.55200        1.01110        0.03900
C          2.58610        0.04070        0.00090
H          7.85700        1.06370       -0.25930
H          6.24990        2.95180       -0.20430
H          3.85770        2.53380       -0.08670
H          7.03330       -1.25130       -0.19480
H          5.21160       -2.85110       -0.09110
H          2.83980       -3.37680        0.02670
H          0.53040       -2.70290        0.12830
H         -1.80480       -2.06760        0.23160
H         -2.83980        3.37680        0.22020
H         -5.21160        2.85110        0.33810
H         -7.03330        1.25130        0.44180
H         -7.85700       -1.06370        0.50630
H         -6.24980       -2.95180        0.45130
H         -3.85770       -2.53380        0.33370
H         -0.53040        2.70290        0.11860
H          1.80480        2.06760        0.01540

