%nprocshared=16
%mem=960MB
#N opt freq B3LYP/def2SVPP symm=veryloose em=gd3bj scale=0.961 press=0.987

[C]CC_1

0 4
C          0.98001       -0.04902        0.09069
C          2.49738       -0.06299        0.07665
C          3.00974       -1.07427       -0.93957
H          2.86697       -0.33060        1.08894
H          2.86697        0.95059       -0.18601
H          2.65379       -2.09451       -0.68068
H          4.12015       -1.07296       -0.93826
H          2.65380       -0.81040       -1.95854

