 Entering Gaussian System, Link 0=g16
 Initial command:
 /home/software/g16/l1.exe "/home/software/g16tmp/Gau-75808.inp" -scrdir="/home/software/g16tmp/"
 Default is to use a total of   8 processors:
                                8 via shared-memory
                                1 via Linda
 Entering Link 1 = /home/software/g16/l1.exe PID=     75809.
  
 Copyright (c) 1988-2019, Gaussian, Inc.  All Rights Reserved.
  
 This is part of the Gaussian(R) 16 program.  It is based on
 the Gaussian(R) 09 system (copyright 2009, Gaussian, Inc.),
 the Gaussian(R) 03 system (copyright 2003, Gaussian, Inc.),
 the Gaussian(R) 98 system (copyright 1998, Gaussian, Inc.),
 the Gaussian(R) 94 system (copyright 1995, Gaussian, Inc.),
 the Gaussian 92(TM) system (copyright 1992, Gaussian, Inc.),
 the Gaussian 90(TM) system (copyright 1990, Gaussian, Inc.),
 the Gaussian 88(TM) system (copyright 1988, Gaussian, Inc.),
 the Gaussian 86(TM) system (copyright 1986, Carnegie Mellon
 University), and the Gaussian 82(TM) system (copyright 1983,
 Carnegie Mellon University). Gaussian is a federally registered
 trademark of Gaussian, Inc.
  
 This software contains proprietary and confidential information,
 including trade secrets, belonging to Gaussian, Inc.
  
 This software is provided under written license and may be
 used, copied, transmitted, or stored only in accord with that
 written license.
  
 The following legend is applicable only to US Government
 contracts under FAR:
  
                    RESTRICTED RIGHTS LEGEND
  
 Use, reproduction and disclosure by the US Government is
 subject to restrictions as set forth in subparagraphs (a)
 and (c) of the Commercial Computer Software - Restricted
 Rights clause in FAR 52.227-19.
  
 Gaussian, Inc.
 340 Quinnipiac St., Bldg. 40, Wallingford CT 06492
  
  
 ---------------------------------------------------------------
 Warning -- This program may not be used in any manner that
 competes with the business of Gaussian, Inc. or will provide
 assistance to any competitor of Gaussian, Inc.  The licensee
 of this program is prohibited from giving any competitor of
 Gaussian, Inc. access to this program.  By using this program,
 the user acknowledges that Gaussian, Inc. is engaged in the
 business of creating and licensing software in the field of
 computational chemistry and represents and warrants to the
 licensee that it is not a competitor of Gaussian, Inc. and that
 it will not use this program in any manner prohibited above.
 ---------------------------------------------------------------
  

 Cite this work as:
 Gaussian 16, Revision C.01,
 M. J. Frisch, G. W. Trucks, H. B. Schlegel, G. E. Scuseria, 
 M. A. Robb, J. R. Cheeseman, G. Scalmani, V. Barone, 
 G. A. Petersson, H. Nakatsuji, X. Li, M. Caricato, A. V. Marenich, 
 J. Bloino, B. G. Janesko, R. Gomperts, B. Mennucci, H. P. Hratchian, 
 J. V. Ortiz, A. F. Izmaylov, J. L. Sonnenberg, D. Williams-Young, 
 F. Ding, F. Lipparini, F. Egidi, J. Goings, B. Peng, A. Petrone, 
 T. Henderson, D. Ranasinghe, V. G. Zakrzewski, J. Gao, N. Rega, 
 G. Zheng, W. Liang, M. Hada, M. Ehara, K. Toyota, R. Fukuda, 
 J. Hasegawa, M. Ishida, T. Nakajima, Y. Honda, O. Kitao, H. Nakai, 
 T. Vreven, K. Throssell, J. A. Montgomery, Jr., J. E. Peralta, 
 F. Ogliaro, M. J. Bearpark, J. J. Heyd, E. N. Brothers, K. N. Kudin, 
 V. N. Staroverov, T. A. Keith, R. Kobayashi, J. Normand, 
 K. Raghavachari, A. P. Rendell, J. C. Burant, S. S. Iyengar, 
 J. Tomasi, M. Cossi, J. M. Millam, M. Klene, C. Adamo, R. Cammi, 
 J. W. Ochterski, R. L. Martin, K. Morokuma, O. Farkas, 
 J. B. Foresman, and D. J. Fox, Gaussian, Inc., Wallingford CT, 2019.
 
 ******************************************
 Gaussian 16:  ES64L-G16RevC.01  3-Jul-2019
                19-Dec-2023 
 ******************************************
 %nprocshared=16
 Will use up to   16 processors via shared memory.
 %mem=960MB
 ----------------------------------------------------------------------
 #N opt freq B3LYP/def2SVPP symm=veryloose em=gd3bj scale=0.961 press=0
 .987
 ----------------------------------------------------------------------
 1/18=20,19=15,26=3,38=1,113=-987000,114=961000/1,3;
 2/9=110,12=2,17=2,18=2,40=1/2;
 3/5=43,7=202,11=2,25=1,30=1,71=1,74=-5,124=41/1,2,3;
 4//1;
 5/5=2,38=5/2;
 6/7=2,8=2,9=2,10=2,28=1/1;
 7//1,2,3,16;
 1/18=20,19=15,26=3/3(2);
 2/9=110/2;
 99//99;
 2/9=110/2;
 3/5=43,7=202,11=2,25=1,30=1,71=1,74=-5,124=41/1,2,3;
 4/5=5,16=3,69=1/1;
 5/5=2,38=5/2;
 7//1,2,3,16;
 1/18=20,19=15,26=3/3(-5);
 2/9=110/2;
 6/7=2,8=2,9=2,10=2,19=2,28=1/1;
 99/9=1/99;
 -------
 [C]CC_1
 -------
 Symbolic Z-matrix:
 Charge =  0 Multiplicity = 4
 C                     0.98001  -0.04902   0.09069 
 C                     2.49738  -0.06299   0.07665 
 C                     3.00974  -1.07427  -0.93957 
 H                     2.86697  -0.3306    1.08894 
 H                     2.86697   0.95059  -0.18601 
 H                     2.65379  -2.09451  -0.68068 
 H                     4.12015  -1.07296  -0.93826 
 H                     2.6538   -0.8104   -1.95854 
 

 GradGradGradGradGradGradGradGradGradGradGradGradGradGradGradGradGradGrad
 Berny optimization.
 Initialization pass.
                           ----------------------------
                           !    Initial Parameters    !
                           ! (Angstroms and Degrees)  !
 --------------------------                            --------------------------
 ! Name  Definition              Value          Derivative Info.                !
 --------------------------------------------------------------------------------
 ! R1    R(1,2)                  1.5175         estimate D2E/DX2                !
 ! R2    R(2,3)                  1.5225         estimate D2E/DX2                !
 ! R3    R(2,4)                  1.1104         estimate D2E/DX2                !
 ! R4    R(2,5)                  1.1104         estimate D2E/DX2                !
 ! R5    R(3,6)                  1.1111         estimate D2E/DX2                !
 ! R6    R(3,7)                  1.1104         estimate D2E/DX2                !
 ! R7    R(3,8)                  1.1111         estimate D2E/DX2                !
 ! A1    A(1,2,3)              110.4136         estimate D2E/DX2                !
 ! A2    A(1,2,4)              109.0629         estimate D2E/DX2                !
 ! A3    A(1,2,5)              109.0631         estimate D2E/DX2                !
 ! A4    A(3,2,4)              109.6587         estimate D2E/DX2                !
 ! A5    A(3,2,5)              109.6592         estimate D2E/DX2                !
 ! A6    A(4,2,5)              108.9573         estimate D2E/DX2                !
 ! A7    A(2,3,6)              110.2779         estimate D2E/DX2                !
 ! A8    A(2,3,7)              109.5702         estimate D2E/DX2                !
 ! A9    A(2,3,8)              110.2777         estimate D2E/DX2                !
 ! A10   A(6,3,7)              108.7329         estimate D2E/DX2                !
 ! A11   A(6,3,8)              109.2143         estimate D2E/DX2                !
 ! A12   A(7,3,8)              108.7319         estimate D2E/DX2                !
 ! D1    D(1,2,3,6)            -60.3493         estimate D2E/DX2                !
 ! D2    D(1,2,3,7)            179.9998         estimate D2E/DX2                !
 ! D3    D(1,2,3,8)             60.3502         estimate D2E/DX2                !
 ! D4    D(4,2,3,6)             59.8503         estimate D2E/DX2                !
 ! D5    D(4,2,3,7)            -59.8006         estimate D2E/DX2                !
 ! D6    D(4,2,3,8)           -179.4502         estimate D2E/DX2                !
 ! D7    D(5,2,3,6)            179.4506         estimate D2E/DX2                !
 ! D8    D(5,2,3,7)             59.7997         estimate D2E/DX2                !
 ! D9    D(5,2,3,8)            -59.8499         estimate D2E/DX2                !
 --------------------------------------------------------------------------------
 Trust Radius=3.00D-01 FncErr=1.00D-07 GrdErr=1.00D-06 EigMax=2.50D+02 EigMin=1.00D-04
 Number of steps in this run=     38 maximum allowed number of steps=    100.
 GradGradGradGradGradGradGradGradGradGradGradGradGradGradGradGradGradGrad

                          Input orientation:                          
 ---------------------------------------------------------------------
 Center     Atomic      Atomic             Coordinates (Angstroms)
 Number     Number       Type             X           Y           Z
 ---------------------------------------------------------------------
      1          6           0        0.980010   -0.049020    0.090690
      2          6           0        2.497380   -0.062990    0.076650
      3          6           0        3.009740   -1.074270   -0.939570
      4          1           0        2.866970   -0.330600    1.088940
      5          1           0        2.866970    0.950590   -0.186010
      6          1           0        2.653790   -2.094510   -0.680680
      7          1           0        4.120150   -1.072960   -0.938260
      8          1           0        2.653800   -0.810400   -1.958540
 ---------------------------------------------------------------------
                    Distance matrix (angstroms):
                    1          2          3          4          5
     1  C    0.000000
     2  C    1.517499   0.000000
     3  C    2.496473   1.522466   0.000000
     4  H    2.153232   1.110380   2.165244   0.000000
     5  H    2.153230   1.110374   2.165247   1.807469   0.000000
     6  H    2.753285   2.173726   1.111132   2.507664   3.092374
     7  H    3.459432   2.164131   1.110412   2.496217   2.496216
     8  H    2.753292   2.173727   1.111135   3.092375   2.507666
                    6          7          8
     6  H    0.000000
     7  H    1.805581   0.000000
     8  H    1.811592   1.805572   0.000000
 Stoichiometry    C3H5(4)
 Framework group  CS[SG(C3H),X(H4)]
 Deg. of freedom    11
 Full point group                 CS      NOp   2
 Largest Abelian subgroup         CS      NOp   2
 Largest concise Abelian subgroup CS      NOp   2
                         Standard orientation:                         
 ---------------------------------------------------------------------
 Center     Atomic      Atomic             Coordinates (Angstroms)
 Number     Number       Type             X           Y           Z
 ---------------------------------------------------------------------
      1          6           0        1.472781    0.209523    0.000000
      2          6           0        0.000000    0.575199    0.000000
      3          6           0       -0.859213   -0.681645   -0.000000
      4          1           0       -0.223398    1.180418   -0.903739
      5          1           0       -0.223398    1.180418    0.903739
      6          1           0       -0.650878   -1.290540   -0.905792
      7          1           0       -1.932847   -0.398231   -0.000000
      8          1           0       -0.650878   -1.290540    0.905792
 ---------------------------------------------------------------------
 Rotational constants (GHZ):          35.8363949          10.4917452           9.0778708
 Standard basis: def2SVPP (5D, 7F)
 There are    39 symmetry adapted cartesian basis functions of A'  symmetry.
 There are    16 symmetry adapted cartesian basis functions of A"  symmetry.
 There are    36 symmetry adapted basis functions of A'  symmetry.
 There are    16 symmetry adapted basis functions of A"  symmetry.
    52 basis functions,    95 primitive gaussians,    55 cartesian basis functions
    13 alpha electrons       10 beta electrons
       nuclear repulsion energy        62.8445999371 Hartrees.
 NAtoms=    8 NActive=    8 NUniq=    6 SFac= 1.78D+00 NAtFMM=   60 NAOKFM=F Big=F
 Integral buffers will be    131072 words long.
 Raffenetti 2 integral format.
 Two-electron integral symmetry is turned on.
 Nuclear repulsion after empirical dispersion term =       62.8371240038 Hartrees.
 One-electron integrals computed using PRISM.
   2 Symmetry operations used in ECPInt.
 ECPInt:  NShTT=     406 NPrTT=    1650 LenC2=     407 LenP2D=    1486.
 LDataN:  DoStor=T MaxTD1= 4 Len=   56
 NBasis=    52 RedAO= T EigKep=  3.50D-03  NBF=    36    16
 NBsUse=    52 1.00D-06 EigRej= -1.00D+00 NBFU=    36    16
 ExpMin= 1.22D-01 ExpMax= 1.24D+03 ExpMxC= 1.86D+02 IAcc=3 IRadAn=         5 AccDes= 0.00D+00
 Harris functional with IExCor=  402 and IRadAn=       5 diagonalized for initial guess.
 HarFok:  IExCor=  402 AccDes= 0.00D+00 IRadAn=         5 IDoV= 1 UseB2=F ITyADJ=14
 ICtDFT=  3500011 ScaDFX=  1.000000  1.000000  1.000000  1.000000
 FoFCou: FMM=F IPFlag=           0 FMFlag=      100000 FMFlg1=           0
         NFxFlg=           0 DoJE=T BraDBF=F KetDBF=T FulRan=T
         wScrn=  0.000000 ICntrl=       500 IOpCl=  0 I1Cent=   200000004 NGrid=           0
         NMat0=    1 NMatS0=      1 NMatT0=    0 NMatD0=    1 NMtDS0=    0 NMtDT0=    0
 Petite list used in FoFCou.
 Initial guess orbital symmetries:
 Alpha Orbitals:
       Occupied  (A') (A') (A') (A') (A') (A') (A") (A') (A') (A")
                 (A') (A') (A")
       Virtual   (A') (A") (A') (A') (A") (A') (A') (A') (A") (A')
                 (A') (A') (A") (A') (A') (A') (A") (A') (A") (A')
                 (A") (A') (A') (A') (A") (A') (A') (A") (A') (A')
                 (A") (A') (A") (A') (A") (A") (A') (A') (A')
 Beta  Orbitals:
       Occupied  (A') (A') (A') (A') (A') (A') (A") (A') (A') (A")
       Virtual   (A') (A') (A") (A') (A") (A') (A') (A") (A') (A')
                 (A') (A") (A') (A') (A') (A") (A') (A') (A') (A")
                 (A') (A") (A') (A") (A') (A') (A') (A") (A') (A')
                 (A") (A') (A') (A") (A') (A") (A') (A") (A") (A')
                 (A') (A')
 The electronic state of the initial guess is 4-A".
 Initial guess <Sx>= 0.0000 <Sy>= 0.0000 <Sz>= 1.5000 <S**2>= 3.7500 S= 1.5000
 Keep R1 and R2 ints in memory in symmetry-blocked form, NReq=15012895.
 Requested convergence on RMS density matrix=1.00D-08 within 128 cycles.
 Requested convergence on MAX density matrix=1.00D-06.
 Requested convergence on             energy=1.00D-06.
 No special actions if energy rises.
 Integral accuracy reduced to 1.0D-05 until final iterations.
 Initial convergence to 1.0D-05 achieved.  Increase integral accuracy.
 SCF Done:  E(UB3LYP) =  -116.997873370     A.U. after   14 cycles
            NFock= 14  Conv=0.68D-08     -V/T= 2.0106
 <Sx>= 0.0000 <Sy>= 0.0000 <Sz>= 1.5000 <S**2>= 3.7530 S= 1.5007
 <L.S>=  0.00000000000    
 Annihilation of the first spin contaminant:
 S**2 before annihilation     3.7530,   after     3.7500

 **********************************************************************

            Population analysis using the SCF Density.

 **********************************************************************

 Orbital symmetries:
 Alpha Orbitals:
       Occupied  (A') (A') (A') (A') (A') (A') (A") (A') (A') (A")
                 (A') (A") (A')
       Virtual   (A') (A') (A") (A') (A") (A') (A') (A') (A") (A')
                 (A') (A') (A") (A') (A') (A") (A') (A') (A") (A')
                 (A') (A") (A') (A') (A") (A') (A") (A') (A') (A')
                 (A") (A') (A") (A') (A") (A") (A') (A') (A')
 Beta  Orbitals:
       Occupied  (A') (A') (A') (A') (A') (A') (A") (A') (A') (A")
       Virtual   (A') (A') (A") (A') (A') (A") (A') (A") (A') (A')
                 (A') (A") (A') (A') (A') (A") (A') (A') (A") (A')
                 (A") (A') (A') (A') (A") (A') (A') (A") (A') (A')
                 (A") (A') (A") (A') (A') (A") (A') (A") (A") (A')
                 (A') (A')
 The electronic state is 4-A".
 Alpha  occ. eigenvalues --  -10.22931 -10.22335 -10.18718  -0.79445  -0.65944
 Alpha  occ. eigenvalues --   -0.54926  -0.47015  -0.42661  -0.39179  -0.37051
 Alpha  occ. eigenvalues --   -0.33799  -0.21773  -0.21739
 Alpha virt. eigenvalues --    0.06093   0.10311   0.10442   0.12846   0.15104
 Alpha virt. eigenvalues --    0.20627   0.22719   0.37603   0.42701   0.43788
 Alpha virt. eigenvalues --    0.45642   0.47672   0.50170   0.56836   0.61662
 Alpha virt. eigenvalues --    0.63766   0.64109   0.67629   0.67713   0.68537
 Alpha virt. eigenvalues --    0.70788   0.71034   0.83709   0.94970   1.38521
 Alpha virt. eigenvalues --    1.39508   1.64686   1.66847   1.73799   1.85389
 Alpha virt. eigenvalues --    1.85508   1.90240   2.03041   2.05806   2.20933
 Alpha virt. eigenvalues --    2.23949   2.31019   2.47965   2.61539
  Beta  occ. eigenvalues --  -10.22068 -10.18607 -10.18577  -0.77409  -0.63187
  Beta  occ. eigenvalues --   -0.48599  -0.45999  -0.39825  -0.37610  -0.36309
  Beta virt. eigenvalues --   -0.14609  -0.02340  -0.02035   0.06912   0.10553
  Beta virt. eigenvalues --    0.10746   0.13196   0.15720   0.21720   0.26879
  Beta virt. eigenvalues --    0.41317   0.43257   0.46805   0.49765   0.53806
  Beta virt. eigenvalues --    0.58615   0.60962   0.64009   0.65518   0.66024
  Beta virt. eigenvalues --    0.68187   0.68668   0.69862   0.71148   0.71415
  Beta virt. eigenvalues --    0.84901   0.95894   1.42366   1.42852   1.75894
  Beta virt. eigenvalues --    1.79466   1.83696   1.88908   1.90081   1.94682
  Beta virt. eigenvalues --    2.06204   2.08158   2.23706   2.26712   2.34356
  Beta virt. eigenvalues --    2.51822   2.65675
          Condensed to atoms (all electrons):
               1          2          3          4          5          6
     1  C    5.943708   0.319191  -0.078156  -0.031512  -0.031512   0.001644
     2  C    0.319191   4.739005   0.439284   0.360011   0.360011  -0.026092
     3  C   -0.078156   0.439284   4.855110  -0.029005  -0.029005   0.378207
     4  H   -0.031512   0.360011  -0.029005   0.620782  -0.032851  -0.008100
     5  H   -0.031512   0.360011  -0.029005  -0.032851   0.620782   0.007844
     6  H    0.001644  -0.026092   0.378207  -0.008100   0.007844   0.584617
     7  H    0.008747  -0.016891   0.350667  -0.003221  -0.003221  -0.021512
     8  H    0.001644  -0.026092   0.378207   0.007844  -0.008100  -0.024530
               7          8
     1  C    0.008747   0.001644
     2  C   -0.016891  -0.026092
     3  C    0.350667   0.378207
     4  H   -0.003221   0.007844
     5  H   -0.003221  -0.008100
     6  H   -0.021512  -0.024530
     7  H    0.607409  -0.021512
     8  H   -0.021512   0.584617
          Atomic-Atomic Spin Densities.
               1          2          3          4          5          6
     1  C    2.981580  -0.099779  -0.050501  -0.024765  -0.024765   0.008541
     2  C   -0.099779   0.128981   0.002582   0.001709   0.001709  -0.001604
     3  C   -0.050501   0.002582   0.137335  -0.008839  -0.008839  -0.007585
     4  H   -0.024765   0.001709  -0.008839   0.093984  -0.012578  -0.001748
     5  H   -0.024765   0.001709  -0.008839  -0.012578   0.093984   0.001750
     6  H    0.008541  -0.001604  -0.007585  -0.001748   0.001750   0.003565
     7  H    0.003451   0.000403  -0.024357   0.001906   0.001906   0.001155
     8  H    0.008541  -0.001604  -0.007585   0.001750  -0.001748  -0.000616
               7          8
     1  C    0.003451   0.008541
     2  C    0.000403  -0.001604
     3  C   -0.024357  -0.007585
     4  H    0.001906   0.001750
     5  H    0.001906  -0.001748
     6  H    0.001155  -0.000616
     7  H    0.037714   0.001155
     8  H    0.001155   0.003565
 Mulliken charges and spin densities:
               1          2
     1  C   -0.133753   2.802303
     2  C   -0.148425   0.032397
     3  C   -0.265308   0.032212
     4  H    0.116052   0.051419
     5  H    0.116052   0.051419
     6  H    0.107924   0.003459
     7  H    0.099535   0.023333
     8  H    0.107924   0.003459
 Sum of Mulliken charges =  -0.00000   3.00000
 Mulliken charges and spin densities with hydrogens summed into heavy atoms:
               1          2
     1  C   -0.133753   2.802303
     2  C    0.083679   0.135234
     3  C    0.050074   0.062463
 Electronic spatial extent (au):  <R**2>=            176.8079
 Charge=             -0.0000 electrons
 Dipole moment (field-independent basis, Debye):
    X=             -1.2937    Y=              0.1813    Z=              0.0000  Tot=              1.3063
 Quadrupole moment (field-independent basis, Debye-Ang):
   XX=            -21.6534   YY=            -20.0672   ZZ=            -19.7467
   XY=             -0.6239   XZ=             -0.0000   YZ=             -0.0000
 Traceless Quadrupole moment (field-independent basis, Debye-Ang):
   XX=             -1.1643   YY=              0.4219   ZZ=              0.7424
   XY=             -0.6239   XZ=             -0.0000   YZ=             -0.0000
 Octapole moment (field-independent basis, Debye-Ang**2):
  XXX=             -6.9139  YYY=             -0.0699  ZZZ=             -0.0000  XYY=             -2.1498
  XXY=             -0.6300  XXZ=             -0.0000  XZZ=             -2.4012  YZZ=              0.0371
  YYZ=              0.0000  XYZ=              0.0000
 Hexadecapole moment (field-independent basis, Debye-Ang**3):
 XXXX=           -144.7618 YYYY=            -77.9999 ZZZZ=            -35.1839 XXXY=            -22.1129
 XXXZ=             -0.0000 YYYX=            -20.4589 YYYZ=             -0.0000 ZZZX=             -0.0000
 ZZZY=             -0.0000 XXYY=            -39.5567 XXZZ=            -32.1271 YYZZ=            -17.0718
 XXYZ=             -0.0000 YYXZ=             -0.0000 ZZXY=             -6.6602
 N-N= 6.283712400384D+01 E-N=-3.958128874425D+02  KE= 1.157708992866D+02
 Symmetry A'   KE= 1.106190445261D+02
 Symmetry A"   KE= 5.151854760493D+00
 Symmetry A'   SP= 2.000000000000D+00
 Symmetry A"   SP= 1.000000000000D+00
                          Isotropic Fermi Contact Couplings
        Atom                 a.u.       MegaHertz       Gauss      10(-4) cm-1
     1  C(13)              1.31911     494.31072     176.38236     164.88431
     2  C(13)              0.07065      26.47599       9.44729       8.83144
     3  C(13)              0.08857      33.18943      11.84281      11.07080
     4  H(1)               0.02321      34.58655      12.34134      11.53683
     5  H(1)               0.02321      34.58655      12.34134      11.53683
     6  H(1)              -0.00039      -0.58357      -0.20823      -0.19466
     7  H(1)               0.00707      10.53234       3.75820       3.51321
     8  H(1)              -0.00039      -0.58357      -0.20823      -0.19466
 --------------------------------------------------------
       Center         ----  Spin Dipole Couplings  ----
                      3XX-RR        3YY-RR        3ZZ-RR
 --------------------------------------------------------
     1   Atom       -0.459907      0.201864      0.258043
     2   Atom        0.317597     -0.143634     -0.173963
     3   Atom        0.050586     -0.001302     -0.049284
     4   Atom        0.022527     -0.015391     -0.007136
     5   Atom        0.022527     -0.015391     -0.007136
     6   Atom        0.012374     -0.000017     -0.012356
     7   Atom        0.021939     -0.008386     -0.013553
     8   Atom        0.012374     -0.000017     -0.012356
 --------------------------------------------------------
                        XY            XZ            YZ
 --------------------------------------------------------
     1   Atom        0.199596      0.000000     -0.000000
     2   Atom       -0.114468     -0.000000      0.000000
     3   Atom        0.067914     -0.000000      0.000000
     4   Atom       -0.031295      0.026001     -0.026635
     5   Atom       -0.031295     -0.026001      0.026635
     6   Atom        0.021461      0.013149      0.014502
     7   Atom        0.004157      0.000000      0.000000
     8   Atom        0.021461     -0.013149     -0.014502
 --------------------------------------------------------


 ---------------------------------------------------------------------------------
              Anisotropic Spin Dipole Couplings in Principal Axis System
 ---------------------------------------------------------------------------------

       Atom             a.u.   MegaHertz   Gauss  10(-4) cm-1        Axes

              Baa    -0.5154   -69.168   -24.681   -23.072  0.9634 -0.2681 -0.0000
     1 C(13)  Bbb     0.2574    34.541    12.325    11.522  0.2681  0.9634  0.0000
              Bcc     0.2580    34.627    12.356    11.550 -0.0000 -0.0000  1.0000
 
              Baa    -0.1740   -23.344    -8.330    -7.787 -0.0000 -0.0000  1.0000
     2 C(13)  Bbb    -0.1705   -22.877    -8.163    -7.631  0.2283  0.9736  0.0000
              Bcc     0.3444    46.221    16.493    15.418  0.9736 -0.2283 -0.0000
 
              Baa    -0.0493    -6.613    -2.360    -2.206  0.0000 -0.0000  1.0000
     3 C(13)  Bbb    -0.0481    -6.449    -2.301    -2.151 -0.5671  0.8237  0.0000
              Bcc     0.0973    13.062     4.661     4.357  0.8237  0.5671  0.0000
 
              Baa    -0.0396   -21.146    -7.545    -7.053  0.2004  0.8302  0.5201
     4 H(1)   Bbb    -0.0200   -10.665    -3.806    -3.558 -0.6449 -0.2879  0.7080
              Bcc     0.0596    31.811    11.351    10.611  0.7375 -0.4773  0.4777
 
              Baa    -0.0396   -21.146    -7.545    -7.053  0.2004  0.8302 -0.5201
     5 H(1)   Bbb    -0.0200   -10.665    -3.806    -3.558  0.6449  0.2879  0.7080
              Bcc     0.0596    31.811    11.351    10.611  0.7375 -0.4773 -0.4777
 
              Baa    -0.0220   -11.738    -4.188    -3.915  0.0606 -0.5902  0.8050
     6 H(1)   Bbb    -0.0142    -7.562    -2.698    -2.522  0.6845 -0.5624 -0.4639
              Bcc     0.0362    19.300     6.887     6.438  0.7265  0.5791  0.3699
 
              Baa    -0.0136    -7.231    -2.580    -2.412 -0.0000 -0.0000  1.0000
     7 H(1)   Bbb    -0.0089    -4.773    -1.703    -1.592 -0.1334  0.9911  0.0000
              Bcc     0.0225    12.004     4.283     4.004  0.9911  0.1334  0.0000
 
              Baa    -0.0220   -11.738    -4.188    -3.915 -0.0606  0.5902  0.8050
     8 H(1)   Bbb    -0.0142    -7.562    -2.698    -2.522  0.6845 -0.5624  0.4639
              Bcc     0.0362    19.300     6.887     6.438  0.7265  0.5791 -0.3699
 

 ---------------------------------------------------------------------------------

   2 Symmetry operations used in ECPInt.
 ECPInt:  NShTT=     406 NPrTT=    1650 LenC2=     407 LenP2D=    1486.
 LDataN:  DoStor=T MaxTD1= 5 Len=  102
 Calling FoFJK, ICntrl=      2127 FMM=F ISym2X=1 I1Cent= 0 IOpClX= 1 NMat=1 NMatS=1 NMatT=0.
 ***** Axes restored to original set *****
 -------------------------------------------------------------------
 Center     Atomic                   Forces (Hartrees/Bohr)
 Number     Number              X              Y              Z
 -------------------------------------------------------------------
      1        6           0.003386941    0.003468694    0.003485641
      2        6          -0.007261783   -0.001116291   -0.001121737
      3        6           0.003252414   -0.005376536   -0.005402817
      4        1          -0.000951397    0.003326899    0.000080477
      5        1          -0.000951392    0.000064256    0.003327253
      6        1           0.002361576    0.003950883   -0.003296536
      7        1          -0.002197944   -0.001002149   -0.001007044
      8        1           0.002361586   -0.003315755    0.003934761
 -------------------------------------------------------------------
 Cartesian Forces:  Max     0.007261783 RMS     0.003256296

 GradGradGradGradGradGradGradGradGradGradGradGradGradGradGradGradGradGrad
 Berny optimization.
 FormGI is forming the generalized inverse of G from B-inverse, IUseBI=4.
 Internal  Forces:  Max     0.009611975 RMS     0.003556693
 Search for a local minimum.
 Step number   1 out of a maximum of   38
 All quantities printed in internal units (Hartrees-Bohrs-Radians)
 Mixed Optimization -- RFO/linear search
 Second derivative matrix not updated -- first step.
 ITU=  0
     Eigenvalues ---    0.00469   0.05715   0.05746   0.05817   0.06091
     Eigenvalues ---    0.16000   0.16000   0.16000   0.16000   0.16000
     Eigenvalues ---    0.22415   0.30130   0.30609   0.32480   0.32480
     Eigenvalues ---    0.32556   0.32560   0.32560
 RFO step:  Lambda=-1.55294799D-03 EMin= 4.68763786D-03
 Linear search not attempted -- first point.
 Iteration  1 RMS(Cart)=  0.02974600 RMS(Int)=  0.00046335
 Iteration  2 RMS(Cart)=  0.00040946 RMS(Int)=  0.00019901
 Iteration  3 RMS(Cart)=  0.00000013 RMS(Int)=  0.00019901
 ClnCor:  largest displacement from symmetrization is 6.07D-10 for atom     8.
 Variable       Old X    -DE/DX   Delta X   Delta X   Delta X     New X
                                 (Linear)    (Quad)   (Total)
    R1        2.86766  -0.00332   0.00000  -0.01080  -0.01080   2.85686
    R2        2.87704   0.00961   0.00000   0.03174   0.03174   2.90878
    R3        2.09831  -0.00105   0.00000  -0.00319  -0.00319   2.09512
    R4        2.09831  -0.00105   0.00000  -0.00319  -0.00319   2.09512
    R5        2.09974  -0.00515   0.00000  -0.01579  -0.01579   2.08395
    R6        2.09837  -0.00220   0.00000  -0.00673  -0.00673   2.09165
    R7        2.09974  -0.00515   0.00000  -0.01579  -0.01579   2.08395
    A1        1.92708   0.00920   0.00000   0.04389   0.04335   1.97043
    A2        1.90351  -0.00494   0.00000  -0.01940  -0.01991   1.88360
    A3        1.90351  -0.00494   0.00000  -0.01940  -0.01991   1.88360
    A4        1.91391   0.00211   0.00000   0.01362   0.01336   1.92727
    A5        1.91391   0.00211   0.00000   0.01362   0.01336   1.92727
    A6        1.90167  -0.00377   0.00000  -0.03370  -0.03365   1.86802
    A7        1.92471   0.00251   0.00000   0.01530   0.01522   1.93993
    A8        1.91236   0.00115   0.00000   0.00760   0.00753   1.91989
    A9        1.92471   0.00251   0.00000   0.01530   0.01522   1.93993
   A10        1.89774  -0.00179   0.00000  -0.01062  -0.01069   1.88706
   A11        1.90614  -0.00272   0.00000  -0.01776  -0.01786   1.88827
   A12        1.89774  -0.00179   0.00000  -0.01062  -0.01069   1.88706
    D1       -1.05330   0.00007   0.00000   0.00115   0.00114  -1.05215
    D2        3.14159  -0.00000   0.00000  -0.00000  -0.00000   3.14159
    D3        1.05330  -0.00007   0.00000  -0.00115  -0.00114   1.05215
    D4        1.04458   0.00109   0.00000   0.01346   0.01360   1.05818
    D5       -1.04371   0.00102   0.00000   0.01231   0.01245  -1.03126
    D6       -3.13201   0.00095   0.00000   0.01115   0.01131  -3.12070
    D7        3.13201  -0.00095   0.00000  -0.01115  -0.01131   3.12070
    D8        1.04371  -0.00102   0.00000  -0.01231  -0.01245   1.03126
    D9       -1.04458  -0.00109   0.00000  -0.01346  -0.01360  -1.05818
         Item               Value     Threshold  Converged?
 Maximum Force            0.009612     0.000450     NO 
 RMS     Force            0.003557     0.000300     NO 
 Maximum Displacement     0.067812     0.001800     NO 
 RMS     Displacement     0.029561     0.001200     NO 
 Predicted change in Energy=-7.862525D-04
 GradGradGradGradGradGradGradGradGradGradGradGradGradGradGradGradGradGrad

                          Input orientation:                          
 ---------------------------------------------------------------------
 Center     Atomic      Atomic             Coordinates (Angstroms)
 Number     Number       Type             X           Y           Z
 ---------------------------------------------------------------------
      1          6           0        0.974907   -0.013310    0.126575
      2          6           0        2.484940   -0.064615    0.075018
      3          6           0        3.014926   -1.083992   -0.949341
      4          1           0        2.852858   -0.310602    1.091540
      5          1           0        2.852856    0.953095   -0.166011
      6          1           0        2.673268   -2.104471   -0.708483
      7          1           0        4.121775   -1.082109   -0.947451
      8          1           0        2.673266   -0.838162   -1.968634
 ---------------------------------------------------------------------
                    Distance matrix (angstroms):
                    1          2          3          4          5
     1  C    0.000000
     2  C    1.511784   0.000000
     3  C    2.542761   1.539261   0.000000
     4  H    2.132191   1.108689   2.188515   0.000000
     5  H    2.132191   1.108689   2.188515   1.782797   0.000000
     6  H    2.820409   2.193252   1.102779   2.547608   3.110505
     7  H    3.492655   2.181734   1.106852   2.522471   2.522471
     8  H    2.820409   2.193252   1.102779   3.110505   2.547608
                    6          7          8
     6  H    0.000000
     7  H    1.788994   0.000000
     8  H    1.786483   1.788994   0.000000
 Stoichiometry    C3H5(4)
 Framework group  CS[SG(C3H),X(H4)]
 Deg. of freedom    11
 Full point group                 CS      NOp   2
 Largest Abelian subgroup         CS      NOp   2
 Largest concise Abelian subgroup CS      NOp   2
                         Standard orientation:                         
 ---------------------------------------------------------------------
 Center     Atomic      Atomic             Coordinates (Angstroms)
 Number     Number       Type             X           Y           Z
 ---------------------------------------------------------------------
      1          6           0        1.482851    0.268923    0.000000
      2          6           0        0.000000    0.563278    0.000000
      3          6           0       -0.863528   -0.710945   -0.000000
      4          1           0       -0.224809    1.183004   -0.891399
      5          1           0       -0.224809    1.183004    0.891399
      6          1           0       -0.664699   -1.326338   -0.893241
      7          1           0       -1.936922   -0.440862   -0.000000
      8          1           0       -0.664699   -1.326338    0.893241
 ---------------------------------------------------------------------
 Rotational constants (GHZ):          37.0513765          10.1386414           8.8558827
 Standard basis: def2SVPP (5D, 7F)
 There are    39 symmetry adapted cartesian basis functions of A'  symmetry.
 There are    16 symmetry adapted cartesian basis functions of A"  symmetry.
 There are    36 symmetry adapted basis functions of A'  symmetry.
 There are    16 symmetry adapted basis functions of A"  symmetry.
    52 basis functions,    95 primitive gaussians,    55 cartesian basis functions
    13 alpha electrons       10 beta electrons
       nuclear repulsion energy        62.5748517026 Hartrees.
 NAtoms=    8 NActive=    8 NUniq=    6 SFac= 1.78D+00 NAtFMM=   60 NAOKFM=F Big=F
 Integral buffers will be    131072 words long.
 Raffenetti 2 integral format.
 Two-electron integral symmetry is turned on.
 Nuclear repulsion after empirical dispersion term =       62.5674285734 Hartrees.
 One-electron integrals computed using PRISM.
   2 Symmetry operations used in ECPInt.
 ECPInt:  NShTT=     406 NPrTT=    1650 LenC2=     407 LenP2D=    1483.
 LDataN:  DoStor=T MaxTD1= 4 Len=   56
 NBasis=    52 RedAO= T EigKep=  3.67D-03  NBF=    36    16
 NBsUse=    52 1.00D-06 EigRej= -1.00D+00 NBFU=    36    16
 Initial guess from the checkpoint file:  "/home/software/g16tmp/Gau-75809.chk"
 B after Tr=    -0.000001    0.000001    0.000000
         Rot=    0.999940    0.000000    0.000000   -0.010923 Ang=  -1.25 deg.
 Initial guess orbital symmetries:
 Alpha Orbitals:
       Occupied  (A') (A') (A') (A') (A') (A') (A") (A') (A') (A")
                 (A') (A") (A')
       Virtual   (A') (A') (A") (A') (A") (A') (A') (A') (A") (A')
                 (A') (A') (A") (A') (A') (A") (A') (A') (A") (A')
                 (A') (A") (A') (A') (A") (A') (A") (A') (A') (A')
                 (A") (A') (A") (A') (A") (A") (A') (A') (A')
 Beta  Orbitals:
       Occupied  (A') (A') (A') (A') (A') (A') (A") (A') (A') (A")
       Virtual   (A') (A') (A") (A') (A') (A") (A') (A") (A') (A')
                 (A') (A") (A') (A') (A') (A") (A') (A') (A") (A')
                 (A") (A') (A') (A') (A") (A') (A') (A") (A') (A')
                 (A") (A') (A") (A') (A') (A") (A') (A") (A") (A')
                 (A') (A')
 Initial guess <Sx>= 0.0000 <Sy>= 0.0000 <Sz>= 1.5000 <S**2>= 3.7529 S= 1.5007
 ExpMin= 1.22D-01 ExpMax= 1.24D+03 ExpMxC= 1.86D+02 IAcc=3 IRadAn=         5 AccDes= 0.00D+00
 Harris functional with IExCor=  402 and IRadAn=       5 diagonalized for initial guess.
 HarFok:  IExCor=  402 AccDes= 0.00D+00 IRadAn=         5 IDoV= 1 UseB2=F ITyADJ=14
 ICtDFT=  3500011 ScaDFX=  1.000000  1.000000  1.000000  1.000000
 FoFCou: FMM=F IPFlag=           0 FMFlag=      100000 FMFlg1=           0
         NFxFlg=           0 DoJE=T BraDBF=F KetDBF=T FulRan=T
         wScrn=  0.000000 ICntrl=       500 IOpCl=  0 I1Cent=   200000004 NGrid=           0
         NMat0=    1 NMatS0=      1 NMatT0=    0 NMatD0=    1 NMtDS0=    0 NMtDT0=    0
 Petite list used in FoFCou.
 Keep R1 and R2 ints in memory in symmetry-blocked form, NReq=15012895.
 Requested convergence on RMS density matrix=1.00D-08 within 128 cycles.
 Requested convergence on MAX density matrix=1.00D-06.
 Requested convergence on             energy=1.00D-06.
 No special actions if energy rises.
 Integral accuracy reduced to 1.0D-05 until final iterations.
 Initial convergence to 1.0D-05 achieved.  Increase integral accuracy.
 SCF Done:  E(UB3LYP) =  -116.998602597     A.U. after   12 cycles
            NFock= 12  Conv=0.50D-08     -V/T= 2.0106
 <Sx>= 0.0000 <Sy>= 0.0000 <Sz>= 1.5000 <S**2>= 3.7530 S= 1.5007
 <L.S>=  0.00000000000    
 Annihilation of the first spin contaminant:
 S**2 before annihilation     3.7530,   after     3.7500
   2 Symmetry operations used in ECPInt.
 ECPInt:  NShTT=     406 NPrTT=    1650 LenC2=     407 LenP2D=    1483.
 LDataN:  DoStor=T MaxTD1= 5 Len=  102
 Calling FoFJK, ICntrl=      2127 FMM=F ISym2X=1 I1Cent= 0 IOpClX= 1 NMat=1 NMatS=1 NMatT=0.
 ***** Axes restored to original set *****
 -------------------------------------------------------------------
 Center     Atomic                   Forces (Hartrees/Bohr)
 Number     Number              X              Y              Z
 -------------------------------------------------------------------
      1        6           0.001915803    0.000095531    0.000095995
      2        6          -0.003211258   -0.002125223   -0.002135605
      3        6           0.000697314    0.001374192    0.001380907
      4        1           0.000821936   -0.000118421    0.000166379
      5        1           0.000821935    0.000166956   -0.000117610
      6        1          -0.000353756   -0.000094288    0.000253718
      7        1          -0.000338217    0.000447080    0.000449265
      8        1          -0.000353757    0.000254174   -0.000093050
 -------------------------------------------------------------------
 Cartesian Forces:  Max     0.003211258 RMS     0.001112566

 GradGradGradGradGradGradGradGradGradGradGradGradGradGradGradGradGradGrad
 Berny optimization.
 Using GEDIIS/GDIIS optimizer.
 FormGI is forming the generalized inverse of G from B-inverse, IUseBI=4.
 Internal  Forces:  Max     0.002756819 RMS     0.000755503
 Search for a local minimum.
 Step number   2 out of a maximum of   38
 All quantities printed in internal units (Hartrees-Bohrs-Radians)
 Mixed Optimization -- En-DIIS/RFO-DIIS
 Update second derivatives using D2CorX and points    1    2
 DE= -7.29D-04 DEPred=-7.86D-04 R= 9.27D-01
 TightC=F SS=  1.41D+00  RLast= 8.86D-02 DXNew= 5.0454D-01 2.6589D-01
 Trust test= 9.27D-01 RLast= 8.86D-02 DXMaxT set to 3.00D-01
 ITU=  1  0
 Use linear search instead of GDIIS.
     Eigenvalues ---    0.00469   0.05381   0.05564   0.05700   0.05720
     Eigenvalues ---    0.15859   0.16000   0.16000   0.16000   0.17155
     Eigenvalues ---    0.20797   0.29804   0.31778   0.32466   0.32480
     Eigenvalues ---    0.32549   0.32560   0.35510
 RFO step:  Lambda=-6.37425116D-05 EMin= 4.68763786D-03
 Quartic linear search produced a step of -0.04732.
 Iteration  1 RMS(Cart)=  0.00481922 RMS(Int)=  0.00002130
 Iteration  2 RMS(Cart)=  0.00001677 RMS(Int)=  0.00001509
 Iteration  3 RMS(Cart)=  0.00000000 RMS(Int)=  0.00001509
 ClnCor:  largest displacement from symmetrization is 3.32D-10 for atom     8.
 Variable       Old X    -DE/DX   Delta X   Delta X   Delta X     New X
                                 (Linear)    (Quad)   (Total)
    R1        2.85686  -0.00191   0.00051  -0.00687  -0.00636   2.85050
    R2        2.90878  -0.00276  -0.00150  -0.00600  -0.00750   2.90128
    R3        2.09512   0.00045   0.00015   0.00105   0.00120   2.09632
    R4        2.09512   0.00045   0.00015   0.00105   0.00120   2.09632
    R5        2.08395   0.00025   0.00075  -0.00062   0.00013   2.08408
    R6        2.09165  -0.00034   0.00032  -0.00156  -0.00125   2.09040
    R7        2.08395   0.00025   0.00075  -0.00062   0.00013   2.08408
    A1        1.97043   0.00088  -0.00205   0.00901   0.00698   1.97741
    A2        1.88360   0.00021   0.00094   0.00237   0.00334   1.88694
    A3        1.88360   0.00021   0.00094   0.00237   0.00334   1.88694
    A4        1.92727  -0.00072  -0.00063  -0.00388  -0.00452   1.92275
    A5        1.92727  -0.00072  -0.00063  -0.00388  -0.00452   1.92275
    A6        1.86802   0.00015   0.00159  -0.00655  -0.00500   1.86302
    A7        1.93993  -0.00028  -0.00072  -0.00044  -0.00116   1.93877
    A8        1.91989  -0.00075  -0.00036  -0.00375  -0.00411   1.91579
    A9        1.93993  -0.00028  -0.00072  -0.00044  -0.00116   1.93877
   A10        1.88706   0.00055   0.00051   0.00245   0.00295   1.89001
   A11        1.88827   0.00028   0.00085  -0.00003   0.00082   1.88909
   A12        1.88706   0.00055   0.00051   0.00245   0.00295   1.89001
    D1       -1.05215   0.00001  -0.00005   0.00032   0.00027  -1.05188
    D2        3.14159  -0.00000   0.00000   0.00000   0.00000   3.14159
    D3        1.05215  -0.00001   0.00005  -0.00032  -0.00027   1.05188
    D4        1.05818   0.00037  -0.00064   0.00678   0.00612   1.06430
    D5       -1.03126   0.00036  -0.00059   0.00646   0.00585  -1.02541
    D6       -3.12070   0.00034  -0.00054   0.00614   0.00558  -3.11512
    D7        3.12070  -0.00034   0.00054  -0.00614  -0.00558   3.11512
    D8        1.03126  -0.00036   0.00059  -0.00646  -0.00585   1.02541
    D9       -1.05818  -0.00037   0.00064  -0.00678  -0.00612  -1.06430
         Item               Value     Threshold  Converged?
 Maximum Force            0.002757     0.000450     NO 
 RMS     Force            0.000756     0.000300     NO 
 Maximum Displacement     0.011418     0.001800     NO 
 RMS     Displacement     0.004825     0.001200     NO 
 Predicted change in Energy=-3.370353D-05
 GradGradGradGradGradGradGradGradGradGradGradGradGradGradGradGradGradGrad

                          Input orientation:                          
 ---------------------------------------------------------------------
 Center     Atomic      Atomic             Coordinates (Angstroms)
 Number     Number       Type             X           Y           Z
 ---------------------------------------------------------------------
      1          6           0        0.975337   -0.011652    0.128242
      2          6           0        2.481681   -0.067468    0.072151
      3          6           0        3.014088   -1.083233   -0.948579
      4          1           0        2.855728   -0.313357    1.087151
      5          1           0        2.855726    0.948719   -0.168787
      6          1           0        2.673002   -2.103921   -0.707477
      7          1           0        4.120234   -1.076097   -0.941409
      8          1           0        2.673000   -0.837158   -1.968079
 ---------------------------------------------------------------------
                    Distance matrix (angstroms):
                    1          2          3          4          5
     1  C    0.000000
     2  C    1.508421   0.000000
     3  C    2.542506   1.535294   0.000000
     4  H    2.132229   1.109323   2.182197   0.000000
     5  H    2.132229   1.109323   2.182197   1.780511   0.000000
     6  H    2.821007   2.188964   1.102848   2.541692   3.105187
     7  H    3.488205   2.174740   1.106192   2.509144   2.509144
     8  H    2.821007   2.188964   1.102848   3.105187   2.541692
                    6          7          8
     6  H    0.000000
     7  H    1.790427   0.000000
     8  H    1.787123   1.790427   0.000000
 Stoichiometry    C3H5(4)
 Framework group  CS[SG(C3H),X(H4)]
 Deg. of freedom    11
 Full point group                 CS      NOp   2
 Largest Abelian subgroup         CS      NOp   2
 Largest concise Abelian subgroup CS      NOp   2
                         Standard orientation:                         
 ---------------------------------------------------------------------
 Center     Atomic      Atomic             Coordinates (Angstroms)
 Number     Number       Type             X           Y           Z
 ---------------------------------------------------------------------
      1          6           0        1.481554    0.275462   -0.000000
      2          6           0       -0.000000    0.558890    0.000000
      3          6           0       -0.861359   -0.712010   -0.000000
      4          1           0       -0.232604    1.178518   -0.890255
      5          1           0       -0.232604    1.178518    0.890255
      6          1           0       -0.661489   -1.326725   -0.893561
      7          1           0       -1.932984   -0.437637   -0.000000
      8          1           0       -0.661489   -1.326725    0.893561
 ---------------------------------------------------------------------
 Rotational constants (GHZ):          37.3147522          10.1465598           8.8759888
 Standard basis: def2SVPP (5D, 7F)
 There are    39 symmetry adapted cartesian basis functions of A'  symmetry.
 There are    16 symmetry adapted cartesian basis functions of A"  symmetry.
 There are    36 symmetry adapted basis functions of A'  symmetry.
 There are    16 symmetry adapted basis functions of A"  symmetry.
    52 basis functions,    95 primitive gaussians,    55 cartesian basis functions
    13 alpha electrons       10 beta electrons
       nuclear repulsion energy        62.6567108951 Hartrees.
 NAtoms=    8 NActive=    8 NUniq=    6 SFac= 1.78D+00 NAtFMM=   60 NAOKFM=F Big=F
 Integral buffers will be    131072 words long.
 Raffenetti 2 integral format.
 Two-electron integral symmetry is turned on.
 Nuclear repulsion after empirical dispersion term =       62.6492826926 Hartrees.
 One-electron integrals computed using PRISM.
   2 Symmetry operations used in ECPInt.
 ECPInt:  NShTT=     406 NPrTT=    1650 LenC2=     407 LenP2D=    1483.
 LDataN:  DoStor=T MaxTD1= 4 Len=   56
 NBasis=    52 RedAO= T EigKep=  3.63D-03  NBF=    36    16
 NBsUse=    52 1.00D-06 EigRej= -1.00D+00 NBFU=    36    16
 Initial guess from the checkpoint file:  "/home/software/g16tmp/Gau-75809.chk"
 B after Tr=    -0.000000    0.000000   -0.000000
         Rot=    0.999999   -0.000000   -0.000000   -0.001460 Ang=  -0.17 deg.
 Initial guess orbital symmetries:
 Alpha Orbitals:
       Occupied  (A') (A') (A') (A') (A') (A') (A") (A') (A') (A")
                 (A') (A') (A")
       Virtual   (A') (A') (A") (A') (A") (A') (A') (A') (A") (A')
                 (A') (A') (A") (A') (A') (A") (A') (A') (A") (A')
                 (A') (A") (A') (A') (A") (A') (A") (A') (A') (A")
                 (A') (A') (A") (A') (A") (A") (A') (A') (A')
 Beta  Orbitals:
       Occupied  (A') (A') (A') (A') (A') (A') (A") (A') (A') (A")
       Virtual   (A') (A') (A") (A') (A') (A") (A') (A") (A') (A')
                 (A') (A") (A') (A') (A') (A") (A') (A') (A") (A')
                 (A") (A') (A') (A") (A') (A') (A') (A") (A') (A')
                 (A") (A') (A") (A') (A') (A") (A') (A") (A") (A')
                 (A') (A')
 Initial guess <Sx>= 0.0000 <Sy>= 0.0000 <Sz>= 1.5000 <S**2>= 3.7530 S= 1.5007
 Keep R1 and R2 ints in memory in symmetry-blocked form, NReq=15012895.
 Requested convergence on RMS density matrix=1.00D-08 within 128 cycles.
 Requested convergence on MAX density matrix=1.00D-06.
 Requested convergence on             energy=1.00D-06.
 No special actions if energy rises.
 SCF Done:  E(UB3LYP) =  -116.998645005     A.U. after   10 cycles
            NFock= 10  Conv=0.49D-08     -V/T= 2.0105
 <Sx>= 0.0000 <Sy>= 0.0000 <Sz>= 1.5000 <S**2>= 3.7530 S= 1.5008
 <L.S>=  0.00000000000    
 Annihilation of the first spin contaminant:
 S**2 before annihilation     3.7530,   after     3.7500
   2 Symmetry operations used in ECPInt.
 ECPInt:  NShTT=     406 NPrTT=    1650 LenC2=     407 LenP2D=    1483.
 LDataN:  DoStor=T MaxTD1= 5 Len=  102
 Calling FoFJK, ICntrl=      2127 FMM=F ISym2X=1 I1Cent= 0 IOpClX= 1 NMat=1 NMatS=1 NMatT=0.
 ***** Axes restored to original set *****
 -------------------------------------------------------------------
 Center     Atomic                   Forces (Hartrees/Bohr)
 Number     Number              X              Y              Z
 -------------------------------------------------------------------
      1        6           0.000868038    0.000003580    0.000003596
      2        6          -0.001471905   -0.000420593   -0.000422646
      3        6           0.000186214    0.000341517    0.000343186
      4        1           0.000306560   -0.000028115    0.000209730
      5        1           0.000306560    0.000209865   -0.000027092
      6        1          -0.000100645   -0.000230715    0.000019445
      7        1           0.000005824    0.000103891    0.000104399
      8        1          -0.000100645    0.000020569   -0.000230617
 -------------------------------------------------------------------
 Cartesian Forces:  Max     0.001471905 RMS     0.000406783

 GradGradGradGradGradGradGradGradGradGradGradGradGradGradGradGradGradGrad
 Berny optimization.
 Using GEDIIS/GDIIS optimizer.
 FormGI is forming the generalized inverse of G from B-inverse, IUseBI=4.
 Internal  Forces:  Max     0.000866752 RMS     0.000224503
 Search for a local minimum.
 Step number   3 out of a maximum of   38
 All quantities printed in internal units (Hartrees-Bohrs-Radians)
 Mixed Optimization -- En-DIIS/RFO-DIIS
 Swapping is turned off.
 Update second derivatives using D2CorX and points    1    2    3
 DE= -4.24D-05 DEPred=-3.37D-05 R= 1.26D+00
 TightC=F SS=  1.41D+00  RLast= 2.19D-02 DXNew= 5.0454D-01 6.5814D-02
 Trust test= 1.26D+00 RLast= 2.19D-02 DXMaxT set to 3.00D-01
 ITU=  1  1  0
     Eigenvalues ---    0.00469   0.04945   0.05337   0.05589   0.05729
     Eigenvalues ---    0.15361   0.16000   0.16000   0.16050   0.16994
     Eigenvalues ---    0.20047   0.27476   0.32388   0.32480   0.32501
     Eigenvalues ---    0.32560   0.32748   0.34504
 En-DIIS/RFO-DIIS/Sim-DIIS IScMMF=       -3 using points:     3    2
 RFO step:  Lambda=-9.29589272D-06.
 DidBck=F Rises=F RFO-DIIS coefs:    1.43999   -0.43999
 Iteration  1 RMS(Cart)=  0.00192015 RMS(Int)=  0.00000782
 Iteration  2 RMS(Cart)=  0.00000381 RMS(Int)=  0.00000697
 Iteration  3 RMS(Cart)=  0.00000000 RMS(Int)=  0.00000697
 ClnCor:  largest displacement from symmetrization is 5.30D-09 for atom     8.
 Variable       Old X    -DE/DX   Delta X   Delta X   Delta X     New X
                                 (Linear)    (Quad)   (Total)
    R1        2.85050  -0.00087  -0.00280  -0.00151  -0.00431   2.84619
    R2        2.90128  -0.00032  -0.00330   0.00202  -0.00127   2.90001
    R3        2.09632   0.00030   0.00053   0.00074   0.00126   2.09758
    R4        2.09632   0.00030   0.00053   0.00074   0.00126   2.09758
    R5        2.08408   0.00025   0.00006   0.00074   0.00080   2.08488
    R6        2.09040   0.00001  -0.00055   0.00042  -0.00013   2.09027
    R7        2.08408   0.00025   0.00006   0.00074   0.00080   2.08488
    A1        1.97741   0.00022   0.00307  -0.00008   0.00299   1.98040
    A2        1.88694   0.00006   0.00147   0.00014   0.00161   1.88854
    A3        1.88694   0.00006   0.00147   0.00014   0.00161   1.88854
    A4        1.92275  -0.00017  -0.00199   0.00021  -0.00179   1.92096
    A5        1.92275  -0.00017  -0.00199   0.00021  -0.00179   1.92096
    A6        1.86302  -0.00001  -0.00220  -0.00065  -0.00288   1.86014
    A7        1.93877   0.00005  -0.00051   0.00118   0.00067   1.93943
    A8        1.91579  -0.00022  -0.00181  -0.00023  -0.00204   1.91375
    A9        1.93877   0.00005  -0.00051   0.00118   0.00067   1.93943
   A10        1.89001   0.00008   0.00130  -0.00071   0.00059   1.89060
   A11        1.88909  -0.00004   0.00036  -0.00080  -0.00044   1.88865
   A12        1.89001   0.00008   0.00130  -0.00071   0.00059   1.89060
    D1       -1.05188  -0.00001   0.00012  -0.00029  -0.00017  -1.05205
    D2        3.14159   0.00000   0.00000   0.00000   0.00000   3.14159
    D3        1.05188   0.00001  -0.00012   0.00029   0.00017   1.05205
    D4        1.06430   0.00010   0.00269  -0.00001   0.00267   1.06697
    D5       -1.02541   0.00011   0.00257   0.00027   0.00284  -1.02257
    D6       -3.11512   0.00012   0.00246   0.00056   0.00301  -3.11211
    D7        3.11512  -0.00012  -0.00246  -0.00056  -0.00301   3.11211
    D8        1.02541  -0.00011  -0.00257  -0.00027  -0.00284   1.02257
    D9       -1.06430  -0.00010  -0.00269   0.00001  -0.00267  -1.06697
         Item               Value     Threshold  Converged?
 Maximum Force            0.000867     0.000450     NO 
 RMS     Force            0.000225     0.000300     YES
 Maximum Displacement     0.004711     0.001800     NO 
 RMS     Displacement     0.001921     0.001200     NO 
 Predicted change in Energy=-4.647828D-06
 GradGradGradGradGradGradGradGradGradGradGradGradGradGradGradGradGradGrad

                          Input orientation:                          
 ---------------------------------------------------------------------
 Center     Atomic      Atomic             Coordinates (Angstroms)
 Number     Number       Type             X           Y           Z
 ---------------------------------------------------------------------
      1          6           0        0.975855   -0.010442    0.129458
      2          6           0        2.479765   -0.068235    0.071381
      3          6           0        3.013446   -1.083160   -0.948506
      4          1           0        2.856818   -0.313848    1.086067
      5          1           0        2.856816    0.947637   -0.169284
      6          1           0        2.673307   -2.104775   -0.708051
      7          1           0        4.119485   -1.073616   -0.938916
      8          1           0        2.673305   -0.837728   -1.968936
 ---------------------------------------------------------------------
                    Distance matrix (angstroms):
                    1          2          3          4          5
     1  C    0.000000
     2  C    1.506141   0.000000
     3  C    2.542540   1.534619   0.000000
     4  H    2.131942   1.109992   2.180793   0.000000
     5  H    2.131942   1.109992   2.180793   1.779677   0.000000
     6  H    2.822941   2.189171   1.103273   2.541644   3.105023
     7  H    3.486284   2.172596   1.106122   2.504423   2.504423
     8  H    2.822941   2.189171   1.103273   3.105023   2.541644
                    6          7          8
     6  H    0.000000
     7  H    1.791095   0.000000
     8  H    1.787523   1.791095   0.000000
 Stoichiometry    C3H5(4)
 Framework group  CS[SG(C3H),X(H4)]
 Deg. of freedom    11
 Full point group                 CS      NOp   2
 Largest Abelian subgroup         CS      NOp   2
 Largest concise Abelian subgroup CS      NOp   2
                         Standard orientation:                         
 ---------------------------------------------------------------------
 Center     Atomic      Atomic             Coordinates (Angstroms)
 Number     Number       Type             X           Y           Z
 ---------------------------------------------------------------------
      1          6           0        1.480427    0.280207   -0.000000
      2          6           0       -0.000000    0.557330   -0.000000
      3          6           0       -0.859732   -0.713858    0.000000
      4          1           0       -0.236787    1.177169   -0.889839
      5          1           0       -0.236787    1.177169    0.889839
      6          1           0       -0.659799   -1.329022   -0.893762
      7          1           0       -1.930999   -0.438370    0.000000
      8          1           0       -0.659799   -1.329022    0.893762
 ---------------------------------------------------------------------
 Rotational constants (GHZ):          37.4150074          10.1463763           8.8812674
 Standard basis: def2SVPP (5D, 7F)
 There are    39 symmetry adapted cartesian basis functions of A'  symmetry.
 There are    16 symmetry adapted cartesian basis functions of A"  symmetry.
 There are    36 symmetry adapted basis functions of A'  symmetry.
 There are    16 symmetry adapted basis functions of A"  symmetry.
    52 basis functions,    95 primitive gaussians,    55 cartesian basis functions
    13 alpha electrons       10 beta electrons
       nuclear repulsion energy        62.6787741333 Hartrees.
 NAtoms=    8 NActive=    8 NUniq=    6 SFac= 1.78D+00 NAtFMM=   60 NAOKFM=F Big=F
 Integral buffers will be    131072 words long.
 Raffenetti 2 integral format.
 Two-electron integral symmetry is turned on.
 Nuclear repulsion after empirical dispersion term =       62.6713454778 Hartrees.
 One-electron integrals computed using PRISM.
   2 Symmetry operations used in ECPInt.
 ECPInt:  NShTT=     406 NPrTT=    1650 LenC2=     407 LenP2D=    1483.
 LDataN:  DoStor=T MaxTD1= 4 Len=   56
 NBasis=    52 RedAO= T EigKep=  3.61D-03  NBF=    36    16
 NBsUse=    52 1.00D-06 EigRej= -1.00D+00 NBFU=    36    16
 Initial guess from the checkpoint file:  "/home/software/g16tmp/Gau-75809.chk"
 B after Tr=     0.000000   -0.000000    0.000000
         Rot=    0.999999    0.000000    0.000000   -0.001182 Ang=  -0.14 deg.
 Initial guess orbital symmetries:
 Alpha Orbitals:
       Occupied  (A') (A') (A') (A') (A') (A') (A") (A') (A') (A")
                 (A') (A') (A")
       Virtual   (A') (A') (A") (A') (A") (A') (A') (A') (A") (A')
                 (A') (A') (A") (A') (A') (A") (A') (A') (A") (A')
                 (A') (A") (A') (A') (A") (A') (A") (A') (A') (A")
                 (A') (A') (A") (A') (A") (A") (A') (A') (A')
 Beta  Orbitals:
       Occupied  (A') (A') (A') (A') (A') (A') (A") (A') (A') (A")
       Virtual   (A') (A') (A") (A') (A') (A") (A') (A") (A') (A')
                 (A') (A") (A') (A') (A') (A") (A') (A') (A") (A')
                 (A") (A') (A') (A") (A') (A') (A') (A") (A') (A')
                 (A") (A') (A") (A') (A') (A") (A') (A") (A") (A')
                 (A') (A')
 Initial guess <Sx>= 0.0000 <Sy>= 0.0000 <Sz>= 1.5000 <S**2>= 3.7530 S= 1.5008
 Keep R1 and R2 ints in memory in symmetry-blocked form, NReq=15012895.
 Requested convergence on RMS density matrix=1.00D-08 within 128 cycles.
 Requested convergence on MAX density matrix=1.00D-06.
 Requested convergence on             energy=1.00D-06.
 No special actions if energy rises.
 SCF Done:  E(UB3LYP) =  -116.998649842     A.U. after    9 cycles
            NFock=  9  Conv=0.99D-08     -V/T= 2.0105
 <Sx>= 0.0000 <Sy>= 0.0000 <Sz>= 1.5000 <S**2>= 3.7530 S= 1.5008
 <L.S>=  0.00000000000    
 Annihilation of the first spin contaminant:
 S**2 before annihilation     3.7530,   after     3.7500
   2 Symmetry operations used in ECPInt.
 ECPInt:  NShTT=     406 NPrTT=    1650 LenC2=     407 LenP2D=    1483.
 LDataN:  DoStor=T MaxTD1= 5 Len=  102
 Calling FoFJK, ICntrl=      2127 FMM=F ISym2X=1 I1Cent= 0 IOpClX= 1 NMat=1 NMatS=1 NMatT=0.
 ***** Axes restored to original set *****
 -------------------------------------------------------------------
 Center     Atomic                   Forces (Hartrees/Bohr)
 Number     Number              X              Y              Z
 -------------------------------------------------------------------
      1        6           0.000090541   -0.000025374   -0.000025499
      2        6          -0.000250347    0.000135114    0.000135775
      3        6           0.000030432   -0.000064665   -0.000064981
      4        1           0.000041976   -0.000014523   -0.000003441
      5        1           0.000041976   -0.000003370   -0.000014540
      6        1           0.000007157    0.000004243   -0.000007883
      7        1           0.000031109   -0.000023522   -0.000023637
      8        1           0.000007157   -0.000007903    0.000004205
 -------------------------------------------------------------------
 Cartesian Forces:  Max     0.000250347 RMS     0.000072024

 GradGradGradGradGradGradGradGradGradGradGradGradGradGradGradGradGradGrad
 Berny optimization.
 Using GEDIIS/GDIIS optimizer.
 FormGI is forming the generalized inverse of G from B-inverse, IUseBI=4.
 Internal  Forces:  Max     0.000148498 RMS     0.000039926
 Search for a local minimum.
 Step number   4 out of a maximum of   38
 All quantities printed in internal units (Hartrees-Bohrs-Radians)
 Mixed Optimization -- En-DIIS/RFO-DIIS
 Swapping is turned off.
 Update second derivatives using D2CorX and points    1    2    3    4
 DE= -4.84D-06 DEPred=-4.65D-06 R= 1.04D+00
 TightC=F SS=  1.41D+00  RLast= 1.04D-02 DXNew= 5.0454D-01 3.1165D-02
 Trust test= 1.04D+00 RLast= 1.04D-02 DXMaxT set to 3.00D-01
 ITU=  1  1  1  0
     Eigenvalues ---    0.00469   0.04646   0.05316   0.05589   0.05738
     Eigenvalues ---    0.15471   0.16000   0.16000   0.16190   0.16850
     Eigenvalues ---    0.20564   0.26541   0.32433   0.32480   0.32498
     Eigenvalues ---    0.32560   0.33064   0.35674
 En-DIIS/RFO-DIIS/Sim-DIIS IScMMF=       -3 using points:     4    3    2
 RFO step:  Lambda=-2.04260833D-07.
 DidBck=F Rises=F RFO-DIIS coefs:    1.09656   -0.10320    0.00664
 Iteration  1 RMS(Cart)=  0.00013859 RMS(Int)=  0.00000012
 Iteration  2 RMS(Cart)=  0.00000005 RMS(Int)=  0.00000011
 ClnCor:  largest displacement from symmetrization is 9.86D-09 for atom     8.
 Variable       Old X    -DE/DX   Delta X   Delta X   Delta X     New X
                                 (Linear)    (Quad)   (Total)
    R1        2.84619  -0.00009  -0.00037  -0.00008  -0.00045   2.84574
    R2        2.90001   0.00015  -0.00007   0.00050   0.00042   2.90043
    R3        2.09758   0.00001   0.00011  -0.00004   0.00008   2.09766
    R4        2.09758   0.00001   0.00011  -0.00004   0.00008   2.09766
    R5        2.08488  -0.00001   0.00008  -0.00009  -0.00002   2.08487
    R6        2.09027   0.00003  -0.00000   0.00009   0.00008   2.09035
    R7        2.08488  -0.00001   0.00008  -0.00009  -0.00002   2.08487
    A1        1.98040  -0.00004   0.00024  -0.00023   0.00002   1.98042
    A2        1.88854   0.00005   0.00013   0.00029   0.00042   1.88896
    A3        1.88854   0.00005   0.00013   0.00029   0.00042   1.88896
    A4        1.92096  -0.00003  -0.00014  -0.00020  -0.00035   1.92061
    A5        1.92096  -0.00003  -0.00014  -0.00020  -0.00035   1.92061
    A6        1.86014   0.00002  -0.00024   0.00010  -0.00015   1.85999
    A7        1.93943   0.00000   0.00007  -0.00008  -0.00000   1.93943
    A8        1.91375   0.00005  -0.00017   0.00044   0.00027   1.91402
    A9        1.93943   0.00000   0.00007  -0.00008  -0.00000   1.93943
   A10        1.89060  -0.00002   0.00004  -0.00012  -0.00008   1.89052
   A11        1.88865  -0.00001  -0.00005  -0.00006  -0.00011   1.88854
   A12        1.89060  -0.00002   0.00004  -0.00012  -0.00008   1.89052
    D1       -1.05205   0.00000  -0.00002   0.00009   0.00007  -1.05198
    D2       -3.14159   0.00000   0.00000  -0.00000  -0.00000   3.14159
    D3        1.05205  -0.00000   0.00002  -0.00009  -0.00007   1.05198
    D4        1.06697   0.00001   0.00022   0.00015   0.00037   1.06733
    D5       -1.02257   0.00001   0.00024   0.00006   0.00030  -1.02228
    D6       -3.11211   0.00001   0.00025  -0.00003   0.00023  -3.11189
    D7        3.11211  -0.00001  -0.00025   0.00003  -0.00023   3.11189
    D8        1.02257  -0.00001  -0.00024  -0.00006  -0.00030   1.02228
    D9       -1.06697  -0.00001  -0.00022  -0.00015  -0.00037  -1.06733
         Item               Value     Threshold  Converged?
 Maximum Force            0.000148     0.000450     YES
 RMS     Force            0.000040     0.000300     YES
 Maximum Displacement     0.000520     0.001800     YES
 RMS     Displacement     0.000139     0.001200     YES
 Predicted change in Energy=-1.021045D-07
 Optimization completed.
    -- Stationary point found.
                           ----------------------------
                           !   Optimized Parameters   !
                           ! (Angstroms and Degrees)  !
 --------------------------                            --------------------------
 ! Name  Definition              Value          Derivative Info.                !
 --------------------------------------------------------------------------------
 ! R1    R(1,2)                  1.5061         -DE/DX =   -0.0001              !
 ! R2    R(2,3)                  1.5346         -DE/DX =    0.0001              !
 ! R3    R(2,4)                  1.11           -DE/DX =    0.0                 !
 ! R4    R(2,5)                  1.11           -DE/DX =    0.0                 !
 ! R5    R(3,6)                  1.1033         -DE/DX =    0.0                 !
 ! R6    R(3,7)                  1.1061         -DE/DX =    0.0                 !
 ! R7    R(3,8)                  1.1033         -DE/DX =    0.0                 !
 ! A1    A(1,2,3)              113.4688         -DE/DX =    0.0                 !
 ! A2    A(1,2,4)              108.2056         -DE/DX =    0.0                 !
 ! A3    A(1,2,5)              108.2056         -DE/DX =    0.0                 !
 ! A4    A(3,2,4)              110.0629         -DE/DX =    0.0                 !
 ! A5    A(3,2,5)              110.0629         -DE/DX =    0.0                 !
 ! A6    A(4,2,5)              106.5782         -DE/DX =    0.0                 !
 ! A7    A(2,3,6)              111.1214         -DE/DX =    0.0                 !
 ! A8    A(2,3,7)              109.6496         -DE/DX =    0.0                 !
 ! A9    A(2,3,8)              111.1214         -DE/DX =    0.0                 !
 ! A10   A(6,3,7)              108.3232         -DE/DX =    0.0                 !
 ! A11   A(6,3,8)              108.2115         -DE/DX =    0.0                 !
 ! A12   A(7,3,8)              108.3232         -DE/DX =    0.0                 !
 ! D1    D(1,2,3,6)            -60.2782         -DE/DX =    0.0                 !
 ! D2    D(1,2,3,7)            180.0            -DE/DX =    0.0                 !
 ! D3    D(1,2,3,8)             60.2782         -DE/DX =    0.0                 !
 ! D4    D(4,2,3,6)             61.1326         -DE/DX =    0.0                 !
 ! D5    D(4,2,3,7)            -58.5892         -DE/DX =    0.0                 !
 ! D6    D(4,2,3,8)           -178.311          -DE/DX =    0.0                 !
 ! D7    D(5,2,3,6)            178.311          -DE/DX =    0.0                 !
 ! D8    D(5,2,3,7)             58.5892         -DE/DX =    0.0                 !
 ! D9    D(5,2,3,8)            -61.1326         -DE/DX =    0.0                 !
 --------------------------------------------------------------------------------
 GradGradGradGradGradGradGradGradGradGradGradGradGradGradGradGradGradGrad

                          Input orientation:                          
 ---------------------------------------------------------------------
 Center     Atomic      Atomic             Coordinates (Angstroms)
 Number     Number       Type             X           Y           Z
 ---------------------------------------------------------------------
      1          6           0        0.975855   -0.010442    0.129458
      2          6           0        2.479765   -0.068235    0.071381
      3          6           0        3.013446   -1.083160   -0.948506
      4          1           0        2.856818   -0.313848    1.086067
      5          1           0        2.856816    0.947637   -0.169284
      6          1           0        2.673307   -2.104775   -0.708051
      7          1           0        4.119485   -1.073616   -0.938916
      8          1           0        2.673305   -0.837728   -1.968936
 ---------------------------------------------------------------------
                    Distance matrix (angstroms):
                    1          2          3          4          5
     1  C    0.000000
     2  C    1.506141   0.000000
     3  C    2.542540   1.534619   0.000000
     4  H    2.131942   1.109992   2.180793   0.000000
     5  H    2.131942   1.109992   2.180793   1.779677   0.000000
     6  H    2.822941   2.189171   1.103273   2.541644   3.105023
     7  H    3.486284   2.172596   1.106122   2.504423   2.504423
     8  H    2.822941   2.189171   1.103273   3.105023   2.541644
                    6          7          8
     6  H    0.000000
     7  H    1.791095   0.000000
     8  H    1.787523   1.791095   0.000000
 Stoichiometry    C3H5(4)
 Framework group  CS[SG(C3H),X(H4)]
 Deg. of freedom    11
 Full point group                 CS      NOp   2
 Largest Abelian subgroup         CS      NOp   2
 Largest concise Abelian subgroup CS      NOp   2
                         Standard orientation:                         
 ---------------------------------------------------------------------
 Center     Atomic      Atomic             Coordinates (Angstroms)
 Number     Number       Type             X           Y           Z
 ---------------------------------------------------------------------
      1          6           0        1.480427    0.280207    0.000000
      2          6           0       -0.000000    0.557330   -0.000000
      3          6           0       -0.859732   -0.713858    0.000000
      4          1           0       -0.236787    1.177169   -0.889839
      5          1           0       -0.236787    1.177169    0.889839
      6          1           0       -0.659799   -1.329022   -0.893762
      7          1           0       -1.930999   -0.438370   -0.000000
      8          1           0       -0.659799   -1.329022    0.893762
 ---------------------------------------------------------------------
 Rotational constants (GHZ):          37.4150074          10.1463763           8.8812674

 **********************************************************************

            Population analysis using the SCF Density.

 **********************************************************************

 Orbital symmetries:
 Alpha Orbitals:
       Occupied  (A') (A') (A') (A') (A') (A') (A") (A') (A') (A")
                 (A') (A') (A")
       Virtual   (A') (A') (A") (A') (A") (A') (A') (A') (A") (A')
                 (A') (A') (A") (A') (A') (A") (A') (A') (A") (A')
                 (A") (A') (A') (A') (A") (A') (A") (A') (A') (A")
                 (A') (A') (A") (A') (A") (A") (A') (A') (A')
 Beta  Orbitals:
       Occupied  (A') (A') (A') (A') (A') (A') (A") (A') (A') (A")
       Virtual   (A') (A') (A") (A') (A') (A") (A') (A") (A') (A')
                 (A') (A") (A') (A') (A') (A") (A') (A') (A") (A')
                 (A") (A') (A') (A") (A') (A') (A') (A") (A') (A')
                 (A") (A') (A") (A') (A') (A") (A') (A") (A") (A')
                 (A') (A')
 The electronic state is 4-A".
 Alpha  occ. eigenvalues --  -10.22930 -10.22278 -10.18653  -0.79236  -0.66470
 Alpha  occ. eigenvalues --   -0.54830  -0.46637  -0.42692  -0.39432  -0.37147
 Alpha  occ. eigenvalues --   -0.33976  -0.21806  -0.21592
 Alpha virt. eigenvalues --    0.06172   0.10242   0.10596   0.12997   0.15111
 Alpha virt. eigenvalues --    0.20511   0.23569   0.37312   0.41955   0.43746
 Alpha virt. eigenvalues --    0.46047   0.47718   0.50258   0.56823   0.61356
 Alpha virt. eigenvalues --    0.63539   0.64622   0.67429   0.67555   0.68687
 Alpha virt. eigenvalues --    0.71291   0.71310   0.83529   0.96208   1.38242
 Alpha virt. eigenvalues --    1.40667   1.64615   1.66206   1.71865   1.84716
 Alpha virt. eigenvalues --    1.86783   1.89462   2.03658   2.05367   2.20849
 Alpha virt. eigenvalues --    2.25277   2.29936   2.50058   2.60530
  Beta  occ. eigenvalues --  -10.22024 -10.18595 -10.18507  -0.77163  -0.63754
  Beta  occ. eigenvalues --   -0.48476  -0.45598  -0.40062  -0.37802  -0.36320
  Beta virt. eigenvalues --   -0.14563  -0.02445  -0.01909   0.06961   0.10506
  Beta virt. eigenvalues --    0.10928   0.13324   0.15710   0.21636   0.27677
  Beta virt. eigenvalues --    0.41138   0.42540   0.47272   0.49810   0.53701
  Beta virt. eigenvalues --    0.58772   0.60814   0.63948   0.65212   0.66268
  Beta virt. eigenvalues --    0.68022   0.68727   0.69736   0.71615   0.71782
  Beta virt. eigenvalues --    0.84710   0.97095   1.42255   1.44071   1.74388
  Beta virt. eigenvalues --    1.79449   1.82246   1.87837   1.90148   1.95557
  Beta virt. eigenvalues --    2.06729   2.07790   2.23631   2.28275   2.33205
  Beta virt. eigenvalues --    2.53732   2.64997
          Condensed to atoms (all electrons):
               1          2          3          4          5          6
     1  C    5.934441   0.324034  -0.071262  -0.033345  -0.033345   0.001658
     2  C    0.324034   4.739194   0.433171   0.360360   0.360360  -0.024144
     3  C   -0.071262   0.433171   4.842325  -0.029119  -0.029119   0.378150
     4  H   -0.033345   0.360360  -0.029119   0.625455  -0.034650  -0.007672
     5  H   -0.033345   0.360360  -0.029119  -0.034650   0.625455   0.007573
     6  H    0.001658  -0.024144   0.378150  -0.007672   0.007573   0.584784
     7  H    0.007760  -0.015358   0.354148  -0.003139  -0.003139  -0.021522
     8  H    0.001658  -0.024144   0.378150   0.007573  -0.007672  -0.025383
               7          8
     1  C    0.007760   0.001658
     2  C   -0.015358  -0.024144
     3  C    0.354148   0.378150
     4  H   -0.003139   0.007573
     5  H   -0.003139  -0.007672
     6  H   -0.021522  -0.025383
     7  H    0.603442  -0.021522
     8  H   -0.021522   0.584784
          Atomic-Atomic Spin Densities.
               1          2          3          4          5          6
     1  C    2.988258  -0.102006  -0.046957  -0.027065  -0.027065   0.008182
     2  C   -0.102006   0.118409  -0.000584   0.003767   0.003767  -0.001251
     3  C   -0.046957  -0.000584   0.144347  -0.010033  -0.010033  -0.008843
     4  H   -0.027065   0.003767  -0.010033   0.100415  -0.013820  -0.001706
     5  H   -0.027065   0.003767  -0.010033  -0.013820   0.100415   0.001829
     6  H    0.008182  -0.001251  -0.008843  -0.001706   0.001829   0.004237
     7  H    0.002804   0.001183  -0.022727   0.001823   0.001823   0.001497
     8  H    0.008182  -0.001251  -0.008843   0.001829  -0.001706  -0.000619
               7          8
     1  C    0.002804   0.008182
     2  C    0.001183  -0.001251
     3  C   -0.022727  -0.008843
     4  H    0.001823   0.001829
     5  H    0.001823  -0.001706
     6  H    0.001497  -0.000619
     7  H    0.032338   0.001497
     8  H    0.001497   0.004237
 Mulliken charges and spin densities:
               1          2
     1  C   -0.131601   2.804333
     2  C   -0.153472   0.022033
     3  C   -0.256446   0.036326
     4  H    0.114537   0.055209
     5  H    0.114537   0.055209
     6  H    0.106557   0.003326
     7  H    0.099331   0.020238
     8  H    0.106557   0.003326
 Sum of Mulliken charges =  -0.00000   3.00000
 Mulliken charges and spin densities with hydrogens summed into heavy atoms:
               1          2
     1  C   -0.131601   2.804333
     2  C    0.075602   0.132452
     3  C    0.055999   0.063216
 Electronic spatial extent (au):  <R**2>=            179.0253
 Charge=             -0.0000 electrons
 Dipole moment (field-independent basis, Debye):
    X=             -1.2932    Y=              0.1280    Z=             -0.0000  Tot=              1.2995
 Quadrupole moment (field-independent basis, Debye-Ang):
   XX=            -21.5238   YY=            -19.9573   ZZ=            -19.8365
   XY=             -0.5495   XZ=              0.0000   YZ=              0.0000
 Traceless Quadrupole moment (field-independent basis, Debye-Ang):
   XX=             -1.0846   YY=              0.4819   ZZ=              0.6027
   XY=             -0.5495   XZ=              0.0000   YZ=              0.0000
 Octapole moment (field-independent basis, Debye-Ang**2):
  XXX=             -6.9023  YYY=             -0.4430  ZZZ=             -0.0000  XYY=             -2.2762
  XXY=             -0.7191  XXZ=             -0.0000  XZZ=             -2.3927  YZZ=             -0.1184
  YYZ=             -0.0000  XYZ=             -0.0000
 Hexadecapole moment (field-independent basis, Debye-Ang**3):
 XXXX=           -144.7510 YYYY=            -80.4622 ZZZZ=            -34.9882 XXXY=            -24.1129
 XXXZ=              0.0000 YYYX=            -23.0523 YYYZ=              0.0000 ZZZX=              0.0000
 ZZZY=              0.0000 XXYY=            -40.1411 XXZZ=            -32.1703 YYZZ=            -17.5221
 XXYZ=              0.0000 YYXZ=              0.0000 ZZXY=             -7.5359
 N-N= 6.267134547784D+01 E-N=-3.954880038360D+02  KE= 1.157816826136D+02
 Symmetry A'   KE= 1.106149308907D+02
 Symmetry A"   KE= 5.166751722859D+00
 Symmetry A'   SP= 2.000000000000D+00
 Symmetry A"   SP= 1.000000000000D+00
                          Isotropic Fermi Contact Couplings
        Atom                 a.u.       MegaHertz       Gauss      10(-4) cm-1
     1  C(13)              1.33221     499.22078     178.13439     166.52213
     2  C(13)              0.07055      26.43706       9.43340       8.81845
     3  C(13)              0.08819      33.04722      11.79207      11.02337
     4  H(1)               0.02488      37.07493      13.22926      12.36687
     5  H(1)               0.02488      37.07493      13.22926      12.36687
     6  H(1)              -0.00053      -0.78757      -0.28103      -0.26271
     7  H(1)               0.00612       9.12001       3.25425       3.04211
     8  H(1)              -0.00053      -0.78757      -0.28103      -0.26271
 --------------------------------------------------------
       Center         ----  Spin Dipole Couplings  ----
                      3XX-RR        3YY-RR        3ZZ-RR
 --------------------------------------------------------
     1   Atom       -0.482008      0.224315      0.257693
     2   Atom        0.320880     -0.150591     -0.170289
     3   Atom        0.047155      0.004312     -0.051467
     4   Atom        0.025945     -0.017574     -0.008371
     5   Atom        0.025945     -0.017574     -0.008371
     6   Atom        0.010062      0.001744     -0.011806
     7   Atom        0.021523     -0.007968     -0.013554
     8   Atom        0.010062      0.001744     -0.011806
 --------------------------------------------------------
                        XY            XZ            YZ
 --------------------------------------------------------
     1   Atom        0.143864      0.000000     -0.000000
     2   Atom       -0.096593      0.000000      0.000000
     3   Atom        0.071409     -0.000000      0.000000
     4   Atom       -0.030062      0.027208     -0.025734
     5   Atom       -0.030062     -0.027208      0.025734
     6   Atom        0.020842      0.011514      0.013946
     7   Atom        0.004927      0.000000     -0.000000
     8   Atom        0.020842     -0.011514     -0.013946
 --------------------------------------------------------


 ---------------------------------------------------------------------------------
              Anisotropic Spin Dipole Couplings in Principal Axis System
 ---------------------------------------------------------------------------------

       Atom             a.u.   MegaHertz   Gauss  10(-4) cm-1        Axes

              Baa    -0.5102   -68.462   -24.429   -22.837  0.9814 -0.1922 -0.0000
     1 C(13)  Bbb     0.2525    33.882    12.090    11.302  0.1922  0.9814  0.0000
              Bcc     0.2577    34.580    12.339    11.535 -0.0000 -0.0000  1.0000
 
              Baa    -0.1703   -22.851    -8.154    -7.622 -0.0000 -0.0000  1.0000
     2 C(13)  Bbb    -0.1696   -22.760    -8.121    -7.592  0.1932  0.9812  0.0000
              Bcc     0.3399    45.612    16.275    15.214  0.9812 -0.1932  0.0000
 
              Baa    -0.0515    -6.906    -2.464    -2.304  0.0000 -0.0000  1.0000
     3 C(13)  Bbb    -0.0488    -6.551    -2.338    -2.185 -0.5969  0.8023  0.0000
              Bcc     0.1003    13.457     4.802     4.489  0.8023  0.5969  0.0000
 
              Baa    -0.0400   -21.338    -7.614    -7.118  0.1540  0.8271  0.5406
     4 H(1)   Bbb    -0.0204   -10.890    -3.886    -3.633 -0.6300 -0.3393  0.6986
              Bcc     0.0604    32.228    11.500    10.750  0.7612 -0.4482  0.4688
 
              Baa    -0.0400   -21.338    -7.614    -7.118  0.1540  0.8271 -0.5406
     5 H(1)   Bbb    -0.0204   -10.890    -3.886    -3.633  0.6300  0.3393  0.6986
              Bcc     0.0604    32.228    11.500    10.750  0.7612 -0.4482 -0.4688
 
              Baa    -0.0207   -11.028    -3.935    -3.679  0.1024 -0.5924  0.7991
     6 H(1)   Bbb    -0.0134    -7.144    -2.549    -2.383  0.7026 -0.5256 -0.4797
              Bcc     0.0341    18.172     6.484     6.062  0.7042  0.6106  0.3624
 
              Baa    -0.0136    -7.232    -2.581    -2.412 -0.0000  0.0000  1.0000
     7 H(1)   Bbb    -0.0088    -4.679    -1.670    -1.561 -0.1606  0.9870 -0.0000
              Bcc     0.0223    11.911     4.250     3.973  0.9870  0.1606  0.0000
 
              Baa    -0.0207   -11.028    -3.935    -3.679 -0.1024  0.5924  0.7991
     8 H(1)   Bbb    -0.0134    -7.144    -2.549    -2.383  0.7026 -0.5256  0.4797
              Bcc     0.0341    18.172     6.484     6.062  0.7042  0.6106 -0.3624
 

 ---------------------------------------------------------------------------------

 Unable to Open any file for archive entry.
 1\1\GINC-NODE01\FOpt\UB3LYP\def2SVPP\C3H5(4)\XUHJ\19-Dec-2023\0\\#N op
 t freq B3LYP/def2SVPP symm=veryloose em=gd3bj scale=0.961 press=0.987\
 \[C]CC_1\\0,4\C,0.9758545257,-0.0104417559,0.1294580931\C,2.4797653346
 ,-0.0682347637,0.0713805536\C,3.013446013,-1.0831599531,-0.9485055407\
 H,2.8568176178,-0.3138484888,1.0860666714\H,2.8568158778,0.9476372536,
 -0.1692838936\H,2.6733066927,-2.1047750756,-0.7080509534\H,4.119485453
 7,-1.0736158402,-0.9389163164\H,2.6733049451,-0.8377280351,-1.96893576
 94\\Version=ES64L-G16RevC.01\State=4-A"\HF=-116.9986498\S2=3.753033\S2
 -1=0.\S2A=3.750003\RMSD=9.861e-09\RMSF=7.202e-05\Dipole=0.5062177,-0.0
 506174,-0.0508655\Quadrupole=-0.5525433,0.2771098,0.2754335,0.4450451,
 0.4472215,-0.171795\PG=CS [SG(C3H1),X(H4)]\\@
 The archive entry for this job was punched.


 A HARD FALL SHOULD MEAN A HIGH BOUNCE 
 IF ONE IS MADE OF THE RIGHT MATERIAL.

                -- THE CHEMIST ANALYST, MARCH 1950
 Job cpu time:       0 days  0 hours  1 minutes 56.0 seconds.
 Elapsed time:       0 days  0 hours  0 minutes  8.7 seconds.
 File lengths (MBytes):  RWF=      6 Int=      0 D2E=      0 Chk=      1 Scr=      1
 Normal termination of Gaussian 16 at Tue Dec 19 12:55:06 2023.
 Link1:  Proceeding to internal job step number  2.
 --------------------------------------------------------------------
 #N Geom=AllCheck Guess=TCheck SCRF=Check GenChk UB3LYP/def2SVPP Freq
 --------------------------------------------------------------------
 1/10=4,29=7,30=1,38=1,40=1,113=-987000,114=961000/1,3;
 2/12=2,17=2,18=2,40=1/2;
 3/5=43,7=202,11=2,14=-4,25=1,30=1,70=2,71=2,74=-5,116=2,124=41,140=1/1,2,3;
 4/5=101/1;
 5/5=2,38=6,98=1/2;
 8/6=4,10=90,11=11/1;
 11/6=1,8=1,9=11,15=111,16=1/1,2,10;
 10/6=1/2;
 6/7=2,8=2,9=2,10=2,28=1/1;
 7/8=1,10=1,25=1/1,2,3,16;
 1/10=4,30=1/3;
 99//99;
 Structure from the checkpoint file:  "/home/software/g16tmp/Gau-75809.chk"
 -------
 [C]CC_1
 -------
 Charge =  0 Multiplicity = 4
 Redundant internal coordinates found in file.  (old form).
 C,0,0.9758545257,-0.0104417559,0.1294580931
 C,0,2.4797653346,-0.0682347637,0.0713805536
 C,0,3.013446013,-1.0831599531,-0.9485055407
 H,0,2.8568176178,-0.3138484888,1.0860666714
 H,0,2.8568158778,0.9476372536,-0.1692838936
 H,0,2.6733066927,-2.1047750756,-0.7080509534
 H,0,4.1194854537,-1.0736158402,-0.9389163164
 H,0,2.6733049451,-0.8377280351,-1.9689357694
 Recover connectivity data from disk.

 GradGradGradGradGradGradGradGradGradGradGradGradGradGradGradGradGradGrad
 Berny optimization.
 Initialization pass.
                           ----------------------------
                           !    Initial Parameters    !
                           ! (Angstroms and Degrees)  !
 --------------------------                            --------------------------
 ! Name  Definition              Value          Derivative Info.                !
 --------------------------------------------------------------------------------
 ! R1    R(1,2)                  1.5061         calculate D2E/DX2 analytically  !
 ! R2    R(2,3)                  1.5346         calculate D2E/DX2 analytically  !
 ! R3    R(2,4)                  1.11           calculate D2E/DX2 analytically  !
 ! R4    R(2,5)                  1.11           calculate D2E/DX2 analytically  !
 ! R5    R(3,6)                  1.1033         calculate D2E/DX2 analytically  !
 ! R6    R(3,7)                  1.1061         calculate D2E/DX2 analytically  !
 ! R7    R(3,8)                  1.1033         calculate D2E/DX2 analytically  !
 ! A1    A(1,2,3)              113.4688         calculate D2E/DX2 analytically  !
 ! A2    A(1,2,4)              108.2056         calculate D2E/DX2 analytically  !
 ! A3    A(1,2,5)              108.2056         calculate D2E/DX2 analytically  !
 ! A4    A(3,2,4)              110.0629         calculate D2E/DX2 analytically  !
 ! A5    A(3,2,5)              110.0629         calculate D2E/DX2 analytically  !
 ! A6    A(4,2,5)              106.5782         calculate D2E/DX2 analytically  !
 ! A7    A(2,3,6)              111.1214         calculate D2E/DX2 analytically  !
 ! A8    A(2,3,7)              109.6496         calculate D2E/DX2 analytically  !
 ! A9    A(2,3,8)              111.1214         calculate D2E/DX2 analytically  !
 ! A10   A(6,3,7)              108.3232         calculate D2E/DX2 analytically  !
 ! A11   A(6,3,8)              108.2115         calculate D2E/DX2 analytically  !
 ! A12   A(7,3,8)              108.3232         calculate D2E/DX2 analytically  !
 ! D1    D(1,2,3,6)            -60.2782         calculate D2E/DX2 analytically  !
 ! D2    D(1,2,3,7)            180.0            calculate D2E/DX2 analytically  !
 ! D3    D(1,2,3,8)             60.2782         calculate D2E/DX2 analytically  !
 ! D4    D(4,2,3,6)             61.1326         calculate D2E/DX2 analytically  !
 ! D5    D(4,2,3,7)            -58.5892         calculate D2E/DX2 analytically  !
 ! D6    D(4,2,3,8)           -178.311          calculate D2E/DX2 analytically  !
 ! D7    D(5,2,3,6)            178.311          calculate D2E/DX2 analytically  !
 ! D8    D(5,2,3,7)             58.5892         calculate D2E/DX2 analytically  !
 ! D9    D(5,2,3,8)            -61.1326         calculate D2E/DX2 analytically  !
 --------------------------------------------------------------------------------
 Trust Radius=3.00D-01 FncErr=1.00D-07 GrdErr=1.00D-07 EigMax=2.50D+02 EigMin=1.00D-04
 Number of steps in this run=      2 maximum allowed number of steps=      2.
 GradGradGradGradGradGradGradGradGradGradGradGradGradGradGradGradGradGrad

                          Input orientation:                          
 ---------------------------------------------------------------------
 Center     Atomic      Atomic             Coordinates (Angstroms)
 Number     Number       Type             X           Y           Z
 ---------------------------------------------------------------------
      1          6           0        0.975855   -0.010442    0.129458
      2          6           0        2.479765   -0.068235    0.071381
      3          6           0        3.013446   -1.083160   -0.948506
      4          1           0        2.856818   -0.313848    1.086067
      5          1           0        2.856816    0.947637   -0.169284
      6          1           0        2.673307   -2.104775   -0.708051
      7          1           0        4.119485   -1.073616   -0.938916
      8          1           0        2.673305   -0.837728   -1.968936
 ---------------------------------------------------------------------
                    Distance matrix (angstroms):
                    1          2          3          4          5
     1  C    0.000000
     2  C    1.506141   0.000000
     3  C    2.542540   1.534619   0.000000
     4  H    2.131942   1.109992   2.180793   0.000000
     5  H    2.131942   1.109992   2.180793   1.779677   0.000000
     6  H    2.822941   2.189171   1.103273   2.541644   3.105023
     7  H    3.486284   2.172596   1.106122   2.504423   2.504423
     8  H    2.822941   2.189171   1.103273   3.105023   2.541644
                    6          7          8
     6  H    0.000000
     7  H    1.791095   0.000000
     8  H    1.787523   1.791095   0.000000
 Stoichiometry    C3H5(4)
 Framework group  CS[SG(C3H),X(H4)]
 Deg. of freedom    11
 Full point group                 CS      NOp   2
 Largest Abelian subgroup         CS      NOp   2
 Largest concise Abelian subgroup CS      NOp   2
                         Standard orientation:                         
 ---------------------------------------------------------------------
 Center     Atomic      Atomic             Coordinates (Angstroms)
 Number     Number       Type             X           Y           Z
 ---------------------------------------------------------------------
      1          6           0        1.480427    0.280207   -0.000000
      2          6           0        0.000000    0.557330   -0.000000
      3          6           0       -0.859732   -0.713858    0.000000
      4          1           0       -0.236787    1.177169   -0.889839
      5          1           0       -0.236787    1.177169    0.889839
      6          1           0       -0.659799   -1.329022   -0.893762
      7          1           0       -1.930999   -0.438370    0.000000
      8          1           0       -0.659799   -1.329022    0.893762
 ---------------------------------------------------------------------
 Rotational constants (GHZ):          37.4150074          10.1463763           8.8812674
 Standard basis: def2SVPP (5D, 7F)
 There are    39 symmetry adapted cartesian basis functions of A'  symmetry.
 There are    16 symmetry adapted cartesian basis functions of A"  symmetry.
 There are    36 symmetry adapted basis functions of A'  symmetry.
 There are    16 symmetry adapted basis functions of A"  symmetry.
    52 basis functions,    95 primitive gaussians,    55 cartesian basis functions
    13 alpha electrons       10 beta electrons
       nuclear repulsion energy        62.6787741333 Hartrees.
 NAtoms=    8 NActive=    8 NUniq=    6 SFac= 1.78D+00 NAtFMM=   60 NAOKFM=F Big=F
 Integral buffers will be    131072 words long.
 Raffenetti 2 integral format.
 Two-electron integral symmetry is turned on.
 Nuclear repulsion after empirical dispersion term =       62.6713454778 Hartrees.
 One-electron integrals computed using PRISM.
   2 Symmetry operations used in ECPInt.
 ECPInt:  NShTT=     406 NPrTT=    1650 LenC2=     407 LenP2D=    1483.
 LDataN:  DoStor=T MaxTD1= 4 Len=   56
 NBasis=    52 RedAO= T EigKep=  3.61D-03  NBF=    36    16
 NBsUse=    52 1.00D-06 EigRej= -1.00D+00 NBFU=    36    16
 Initial guess from the checkpoint file:  "/home/software/g16tmp/Gau-75809.chk"
 B after Tr=    -0.000000   -0.000000   -0.000000
         Rot=    1.000000   -0.000000   -0.000000    0.000000 Ang=   0.00 deg.
 Initial guess orbital symmetries:
 Alpha Orbitals:
       Occupied  (A') (A') (A') (A') (A') (A') (A") (A') (A') (A")
                 (A') (A') (A")
       Virtual   (A') (A') (A") (A') (A") (A') (A') (A') (A") (A')
                 (A') (A') (A") (A') (A') (A") (A') (A') (A") (A')
                 (A") (A') (A') (A') (A") (A') (A") (A') (A') (A")
                 (A') (A') (A") (A') (A") (A") (A') (A') (A')
 Beta  Orbitals:
       Occupied  (A') (A') (A') (A') (A') (A') (A") (A') (A') (A")
       Virtual   (A') (A') (A") (A') (A') (A") (A') (A") (A') (A')
                 (A') (A") (A') (A') (A') (A") (A') (A') (A") (A')
                 (A") (A') (A') (A") (A') (A') (A') (A") (A') (A')
                 (A") (A') (A") (A') (A') (A") (A') (A") (A") (A')
                 (A') (A')
 Initial guess <Sx>= 0.0000 <Sy>= 0.0000 <Sz>= 1.5000 <S**2>= 3.7530 S= 1.5008
 Keep R1 and R2 ints in memory in symmetry-blocked form, NReq=15012895.
 Requested convergence on RMS density matrix=1.00D-08 within 128 cycles.
 Requested convergence on MAX density matrix=1.00D-06.
 Requested convergence on             energy=1.00D-06.
 No special actions if energy rises.
 SCF Done:  E(UB3LYP) =  -116.998649842     A.U. after    1 cycles
            NFock=  1  Conv=0.34D-08     -V/T= 2.0105
 <Sx>= 0.0000 <Sy>= 0.0000 <Sz>= 1.5000 <S**2>= 3.7530 S= 1.5008
 <L.S>=  0.00000000000    
 Annihilation of the first spin contaminant:
 S**2 before annihilation     3.7530,   after     3.7500
 DoSCS=F DFT=T ScalE2(SS,OS)=  1.000000  1.000000
 Range of M.O.s used for correlation:     1    52
 NBasis=    52 NAE=    13 NBE=    10 NFC=     0 NFV=     0
 NROrb=     52 NOA=    13 NOB=    10 NVA=    39 NVB=    42
   2 Symmetry operations used in ECPInt.
 ECPInt:  NShTT=     406 NPrTT=    1650 LenC2=     407 LenP2D=    1483.
 LDataN:  DoStor=T MaxTD1= 5 Len=  102
 Symmetrizing basis deriv contribution to polar:
 IMax=3 JMax=2 DiffMx= 0.00D+00
 G2DrvN: will do     9 centers at a time, making    1 passes.
 Calling FoFCou, ICntrl=  3107 FMM=F I1Cent=   0 AccDes= 0.00D+00.
 End of G2Drv F.D. properties file   721 does not exist.
 End of G2Drv F.D. properties file   722 does not exist.
 End of G2Drv F.D. properties file   788 does not exist.
          IDoAtm=11111111
          Differentiating once with respect to electric field.
                with respect to dipole field.
          Differentiating once with respect to nuclear coordinates.
 Keep R1 and R2 ints in memory in symmetry-blocked form, NReq=14964317.
          There are    21 degrees of freedom in the 1st order CPHF.  IDoFFX=4 NUNeed=    21.
     21 vectors produced by pass  0 Test12= 4.41D-15 4.76D-09 XBig12= 5.60D+01 2.78D+00.
 AX will form    21 AO Fock derivatives at one time.
     21 vectors produced by pass  1 Test12= 4.41D-15 4.76D-09 XBig12= 4.48D+00 8.99D-01.
     21 vectors produced by pass  2 Test12= 4.41D-15 4.76D-09 XBig12= 1.18D-01 6.81D-02.
     21 vectors produced by pass  3 Test12= 4.41D-15 4.76D-09 XBig12= 1.30D-03 6.27D-03.
     21 vectors produced by pass  4 Test12= 4.41D-15 4.76D-09 XBig12= 6.56D-06 5.65D-04.
     21 vectors produced by pass  5 Test12= 4.41D-15 4.76D-09 XBig12= 1.56D-08 1.89D-05.
      7 vectors produced by pass  6 Test12= 4.41D-15 4.76D-09 XBig12= 2.25D-11 7.66D-07.
      3 vectors produced by pass  7 Test12= 4.41D-15 4.76D-09 XBig12= 4.78D-14 4.04D-08.
 InvSVY:  IOpt=1 It=  1 EMax= 3.55D-15
 Solved reduced A of dimension   136 with    21 vectors.
 Isotropic polarizability for W=    0.000000       30.55 Bohr**3.
 End of Minotr F.D. properties file   721 does not exist.
 End of Minotr F.D. properties file   722 does not exist.
 End of Minotr F.D. properties file   788 does not exist.

 **********************************************************************

            Population analysis using the SCF Density.

 **********************************************************************

 Orbital symmetries:
 Alpha Orbitals:
       Occupied  (A') (A') (A') (A') (A') (A') (A") (A') (A') (A")
                 (A') (A') (A")
       Virtual   (A') (A') (A") (A') (A") (A') (A') (A') (A") (A')
                 (A') (A') (A") (A') (A') (A") (A') (A') (A") (A')
                 (A") (A') (A') (A') (A") (A') (A") (A') (A') (A")
                 (A') (A') (A") (A') (A") (A") (A') (A') (A')
 Beta  Orbitals:
       Occupied  (A') (A') (A') (A') (A') (A') (A") (A') (A') (A")
       Virtual   (A') (A') (A") (A') (A') (A") (A') (A") (A') (A')
                 (A') (A") (A') (A') (A') (A") (A') (A') (A") (A')
                 (A") (A') (A') (A") (A') (A') (A') (A") (A') (A')
                 (A") (A') (A") (A') (A') (A") (A') (A") (A") (A')
                 (A') (A')
 The electronic state is 4-A".
 Alpha  occ. eigenvalues --  -10.22930 -10.22278 -10.18653  -0.79236  -0.66470
 Alpha  occ. eigenvalues --   -0.54830  -0.46637  -0.42692  -0.39432  -0.37147
 Alpha  occ. eigenvalues --   -0.33976  -0.21806  -0.21592
 Alpha virt. eigenvalues --    0.06172   0.10242   0.10596   0.12997   0.15111
 Alpha virt. eigenvalues --    0.20511   0.23569   0.37312   0.41955   0.43746
 Alpha virt. eigenvalues --    0.46047   0.47718   0.50258   0.56823   0.61356
 Alpha virt. eigenvalues --    0.63539   0.64622   0.67429   0.67555   0.68687
 Alpha virt. eigenvalues --    0.71291   0.71310   0.83529   0.96208   1.38242
 Alpha virt. eigenvalues --    1.40667   1.64615   1.66206   1.71865   1.84716
 Alpha virt. eigenvalues --    1.86783   1.89462   2.03658   2.05367   2.20849
 Alpha virt. eigenvalues --    2.25277   2.29936   2.50058   2.60530
  Beta  occ. eigenvalues --  -10.22024 -10.18595 -10.18507  -0.77163  -0.63754
  Beta  occ. eigenvalues --   -0.48476  -0.45598  -0.40062  -0.37802  -0.36320
  Beta virt. eigenvalues --   -0.14563  -0.02445  -0.01909   0.06961   0.10506
  Beta virt. eigenvalues --    0.10928   0.13324   0.15710   0.21636   0.27677
  Beta virt. eigenvalues --    0.41138   0.42540   0.47272   0.49810   0.53701
  Beta virt. eigenvalues --    0.58772   0.60814   0.63948   0.65212   0.66268
  Beta virt. eigenvalues --    0.68022   0.68727   0.69736   0.71615   0.71782
  Beta virt. eigenvalues --    0.84710   0.97095   1.42255   1.44071   1.74388
  Beta virt. eigenvalues --    1.79449   1.82246   1.87837   1.90148   1.95557
  Beta virt. eigenvalues --    2.06729   2.07790   2.23631   2.28275   2.33205
  Beta virt. eigenvalues --    2.53732   2.64997
          Condensed to atoms (all electrons):
               1          2          3          4          5          6
     1  C    5.934441   0.324034  -0.071262  -0.033345  -0.033345   0.001658
     2  C    0.324034   4.739194   0.433171   0.360360   0.360360  -0.024144
     3  C   -0.071262   0.433171   4.842325  -0.029119  -0.029119   0.378150
     4  H   -0.033345   0.360360  -0.029119   0.625455  -0.034650  -0.007672
     5  H   -0.033345   0.360360  -0.029119  -0.034650   0.625455   0.007573
     6  H    0.001658  -0.024144   0.378150  -0.007672   0.007573   0.584784
     7  H    0.007760  -0.015358   0.354148  -0.003139  -0.003139  -0.021522
     8  H    0.001658  -0.024144   0.378150   0.007573  -0.007672  -0.025383
               7          8
     1  C    0.007760   0.001658
     2  C   -0.015358  -0.024144
     3  C    0.354148   0.378150
     4  H   -0.003139   0.007573
     5  H   -0.003139  -0.007672
     6  H   -0.021522  -0.025383
     7  H    0.603442  -0.021522
     8  H   -0.021522   0.584784
          Atomic-Atomic Spin Densities.
               1          2          3          4          5          6
     1  C    2.988258  -0.102006  -0.046957  -0.027065  -0.027065   0.008182
     2  C   -0.102006   0.118409  -0.000584   0.003767   0.003767  -0.001251
     3  C   -0.046957  -0.000584   0.144348  -0.010033  -0.010033  -0.008843
     4  H   -0.027065   0.003767  -0.010033   0.100415  -0.013820  -0.001706
     5  H   -0.027065   0.003767  -0.010033  -0.013820   0.100415   0.001829
     6  H    0.008182  -0.001251  -0.008843  -0.001706   0.001829   0.004237
     7  H    0.002804   0.001183  -0.022727   0.001823   0.001823   0.001497
     8  H    0.008182  -0.001251  -0.008843   0.001829  -0.001706  -0.000619
               7          8
     1  C    0.002804   0.008182
     2  C    0.001183  -0.001251
     3  C   -0.022727  -0.008843
     4  H    0.001823   0.001829
     5  H    0.001823  -0.001706
     6  H    0.001497  -0.000619
     7  H    0.032338   0.001497
     8  H    0.001497   0.004237
 Mulliken charges and spin densities:
               1          2
     1  C   -0.131601   2.804333
     2  C   -0.153472   0.022033
     3  C   -0.256446   0.036327
     4  H    0.114537   0.055209
     5  H    0.114537   0.055209
     6  H    0.106557   0.003326
     7  H    0.099331   0.020238
     8  H    0.106557   0.003326
 Sum of Mulliken charges =  -0.00000   3.00000
 Mulliken charges and spin densities with hydrogens summed into heavy atoms:
               1          2
     1  C   -0.131601   2.804333
     2  C    0.075602   0.132452
     3  C    0.055999   0.063216
 APT charges:
               1
     1  C   -0.217081
     2  C    0.287422
     3  C    0.040125
     4  H   -0.041161
     5  H   -0.041161
     6  H   -0.003925
     7  H   -0.020295
     8  H   -0.003925
 Sum of APT charges =   0.00000
 APT charges with hydrogens summed into heavy atoms:
               1
     1  C   -0.217081
     2  C    0.205101
     3  C    0.011980
 Electronic spatial extent (au):  <R**2>=            179.0253
 Charge=              0.0000 electrons
 Dipole moment (field-independent basis, Debye):
    X=             -1.2932    Y=              0.1280    Z=             -0.0000  Tot=              1.2995
 Quadrupole moment (field-independent basis, Debye-Ang):
   XX=            -21.5238   YY=            -19.9573   ZZ=            -19.8365
   XY=             -0.5495   XZ=             -0.0000   YZ=              0.0000
 Traceless Quadrupole moment (field-independent basis, Debye-Ang):
   XX=             -1.0846   YY=              0.4819   ZZ=              0.6027
   XY=             -0.5495   XZ=             -0.0000   YZ=              0.0000
 Octapole moment (field-independent basis, Debye-Ang**2):
  XXX=             -6.9023  YYY=             -0.4430  ZZZ=             -0.0000  XYY=             -2.2762
  XXY=             -0.7192  XXZ=             -0.0000  XZZ=             -2.3927  YZZ=             -0.1184
  YYZ=              0.0000  XYZ=             -0.0000
 Hexadecapole moment (field-independent basis, Debye-Ang**3):
 XXXX=           -144.7510 YYYY=            -80.4622 ZZZZ=            -34.9882 XXXY=            -24.1129
 XXXZ=              0.0000 YYYX=            -23.0523 YYYZ=              0.0000 ZZZX=              0.0000
 ZZZY=              0.0000 XXYY=            -40.1411 XXZZ=            -32.1703 YYZZ=            -17.5221
 XXYZ=              0.0000 YYXZ=              0.0000 ZZXY=             -7.5359
 N-N= 6.267134547784D+01 E-N=-3.954880034797D+02  KE= 1.157816824903D+02
 Symmetry A'   KE= 1.106149308004D+02
 Symmetry A"   KE= 5.166751689852D+00
 Symmetry A'   SP= 2.000000000000D+00
 Symmetry A"   SP= 1.000000000000D+00
  Exact polarizability:      37.669       1.088      28.160       0.000       0.000      25.813
 Approx polarizability:      47.408      -0.864      34.485      -0.000       0.000      33.643
                          Isotropic Fermi Contact Couplings
        Atom                 a.u.       MegaHertz       Gauss      10(-4) cm-1
     1  C(13)              1.33221     499.22075     178.13438     166.52212
     2  C(13)              0.07055      26.43703       9.43339       8.81844
     3  C(13)              0.08819      33.04727      11.79209      11.02338
     4  H(1)               0.02488      37.07495      13.22926      12.36687
     5  H(1)               0.02488      37.07495      13.22926      12.36687
     6  H(1)              -0.00053      -0.78759      -0.28103      -0.26271
     7  H(1)               0.00612       9.12000       3.25424       3.04210
     8  H(1)              -0.00053      -0.78759      -0.28103      -0.26271
 --------------------------------------------------------
       Center         ----  Spin Dipole Couplings  ----
                      3XX-RR        3YY-RR        3ZZ-RR
 --------------------------------------------------------
     1   Atom       -0.482008      0.224315      0.257693
     2   Atom        0.320880     -0.150591     -0.170289
     3   Atom        0.047155      0.004312     -0.051467
     4   Atom        0.025945     -0.017574     -0.008371
     5   Atom        0.025945     -0.017574     -0.008371
     6   Atom        0.010062      0.001744     -0.011806
     7   Atom        0.021523     -0.007969     -0.013554
     8   Atom        0.010062      0.001744     -0.011806
 --------------------------------------------------------
                        XY            XZ            YZ
 --------------------------------------------------------
     1   Atom        0.143864      0.000000     -0.000000
     2   Atom       -0.096593     -0.000000      0.000000
     3   Atom        0.071409     -0.000000      0.000000
     4   Atom       -0.030062      0.027208     -0.025734
     5   Atom       -0.030062     -0.027208      0.025734
     6   Atom        0.020842      0.011514      0.013946
     7   Atom        0.004927      0.000000      0.000000
     8   Atom        0.020842     -0.011514     -0.013946
 --------------------------------------------------------


 ---------------------------------------------------------------------------------
              Anisotropic Spin Dipole Couplings in Principal Axis System
 ---------------------------------------------------------------------------------

       Atom             a.u.   MegaHertz   Gauss  10(-4) cm-1        Axes

              Baa    -0.5102   -68.462   -24.429   -22.837  0.9814 -0.1922 -0.0000
     1 C(13)  Bbb     0.2525    33.882    12.090    11.302  0.1922  0.9814  0.0000
              Bcc     0.2577    34.580    12.339    11.535 -0.0000 -0.0000  1.0000
 
              Baa    -0.1703   -22.851    -8.154    -7.622 -0.0000 -0.0000  1.0000
     2 C(13)  Bbb    -0.1696   -22.760    -8.121    -7.592  0.1932  0.9812  0.0000
              Bcc     0.3399    45.612    16.275    15.214  0.9812 -0.1932 -0.0000
 
              Baa    -0.0515    -6.906    -2.464    -2.304  0.0000 -0.0000  1.0000
     3 C(13)  Bbb    -0.0488    -6.551    -2.338    -2.185 -0.5969  0.8023  0.0000
              Bcc     0.1003    13.457     4.802     4.489  0.8023  0.5969  0.0000
 
              Baa    -0.0400   -21.338    -7.614    -7.118  0.1540  0.8271  0.5406
     4 H(1)   Bbb    -0.0204   -10.890    -3.886    -3.633 -0.6300 -0.3393  0.6986
              Bcc     0.0604    32.228    11.500    10.750  0.7612 -0.4482  0.4688
 
              Baa    -0.0400   -21.338    -7.614    -7.118  0.1540  0.8271 -0.5406
     5 H(1)   Bbb    -0.0204   -10.890    -3.886    -3.633  0.6300  0.3393  0.6986
              Bcc     0.0604    32.228    11.500    10.750  0.7612 -0.4482 -0.4688
 
              Baa    -0.0207   -11.028    -3.935    -3.679  0.1024 -0.5924  0.7991
     6 H(1)   Bbb    -0.0134    -7.144    -2.549    -2.383  0.7026 -0.5256 -0.4797
              Bcc     0.0341    18.172     6.484     6.062  0.7042  0.6106  0.3624
 
              Baa    -0.0136    -7.232    -2.581    -2.412  0.0000  0.0000  1.0000
     7 H(1)   Bbb    -0.0088    -4.679    -1.670    -1.561 -0.1605  0.9870 -0.0000
              Bcc     0.0223    11.911     4.250     3.973  0.9870  0.1605 -0.0000
 
              Baa    -0.0207   -11.028    -3.935    -3.679 -0.1024  0.5924  0.7991
     8 H(1)   Bbb    -0.0134    -7.144    -2.549    -2.383  0.7026 -0.5256  0.4797
              Bcc     0.0341    18.172     6.484     6.062  0.7042  0.6106 -0.3624
 

 ---------------------------------------------------------------------------------

   2 Symmetry operations used in ECPInt.
 ECPInt:  NShTT=     406 NPrTT=    1650 LenC2=     407 LenP2D=    1483.
 LDataN:  DoStor=T MaxTD1= 6 Len=  172
 Calling FoFJK, ICntrl=    100127 FMM=F ISym2X=1 I1Cent= 0 IOpClX= 1 NMat=1 NMatS=1 NMatT=0.
 Full mass-weighted force constant matrix:
 Low frequencies ---  -13.0812   -7.9757    0.0006    0.0009    0.0011    5.7152
 Low frequencies ---  269.9173  412.8430  780.3703
 Diagonal vibrational polarizability:
        1.8605480       0.1999292       0.5146735
 Harmonic frequencies (cm**-1), IR intensities (KM/Mole), Raman scattering
 activities (A**4/AMU), depolarization ratios for plane and unpolarized
 incident light, reduced masses (AMU), force constants (mDyne/A),
 and normal coordinates:
                      1                      2                      3
                     A"                     A'                     A"
 Frequencies --    269.9169               412.8429               780.3703
 Red. masses --      1.1479                 3.3560                 1.1479
 Frc consts  --      0.0493                 0.3370                 0.4119
 IR Inten    --      0.1929                 1.2080                 4.4836
  Atom  AN      X      Y      Z        X      Y      Z        X      Y      Z
     1   6    -0.00  -0.00   0.08     0.20   0.27   0.00     0.00  -0.00   0.04
     2   6     0.00   0.00  -0.07     0.10  -0.21  -0.00    -0.00  -0.00  -0.10
     3   6     0.00  -0.00   0.01    -0.21  -0.04   0.00     0.00   0.00  -0.03
     4   1     0.05  -0.09  -0.15     0.04  -0.21   0.02    -0.04   0.48   0.25
     5   1    -0.05   0.09  -0.15     0.04  -0.21  -0.02     0.04  -0.48   0.25
     6   1    -0.42   0.22  -0.24    -0.49  -0.11  -0.01    -0.19  -0.35   0.17
     7   1     0.00  -0.00   0.59    -0.10   0.42   0.00    -0.00  -0.00   0.17
     8   1     0.42  -0.22  -0.24    -0.49  -0.11   0.01     0.19   0.35   0.17
                      4                      5                      6
                     A'                     A'                     A"
 Frequencies --    891.6805              1022.4327              1065.8254
 Red. masses --      2.6465                 4.5162                 1.3112
 Frc consts  --      1.2398                 2.7816                 0.8776
 IR Inten    --      6.1679                28.1260                 1.3181
  Atom  AN      X      Y      Z        X      Y      Z        X      Y      Z
     1   6     0.26  -0.03  -0.00    -0.28   0.06  -0.00     0.00  -0.00  -0.06
     2   6    -0.09   0.16   0.00     0.38   0.17   0.00    -0.00   0.00   0.13
     3   6    -0.19  -0.10  -0.00    -0.13  -0.22  -0.00     0.00  -0.00  -0.09
     4   1     0.14   0.20  -0.02     0.39   0.27   0.04     0.55  -0.12  -0.10
     5   1     0.14   0.20   0.02     0.39   0.27  -0.04    -0.55   0.12  -0.10
     6   1     0.19  -0.04   0.04    -0.12  -0.26   0.02    -0.16  -0.32   0.10
     7   1    -0.35  -0.73   0.00    -0.14  -0.24   0.00     0.00   0.00   0.21
     8   1     0.19  -0.04  -0.04    -0.12  -0.26  -0.02     0.16   0.32   0.10
                      7                      8                      9
                     A'                     A"                     A'
 Frequencies --   1072.5211              1257.8079              1297.5227
 Red. masses --      1.7526                 1.1958                 1.2645
 Frc consts  --      1.1878                 1.1147                 1.2543
 IR Inten    --     10.4693                 2.1195                29.2478
  Atom  AN      X      Y      Z        X      Y      Z        X      Y      Z
     1   6     0.07  -0.05   0.00     0.00   0.00  -0.02    -0.02   0.02  -0.00
     2   6    -0.05   0.18  -0.00     0.00  -0.00  -0.07    -0.13  -0.03   0.00
     3   6     0.07  -0.14   0.00    -0.00   0.00   0.11     0.05  -0.04  -0.00
     4   1    -0.26   0.07  -0.02     0.51   0.32   0.03     0.64   0.20  -0.03
     5   1    -0.26   0.07   0.02    -0.51  -0.32   0.03     0.64   0.20   0.03
     6   1    -0.44  -0.20  -0.07     0.12   0.30  -0.07    -0.11   0.02  -0.07
     7   1     0.23   0.51  -0.00    -0.00   0.00  -0.18     0.10   0.18   0.00
     8   1    -0.44  -0.20   0.07    -0.12  -0.30  -0.07    -0.11   0.02   0.07
                     10                     11                     12
                     A'                     A'                     A"
 Frequencies --   1398.0775              1439.2939              1467.0298
 Red. masses --      1.2238                 1.0834                 1.0378
 Frc consts  --      1.4094                 1.3223                 1.3159
 IR Inten    --      0.7873                 0.8912                 7.4859
  Atom  AN      X      Y      Z        X      Y      Z        X      Y      Z
     1   6     0.01  -0.00   0.00     0.01  -0.01  -0.00    -0.00  -0.00   0.00
     2   6     0.01   0.01  -0.00     0.01  -0.08   0.00     0.00   0.00  -0.02
     3   6    -0.09  -0.11   0.00     0.01   0.01  -0.00    -0.00  -0.00  -0.05
     4   1    -0.05   0.02   0.02    -0.16   0.52   0.44     0.02   0.04   0.00
     5   1    -0.05   0.02  -0.02    -0.16   0.52  -0.44    -0.02  -0.04   0.00
     6   1     0.43   0.31  -0.17    -0.01  -0.04   0.03     0.50   0.04   0.05
     7   1     0.10   0.59  -0.00     0.01   0.01   0.00     0.00   0.00   0.70
     8   1     0.43   0.31   0.17    -0.01  -0.04  -0.03    -0.50  -0.04   0.05
                     13                     14                     15
                     A'                     A'                     A"
 Frequencies --   1483.4175              2963.9986              3005.7357
 Red. masses --      1.0451                 1.0573                 1.1054
 Frc consts  --      1.3549                 5.4728                 5.8842
 IR Inten    --      3.0364                22.2195                11.5386
  Atom  AN      X      Y      Z        X      Y      Z        X      Y      Z
     1   6    -0.00   0.00   0.00    -0.00   0.00   0.00    -0.00   0.00   0.00
     2   6     0.02  -0.01  -0.00    -0.02   0.06   0.00     0.00  -0.00  -0.09
     3   6     0.04  -0.04   0.00     0.00  -0.00   0.00     0.00   0.00   0.01
     4   1    -0.05   0.01   0.03     0.14  -0.38   0.58     0.15  -0.39   0.56
     5   1    -0.05   0.01  -0.03     0.14  -0.38  -0.58    -0.15   0.39   0.56
     6   1    -0.27   0.45  -0.40     0.00  -0.00   0.00     0.01  -0.03  -0.05
     7   1    -0.06  -0.35   0.00    -0.06   0.02  -0.00    -0.00   0.00   0.00
     8   1    -0.27   0.45   0.40     0.00  -0.00  -0.00    -0.01   0.03  -0.05
                     16                     17                     18
                     A'                     A'                     A"
 Frequencies --   3015.3682              3095.8655              3116.5033
 Red. masses --      1.0380                 1.1019                 1.1062
 Frc consts  --      5.5609                 6.2225                 6.3304
 IR Inten    --     17.1848                16.3862                18.0545
  Atom  AN      X      Y      Z        X      Y      Z        X      Y      Z
     1   6     0.00  -0.00   0.00     0.00  -0.00   0.00     0.00   0.00   0.00
     2   6    -0.00   0.00  -0.00    -0.00   0.00  -0.00    -0.00  -0.00  -0.01
     3   6    -0.04  -0.03   0.00    -0.07   0.06  -0.00     0.00  -0.00  -0.09
     4   1     0.01  -0.02   0.02     0.01  -0.02   0.02     0.01  -0.04   0.05
     5   1     0.01  -0.02  -0.02     0.01  -0.02  -0.02    -0.01   0.04   0.05
     6   1    -0.10   0.27   0.40     0.09  -0.28  -0.42    -0.13   0.39   0.57
     7   1     0.70  -0.19   0.00     0.66  -0.17  -0.00    -0.00   0.00  -0.01
     8   1    -0.10   0.27  -0.40     0.09  -0.28   0.42     0.13  -0.39   0.57

 -------------------
 - Thermochemistry -
 -------------------
 Temperature   298.150 Kelvin.  Pressure   0.98700 Atm.
 Thermochemistry will use frequencies scaled by 0.9610.
 Atom     1 has atomic number  6 and mass  12.00000
 Atom     2 has atomic number  6 and mass  12.00000
 Atom     3 has atomic number  6 and mass  12.00000
 Atom     4 has atomic number  1 and mass   1.00783
 Atom     5 has atomic number  1 and mass   1.00783
 Atom     6 has atomic number  1 and mass   1.00783
 Atom     7 has atomic number  1 and mass   1.00783
 Atom     8 has atomic number  1 and mass   1.00783
 Molecular mass:    41.03913 amu.
 Principal axes and moments of inertia in atomic units:
                           1         2         3
     Eigenvalues --    48.23576 177.87052 203.20762
           X            0.89816  -0.43967   0.00000
           Y            0.43967   0.89816   0.00000
           Z           -0.00000   0.00000   1.00000
 This molecule is an asymmetric top.
 Rotational symmetry number  1.
 Rotational temperatures (Kelvin)      1.79564     0.48695     0.42623
 Rotational constants (GHZ):          37.41501    10.14638     8.88127
 Zero-point vibrational energy     167016.7 (Joules/Mol)
                                   39.91796 (Kcal/Mol)
 Warning -- explicit consideration of   2 degrees of freedom as
           vibrations may cause significant error
 Vibrational temperatures:    373.20   570.82  1078.99  1232.90  1413.68
          (Kelvin)           1473.68  1482.94  1739.13  1794.04  1933.07
                             1990.06  2028.41  2051.07  4098.22  4155.92
                             4169.24  4280.54  4309.08
 
 Zero-point correction=                           0.063613 (Hartree/Particle)
 Thermal correction to Energy=                    0.067556
 Thermal correction to Enthalpy=                  0.068501
 Thermal correction to Gibbs Free Energy=         0.037426
 Sum of electronic and zero-point Energies=           -116.935037
 Sum of electronic and thermal Energies=              -116.931093
 Sum of electronic and thermal Enthalpies=            -116.930149
 Sum of electronic and thermal Free Energies=         -116.961224
 
                     E (Thermal)             CV                S
                      KCal/Mol        Cal/Mol-Kelvin    Cal/Mol-Kelvin
 Total                   42.392             12.393             65.402
 Electronic               0.000              0.000              2.755
 Translational            0.889              2.981             37.089
 Rotational               0.889              2.981             22.082
 Vibrational             40.615              6.431              3.476
 Vibration     1          0.668              1.747              1.666
 Vibration     2          0.763              1.477              0.975
                       Q            Log10(Q)             Ln(Q)
 Total Bot       0.609900D-17        -17.214742        -39.638407
 Total V=0       0.111001D+13         12.045327         27.735390
 Vib (Bot)       0.974344D-29        -29.011288        -66.800958
 Vib (Bot)    1  0.749025D+00         -0.125504         -0.288983
 Vib (Bot)    2  0.450318D+00         -0.346481         -0.797801
 Vib (V=0)       0.177329D+01          0.248781          0.572839
 Vib (V=0)    1  0.140058D+01          0.146307          0.336884
 Vib (V=0)    2  0.117289D+01          0.069259          0.159474
 Electronic      0.400000D+01          0.602060          1.386294
 Translational   0.104697D+08          7.019934         16.163995
 Rotational      0.149469D+05          4.174552          9.612261
 ***** Axes restored to original set *****
 -------------------------------------------------------------------
 Center     Atomic                   Forces (Hartrees/Bohr)
 Number     Number              X              Y              Z
 -------------------------------------------------------------------
      1        6           0.000090555   -0.000025376   -0.000025501
      2        6          -0.000250376    0.000135108    0.000135769
      3        6           0.000030406   -0.000064676   -0.000064992
      4        1           0.000041982   -0.000014525   -0.000003432
      5        1           0.000041982   -0.000003361   -0.000014541
      6        1           0.000007162    0.000004255   -0.000007885
      7        1           0.000031127   -0.000023520   -0.000023635
      8        1           0.000007162   -0.000007905    0.000004216
 -------------------------------------------------------------------
 Cartesian Forces:  Max     0.000250376 RMS     0.000072029
 FormGI is forming the generalized inverse of G from B-inverse, IUseBI=4.

 GradGradGradGradGradGradGradGradGradGradGradGradGradGradGradGradGradGrad
 Berny optimization.
 Internal  Forces:  Max     0.000148499 RMS     0.000039928
 Search for a local minimum.
 Step number   1 out of a maximum of    2
 All quantities printed in internal units (Hartrees-Bohrs-Radians)
 Second derivative matrix not updated -- analytic derivatives used.
 ITU=  0
     Eigenvalues ---    0.00288   0.04513   0.04577   0.04589   0.05513
     Eigenvalues ---    0.11935   0.12343   0.12556   0.13939   0.17386
     Eigenvalues ---    0.18721   0.25445   0.29925   0.31377   0.32780
     Eigenvalues ---    0.33197   0.33610   0.34077
 Angle between quadratic step and forces=  32.42 degrees.
 Linear search not attempted -- first point.
 Iteration  1 RMS(Cart)=  0.00019171 RMS(Int)=  0.00000010
 Iteration  2 RMS(Cart)=  0.00000008 RMS(Int)=  0.00000006
 ClnCor:  largest displacement from symmetrization is 4.67D-09 for atom     8.
 Variable       Old X    -DE/DX   Delta X   Delta X   Delta X     New X
                                 (Linear)    (Quad)   (Total)
    R1        2.84619  -0.00009   0.00000  -0.00065  -0.00065   2.84554
    R2        2.90001   0.00015   0.00000   0.00070   0.00070   2.90071
    R3        2.09758   0.00001   0.00000   0.00007   0.00007   2.09765
    R4        2.09758   0.00001   0.00000   0.00007   0.00007   2.09765
    R5        2.08488  -0.00001   0.00000  -0.00002  -0.00002   2.08486
    R6        2.09027   0.00003   0.00000   0.00008   0.00008   2.09034
    R7        2.08488  -0.00001   0.00000  -0.00002  -0.00002   2.08486
    A1        1.98040  -0.00004   0.00000  -0.00015  -0.00015   1.98025
    A2        1.88854   0.00005   0.00000   0.00057   0.00057   1.88912
    A3        1.88854   0.00005   0.00000   0.00057   0.00057   1.88912
    A4        1.92096  -0.00003   0.00000  -0.00043  -0.00043   1.92053
    A5        1.92096  -0.00003   0.00000  -0.00043  -0.00043   1.92053
    A6        1.86014   0.00002   0.00000  -0.00009  -0.00009   1.86005
    A7        1.93943   0.00000   0.00000  -0.00006  -0.00006   1.93938
    A8        1.91375   0.00005   0.00000   0.00032   0.00032   1.91406
    A9        1.93943   0.00000   0.00000  -0.00006  -0.00006   1.93938
   A10        1.89060  -0.00002   0.00000  -0.00007  -0.00007   1.89052
   A11        1.88865  -0.00001   0.00000  -0.00007  -0.00007   1.88858
   A12        1.89060  -0.00002   0.00000  -0.00007  -0.00007   1.89052
    D1       -1.05205   0.00000   0.00000   0.00008   0.00008  -1.05197
    D2        3.14159   0.00000   0.00000  -0.00000   0.00000   3.14159
    D3        1.05205  -0.00000   0.00000  -0.00008  -0.00008   1.05197
    D4        1.06697   0.00001   0.00000   0.00040   0.00040   1.06736
    D5       -1.02257   0.00001   0.00000   0.00032   0.00032  -1.02226
    D6       -3.11211   0.00001   0.00000   0.00024   0.00024  -3.11188
    D7        3.11211  -0.00001   0.00000  -0.00024  -0.00024   3.11188
    D8        1.02257  -0.00001   0.00000  -0.00032  -0.00032   1.02226
    D9       -1.06697  -0.00001   0.00000  -0.00040  -0.00040  -1.06736
         Item               Value     Threshold  Converged?
 Maximum Force            0.000148     0.000450     YES
 RMS     Force            0.000040     0.000300     YES
 Maximum Displacement     0.000600     0.001800     YES
 RMS     Displacement     0.000192     0.001200     YES
 Predicted change in Energy=-1.481181D-07
 Optimization completed.
    -- Stationary point found.
                           ----------------------------
                           !   Optimized Parameters   !
                           ! (Angstroms and Degrees)  !
 --------------------------                            --------------------------
 ! Name  Definition              Value          Derivative Info.                !
 --------------------------------------------------------------------------------
 ! R1    R(1,2)                  1.5061         -DE/DX =   -0.0001              !
 ! R2    R(2,3)                  1.5346         -DE/DX =    0.0001              !
 ! R3    R(2,4)                  1.11           -DE/DX =    0.0                 !
 ! R4    R(2,5)                  1.11           -DE/DX =    0.0                 !
 ! R5    R(3,6)                  1.1033         -DE/DX =    0.0                 !
 ! R6    R(3,7)                  1.1061         -DE/DX =    0.0                 !
 ! R7    R(3,8)                  1.1033         -DE/DX =    0.0                 !
 ! A1    A(1,2,3)              113.4688         -DE/DX =    0.0                 !
 ! A2    A(1,2,4)              108.2056         -DE/DX =    0.0                 !
 ! A3    A(1,2,5)              108.2056         -DE/DX =    0.0                 !
 ! A4    A(3,2,4)              110.0629         -DE/DX =    0.0                 !
 ! A5    A(3,2,5)              110.0629         -DE/DX =    0.0                 !
 ! A6    A(4,2,5)              106.5782         -DE/DX =    0.0                 !
 ! A7    A(2,3,6)              111.1214         -DE/DX =    0.0                 !
 ! A8    A(2,3,7)              109.6496         -DE/DX =    0.0                 !
 ! A9    A(2,3,8)              111.1214         -DE/DX =    0.0                 !
 ! A10   A(6,3,7)              108.3232         -DE/DX =    0.0                 !
 ! A11   A(6,3,8)              108.2115         -DE/DX =    0.0                 !
 ! A12   A(7,3,8)              108.3232         -DE/DX =    0.0                 !
 ! D1    D(1,2,3,6)            -60.2782         -DE/DX =    0.0                 !
 ! D2    D(1,2,3,7)            180.0            -DE/DX =    0.0                 !
 ! D3    D(1,2,3,8)             60.2782         -DE/DX =    0.0                 !
 ! D4    D(4,2,3,6)             61.1326         -DE/DX =    0.0                 !
 ! D5    D(4,2,3,7)            -58.5892         -DE/DX =    0.0                 !
 ! D6    D(4,2,3,8)           -178.311          -DE/DX =    0.0                 !
 ! D7    D(5,2,3,6)            178.311          -DE/DX =    0.0                 !
 ! D8    D(5,2,3,7)             58.5892         -DE/DX =    0.0                 !
 ! D9    D(5,2,3,8)            -61.1326         -DE/DX =    0.0                 !
 --------------------------------------------------------------------------------
 GradGradGradGradGradGradGradGradGradGradGradGradGradGradGradGradGradGrad


 ----------------------------------------------------------------------

 Electric dipole moment (input orientation):
 (Debye = 10**-18 statcoulomb cm , SI units = C m)
                  (au)            (Debye)         (10**-30 SI)
   Tot        0.511278D+00      0.129954D+01      0.433480D+01
   x          0.506217D+00      0.128668D+01      0.429189D+01
   y         -0.506175D-01     -0.128657D+00     -0.429153D+00
   z         -0.508656D-01     -0.129288D+00     -0.431257D+00

 Dipole polarizability, Alpha (input orientation).
 (esu units = cm**3 , SI units = C**2 m**2 J**-1)
 Alpha(0;0):
               (au)            (10**-24 esu)      (10**-40 SI)
   iso        0.305475D+02      0.452667D+01      0.503660D+01
   aniso      0.110358D+02      0.163533D+01      0.181955D+01
   xx         0.366323D+02      0.542835D+01      0.603985D+01
   yx        -0.222672D+01     -0.329965D+00     -0.367136D+00
   yy         0.274968D+02      0.407461D+01      0.453361D+01
   zx        -0.223761D+01     -0.331580D+00     -0.368933D+00
   zy         0.169180D+01      0.250698D+00      0.278940D+00
   zz         0.275133D+02      0.407705D+01      0.453633D+01

 ----------------------------------------------------------------------

 Dipole orientation:
     6         -0.40775910          0.20543497          1.80345887
     6         -0.56279052          0.39589828          4.63903807
     6          1.04731122         -1.58218652          6.01918662
     1         -2.57494354          0.20420089          5.19969716
     1          0.03333001          2.32725738          5.19969716
     1          0.44422174         -3.51672705          5.52870310
     1          0.84614277         -1.33504174          8.08502083
     1          3.06399395         -1.38431100          5.52870310

 Electric dipole moment (dipole orientation):
 (Debye = 10**-18 statcoulomb cm , SI units = C m)
                  (au)            (Debye)         (10**-30 SI)
   Tot        0.511278D+00      0.129954D+01      0.433480D+01
   x          0.000000D+00      0.000000D+00      0.000000D+00
   y          0.000000D+00      0.000000D+00      0.000000D+00
   z          0.511278D+00      0.129954D+01      0.433480D+01

 Dipole polarizability, Alpha (dipole orientation).
 (esu units = cm**3 , SI units = C**2 m**2 J**-1)
 Alpha(0;0):
               (au)            (10**-24 esu)      (10**-40 SI)
   iso        0.305475D+02      0.452667D+01      0.503660D+01
   aniso      0.110358D+02      0.163533D+01      0.181955D+01
   xx         0.268704D+02      0.398178D+01      0.443033D+01
   yx        -0.129876D+01     -0.192457D+00     -0.214137D+00
   yy         0.274089D+02      0.406157D+01      0.451911D+01
   zx         0.126202D+01      0.187012D+00      0.208079D+00
   zy        -0.155045D+01     -0.229753D+00     -0.255634D+00
   zz         0.373632D+02      0.553665D+01      0.616036D+01

 ----------------------------------------------------------------------
 Unable to Open any file for archive entry.
 1\1\GINC-NODE01\Freq\UB3LYP\def2SVPP\C3H5(4)\XUHJ\19-Dec-2023\0\\#N Ge
 om=AllCheck Guess=TCheck SCRF=Check GenChk UB3LYP/def2SVPP Freq\\[C]CC
 _1\\0,4\C,0.9758545257,-0.0104417559,0.1294580931\C,2.4797653346,-0.06
 82347637,0.0713805536\C,3.013446013,-1.0831599531,-0.9485055407\H,2.85
 68176178,-0.3138484888,1.0860666714\H,2.8568158778,0.9476372536,-0.169
 2838936\H,2.6733066927,-2.1047750756,-0.7080509534\H,4.1194854537,-1.0
 736158402,-0.9389163164\H,2.6733049451,-0.8377280351,-1.9689357694\\Ve
 rsion=ES64L-G16RevC.01\State=4-A"\HF=-116.9986498\S2=3.753033\S2-1=0.\
 S2A=3.750003\RMSD=3.358e-09\RMSF=7.203e-05\ZeroPoint=0.0636133\Thermal
 =0.0675564\ETot=-116.9310935\HTot=-116.9301493\GTot=-116.9612239\Dipol
 e=0.5062174,-0.0506175,-0.0508656\DipoleDeriv=-0.4697825,0.0689919,0.0
 693297,0.0500096,-0.0906147,-0.0237302,0.0502546,-0.0237303,-0.0908462
 ,0.6766761,-0.0806151,-0.0810099,-0.0699583,0.0927686,0.0055007,-0.070
 301,0.0055007,0.0928224,-0.0471336,0.0766926,0.0770675,-0.0177543,0.08
 37072,0.0095434,-0.0178409,0.0095432,0.0838002,-0.0718986,0.0403127,-0
 .0762206,0.0359559,0.0450874,0.0194653,-0.0343037,-0.0028662,-0.096670
 5,-0.0718984,-0.0764161,0.0399408,-0.0344785,-0.0967482,-0.0035576,0.0
 357883,0.018774,0.0451649,0.0581812,-0.0647943,0.0183006,-0.0206532,-0
 .1050518,0.0014452,0.0298243,0.0357134,0.0350963,-0.1323251,0.0172121,
 0.0172965,0.026954,0.0359395,-0.0450625,0.027086,-0.0450625,0.0355001,
 0.058181,0.0186163,-0.0647046,0.0299248,0.0349119,0.0363956,-0.0205078
 ,0.0021276,-0.1048672\Polar=36.6322913,-2.2267172,27.4968233,-2.237614
 6,1.6917964,27.5133256\Quadrupole=-0.5525436,0.27711,0.2754336,0.44504
 52,0.4472216,-0.171795\PG=CS [SG(C3H1),X(H4)]\NImag=0\\0.24827283,-0.0
 0816003,0.03248844,-0.00820021,0.00293152,0.03251705,-0.16623697,0.001
 45308,0.00146035,0.36763448,0.00141003,-0.03989551,0.00169224,0.026043
 87,0.49920021,0.00141709,0.00169224,-0.03987901,0.02617139,-0.04116553
 ,0.49879875,-0.03085934,0.02011458,0.02021293,-0.07126078,0.02420326,0
 .02432154,0.54993540,0.00892296,0.00019868,-0.00119924,0.01609218,-0.1
 2953274,-0.04948688,0.03127941,0.53050284,0.00896661,-0.00119926,0.000
 18694,0.01617082,-0.04948689,-0.13001533,0.03143232,-0.04951259,0.5300
 1997,-0.02717561,0.00694016,-0.02253244,-0.06214644,0.01762710,-0.0784
 1971,0.00437324,-0.00217707,0.01144971,0.07967309,0.00125508,0.0018983
 5,-0.00079356,0.01745486,-0.06128346,0.05462475,-0.00657589,0.00458746
 ,-0.02204576,-0.02217625,0.06137776,-0.00485100,-0.00085550,0.00533140
 ,-0.06850090,0.05278838,-0.25346236,-0.00610510,0.00446891,-0.01977193
 ,0.07946591,-0.05491846,0.27365142,-0.02717556,-0.02256606,0.00683026,
 -0.06214619,-0.07850437,0.01724450,0.00437322,0.01146019,-0.00212123,0
 .00485507,0.00904110,-0.00179681,0.07967281,-0.00485710,0.00533932,-0.
 00083871,-0.06858484,-0.25398166,0.05184903,-0.00607293,-0.01968565,0.
 00435058,-0.00184085,-0.00571263,0.00173451,0.07957274,0.27418207,0.00
 123146,-0.00077675,0.00189038,0.01712062,0.05368541,-0.06076441,-0.006
 60554,-0.02216412,0.00450120,0.00903218,0.02540737,-0.00558031,-0.0217
 8852,-0.05388111,0.06084738,0.00144708,0.00052989,-0.00043416,0.002535
 30,0.01278246,-0.00279703,-0.07474131,-0.07959725,0.01816161,-0.000131
 40,-0.00068896,-0.00034390,-0.00005451,0.00186855,0.00184531,0.0744420
 3,-0.00067361,0.00120037,0.00054351,-0.00594317,-0.01918101,0.00421236
 ,-0.07703092,-0.27463950,0.05688218,-0.00004015,0.00095296,-0.00008282
 ,0.00179591,-0.00167856,-0.00336087,0.08298578,0.29518657,-0.00096080,
 0.00055175,0.00044366,-0.00742133,-0.02251675,0.00507344,0.01897581,0.
 05937662,-0.06305822,-0.00058352,0.00028128,0.00107847,0.00209859,-0.0
 0352807,-0.00259860,-0.02218866,-0.05836618,0.06382096,0.00028048,0.00
 212513,0.00213552,-0.01091472,-0.00070303,-0.00070645,-0.30707885,-0.0
 0452994,-0.00455172,0.00060657,-0.00014611,0.00025427,0.00060657,0.000
 25498,-0.00014487,-0.00682568,0.00048650,-0.00049318,0.33015136,0.0030
 6018,-0.00166799,-0.00288380,0.02087632,-0.00048793,0.00067207,-0.0052
 6871,-0.04780110,0.00060652,-0.00042274,0.00074455,0.00039737,-0.00021
 620,0.00045960,0.00080818,-0.02846117,0.00247812,-0.00173254,0.0030080
 3,0.04683423,0.00307513,-0.00288380,-0.00169611,0.02097836,0.00067210,
 -0.00048140,-0.00529410,0.00060652,-0.04779517,-0.00021826,0.00080957,
 0.00046548,-0.00042380,0.00039598,0.00075043,0.00728563,-0.00060431,-0
 .00057097,0.00302234,0.00275132,0.04686105,0.00144709,-0.00043674,0.00
 052776,0.00253532,-0.00285932,0.01276867,-0.07474158,0.01854952,-0.079
 50812,-0.00005451,0.00183618,0.00187753,-0.00013140,-0.00034054,-0.000
 69063,0.00332849,-0.00158035,0.01057308,-0.00682573,0.00742429,-0.0284
 2530,0.07444232,-0.00095750,0.00043834,0.00054804,-0.00739230,0.005162
 09,-0.02239804,0.01935120,-0.06362999,0.06040522,0.00208981,-0.0025649
 9,-0.00353239,-0.00058332,0.00107750,0.00028189,0.01058071,-0.00431895
 ,0.02593390,-0.00049556,-0.00055950,-0.00174739,-0.02259304,0.06439549
 ,-0.00067828,0.00053980,0.00120569,-0.00597932,0.00433103,-0.01926969,
 -0.07693785,0.05791079,-0.27406747,0.00180613,-0.00336519,-0.00171217,
 -0.00004299,-0.00008221,0.00095393,-0.00152879,0.00077613,-0.00418875,
 0.00048411,-0.00061913,0.00246670,0.08287701,-0.05949122,0.29461175\\-
 0.00009055,0.00002538,0.00002550,0.00025038,-0.00013511,-0.00013577,-0
 .00003041,0.00006468,0.00006499,-0.00004198,0.00001452,0.00000343,-0.0
 0004198,0.00000336,0.00001454,-0.00000716,-0.00000425,0.00000788,-0.00
 003113,0.00002352,0.00002363,-0.00000716,0.00000791,-0.00000422\\\@
 The archive entry for this job was punched.


 READER, WHETHER YOU BE DILETTANTE OR PROFESSOR ... SHOW YOURSELF TO BE
 MORE HUMAN THAN CRITICAL, AND THEN YOUR PLEASURE WILL INCREASE.
                                           -- DOMENICO SCARLATTI (1738)
 Job cpu time:       0 days  0 hours  1 minutes 31.6 seconds.
 Elapsed time:       0 days  0 hours  0 minutes  6.3 seconds.
 File lengths (MBytes):  RWF=      8 Int=      0 D2E=      0 Chk=      1 Scr=      1
 Normal termination of Gaussian 16 at Tue Dec 19 12:55:13 2023.
