%nprocshared=16
%mem=960MB
#N opt freq B3LYP/def2SVPP symm=veryloose em=gd3bj scale=0.961 press=0.987

COC_1

0 1
C          1.07654        0.04063       -0.07243
O          2.48571        0.03741       -0.06782
C          2.95013        0.79950       -1.15838
H          0.72330       -0.56175        0.78957
H          0.67342       -0.43881       -0.99233
H          0.67342        1.06928        0.06154
H          4.05936        0.78948       -1.14404
H          2.63252        1.86279       -1.07397
H          2.63252        0.35470       -2.12784

