%nprocshared=8
%mem=8800MB
#N opt freq B3LYP/def2SVPP symm=veryloose em=gd3bj scale=0.961 press=0.987

c1ccc2c(c1)ccc1cc3c(ccc4ccccc43)cc12_2

0 1
C         -5.70080       -0.23970        0.63790
C         -5.11240        0.99420        0.40860
C         -3.72590        1.08740        0.25230
C         -2.87740       -0.04740        0.31930
C         -3.50750       -1.29610        0.55500
C         -4.90200       -1.37740        0.71050
C         -2.73870       -2.45900        0.63410
C         -1.35580       -2.40970        0.48420
C         -0.69970       -1.19700        0.25080
C          0.70160       -1.17980        0.10330
C          1.44370        0.00150       -0.13480
C          0.69970        1.19700       -0.22090
C          1.35580        2.40970       -0.45430
C          2.73870        2.45900       -0.60430
C          3.50750        1.29610       -0.52520
C          4.90200        1.37740       -0.68070
C          5.70080        0.23970       -0.60810
C          5.11240       -0.99420       -0.37870
C          3.72590       -1.08740       -0.22240
C          2.87740        0.04740       -0.28950
C         -0.70160        1.17980       -0.07340
C         -1.44370       -0.00150        0.16460
H         -6.77740       -0.31950        0.76030
H         -5.72630        1.88920        0.35000
H         -3.31790        2.07810        0.07480
H         -5.38050       -2.33800        0.89120
H         -3.20960       -3.42300        0.81450
H         -0.79340       -3.33870        0.55280
H          1.22410       -2.13010        0.17890
H          0.79340        3.33870       -0.52290
H          3.20960        3.42300       -0.78460
H          5.38050        2.33800       -0.86130
H          6.77740        0.31950       -0.73050
H          5.72630       -1.88920       -0.32020
H          3.31790       -2.07820       -0.04500
H         -1.22410        2.13010       -0.14910

