 Entering Gaussian System, Link 0=g16
 Initial command:
 /home/software/g16/l1.exe "/home/software/g16/scr/Gau-97632.inp" -scrdir="/home/software/g16/scr/"
 Default is to use a total of   8 processors:
                                8 via shared-memory
                                1 via Linda
 Entering Link 1 = /home/software/g16/l1.exe PID=     97648.
  
 Copyright (c) 1988-2019, Gaussian, Inc.  All Rights Reserved.
  
 This is part of the Gaussian(R) 16 program.  It is based on
 the Gaussian(R) 09 system (copyright 2009, Gaussian, Inc.),
 the Gaussian(R) 03 system (copyright 2003, Gaussian, Inc.),
 the Gaussian(R) 98 system (copyright 1998, Gaussian, Inc.),
 the Gaussian(R) 94 system (copyright 1995, Gaussian, Inc.),
 the Gaussian 92(TM) system (copyright 1992, Gaussian, Inc.),
 the Gaussian 90(TM) system (copyright 1990, Gaussian, Inc.),
 the Gaussian 88(TM) system (copyright 1988, Gaussian, Inc.),
 the Gaussian 86(TM) system (copyright 1986, Carnegie Mellon
 University), and the Gaussian 82(TM) system (copyright 1983,
 Carnegie Mellon University). Gaussian is a federally registered
 trademark of Gaussian, Inc.
  
 This software contains proprietary and confidential information,
 including trade secrets, belonging to Gaussian, Inc.
  
 This software is provided under written license and may be
 used, copied, transmitted, or stored only in accord with that
 written license.
  
 The following legend is applicable only to US Government
 contracts under FAR:
  
                    RESTRICTED RIGHTS LEGEND
  
 Use, reproduction and disclosure by the US Government is
 subject to restrictions as set forth in subparagraphs (a)
 and (c) of the Commercial Computer Software - Restricted
 Rights clause in FAR 52.227-19.
  
 Gaussian, Inc.
 340 Quinnipiac St., Bldg. 40, Wallingford CT 06492
  
  
 ---------------------------------------------------------------
 Warning -- This program may not be used in any manner that
 competes with the business of Gaussian, Inc. or will provide
 assistance to any competitor of Gaussian, Inc.  The licensee
 of this program is prohibited from giving any competitor of
 Gaussian, Inc. access to this program.  By using this program,
 the user acknowledges that Gaussian, Inc. is engaged in the
 business of creating and licensing software in the field of
 computational chemistry and represents and warrants to the
 licensee that it is not a competitor of Gaussian, Inc. and that
 it will not use this program in any manner prohibited above.
 ---------------------------------------------------------------
  

 Cite this work as:
 Gaussian 16, Revision C.01,
 M. J. Frisch, G. W. Trucks, H. B. Schlegel, G. E. Scuseria, 
 M. A. Robb, J. R. Cheeseman, G. Scalmani, V. Barone, 
 G. A. Petersson, H. Nakatsuji, X. Li, M. Caricato, A. V. Marenich, 
 J. Bloino, B. G. Janesko, R. Gomperts, B. Mennucci, H. P. Hratchian, 
 J. V. Ortiz, A. F. Izmaylov, J. L. Sonnenberg, D. Williams-Young, 
 F. Ding, F. Lipparini, F. Egidi, J. Goings, B. Peng, A. Petrone, 
 T. Henderson, D. Ranasinghe, V. G. Zakrzewski, J. Gao, N. Rega, 
 G. Zheng, W. Liang, M. Hada, M. Ehara, K. Toyota, R. Fukuda, 
 J. Hasegawa, M. Ishida, T. Nakajima, Y. Honda, O. Kitao, H. Nakai, 
 T. Vreven, K. Throssell, J. A. Montgomery, Jr., J. E. Peralta, 
 F. Ogliaro, M. J. Bearpark, J. J. Heyd, E. N. Brothers, K. N. Kudin, 
 V. N. Staroverov, T. A. Keith, R. Kobayashi, J. Normand, 
 K. Raghavachari, A. P. Rendell, J. C. Burant, S. S. Iyengar, 
 J. Tomasi, M. Cossi, J. M. Millam, M. Klene, C. Adamo, R. Cammi, 
 J. W. Ochterski, R. L. Martin, K. Morokuma, O. Farkas, 
 J. B. Foresman, and D. J. Fox, Gaussian, Inc., Wallingford CT, 2019.
 
 ******************************************
 Gaussian 16:  ES64L-G16RevC.01  3-Jul-2019
                22-Dec-2023 
 ******************************************
 %nprocshared=16
 Will use up to   16 processors via shared memory.
 %mem=1600MB
 ----------------------------------------------------------------------
 #N opt freq B3LYP/def2SVPP symm=veryloose em=gd3bj scale=0.961 press=0
 .987
 ----------------------------------------------------------------------
 1/18=20,19=15,26=3,38=1,113=-987000,114=961000/1,3;
 2/9=110,12=2,17=2,18=2,40=1/2;
 3/5=43,7=202,11=2,25=1,30=1,71=1,74=-5,124=41/1,2,3;
 4//1;
 5/5=2,38=5/2;
 6/7=2,8=2,9=2,10=2,28=1/1;
 7//1,2,3,16;
 1/18=20,19=15,26=3/3(2);
 2/9=110/2;
 99//99;
 2/9=110/2;
 3/5=43,7=202,11=2,25=1,30=1,71=1,74=-5,124=41/1,2,3;
 4/5=5,16=3,69=1/1;
 5/5=2,38=5/2;
 7//1,2,3,16;
 1/18=20,19=15,26=3/3(-5);
 2/9=110/2;
 6/7=2,8=2,9=2,10=2,19=2,28=1/1;
 99/9=1/99;
 ----------
 C1=CCCC1_1
 ----------
 Symbolic Z-matrix:
 Charge =  0 Multiplicity = 1
 C                    -0.80966   0.89382   0.04225 
 C                     0.51095   1.08817   0.03932 
 C                     1.26518  -0.19314  -0.07626 
 C                     0.18239  -1.25727   0.10418 
 C                    -1.16216  -0.55097  -0.07033 
 H                    -1.54628   1.68333   0.09112 
 H                     0.9888    2.05722   0.08567 
 H                     2.03375  -0.27906   0.69828 
 H                     1.74331  -0.26919  -1.05795 
 H                     0.24857  -1.69012   1.11117 
 H                     0.30258  -2.08279  -0.60528 
 H                    -1.86967  -0.85456   0.7075 
 H                    -1.60248  -0.76269  -1.05015 
 

 GradGradGradGradGradGradGradGradGradGradGradGradGradGradGradGradGradGrad
 Berny optimization.
 Initialization pass.
                           ----------------------------
                           !    Initial Parameters    !
                           ! (Angstroms and Degrees)  !
 --------------------------                            --------------------------
 ! Name  Definition              Value          Derivative Info.                !
 --------------------------------------------------------------------------------
 ! R1    R(1,2)                  1.3348         estimate D2E/DX2                !
 ! R2    R(1,5)                  1.4914         estimate D2E/DX2                !
 ! R3    R(1,6)                  1.0809         estimate D2E/DX2                !
 ! R4    R(2,3)                  1.4913         estimate D2E/DX2                !
 ! R5    R(2,7)                  1.0815         estimate D2E/DX2                !
 ! R6    R(3,4)                  1.5288         estimate D2E/DX2                !
 ! R7    R(3,8)                  1.0945         estimate D2E/DX2                !
 ! R8    R(3,9)                  1.0946         estimate D2E/DX2                !
 ! R9    R(4,5)                  1.5288         estimate D2E/DX2                !
 ! R10   R(4,10)                 1.0981         estimate D2E/DX2                !
 ! R11   R(4,11)                 1.0951         estimate D2E/DX2                !
 ! R12   R(5,12)                 1.0944         estimate D2E/DX2                !
 ! R13   R(5,13)                 1.0949         estimate D2E/DX2                !
 ! A1    A(2,1,5)              112.0065         estimate D2E/DX2                !
 ! A2    A(2,1,6)              124.6095         estimate D2E/DX2                !
 ! A3    A(5,1,6)              123.362          estimate D2E/DX2                !
 ! A4    A(1,2,3)              112.0513         estimate D2E/DX2                !
 ! A5    A(1,2,7)              124.5774         estimate D2E/DX2                !
 ! A6    A(3,2,7)              123.3489         estimate D2E/DX2                !
 ! A7    A(2,3,4)              103.3374         estimate D2E/DX2                !
 ! A8    A(2,3,8)              111.5761         estimate D2E/DX2                !
 ! A9    A(2,3,9)              110.495          estimate D2E/DX2                !
 ! A10   A(4,3,8)              111.0488         estimate D2E/DX2                !
 ! A11   A(4,3,9)              111.5222         estimate D2E/DX2                !
 ! A12   A(8,3,9)              108.813          estimate D2E/DX2                !
 ! A13   A(3,4,5)              106.7294         estimate D2E/DX2                !
 ! A14   A(3,4,10)             109.8719         estimate D2E/DX2                !
 ! A15   A(3,4,11)             111.7463         estimate D2E/DX2                !
 ! A16   A(5,4,10)             109.8651         estimate D2E/DX2                !
 ! A17   A(5,4,11)             111.7678         estimate D2E/DX2                !
 ! A18   A(10,4,11)            106.8784         estimate D2E/DX2                !
 ! A19   A(1,5,4)              103.3602         estimate D2E/DX2                !
 ! A20   A(1,5,12)             111.5843         estimate D2E/DX2                !
 ! A21   A(1,5,13)             110.4831         estimate D2E/DX2                !
 ! A22   A(4,5,12)             111.056          estimate D2E/DX2                !
 ! A23   A(4,5,13)             111.5011         estimate D2E/DX2                !
 ! A24   A(12,5,13)            108.8086         estimate D2E/DX2                !
 ! D1    D(5,1,2,3)              0.0245         estimate D2E/DX2                !
 ! D2    D(5,1,2,7)            178.3496         estimate D2E/DX2                !
 ! D3    D(6,1,2,3)           -178.3166         estimate D2E/DX2                !
 ! D4    D(6,1,2,7)              0.0085         estimate D2E/DX2                !
 ! D5    D(2,1,5,4)              9.685          estimate D2E/DX2                !
 ! D6    D(2,1,5,12)           129.0966         estimate D2E/DX2                !
 ! D7    D(2,1,5,13)          -109.7119         estimate D2E/DX2                !
 ! D8    D(6,1,5,4)           -171.9497         estimate D2E/DX2                !
 ! D9    D(6,1,5,12)           -52.5381         estimate D2E/DX2                !
 ! D10   D(6,1,5,13)            68.6534         estimate D2E/DX2                !
 ! D11   D(1,2,3,4)             -9.7214         estimate D2E/DX2                !
 ! D12   D(1,2,3,8)           -129.107          estimate D2E/DX2                !
 ! D13   D(1,2,3,9)            109.6932         estimate D2E/DX2                !
 ! D14   D(7,2,3,4)            171.9295         estimate D2E/DX2                !
 ! D15   D(7,2,3,8)             52.5439         estimate D2E/DX2                !
 ! D16   D(7,2,3,9)            -68.6559         estimate D2E/DX2                !
 ! D17   D(2,3,4,5)             15.1833         estimate D2E/DX2                !
 ! D18   D(2,3,4,10)          -103.8901         estimate D2E/DX2                !
 ! D19   D(2,3,4,11)           137.6494         estimate D2E/DX2                !
 ! D20   D(8,3,4,5)            134.9315         estimate D2E/DX2                !
 ! D21   D(8,3,4,10)            15.858          estimate D2E/DX2                !
 ! D22   D(8,3,4,11)          -102.6024         estimate D2E/DX2                !
 ! D23   D(9,3,4,5)           -103.5213         estimate D2E/DX2                !
 ! D24   D(9,3,4,10)           137.4052         estimate D2E/DX2                !
 ! D25   D(9,3,4,11)            18.9448         estimate D2E/DX2                !
 ! D26   D(3,4,5,1)            -15.1742         estimate D2E/DX2                !
 ! D27   D(3,4,5,12)          -134.9488         estimate D2E/DX2                !
 ! D28   D(3,4,5,13)           103.5193         estimate D2E/DX2                !
 ! D29   D(10,4,5,1)           103.9037         estimate D2E/DX2                !
 ! D30   D(10,4,5,12)          -15.8709         estimate D2E/DX2                !
 ! D31   D(10,4,5,13)         -137.4028         estimate D2E/DX2                !
 ! D32   D(11,4,5,1)          -137.6268         estimate D2E/DX2                !
 ! D33   D(11,4,5,12)          102.5987         estimate D2E/DX2                !
 ! D34   D(11,4,5,13)          -18.9332         estimate D2E/DX2                !
 --------------------------------------------------------------------------------
 Trust Radius=3.00D-01 FncErr=1.00D-07 GrdErr=1.00D-06 EigMax=2.50D+02 EigMin=1.00D-04
 Number of steps in this run=     81 maximum allowed number of steps=    100.
 GradGradGradGradGradGradGradGradGradGradGradGradGradGradGradGradGradGrad

                          Input orientation:                          
 ---------------------------------------------------------------------
 Center     Atomic      Atomic             Coordinates (Angstroms)
 Number     Number       Type             X           Y           Z
 ---------------------------------------------------------------------
      1          6           0       -0.809660    0.893820    0.042250
      2          6           0        0.510950    1.088170    0.039320
      3          6           0        1.265180   -0.193140   -0.076260
      4          6           0        0.182390   -1.257270    0.104180
      5          6           0       -1.162160   -0.550970   -0.070330
      6          1           0       -1.546280    1.683330    0.091120
      7          1           0        0.988800    2.057220    0.085670
      8          1           0        2.033750   -0.279060    0.698280
      9          1           0        1.743310   -0.269190   -1.057950
     10          1           0        0.248570   -1.690120    1.111170
     11          1           0        0.302580   -2.082790   -0.605280
     12          1           0       -1.869670   -0.854560    0.707500
     13          1           0       -1.602480   -0.762690   -1.050150
 ---------------------------------------------------------------------
                    Distance matrix (angstroms):
                    1          2          3          4          5
     1  C    0.000000
     2  C    1.334838   0.000000
     3  C    2.345312   1.491300   0.000000
     4  C    2.369639   2.369229   1.528844   0.000000
     5  C    1.491425   2.344803   2.453580   1.528767   0.000000
     6  H    1.080890   2.142217   3.384297   3.411099   2.272820
     7  H    2.142392   1.081456   2.273044   3.411229   3.384320
     8  H    3.144997   2.149992   1.094529   2.176553   3.298263
     9  H    3.013418   2.136619   1.094581   2.182503   3.081647
    10  H    2.989847   2.989415   2.164356   1.098075   2.164201
    11  H    3.242928   3.242517   2.185689   1.095108   2.185888
    12  H    2.150119   3.144522   3.298339   2.176493   1.094421
    13  H    2.136803   3.013173   3.081610   2.182395   1.094876
                    6          7          8          9         10
     6  H    0.000000
     7  H    2.562509   0.000000
     8  H    4.127497   2.631618   0.000000
     9  H    3.994258   2.699877   1.780111   0.000000
    10  H    3.955016   3.955016   2.312669   2.993054   0.000000
    11  H    4.252872   4.252998   2.819514   2.360033   1.761621
    12  H    2.631614   4.127467   3.945627   4.063631   2.312585
    13  H    2.699754   3.994585   4.063628   3.381998   2.992961
                   11         12         13
    11  H    0.000000
    12  H    2.819683   0.000000
    13  H    2.360048   1.780215   0.000000
 This structure is nearly, but not quite of a higher symmetry.
 Consider Symm=Loose if the higher symmetry is desired.
 Stoichiometry    C5H8
 Framework group  C1[X(C5H8)]
 Deg. of freedom    33
 Full point group                 C1      NOp   1
 Largest Abelian subgroup         C1      NOp   1
 Largest concise Abelian subgroup C1      NOp   1
                         Standard orientation:                         
 ---------------------------------------------------------------------
 Center     Atomic      Atomic             Coordinates (Angstroms)
 Number     Number       Type             X           Y           Z
 ---------------------------------------------------------------------
      1          6           0        0.670468    1.061724   -0.030807
      2          6           0       -0.664362    1.064976   -0.034125
      3          6           0       -1.227878   -0.311407    0.075401
      4          6           0       -0.003037   -1.209085   -0.101530
      5          6           0        1.225687   -0.317982    0.080952
      6          1           0        1.286666    1.948689   -0.074589
      7          1           0       -1.275826    1.955733   -0.081130
      8          1           0       -1.972587   -0.504565   -0.703120
      9          1           0       -1.694786   -0.457569    1.054554
     10          1           0       -0.001835   -1.644451   -1.109609
     11          1           0       -0.007104   -2.045067    0.605847
     12          1           0        1.973015   -0.515210   -0.693876
     13          1           0        1.687190   -0.466906    1.062579
 ---------------------------------------------------------------------
 Rotational constants (GHZ):           7.4593032           7.3361013           4.0008000
 Standard basis: def2SVPP (5D, 7F)
 There are    91 symmetry adapted cartesian basis functions of A   symmetry.
 There are    86 symmetry adapted basis functions of A   symmetry.
    86 basis functions,   157 primitive gaussians,    91 cartesian basis functions
    19 alpha electrons       19 beta electrons
       nuclear repulsion energy       172.5017832998 Hartrees.
 NAtoms=   13 NActive=   13 NUniq=   13 SFac= 1.00D+00 NAtFMM=   60 NAOKFM=F Big=F
 Integral buffers will be    131072 words long.
 Raffenetti 2 integral format.
 Two-electron integral symmetry is turned on.
 Nuclear repulsion after empirical dispersion term =      172.4846463719 Hartrees.
 One-electron integrals computed using PRISM.
   1 Symmetry operations used in ECPInt.
 ECPInt:  NShTT=    1081 NPrTT=    4367 LenC2=    1082 LenP2D=    3758.
 LDataN:  DoStor=T MaxTD1= 4 Len=   56
 NBasis=    86 RedAO= T EigKep=  1.14D-03  NBF=    86
 NBsUse=    86 1.00D-06 EigRej= -1.00D+00 NBFU=    86
 ExpMin= 1.22D-01 ExpMax= 1.24D+03 ExpMxC= 1.86D+02 IAcc=3 IRadAn=         5 AccDes= 0.00D+00
 Harris functional with IExCor=  402 and IRadAn=       5 diagonalized for initial guess.
 HarFok:  IExCor=  402 AccDes= 0.00D+00 IRadAn=         5 IDoV= 1 UseB2=F ITyADJ=14
 ICtDFT=  3500011 ScaDFX=  1.000000  1.000000  1.000000  1.000000
 FoFCou: FMM=F IPFlag=           0 FMFlag=      100000 FMFlg1=           0
         NFxFlg=           0 DoJE=T BraDBF=F KetDBF=T FulRan=T
         wScrn=  0.000000 ICntrl=       500 IOpCl=  0 I1Cent=   200000004 NGrid=           0
         NMat0=    1 NMatS0=      1 NMatT0=    0 NMatD0=    1 NMtDS0=    0 NMtDT0=    0
 Petite list used in FoFCou.
 Requested convergence on RMS density matrix=1.00D-08 within 128 cycles.
 Requested convergence on MAX density matrix=1.00D-06.
 Requested convergence on             energy=1.00D-06.
 No special actions if energy rises.
 Integral accuracy reduced to 1.0D-05 until final iterations.
 Initial convergence to 1.0D-05 achieved.  Increase integral accuracy.
 SCF Done:  E(RB3LYP) =  -195.183261931     A.U. after   12 cycles
            NFock= 12  Conv=0.26D-08     -V/T= 2.0101

 **********************************************************************

            Population analysis using the SCF Density.

 **********************************************************************

 Orbital symmetries:
       Occupied  (A) (A) (A) (A) (A) (A) (A) (A) (A) (A) (A) (A)
                 (A) (A) (A) (A) (A) (A) (A)
       Virtual   (A) (A) (A) (A) (A) (A) (A) (A) (A) (A) (A) (A)
                 (A) (A) (A) (A) (A) (A) (A) (A) (A) (A) (A) (A)
                 (A) (A) (A) (A) (A) (A) (A) (A) (A) (A) (A) (A)
                 (A) (A) (A) (A) (A) (A) (A) (A) (A) (A) (A) (A)
                 (A) (A) (A) (A) (A) (A) (A) (A) (A) (A) (A) (A)
                 (A) (A) (A) (A) (A) (A) (A)
 The electronic state is 1-A.
 Alpha  occ. eigenvalues --  -10.17306 -10.17305 -10.17179 -10.17116 -10.17105
 Alpha  occ. eigenvalues --   -0.83846  -0.70109  -0.69958  -0.56461  -0.52425
 Alpha  occ. eigenvalues --   -0.49844  -0.47329  -0.40402  -0.37700  -0.35006
 Alpha  occ. eigenvalues --   -0.34973  -0.34359  -0.34241  -0.23997
 Alpha virt. eigenvalues --    0.02360   0.05829   0.08792   0.10522   0.10556
 Alpha virt. eigenvalues --    0.13559   0.14068   0.14983   0.18855   0.19634
 Alpha virt. eigenvalues --    0.20193   0.28361   0.32487   0.40429   0.40543
 Alpha virt. eigenvalues --    0.43739   0.46553   0.48705   0.50195   0.50779
 Alpha virt. eigenvalues --    0.54085   0.60535   0.60772   0.63317   0.63877
 Alpha virt. eigenvalues --    0.65362   0.65416   0.68640   0.69704   0.70348
 Alpha virt. eigenvalues --    0.71182   0.72171   0.72777   0.75154   0.75302
 Alpha virt. eigenvalues --    0.76709   0.80043   0.84842   0.90242   1.00957
 Alpha virt. eigenvalues --    1.14588   1.19150   1.42304   1.48716   1.50765
 Alpha virt. eigenvalues --    1.70011   1.76453   1.82127   1.85545   1.88750
 Alpha virt. eigenvalues --    1.90501   1.95329   1.96528   2.03602   2.05613
 Alpha virt. eigenvalues --    2.12561   2.17182   2.31257   2.33944   2.41459
 Alpha virt. eigenvalues --    2.44002   2.44950   2.53742   2.61155   2.62658
 Alpha virt. eigenvalues --    2.83934   2.90529
          Condensed to atoms (all electrons):
               1          2          3          4          5          6
     1  C    4.921072   0.640227   0.006864  -0.068853   0.311775   0.414321
     2  C    0.640227   4.921534   0.311856  -0.068950   0.006887  -0.061974
     3  C    0.006864   0.311856   4.864400   0.432968  -0.153266   0.015278
     4  C   -0.068853  -0.068950   0.432968   4.779414   0.433028   0.008295
     5  C    0.311775   0.006887  -0.153266   0.433028   4.864632  -0.068013
     6  H    0.414321  -0.061974   0.015278   0.008295  -0.068013   0.647379
     7  H   -0.061902   0.414122  -0.067962   0.008297   0.015275  -0.010238
     8  H   -0.001278  -0.012872   0.347383  -0.017774   0.009697  -0.000459
     9  H   -0.008126  -0.007257   0.325418  -0.009453   0.003778  -0.000460
    10  H    0.001520   0.001533  -0.013774   0.348052  -0.013784  -0.000257
    11  H    0.005481   0.005485  -0.011107   0.340313  -0.011097  -0.000364
    12  H   -0.012894  -0.001287   0.009698  -0.017783   0.347432  -0.001011
    13  H   -0.007273  -0.008126   0.003791  -0.009483   0.325329   0.001214
               7          8          9         10         11         12
     1  C   -0.061902  -0.001278  -0.008126   0.001520   0.005481  -0.012894
     2  C    0.414122  -0.012872  -0.007257   0.001533   0.005485  -0.001287
     3  C   -0.067962   0.347383   0.325418  -0.013774  -0.011107   0.009698
     4  C    0.008297  -0.017774  -0.009453   0.348052   0.340313  -0.017783
     5  C    0.015275   0.009697   0.003778  -0.013784  -0.011097   0.347432
     6  H   -0.010238  -0.000459  -0.000460  -0.000257  -0.000364  -0.001011
     7  H    0.647296  -0.001011   0.001208  -0.000257  -0.000364  -0.000459
     8  H   -0.001011   0.644953  -0.033704  -0.017139   0.003759   0.000205
     9  H    0.001208  -0.033704   0.650545   0.007712  -0.013335  -0.000876
    10  H   -0.000257  -0.017139   0.007712   0.649858  -0.030667  -0.017138
    11  H   -0.000364   0.003759  -0.013335  -0.030667   0.649347   0.003759
    12  H   -0.000459   0.000205  -0.000876  -0.017138   0.003759   0.644936
    13  H   -0.000461  -0.000876   0.002693   0.007716  -0.013334  -0.033699
              13
     1  C   -0.007273
     2  C   -0.008126
     3  C    0.003791
     4  C   -0.009483
     5  C    0.325329
     6  H    0.001214
     7  H   -0.000461
     8  H   -0.000876
     9  H    0.002693
    10  H    0.007716
    11  H   -0.013334
    12  H   -0.033699
    13  H    0.650685
 Mulliken charges:
               1
     1  C   -0.140935
     2  C   -0.141177
     3  C   -0.071546
     4  C   -0.158070
     5  C   -0.071673
     6  H    0.056288
     7  H    0.056456
     8  H    0.079115
     9  H    0.081854
    10  H    0.076626
    11  H    0.072123
    12  H    0.079114
    13  H    0.081824
 Sum of Mulliken charges =  -0.00000
 Mulliken charges with hydrogens summed into heavy atoms:
               1
     1  C   -0.084647
     2  C   -0.084721
     3  C    0.089423
     4  C   -0.009321
     5  C    0.089265
 Electronic spatial extent (au):  <R**2>=            371.2691
 Charge=              0.0000 electrons
 Dipole moment (field-independent basis, Debye):
    X=             -0.0005    Y=             -0.1341    Z=              0.0473  Tot=              0.1422
 Quadrupole moment (field-independent basis, Debye-Ang):
   XX=            -31.2055   YY=            -31.6914   ZZ=            -32.2756
   XY=              0.0013   XZ=              0.0014   YZ=             -0.0841
 Traceless Quadrupole moment (field-independent basis, Debye-Ang):
   XX=              0.5186   YY=              0.0328   ZZ=             -0.5514
   XY=              0.0013   XZ=              0.0014   YZ=             -0.0841
 Octapole moment (field-independent basis, Debye-Ang**2):
  XXX=              0.0182  YYY=              2.6778  ZZZ=              0.4246  XYY=              0.0009
  XXY=              1.8052  XXZ=             -0.5643  XZZ=             -0.0119  YZZ=             -2.6900
  YYZ=             -0.0647  XYZ=              0.0134
 Hexadecapole moment (field-independent basis, Debye-Ang**3):
 XXXX=           -234.2711 YYYY=           -222.4490 ZZZZ=            -56.0218 XXXY=              0.0352
 XXXZ=             -0.2274 YYYX=              0.0054 YYYZ=             -1.7731 ZZZX=             -0.1959
 ZZZY=              0.3927 XXYY=            -73.7712 XXZZ=            -46.2841 YYZZ=            -48.7047
 XXYZ=              0.2292 YYXZ=             -0.0648 ZZXY=             -0.0071
 N-N= 1.724846463719D+02 E-N=-7.959128477522D+02  KE= 1.932391603247D+02
   1 Symmetry operations used in ECPInt.
 ECPInt:  NShTT=    1081 NPrTT=    4367 LenC2=    1082 LenP2D=    3758.
 LDataN:  DoStor=T MaxTD1= 5 Len=  102
 Calling FoFJK, ICntrl=      2127 FMM=F ISym2X=0 I1Cent= 0 IOpClX= 0 NMat=1 NMatS=1 NMatT=0.
 ***** Axes restored to original set *****
 -------------------------------------------------------------------
 Center     Atomic                   Forces (Hartrees/Bohr)
 Number     Number              X              Y              Z
 -------------------------------------------------------------------
      1        6           0.004738246    0.005150614    0.000296122
      2        6          -0.005817624    0.004197143    0.000299067
      3        6           0.001928795    0.000695956    0.003490892
      4        6           0.001838308   -0.012184971    0.000302027
      5        6          -0.002164998    0.000108106    0.003165362
      6        1          -0.007202341    0.007062308    0.000353737
      7        1           0.004704050    0.008486719    0.000293868
      8        1           0.009009070   -0.000642431    0.001222660
      9        1           0.007425762   -0.000376806   -0.006167080
     10        1           0.000251835   -0.001572437    0.003204392
     11        1           0.000738628   -0.005218454   -0.001819519
     12        1          -0.008471275   -0.003230875    0.001320023
     13        1          -0.006978455   -0.002474872   -0.005961551
 -------------------------------------------------------------------
 Cartesian Forces:  Max     0.012184971 RMS     0.004734957

 GradGradGradGradGradGradGradGradGradGradGradGradGradGradGradGradGradGrad
 Berny optimization.
 FormGI is forming the generalized inverse of G from B-inverse, IUseBI=4.
 Internal  Forces:  Max     0.015757689 RMS     0.004577087
 Search for a local minimum.
 Step number   1 out of a maximum of   81
 All quantities printed in internal units (Hartrees-Bohrs-Radians)
 Mixed Optimization -- RFO/linear search
 Second derivative matrix not updated -- first step.
 ITU=  0
     Eigenvalues ---    0.00503   0.01164   0.01414   0.01915   0.03491
     Eigenvalues ---    0.03551   0.05109   0.05270   0.05976   0.05993
     Eigenvalues ---    0.07380   0.07686   0.08205   0.08226   0.09558
     Eigenvalues ---    0.11215   0.15988   0.15993   0.21655   0.21747
     Eigenvalues ---    0.28456   0.28666   0.31715   0.33047   0.33896
     Eigenvalues ---    0.34229   0.34255   0.34289   0.34294   0.34307
     Eigenvalues ---    0.35819   0.35887   0.55360
 RFO step:  Lambda=-5.22711852D-03 EMin= 5.03281650D-03
 Linear search not attempted -- first point.
 Iteration  1 RMS(Cart)=  0.02642718 RMS(Int)=  0.00022944
 Iteration  2 RMS(Cart)=  0.00020666 RMS(Int)=  0.00006789
 Iteration  3 RMS(Cart)=  0.00000005 RMS(Int)=  0.00006789
 Variable       Old X    -DE/DX   Delta X   Delta X   Delta X     New X
                                 (Linear)    (Quad)   (Total)
    R1        2.52248   0.00637   0.00000   0.01150   0.01142   2.53390
    R2        2.81838   0.01378   0.00000   0.04119   0.04116   2.85954
    R3        2.04259   0.01008   0.00000   0.02769   0.02769   2.07028
    R4        2.81815   0.01380   0.00000   0.04125   0.04123   2.85938
    R5        2.04366   0.00970   0.00000   0.02668   0.02668   2.07033
    R6        2.88910   0.01575   0.00000   0.05134   0.05140   2.94050
    R7        2.06836   0.00724   0.00000   0.02080   0.02080   2.08916
    R8        2.06846   0.00880   0.00000   0.02528   0.02528   2.09374
    R9        2.88895   0.01576   0.00000   0.05135   0.05141   2.94036
   R10        2.07506   0.00357   0.00000   0.01038   0.01038   2.08544
   R11        2.06945   0.00519   0.00000   0.01494   0.01494   2.08440
   R12        2.06816   0.00731   0.00000   0.02099   0.02099   2.08915
   R13        2.06902   0.00862   0.00000   0.02479   0.02479   2.09380
    A1        1.95488   0.00135   0.00000   0.00447   0.00443   1.95931
    A2        2.17485  -0.00022   0.00000   0.00047   0.00048   2.17532
    A3        2.15307  -0.00114   0.00000  -0.00510  -0.00509   2.14799
    A4        1.95566   0.00119   0.00000   0.00378   0.00374   1.95941
    A5        2.17429  -0.00012   0.00000   0.00093   0.00094   2.17523
    A6        2.15285  -0.00108   0.00000  -0.00486  -0.00485   2.14800
    A7        1.80358  -0.00061   0.00000   0.00138   0.00134   1.80491
    A8        1.94737   0.00075   0.00000   0.01288   0.01263   1.96000
    A9        1.92850   0.00017   0.00000   0.00096   0.00092   1.92942
   A10        1.93817   0.00184   0.00000   0.02057   0.02042   1.95859
   A11        1.94643   0.00122   0.00000   0.00910   0.00910   1.95553
   A12        1.89914  -0.00313   0.00000  -0.04157  -0.04148   1.85767
   A13        1.86278  -0.00112   0.00000  -0.01069  -0.01052   1.85225
   A14        1.91763   0.00018   0.00000  -0.00170  -0.00179   1.91583
   A15        1.95034   0.00079   0.00000   0.01133   0.01128   1.96162
   A16        1.91751   0.00020   0.00000  -0.00154  -0.00162   1.91588
   A17        1.95072   0.00075   0.00000   0.01096   0.01091   1.96163
   A18        1.86538  -0.00078   0.00000  -0.00834  -0.00829   1.85709
   A19        1.80398  -0.00069   0.00000   0.00098   0.00095   1.80492
   A20        1.94751   0.00076   0.00000   0.01275   0.01251   1.96002
   A21        1.92829   0.00020   0.00000   0.00120   0.00116   1.92946
   A22        1.93829   0.00184   0.00000   0.02042   0.02027   1.95857
   A23        1.94606   0.00126   0.00000   0.00951   0.00951   1.95557
   A24        1.89907  -0.00314   0.00000  -0.04157  -0.04148   1.85759
    D1        0.00043  -0.00002   0.00000  -0.00055  -0.00055  -0.00012
    D2        3.11279  -0.00022   0.00000  -0.00631  -0.00632   3.10647
    D3       -3.11221   0.00019   0.00000   0.00569   0.00570  -3.10652
    D4        0.00015  -0.00001   0.00000  -0.00008  -0.00008   0.00007
    D5        0.16904  -0.00011   0.00000   0.00136   0.00132   0.17036
    D6        2.25316   0.00205   0.00000   0.03244   0.03248   2.28564
    D7       -1.91483  -0.00130   0.00000  -0.01092  -0.01094  -1.92577
    D8       -3.00109  -0.00030   0.00000  -0.00467  -0.00470  -3.00579
    D9       -0.91696   0.00185   0.00000   0.02640   0.02646  -0.89051
   D10        1.19823  -0.00149   0.00000  -0.01695  -0.01697   1.18126
   D11       -0.16967   0.00013   0.00000  -0.00054  -0.00050  -0.17017
   D12       -2.25334  -0.00205   0.00000  -0.03207  -0.03212  -2.28546
   D13        1.91451   0.00130   0.00000   0.01137   0.01139   1.92590
   D14        3.00074   0.00031   0.00000   0.00503   0.00506   3.00580
   D15        0.91706  -0.00187   0.00000  -0.02650  -0.02656   0.89051
   D16       -1.19827   0.00148   0.00000   0.01694   0.01695  -1.18132
   D17        0.26500  -0.00053   0.00000  -0.00101  -0.00103   0.26397
   D18       -1.81323  -0.00022   0.00000   0.00797   0.00790  -1.80533
   D19        2.40244   0.00013   0.00000   0.01236   0.01234   2.41478
   D20        2.35500   0.00090   0.00000   0.02512   0.02522   2.38022
   D21        0.27678   0.00121   0.00000   0.03410   0.03415   0.31092
   D22       -1.79075   0.00157   0.00000   0.03850   0.03859  -1.75216
   D23       -1.80679  -0.00097   0.00000  -0.00736  -0.00738  -1.81417
   D24        2.39817  -0.00066   0.00000   0.00161   0.00155   2.39972
   D25        0.33065  -0.00030   0.00000   0.00601   0.00599   0.33664
   D26       -0.26484   0.00054   0.00000   0.00079   0.00081  -0.26403
   D27       -2.35530  -0.00087   0.00000  -0.02491  -0.02500  -2.38030
   D28        1.80675   0.00098   0.00000   0.00741   0.00742   1.81417
   D29        1.81346   0.00021   0.00000  -0.00829  -0.00823   1.80523
   D30       -0.27700  -0.00120   0.00000  -0.03399  -0.03403  -0.31103
   D31       -2.39813   0.00066   0.00000  -0.00168  -0.00162  -2.39975
   D32       -2.40204  -0.00016   0.00000  -0.01281  -0.01279  -2.41483
   D33        1.79068  -0.00157   0.00000  -0.03851  -0.03860   1.75209
   D34       -0.33045   0.00029   0.00000  -0.00620  -0.00618  -0.33663
         Item               Value     Threshold  Converged?
 Maximum Force            0.015758     0.000450     NO 
 RMS     Force            0.004577     0.000300     NO 
 Maximum Displacement     0.094660     0.001800     NO 
 RMS     Displacement     0.026413     0.001200     NO 
 Predicted change in Energy=-2.694333D-03
 GradGradGradGradGradGradGradGradGradGradGradGradGradGradGradGradGradGrad

                          Input orientation:                          
 ---------------------------------------------------------------------
 Center     Atomic      Atomic             Coordinates (Angstroms)
 Number     Number       Type             X           Y           Z
 ---------------------------------------------------------------------
      1          6           0       -0.814845    0.909242    0.047714
      2          6           0        0.511695    1.104800    0.044540
      3          6           0        1.282110   -0.192036   -0.074613
      4          6           0        0.185936   -1.281210    0.108093
      5          6           0       -1.178700   -0.554930   -0.068904
      6          1           0       -1.562061    1.709113    0.093469
      7          1           0        0.996435    2.086366    0.087417
      8          1           0        2.083842   -0.274738    0.682087
      9          1           0        1.776320   -0.261283   -1.063822
     10          1           0        0.251598   -1.710361    1.122678
     11          1           0        0.308380   -2.122615   -0.594538
     12          1           0       -1.919008   -0.865078    0.691323
     13          1           0       -1.636421   -0.764521   -1.055924
 ---------------------------------------------------------------------
                    Distance matrix (angstroms):
                    1          2          3          4          5
     1  C    0.000000
     2  C    1.340881   0.000000
     3  C    2.371708   1.513116   0.000000
     4  C    2.409002   2.408983   1.556045   0.000000
     5  C    1.513205   2.371710   2.487430   1.555970   0.000000
     6  H    1.095544   2.160568   3.425190   3.463775   2.302003
     7  H    2.160540   1.095574   2.301951   3.463799   3.425214
     8  H    3.194781   2.186604   1.105536   2.223623   3.359565
     9  H    3.052832   2.166548   1.107959   2.223276   3.131810
    10  H    3.025751   3.025750   2.191066   1.103569   2.191037
    11  H    3.296404   3.296356   2.223872   1.103017   2.223811
    12  H    2.186692   3.194850   3.359583   2.223536   1.105528
    13  H    2.166677   3.052833   3.131858   2.223261   1.107993
                    6          7          8          9         10
     6  H    0.000000
     7  H    2.586167   0.000000
     8  H    4.192225   2.666627   0.000000
     9  H    4.045562   2.728558   1.772837   0.000000
    10  H    4.005176   4.005207   2.369019   3.034038   0.000000
    11  H    4.319032   4.319028   2.862985   2.416533   1.766921
    12  H    2.666702   4.192318   4.046158   4.135281   2.368988
    13  H    2.728644   4.045580   4.135327   3.449654   3.034063
                   11         12         13
    11  H    0.000000
    12  H    2.862883   0.000000
    13  H    2.416516   1.772806   0.000000
 Stoichiometry    C5H8
 Framework group  C1[X(C5H8)]
 Deg. of freedom    33
 Full point group                 C1      NOp   1
 Largest Abelian subgroup         C1      NOp   1
 Largest concise Abelian subgroup C1      NOp   1
                         Standard orientation:                         
 ---------------------------------------------------------------------
 Center     Atomic      Atomic             Coordinates (Angstroms)
 Number     Number       Type             X           Y           Z
 ---------------------------------------------------------------------
      1          6           0        0.669736    1.079265   -0.036498
      2          6           0       -0.671144    1.078360   -0.036416
      3          6           0       -1.243518   -0.317539    0.079244
      4          6           0        0.000821   -1.234076   -0.102023
      5          6           0        1.243912   -0.315980    0.079270
      6          1           0        1.291803    1.980048   -0.079416
      7          1           0       -1.294363    1.978381   -0.079327
      8          1           0       -2.022736   -0.515629   -0.679563
      9          1           0       -1.724528   -0.459985    1.067127
     10          1           0        0.001081   -1.666636   -1.117285
     11          1           0        0.001354   -2.085435    0.599286
     12          1           0        2.023422   -0.513136   -0.679470
     13          1           0        1.725125   -0.457788    1.067183
 ---------------------------------------------------------------------
 Rotational constants (GHZ):           7.2430668           7.1487618           3.8834646
 Standard basis: def2SVPP (5D, 7F)
 There are    91 symmetry adapted cartesian basis functions of A   symmetry.
 There are    86 symmetry adapted basis functions of A   symmetry.
    86 basis functions,   157 primitive gaussians,    91 cartesian basis functions
    19 alpha electrons       19 beta electrons
       nuclear repulsion energy       170.1883456338 Hartrees.
 NAtoms=   13 NActive=   13 NUniq=   13 SFac= 1.00D+00 NAtFMM=   60 NAOKFM=F Big=F
 Integral buffers will be    131072 words long.
 Raffenetti 2 integral format.
 Two-electron integral symmetry is turned on.
 Nuclear repulsion after empirical dispersion term =      170.1714037206 Hartrees.
 One-electron integrals computed using PRISM.
   1 Symmetry operations used in ECPInt.
 ECPInt:  NShTT=    1081 NPrTT=    4367 LenC2=    1082 LenP2D=    3746.
 LDataN:  DoStor=T MaxTD1= 4 Len=   56
 NBasis=    86 RedAO= T EigKep=  1.26D-03  NBF=    86
 NBsUse=    86 1.00D-06 EigRej= -1.00D+00 NBFU=    86
 Initial guess from the checkpoint file:  "/home/software/g16/scr/Gau-97648.chk"
 B after Tr=    -0.000000   -0.000000   -0.000000
         Rot=    0.999998    0.000842   -0.001177   -0.001675 Ang=   0.25 deg.
 ExpMin= 1.22D-01 ExpMax= 1.24D+03 ExpMxC= 1.86D+02 IAcc=3 IRadAn=         5 AccDes= 0.00D+00
 Harris functional with IExCor=  402 and IRadAn=       5 diagonalized for initial guess.
 HarFok:  IExCor=  402 AccDes= 0.00D+00 IRadAn=         5 IDoV= 1 UseB2=F ITyADJ=14
 ICtDFT=  3500011 ScaDFX=  1.000000  1.000000  1.000000  1.000000
 FoFCou: FMM=F IPFlag=           0 FMFlag=      100000 FMFlg1=           0
         NFxFlg=           0 DoJE=T BraDBF=F KetDBF=T FulRan=T
         wScrn=  0.000000 ICntrl=       500 IOpCl=  0 I1Cent=   200000004 NGrid=           0
         NMat0=    1 NMatS0=      1 NMatT0=    0 NMatD0=    1 NMtDS0=    0 NMtDT0=    0
 Petite list used in FoFCou.
 Requested convergence on RMS density matrix=1.00D-08 within 128 cycles.
 Requested convergence on MAX density matrix=1.00D-06.
 Requested convergence on             energy=1.00D-06.
 No special actions if energy rises.
 Integral accuracy reduced to 1.0D-05 until final iterations.
 Initial convergence to 1.0D-05 achieved.  Increase integral accuracy.
 SCF Done:  E(RB3LYP) =  -195.185757858     A.U. after   10 cycles
            NFock= 10  Conv=0.84D-08     -V/T= 2.0117
   1 Symmetry operations used in ECPInt.
 ECPInt:  NShTT=    1081 NPrTT=    4367 LenC2=    1082 LenP2D=    3746.
 LDataN:  DoStor=T MaxTD1= 5 Len=  102
 Calling FoFJK, ICntrl=      2127 FMM=F ISym2X=0 I1Cent= 0 IOpClX= 0 NMat=1 NMatS=1 NMatT=0.
 ***** Axes restored to original set *****
 -------------------------------------------------------------------
 Center     Atomic                   Forces (Hartrees/Bohr)
 Number     Number              X              Y              Z
 -------------------------------------------------------------------
      1        6           0.002769122   -0.000202174   -0.000183854
      2        6          -0.002612661   -0.000924884   -0.000145496
      3        6          -0.002251631    0.000704118    0.000945134
      4        6           0.000043097   -0.000130524   -0.000504355
      5        6           0.001927808    0.001364690    0.000930591
      6        1          -0.000082876   -0.000589382    0.000037080
      7        1           0.000246007   -0.000557798    0.000034264
      8        1           0.000558743   -0.000329632   -0.000587639
      9        1           0.000391885   -0.000117767   -0.000084237
     10        1          -0.000134030    0.000902481    0.000261936
     11        1          -0.000082840    0.000570222   -0.000056504
     12        1          -0.000445438   -0.000473875   -0.000578826
     13        1          -0.000327187   -0.000215474   -0.000068095
 -------------------------------------------------------------------
 Cartesian Forces:  Max     0.002769122 RMS     0.000912082

 GradGradGradGradGradGradGradGradGradGradGradGradGradGradGradGradGradGrad
 Berny optimization.
 Using GEDIIS/GDIIS optimizer.
 FormGI is forming the generalized inverse of G from B-inverse, IUseBI=4.
 Internal  Forces:  Max     0.002615360 RMS     0.000480775
 Search for a local minimum.
 Step number   2 out of a maximum of   81
 All quantities printed in internal units (Hartrees-Bohrs-Radians)
 Mixed Optimization -- En-DIIS/RFO-DIIS
 Update second derivatives using D2CorX and points    1    2
 DE= -2.50D-03 DEPred=-2.69D-03 R= 9.26D-01
 TightC=F SS=  1.41D+00  RLast= 1.72D-01 DXNew= 5.0454D-01 5.1669D-01
 Trust test= 9.26D-01 RLast= 1.72D-01 DXMaxT set to 5.05D-01
 ITU=  1  0
 Use linear search instead of GDIIS.
     Eigenvalues ---    0.00503   0.01164   0.01418   0.01920   0.03464
     Eigenvalues ---    0.03497   0.04979   0.05171   0.05895   0.05932
     Eigenvalues ---    0.07294   0.07699   0.08310   0.08318   0.09650
     Eigenvalues ---    0.11225   0.15951   0.15982   0.21565   0.21726
     Eigenvalues ---    0.28661   0.29104   0.31729   0.33779   0.33932
     Eigenvalues ---    0.34101   0.34268   0.34288   0.34302   0.34680
     Eigenvalues ---    0.35851   0.36266   0.56435
 RFO step:  Lambda=-9.09505230D-05 EMin= 5.03497805D-03
 Quartic linear search produced a step of -0.02857.
 Iteration  1 RMS(Cart)=  0.00950842 RMS(Int)=  0.00005038
 Iteration  2 RMS(Cart)=  0.00005448 RMS(Int)=  0.00001049
 Iteration  3 RMS(Cart)=  0.00000000 RMS(Int)=  0.00001049
 Variable       Old X    -DE/DX   Delta X   Delta X   Delta X     New X
                                 (Linear)    (Quad)   (Total)
    R1        2.53390  -0.00262  -0.00033  -0.00405  -0.00437   2.52953
    R2        2.85954  -0.00111  -0.00118  -0.00173  -0.00290   2.85664
    R3        2.07028  -0.00037  -0.00079   0.00009  -0.00071   2.06957
    R4        2.85938  -0.00107  -0.00118  -0.00160  -0.00278   2.85660
    R5        2.07033  -0.00039  -0.00076  -0.00000  -0.00077   2.06957
    R6        2.94050  -0.00137  -0.00147  -0.00225  -0.00373   2.93677
    R7        2.08916   0.00003  -0.00059   0.00090   0.00031   2.08947
    R8        2.09374   0.00026  -0.00072   0.00173   0.00100   2.09474
    R9        2.94036  -0.00134  -0.00147  -0.00215  -0.00363   2.93673
   R10        2.08544  -0.00012  -0.00030   0.00007  -0.00022   2.08522
   R11        2.08440  -0.00041  -0.00043  -0.00057  -0.00100   2.08340
   R12        2.08915   0.00003  -0.00060   0.00092   0.00032   2.08947
   R13        2.09380   0.00024  -0.00071   0.00165   0.00094   2.09474
    A1        1.95931   0.00022  -0.00013  -0.00057  -0.00072   1.95860
    A2        2.17532   0.00037  -0.00001   0.00322   0.00321   2.17853
    A3        2.14799  -0.00058   0.00015  -0.00274  -0.00259   2.14540
    A4        1.95941   0.00021  -0.00011  -0.00065  -0.00077   1.95863
    A5        2.17523   0.00037  -0.00003   0.00328   0.00326   2.17849
    A6        2.14800  -0.00058   0.00014  -0.00274  -0.00259   2.14540
    A7        1.80491  -0.00017  -0.00004  -0.00046  -0.00053   1.80438
    A8        1.96000   0.00030  -0.00036   0.00481   0.00447   1.96447
    A9        1.92942   0.00013  -0.00003   0.00119   0.00117   1.93059
   A10        1.95859   0.00009  -0.00058   0.00160   0.00102   1.95960
   A11        1.95553   0.00006  -0.00026   0.00027   0.00003   1.95556
   A12        1.85767  -0.00037   0.00119  -0.00693  -0.00575   1.85191
   A13        1.85225  -0.00008   0.00030  -0.00285  -0.00259   1.84966
   A14        1.91583  -0.00009   0.00005  -0.00210  -0.00205   1.91379
   A15        1.96162  -0.00005  -0.00032   0.00013  -0.00017   1.96145
   A16        1.91588  -0.00010   0.00005  -0.00212  -0.00207   1.91381
   A17        1.96163  -0.00005  -0.00031   0.00014  -0.00016   1.96147
   A18        1.85709   0.00036   0.00024   0.00657   0.00680   1.86389
   A19        1.80492  -0.00017  -0.00003  -0.00047  -0.00053   1.80440
   A20        1.96002   0.00029  -0.00036   0.00479   0.00445   1.96448
   A21        1.92946   0.00012  -0.00003   0.00112   0.00110   1.93055
   A22        1.95857   0.00009  -0.00058   0.00164   0.00107   1.95964
   A23        1.95557   0.00006  -0.00027   0.00026  -0.00000   1.95557
   A24        1.85759  -0.00037   0.00119  -0.00687  -0.00569   1.85189
    D1       -0.00012   0.00000   0.00002   0.00013   0.00015   0.00003
    D2        3.10647  -0.00003   0.00018  -0.00314  -0.00297   3.10350
    D3       -3.10652   0.00003  -0.00016   0.00320   0.00305  -3.10347
    D4        0.00007  -0.00000   0.00000  -0.00007  -0.00007   0.00000
    D5        0.17036   0.00002  -0.00004   0.00959   0.00955   0.17991
    D6        2.28564   0.00018  -0.00093   0.01379   0.01287   2.29851
    D7       -1.92577  -0.00001   0.00031   0.00900   0.00932  -1.91646
    D8       -3.00579   0.00001   0.00013   0.00671   0.00685  -2.99894
    D9       -0.89051   0.00017  -0.00076   0.01092   0.01016  -0.88034
   D10        1.18126  -0.00002   0.00048   0.00612   0.00661   1.18788
   D11       -0.17017  -0.00002   0.00001  -0.00980  -0.00979  -0.17995
   D12       -2.28546  -0.00018   0.00092  -0.01396  -0.01304  -2.29850
   D13        1.92590   0.00001  -0.00033  -0.00915  -0.00948   1.91642
   D14        3.00580  -0.00001  -0.00014  -0.00672  -0.00687   2.99893
   D15        0.89051  -0.00017   0.00076  -0.01089  -0.01013   0.88038
   D16       -1.18132   0.00002  -0.00048  -0.00608  -0.00657  -1.18789
   D17        0.26397  -0.00001   0.00003   0.01483   0.01485   0.27882
   D18       -1.80533   0.00020  -0.00023   0.02005   0.01983  -1.78550
   D19        2.41478  -0.00015  -0.00035   0.01314   0.01278   2.42756
   D20        2.38022   0.00029  -0.00072   0.02116   0.02043   2.40065
   D21        0.31092   0.00050  -0.00098   0.02639   0.02541   0.33633
   D22       -1.75216   0.00014  -0.00110   0.01948   0.01837  -1.73379
   D23       -1.81417  -0.00008   0.00021   0.01355   0.01376  -1.80040
   D24        2.39972   0.00013  -0.00004   0.01878   0.01874   2.41846
   D25        0.33664  -0.00023  -0.00017   0.01187   0.01170   0.34834
   D26       -0.26403   0.00001  -0.00002  -0.01476  -0.01478  -0.27881
   D27       -2.38030  -0.00029   0.00071  -0.02109  -0.02037  -2.40067
   D28        1.81417   0.00008  -0.00021  -0.01358  -0.01379   1.80038
   D29        1.80523  -0.00020   0.00024  -0.01997  -0.01974   1.78549
   D30       -0.31103  -0.00050   0.00097  -0.02631  -0.02533  -0.33637
   D31       -2.39975  -0.00013   0.00005  -0.01879  -0.01875  -2.41850
   D32       -2.41483   0.00015   0.00037  -0.01307  -0.01270  -2.42753
   D33        1.75209  -0.00014   0.00110  -0.01940  -0.01829   1.73380
   D34       -0.33663   0.00023   0.00018  -0.01189  -0.01171  -0.34834
         Item               Value     Threshold  Converged?
 Maximum Force            0.002615     0.000450     NO 
 RMS     Force            0.000481     0.000300     NO 
 Maximum Displacement     0.031512     0.001800     NO 
 RMS     Displacement     0.009515     0.001200     NO 
 Predicted change in Energy=-4.934456D-05
 GradGradGradGradGradGradGradGradGradGradGradGradGradGradGradGradGradGrad

                          Input orientation:                          
 ---------------------------------------------------------------------
 Center     Atomic      Atomic             Coordinates (Angstroms)
 Number     Number       Type             X           Y           Z
 ---------------------------------------------------------------------
      1          6           0       -0.813525    0.908168    0.052273
      2          6           0        0.510725    1.103417    0.049207
      3          6           0        1.279298   -0.192018   -0.078139
      4          6           0        0.185709   -1.279431    0.113544
      5          6           0       -1.176041   -0.554083   -0.072418
      6          1           0       -1.563047    1.705220    0.100492
      7          1           0        0.998488    2.082919    0.094563
      8          1           0        2.091448   -0.278365    0.667195
      9          1           0        1.765321   -0.261384   -1.071981
     10          1           0        0.249189   -1.693686    1.134311
     11          1           0        0.308925   -2.125928   -0.581974
     12          1           0       -1.925326   -0.870656    0.676532
     13          1           0       -1.625883   -0.761424   -1.064084
 ---------------------------------------------------------------------
                    Distance matrix (angstroms):
                    1          2          3          4          5
     1  C    0.000000
     2  C    1.338569   0.000000
     3  C    2.367979   1.511646   0.000000
     4  C    2.405787   2.405772   1.554074   0.000000
     5  C    1.511670   2.367969   2.481897   1.554051   0.000000
     6  H    1.095171   2.159936   3.422038   3.459257   2.298722
     7  H    2.159912   1.095169   2.298700   3.459244   3.422023
     8  H    3.197633   2.188587   1.105697   2.222725   3.361478
     9  H    3.046677   2.166507   1.108491   2.221950   3.120322
    10  H    3.011613   3.011583   2.187730   1.103450   2.187731
    11  H    3.296650   3.296631   2.221593   1.102490   2.221591
    12  H    2.188611   3.197631   3.361501   2.222728   1.105699
    13  H    2.166499   3.046661   3.120318   2.221937   1.108490
                    6          7          8          9         10
     6  H    0.000000
     7  H    2.589238   0.000000
     8  H    4.196557   2.664231   0.000000
     9  H    4.039833   2.728482   1.769571   0.000000
    10  H    3.988175   3.988141   2.369652   3.036094   0.000000
    11  H    4.318302   4.318286   2.855048   2.416137   1.770886
    12  H    2.664246   4.196544   4.060218   4.129089   2.369695
    13  H    2.728465   4.039812   4.129071   3.427881   3.036107
                   11         12         13
    11  H    0.000000
    12  H    2.855069   0.000000
    13  H    2.416150   1.769559   0.000000
 Stoichiometry    C5H8
 Framework group  C1[X(C5H8)]
 Deg. of freedom    33
 Full point group                 C1      NOp   1
 Largest Abelian subgroup         C1      NOp   1
 Largest concise Abelian subgroup C1      NOp   1
                         Standard orientation:                         
 ---------------------------------------------------------------------
 Center     Atomic      Atomic             Coordinates (Angstroms)
 Number     Number       Type             X           Y           Z
 ---------------------------------------------------------------------
      1          6           0        0.669338    1.077584   -0.038552
      2          6           0       -0.669231    1.077631   -0.038566
      3          6           0       -1.240967   -0.316402    0.083345
      4          6           0       -0.000055   -1.232151   -0.108189
      5          6           0        1.240929   -0.316537    0.083334
      6          1           0        1.294723    1.975551   -0.082680
      7          1           0       -1.294514    1.975667   -0.082709
      8          1           0       -2.030127   -0.518052   -0.664406
      9          1           0       -1.713965   -0.458835    1.075685
     10          1           0       -0.000097   -1.648216   -1.130193
     11          1           0       -0.000111   -2.089619    0.584799
     12          1           0        2.030091   -0.518250   -0.664400
     13          1           0        1.713916   -0.458994    1.075675
 ---------------------------------------------------------------------
 Rotational constants (GHZ):           7.2580892           7.1657918           3.8954598
 Standard basis: def2SVPP (5D, 7F)
 There are    91 symmetry adapted cartesian basis functions of A   symmetry.
 There are    86 symmetry adapted basis functions of A   symmetry.
    86 basis functions,   157 primitive gaussians,    91 cartesian basis functions
    19 alpha electrons       19 beta electrons
       nuclear repulsion energy       170.3709242344 Hartrees.
 NAtoms=   13 NActive=   13 NUniq=   13 SFac= 1.00D+00 NAtFMM=   60 NAOKFM=F Big=F
 Integral buffers will be    131072 words long.
 Raffenetti 2 integral format.
 Two-electron integral symmetry is turned on.
 Nuclear repulsion after empirical dispersion term =      170.3539667712 Hartrees.
 One-electron integrals computed using PRISM.
   1 Symmetry operations used in ECPInt.
 ECPInt:  NShTT=    1081 NPrTT=    4367 LenC2=    1082 LenP2D=    3748.
 LDataN:  DoStor=T MaxTD1= 4 Len=   56
 NBasis=    86 RedAO= T EigKep=  1.25D-03  NBF=    86
 NBsUse=    86 1.00D-06 EigRej= -1.00D+00 NBFU=    86
 Initial guess from the checkpoint file:  "/home/software/g16/scr/Gau-97648.chk"
 B after Tr=     0.000000   -0.000000   -0.000000
         Rot=    1.000000   -0.000398   -0.000001    0.000346 Ang=  -0.06 deg.
 ExpMin= 1.22D-01 ExpMax= 1.24D+03 ExpMxC= 1.86D+02 IAcc=3 IRadAn=         5 AccDes= 0.00D+00
 Harris functional with IExCor=  402 and IRadAn=       5 diagonalized for initial guess.
 HarFok:  IExCor=  402 AccDes= 0.00D+00 IRadAn=         5 IDoV= 1 UseB2=F ITyADJ=14
 ICtDFT=  3500011 ScaDFX=  1.000000  1.000000  1.000000  1.000000
 FoFCou: FMM=F IPFlag=           0 FMFlag=      100000 FMFlg1=           0
         NFxFlg=           0 DoJE=T BraDBF=F KetDBF=T FulRan=T
         wScrn=  0.000000 ICntrl=       500 IOpCl=  0 I1Cent=   200000004 NGrid=           0
         NMat0=    1 NMatS0=      1 NMatT0=    0 NMatD0=    1 NMtDS0=    0 NMtDT0=    0
 Petite list used in FoFCou.
 Requested convergence on RMS density matrix=1.00D-08 within 128 cycles.
 Requested convergence on MAX density matrix=1.00D-06.
 Requested convergence on             energy=1.00D-06.
 No special actions if energy rises.
 Integral accuracy reduced to 1.0D-05 until final iterations.
 Initial convergence to 1.0D-05 achieved.  Increase integral accuracy.
 SCF Done:  E(RB3LYP) =  -195.185829756     A.U. after   10 cycles
            NFock= 10  Conv=0.27D-08     -V/T= 2.0116
   1 Symmetry operations used in ECPInt.
 ECPInt:  NShTT=    1081 NPrTT=    4367 LenC2=    1082 LenP2D=    3748.
 LDataN:  DoStor=T MaxTD1= 5 Len=  102
 Calling FoFJK, ICntrl=      2127 FMM=F ISym2X=0 I1Cent= 0 IOpClX= 0 NMat=1 NMatS=1 NMatT=0.
 ***** Axes restored to original set *****
 -------------------------------------------------------------------
 Center     Atomic                   Forces (Hartrees/Bohr)
 Number     Number              X              Y              Z
 -------------------------------------------------------------------
      1        6          -0.000016399   -0.000051330   -0.000150892
      2        6           0.000024387   -0.000025468   -0.000155414
      3        6          -0.000627607    0.000071529    0.000614265
      4        6           0.000024976   -0.000123380   -0.000563366
      5        6           0.000571879    0.000264480    0.000605652
      6        1          -0.000049538   -0.000201978    0.000088542
      7        1           0.000109084   -0.000177550    0.000087524
      8        1           0.000231168   -0.000114098   -0.000296123
      9        1          -0.000023908    0.000045740   -0.000131601
     10        1          -0.000066355    0.000442988    0.000150034
     11        1          -0.000000411   -0.000002983    0.000177856
     12        1          -0.000187019   -0.000175883   -0.000294123
     13        1           0.000009742    0.000047934   -0.000132354
 -------------------------------------------------------------------
 Cartesian Forces:  Max     0.000627607 RMS     0.000259578

 GradGradGradGradGradGradGradGradGradGradGradGradGradGradGradGradGradGrad
 Berny optimization.
 Using GEDIIS/GDIIS optimizer.
 FormGI is forming the generalized inverse of G from B-inverse, IUseBI=4.
 Internal  Forces:  Max     0.000357593 RMS     0.000113964
 Search for a local minimum.
 Step number   3 out of a maximum of   81
 All quantities printed in internal units (Hartrees-Bohrs-Radians)
 Mixed Optimization -- En-DIIS/RFO-DIIS
 Swapping is turned off.
 Update second derivatives using D2CorX and points    1    2    3
 DE= -7.19D-05 DEPred=-4.93D-05 R= 1.46D+00
 TightC=F SS=  1.41D+00  RLast= 8.41D-02 DXNew= 8.4853D-01 2.5231D-01
 Trust test= 1.46D+00 RLast= 8.41D-02 DXMaxT set to 5.05D-01
 ITU=  1  1  0
     Eigenvalues ---    0.00236   0.01164   0.01420   0.01925   0.03456
     Eigenvalues ---    0.03539   0.04740   0.05317   0.05898   0.06061
     Eigenvalues ---    0.07257   0.07680   0.08301   0.08312   0.09663
     Eigenvalues ---    0.11213   0.15756   0.15979   0.21699   0.21769
     Eigenvalues ---    0.28638   0.28704   0.31702   0.33844   0.33951
     Eigenvalues ---    0.34087   0.34272   0.34295   0.34306   0.34494
     Eigenvalues ---    0.35849   0.36032   0.63724
 En-DIIS/RFO-DIIS/Sim-DIIS IScMMF=       -3 using points:     3    2
 RFO step:  Lambda=-9.32244161D-05.
 DidBck=F Rises=F RFO-DIIS coefs:    3.00000   -2.00000
 Iteration  1 RMS(Cart)=  0.02200599 RMS(Int)=  0.00025381
 Iteration  2 RMS(Cart)=  0.00028098 RMS(Int)=  0.00007126
 Iteration  3 RMS(Cart)=  0.00000001 RMS(Int)=  0.00007126
 Variable       Old X    -DE/DX   Delta X   Delta X   Delta X     New X
                                 (Linear)    (Quad)   (Total)
    R1        2.52953  -0.00000  -0.00874   0.00683  -0.00184   2.52769
    R2        2.85664  -0.00026  -0.00580   0.00341  -0.00237   2.85427
    R3        2.06957  -0.00011  -0.00141   0.00079  -0.00062   2.06896
    R4        2.85660  -0.00025  -0.00556   0.00328  -0.00225   2.85435
    R5        2.06957  -0.00011  -0.00153   0.00088  -0.00065   2.06892
    R6        2.93677  -0.00036  -0.00745   0.00343  -0.00407   2.93271
    R7        2.08947  -0.00002   0.00061  -0.00031   0.00030   2.08976
    R8        2.09474   0.00010   0.00201  -0.00057   0.00143   2.09618
    R9        2.93673  -0.00035  -0.00725   0.00332  -0.00398   2.93275
   R10        2.08522  -0.00003  -0.00045   0.00028  -0.00017   2.08505
   R11        2.08340  -0.00011  -0.00199   0.00103  -0.00096   2.08244
   R12        2.08947  -0.00002   0.00065  -0.00034   0.00030   2.08977
   R13        2.09474   0.00011   0.00188  -0.00048   0.00140   2.09614
    A1        1.95860  -0.00006  -0.00143  -0.00065  -0.00222   1.95637
    A2        2.17853   0.00020   0.00642  -0.00180   0.00468   2.18321
    A3        2.14540  -0.00014  -0.00517   0.00249  -0.00262   2.14278
    A4        1.95863  -0.00007  -0.00154  -0.00064  -0.00232   1.95631
    A5        2.17849   0.00021   0.00653  -0.00182   0.00477   2.18326
    A6        2.14540  -0.00014  -0.00518   0.00251  -0.00261   2.14279
    A7        1.80438   0.00006  -0.00107  -0.00033  -0.00164   1.80274
    A8        1.96447   0.00006   0.00894  -0.00277   0.00626   1.97073
    A9        1.93059  -0.00004   0.00234  -0.00296  -0.00056   1.93003
   A10        1.95960   0.00004   0.00204   0.00036   0.00244   1.96205
   A11        1.95556  -0.00003   0.00005  -0.00021  -0.00009   1.95547
   A12        1.85191  -0.00008  -0.01151   0.00549  -0.00605   1.84587
   A13        1.84966   0.00002  -0.00519   0.00031  -0.00519   1.84447
   A14        1.91379  -0.00007  -0.00410  -0.00013  -0.00422   1.90957
   A15        1.96145   0.00001  -0.00035   0.00322   0.00298   1.96443
   A16        1.91381  -0.00007  -0.00414  -0.00014  -0.00427   1.90954
   A17        1.96147   0.00001  -0.00032   0.00316   0.00296   1.96443
   A18        1.86389   0.00010   0.01360  -0.00638   0.00718   1.87107
   A19        1.80440   0.00006  -0.00105  -0.00038  -0.00167   1.80273
   A20        1.96448   0.00006   0.00890  -0.00277   0.00622   1.97070
   A21        1.93055  -0.00004   0.00219  -0.00277  -0.00052   1.93003
   A22        1.95964   0.00004   0.00214   0.00024   0.00242   1.96206
   A23        1.95557  -0.00004  -0.00000  -0.00016  -0.00010   1.95547
   A24        1.85189  -0.00008  -0.01139   0.00543  -0.00599   1.84591
    D1        0.00003  -0.00000   0.00030  -0.00032  -0.00002   0.00001
    D2        3.10350   0.00001  -0.00594   0.00135  -0.00464   3.09886
    D3       -3.10347  -0.00001   0.00610  -0.00156   0.00457  -3.09889
    D4        0.00000  -0.00000  -0.00014   0.00011  -0.00004  -0.00004
    D5        0.17991  -0.00001   0.01910   0.00324   0.02235   0.20226
    D6        2.29851   0.00011   0.02573   0.00183   0.02754   2.32605
    D7       -1.91646   0.00002   0.01863   0.00502   0.02368  -1.89278
    D8       -2.99894   0.00001   0.01370   0.00435   0.01806  -2.98088
    D9       -0.88034   0.00012   0.02033   0.00293   0.02325  -0.85709
   D10        1.18788   0.00003   0.01323   0.00612   0.01939   1.20726
   D11       -0.17995   0.00001  -0.01957  -0.00274  -0.02232  -0.20227
   D12       -2.29850  -0.00011  -0.02609  -0.00150  -0.02758  -2.32608
   D13        1.91642  -0.00001  -0.01897  -0.00464  -0.02363   1.89278
   D14        2.99893  -0.00001  -0.01374  -0.00427  -0.01802   2.98091
   D15        0.88038  -0.00013  -0.02026  -0.00302  -0.02328   0.85710
   D16       -1.18789  -0.00003  -0.01314  -0.00616  -0.01933  -1.20722
   D17        0.27882  -0.00001   0.02970   0.00477   0.03444   0.31326
   D18       -1.78550   0.00010   0.03966   0.00483   0.04449  -1.74101
   D19        2.42756   0.00001   0.02557   0.01088   0.03641   2.46397
   D20        2.40065   0.00012   0.04087   0.00142   0.04226   2.44291
   D21        0.33633   0.00023   0.05082   0.00149   0.05230   0.38863
   D22       -1.73379   0.00014   0.03673   0.00753   0.04422  -1.68957
   D23       -1.80040   0.00002   0.02753   0.00859   0.03613  -1.76428
   D24        2.41846   0.00013   0.03748   0.00865   0.04617   2.46463
   D25        0.34834   0.00004   0.02340   0.01469   0.03809   0.38643
   D26       -0.27881   0.00001  -0.02955  -0.00493  -0.03445  -0.31326
   D27       -2.40067  -0.00012  -0.04074  -0.00149  -0.04219  -2.44286
   D28        1.80038  -0.00002  -0.02758  -0.00852  -0.03611   1.76427
   D29        1.78549  -0.00010  -0.03948  -0.00498  -0.04446   1.74103
   D30       -0.33637  -0.00023  -0.05066  -0.00154  -0.05220  -0.38856
   D31       -2.41850  -0.00013  -0.03751  -0.00858  -0.04612  -2.46462
   D32       -2.42753  -0.00002  -0.02540  -0.01107  -0.03643  -2.46396
   D33        1.73380  -0.00015  -0.03658  -0.00763  -0.04417   1.68962
   D34       -0.34834  -0.00005  -0.02343  -0.01467  -0.03809  -0.38643
         Item               Value     Threshold  Converged?
 Maximum Force            0.000358     0.000450     YES
 RMS     Force            0.000114     0.000300     YES
 Maximum Displacement     0.067180     0.001800     NO 
 RMS     Displacement     0.022037     0.001200     NO 
 Predicted change in Energy=-4.801433D-05
 GradGradGradGradGradGradGradGradGradGradGradGradGradGradGradGradGradGrad

                          Input orientation:                          
 ---------------------------------------------------------------------
 Center     Atomic      Atomic             Coordinates (Angstroms)
 Number     Number       Type             X           Y           Z
 ---------------------------------------------------------------------
      1          6           0       -0.812735    0.906284    0.062224
      2          6           0        0.510542    1.101443    0.059162
      3          6           0        1.275224   -0.192876   -0.087381
      4          6           0        0.185410   -1.277115    0.125196
      5          6           0       -1.171950   -0.553718   -0.081702
      6          1           0       -1.565702    1.699101    0.118514
      7          1           0        1.002866    2.077871    0.112533
      8          1           0        2.108129   -0.284971    0.634216
      9          1           0        1.738849   -0.260214   -1.092842
     10          1           0        0.243978   -1.658136    1.159024
     11          1           0        0.311154   -2.140465   -0.547989
     12          1           0       -1.939529   -0.881774    0.643643
     13          1           0       -1.600957   -0.752679   -1.085077
 ---------------------------------------------------------------------
                    Distance matrix (angstroms):
                    1          2          3          4          5
     1  C    0.000000
     2  C    1.337594   0.000000
     3  C    2.364341   1.510456   0.000000
     4  C    2.401560   2.401585   1.551921   0.000000
     5  C    1.510416   2.364355   2.473641   1.551946   0.000000
     6  H    1.094845   2.161366   3.419478   3.453158   2.295717
     7  H    2.161378   1.094826   2.295744   3.453162   3.419475
     8  H    3.205887   2.192058   1.105855   2.222679   3.368038
     9  H    3.034053   2.165632   1.109250   2.220558   3.095367
    10  H    2.982593   2.982621   2.182654   1.103362   2.182657
    11  H    3.304265   3.304293   2.221417   1.101981   2.221438
    12  H    2.192001   3.205872   3.368029   2.222712   1.105859
    13  H    2.165585   3.034053   3.095351   2.220563   1.109231
                    6          7          8          9         10
     6  H    0.000000
     7  H    2.596352   0.000000
     8  H    4.207080   2.660222   0.000000
     9  H    4.028195   2.731528   1.766271   0.000000
    10  H    3.953307   3.953328   2.374039   3.042979   0.000000
    11  H    4.325399   4.325404   2.840702   2.422916   1.775119
    12  H    2.660155   4.207050   4.091430   4.114873   2.374039
    13  H    2.731501   4.028174   4.114857   3.375928   3.042963
                   11         12         13
    11  H    0.000000
    12  H    2.840750   0.000000
    13  H    2.422929   1.766286   0.000000
 Stoichiometry    C5H8
 Framework group  C1[X(C5H8)]
 Deg. of freedom    33
 Full point group                 C1      NOp   1
 Largest Abelian subgroup         C1      NOp   1
 Largest concise Abelian subgroup C1      NOp   1
                         Standard orientation:                         
 ---------------------------------------------------------------------
 Center     Atomic      Atomic             Coordinates (Angstroms)
 Number     Number       Type             X           Y           Z
 ---------------------------------------------------------------------
      1          6           0        0.668950    1.075992   -0.043159
      2          6           0       -0.668644    1.076212   -0.043171
      3          6           0       -1.236862   -0.316624    0.093244
      4          6           0       -0.000181   -1.229110   -0.122275
      5          6           0        1.236778   -0.316961    0.093251
      6          1           0        1.298460    1.970411   -0.092336
      7          1           0       -1.297892    1.970793   -0.092322
      8          1           0       -2.045791   -0.524536   -0.631547
      9          1           0       -1.688034   -0.457173    1.096801
     10          1           0       -0.000217   -1.608040   -1.158527
     11          1           0       -0.000306   -2.105815    0.545370
     12          1           0        2.045639   -0.525060   -0.631569
     13          1           0        1.687894   -0.457636    1.096794
 ---------------------------------------------------------------------
 Rotational constants (GHZ):           7.2720952           7.1833140           3.9119535
 Standard basis: def2SVPP (5D, 7F)
 There are    91 symmetry adapted cartesian basis functions of A   symmetry.
 There are    86 symmetry adapted basis functions of A   symmetry.
    86 basis functions,   157 primitive gaussians,    91 cartesian basis functions
    19 alpha electrons       19 beta electrons
       nuclear repulsion energy       170.5594104193 Hartrees.
 NAtoms=   13 NActive=   13 NUniq=   13 SFac= 1.00D+00 NAtFMM=   60 NAOKFM=F Big=F
 Integral buffers will be    131072 words long.
 Raffenetti 2 integral format.
 Two-electron integral symmetry is turned on.
 Nuclear repulsion after empirical dispersion term =      170.5424303302 Hartrees.
 One-electron integrals computed using PRISM.
   1 Symmetry operations used in ECPInt.
 ECPInt:  NShTT=    1081 NPrTT=    4367 LenC2=    1082 LenP2D=    3750.
 LDataN:  DoStor=T MaxTD1= 4 Len=   56
 NBasis=    86 RedAO= T EigKep=  1.24D-03  NBF=    86
 NBsUse=    86 1.00D-06 EigRej= -1.00D+00 NBFU=    86
 Initial guess from the checkpoint file:  "/home/software/g16/scr/Gau-97648.chk"
 B after Tr=     0.000000    0.000000   -0.000000
         Rot=    1.000000   -0.000978    0.000000    0.000046 Ang=  -0.11 deg.
 ExpMin= 1.22D-01 ExpMax= 1.24D+03 ExpMxC= 1.86D+02 IAcc=3 IRadAn=         5 AccDes= 0.00D+00
 Harris functional with IExCor=  402 and IRadAn=       5 diagonalized for initial guess.
 HarFok:  IExCor=  402 AccDes= 0.00D+00 IRadAn=         5 IDoV= 1 UseB2=F ITyADJ=14
 ICtDFT=  3500011 ScaDFX=  1.000000  1.000000  1.000000  1.000000
 FoFCou: FMM=F IPFlag=           0 FMFlag=      100000 FMFlg1=           0
         NFxFlg=           0 DoJE=T BraDBF=F KetDBF=T FulRan=T
         wScrn=  0.000000 ICntrl=       500 IOpCl=  0 I1Cent=   200000004 NGrid=           0
         NMat0=    1 NMatS0=      1 NMatT0=    0 NMatD0=    1 NMtDS0=    0 NMtDT0=    0
 Petite list used in FoFCou.
 Requested convergence on RMS density matrix=1.00D-08 within 128 cycles.
 Requested convergence on MAX density matrix=1.00D-06.
 Requested convergence on             energy=1.00D-06.
 No special actions if energy rises.
 Integral accuracy reduced to 1.0D-05 until final iterations.
 Initial convergence to 1.0D-05 achieved.  Increase integral accuracy.
 SCF Done:  E(RB3LYP) =  -195.185895569     A.U. after   10 cycles
            NFock= 10  Conv=0.33D-08     -V/T= 2.0115
   1 Symmetry operations used in ECPInt.
 ECPInt:  NShTT=    1081 NPrTT=    4367 LenC2=    1082 LenP2D=    3750.
 LDataN:  DoStor=T MaxTD1= 5 Len=  102
 Calling FoFJK, ICntrl=      2127 FMM=F ISym2X=0 I1Cent= 0 IOpClX= 0 NMat=1 NMatS=1 NMatT=0.
 ***** Axes restored to original set *****
 -------------------------------------------------------------------
 Center     Atomic                   Forces (Hartrees/Bohr)
 Number     Number              X              Y              Z
 -------------------------------------------------------------------
      1        6          -0.001478648    0.000231714   -0.000086846
      2        6           0.001353474    0.000609114   -0.000098286
      3        6           0.001026006   -0.000637303    0.000147198
      4        6          -0.000053417    0.000291680   -0.000584407
      5        6          -0.000785486   -0.000921425    0.000163335
      6        1           0.000102244    0.000211405    0.000118124
      7        1          -0.000155124    0.000183159    0.000121134
      8        1          -0.000200917    0.000063541    0.000068655
      9        1          -0.000493189    0.000107371   -0.000147260
     10        1           0.000008269   -0.000046732    0.000123937
     11        1           0.000066602   -0.000449843    0.000268646
     12        1           0.000175880    0.000115586    0.000063512
     13        1           0.000434307    0.000241734   -0.000157741
 -------------------------------------------------------------------
 Cartesian Forces:  Max     0.001478648 RMS     0.000478959

 GradGradGradGradGradGradGradGradGradGradGradGradGradGradGradGradGradGrad
 Berny optimization.
 Using GEDIIS/GDIIS optimizer.
 FormGI is forming the generalized inverse of G from B-inverse, IUseBI=4.
 Internal  Forces:  Max     0.001283944 RMS     0.000223094
 Search for a local minimum.
 Step number   4 out of a maximum of   81
 All quantities printed in internal units (Hartrees-Bohrs-Radians)
 Mixed Optimization -- En-DIIS/RFO-DIIS
 Swapping is turned off.
 Update second derivatives using D2CorX and points    1    2    3    4
 DE= -6.58D-05 DEPred=-4.80D-05 R= 1.37D+00
 TightC=F SS=  1.41D+00  RLast= 1.96D-01 DXNew= 8.4853D-01 5.8685D-01
 Trust test= 1.37D+00 RLast= 1.96D-01 DXMaxT set to 5.87D-01
 ITU=  1  1  1  0
     Eigenvalues ---    0.00120   0.01164   0.01424   0.01931   0.03447
     Eigenvalues ---    0.03559   0.04820   0.05642   0.05899   0.06847
     Eigenvalues ---    0.07191   0.07654   0.08303   0.08453   0.09685
     Eigenvalues ---    0.11191   0.15974   0.16689   0.21635   0.21951
     Eigenvalues ---    0.28587   0.28593   0.31643   0.33880   0.34107
     Eigenvalues ---    0.34217   0.34275   0.34300   0.34387   0.35675
     Eigenvalues ---    0.35864   0.36678   0.71598
 En-DIIS/RFO-DIIS/Sim-DIIS IScMMF=       -3 using points:     4    3    2
 RFO step:  Lambda=-4.92642245D-05.
 DidBck=F Rises=F RFO-DIIS coefs:    2.03272   -2.00000    0.96728
 Iteration  1 RMS(Cart)=  0.02515109 RMS(Int)=  0.00032125
 Iteration  2 RMS(Cart)=  0.00036367 RMS(Int)=  0.00007010
 Iteration  3 RMS(Cart)=  0.00000002 RMS(Int)=  0.00007010
 Variable       Old X    -DE/DX   Delta X   Delta X   Delta X     New X
                                 (Linear)    (Quad)   (Total)
    R1        2.52769   0.00128   0.00232  -0.00137   0.00100   2.52869
    R2        2.85427   0.00058   0.00036   0.00099   0.00137   2.85564
    R3        2.06896   0.00009   0.00005  -0.00002   0.00002   2.06898
    R4        2.85435   0.00056   0.00036   0.00100   0.00138   2.85573
    R5        2.06892   0.00010   0.00007  -0.00005   0.00002   2.06894
    R6        2.93271   0.00027  -0.00060  -0.00199  -0.00263   2.93008
    R7        2.08976  -0.00011   0.00001  -0.00018  -0.00017   2.08960
    R8        2.09618  -0.00008   0.00051   0.00042   0.00093   2.09710
    R9        2.93275   0.00026  -0.00060  -0.00194  -0.00259   2.93017
   R10        2.08505   0.00013   0.00004   0.00065   0.00070   2.08575
   R11        2.08244   0.00020  -0.00003   0.00030   0.00027   2.08271
   R12        2.08977  -0.00011   0.00000  -0.00016  -0.00016   2.08961
   R13        2.09614  -0.00007   0.00054   0.00039   0.00092   2.09706
    A1        1.95637  -0.00021  -0.00160  -0.00097  -0.00270   1.95367
    A2        2.18321  -0.00013   0.00172  -0.00030   0.00149   2.18469
    A3        2.14278   0.00034  -0.00020   0.00122   0.00108   2.14386
    A4        1.95631  -0.00020  -0.00165  -0.00091  -0.00269   1.95362
    A5        2.18326  -0.00014   0.00177  -0.00034   0.00149   2.18474
    A6        2.14279   0.00034  -0.00019   0.00119   0.00106   2.14385
    A7        1.80274   0.00015  -0.00118  -0.00193  -0.00334   1.79940
    A8        1.97073  -0.00011   0.00214   0.00235   0.00456   1.97529
    A9        1.93003  -0.00012  -0.00171  -0.00079  -0.00245   1.92758
   A10        1.96205  -0.00003   0.00154   0.00060   0.00223   1.96428
   A11        1.95547  -0.00016  -0.00011  -0.00185  -0.00194   1.95353
   A12        1.84587   0.00024  -0.00068   0.00151   0.00081   1.84667
   A13        1.84447   0.00012  -0.00285  -0.00140  -0.00456   1.83991
   A14        1.90957  -0.00004  -0.00237  -0.00202  -0.00434   1.90523
   A15        1.96443   0.00003   0.00325   0.00179   0.00514   1.96957
   A16        1.90954  -0.00004  -0.00241  -0.00198  -0.00433   1.90521
   A17        1.96443   0.00003   0.00321   0.00183   0.00515   1.96957
   A18        1.87107  -0.00011   0.00084   0.00153   0.00233   1.87340
   A19        1.80273   0.00015  -0.00121  -0.00188  -0.00332   1.79941
   A20        1.97070  -0.00011   0.00212   0.00241   0.00461   1.97530
   A21        1.93003  -0.00012  -0.00159  -0.00095  -0.00249   1.92754
   A22        1.96206  -0.00003   0.00147   0.00068   0.00224   1.96430
   A23        1.95547  -0.00016  -0.00010  -0.00189  -0.00197   1.95350
   A24        1.84591   0.00024  -0.00067   0.00151   0.00080   1.84671
    D1        0.00001   0.00000  -0.00017   0.00031   0.00014   0.00015
    D2        3.09886   0.00004  -0.00191  -0.00149  -0.00338   3.09548
    D3       -3.09889  -0.00004   0.00178   0.00175   0.00349  -3.09540
    D4       -0.00004   0.00000   0.00003  -0.00006  -0.00003  -0.00006
    D5        0.20226  -0.00004   0.01384   0.01111   0.02492   0.22718
    D6        2.32605  -0.00003   0.01600   0.01203   0.02798   2.35403
    D7       -1.89278   0.00012   0.01544   0.01487   0.03031  -1.86247
    D8       -2.98088  -0.00001   0.01202   0.00967   0.02167  -2.95921
    D9       -0.85709  -0.00001   0.01418   0.01059   0.02474  -0.83235
   D10        1.20726   0.00015   0.01362   0.01343   0.02707   1.23433
   D11       -0.20227   0.00004  -0.01358  -0.01158  -0.02514  -0.22741
   D12       -2.32608   0.00003  -0.01586  -0.01234  -0.02816  -2.35423
   D13        1.89278  -0.00012  -0.01523  -0.01525  -0.03049   1.86230
   D14        2.98091   0.00001  -0.01196  -0.00979  -0.02173   2.95918
   D15        0.85710   0.00001  -0.01424  -0.01054  -0.02475   0.83235
   D16       -1.20722  -0.00015  -0.01361  -0.01345  -0.02708  -1.23430
   D17        0.31326  -0.00001   0.02120   0.01782   0.03903   0.35229
   D18       -1.74101  -0.00001   0.02676   0.02193   0.04870  -1.69231
   D19        2.46397   0.00013   0.02523   0.02023   0.04543   2.50940
   D20        2.44291  -0.00006   0.02387   0.01975   0.04362   2.48652
   D21        0.38863  -0.00007   0.02943   0.02386   0.05329   0.44192
   D22       -1.68957   0.00008   0.02790   0.02216   0.05002  -1.63955
   D23       -1.76428   0.00012   0.02399   0.02082   0.04484  -1.71943
   D24        2.46463   0.00012   0.02955   0.02493   0.05452   2.51915
   D25        0.38643   0.00026   0.02802   0.02323   0.05125   0.43768
   D26       -0.31326   0.00001  -0.02129  -0.01767  -0.03896  -0.35222
   D27       -2.44286   0.00006  -0.02387  -0.01976  -0.04362  -2.48648
   D28        1.76427  -0.00012  -0.02395  -0.02085  -0.04483   1.71944
   D29        1.74103   0.00001  -0.02682  -0.02180  -0.04863   1.69240
   D30       -0.38856   0.00006  -0.02940  -0.02389  -0.05330  -0.44186
   D31       -2.46462  -0.00012  -0.02949  -0.02498  -0.05451  -2.51913
   D32       -2.46396  -0.00013  -0.02534  -0.02005  -0.04537  -2.50933
   D33        1.68962  -0.00008  -0.02792  -0.02214  -0.05003   1.63960
   D34       -0.38643  -0.00026  -0.02801  -0.02323  -0.05124  -0.43767
         Item               Value     Threshold  Converged?
 Maximum Force            0.001284     0.000450     NO 
 RMS     Force            0.000223     0.000300     YES
 Maximum Displacement     0.078688     0.001800     NO 
 RMS     Displacement     0.025191     0.001200     NO 
 Predicted change in Energy=-1.886653D-05
 GradGradGradGradGradGradGradGradGradGradGradGradGradGradGradGradGradGrad

                          Input orientation:                          
 ---------------------------------------------------------------------
 Center     Atomic      Atomic             Coordinates (Angstroms)
 Number     Number       Type             X           Y           Z
 ---------------------------------------------------------------------
      1          6           0       -0.812724    0.904524    0.072933
      2          6           0        0.511079    1.099742    0.069959
      3          6           0        1.272209   -0.194841   -0.098640
      4          6           0        0.185124   -1.274920    0.137626
      5          6           0       -1.168556   -0.554727   -0.092946
      6          1           0       -1.566741    1.695515    0.140029
      7          1           0        1.005002    2.074718    0.134193
      8          1           0        2.125100   -0.292167    0.598372
      9          1           0        1.706009   -0.259481   -1.118032
     10          1           0        0.238370   -1.619518    1.184830
     11          1           0        0.314130   -2.159979   -0.506349
     12          1           0       -1.953862   -0.893574    0.607918
     13          1           0       -1.569859   -0.742541   -1.110373
 ---------------------------------------------------------------------
                    Distance matrix (angstroms):
                    1          2          3          4          5
     1  C    0.000000
     2  C    1.338123   0.000000
     3  C    2.363257   1.511188   0.000000
     4  C    2.397887   2.397883   1.550530   0.000000
     5  C    1.511141   2.363257   2.467161   1.550578   0.000000
     6  H    1.094857   2.162682   3.419071   3.448554   2.297046
     7  H    2.162692   1.094835   2.297066   3.448520   3.419054
     8  H    3.215426   2.195836   1.105767   2.222970   3.375653
     9  H    3.019490   2.164872   1.109740   2.218306   3.066121
    10  H    2.951593   2.951556   2.178491   1.103730   2.178517
    11  H    3.316103   3.316127   2.223939   1.102123   2.223981
    12  H    2.195805   3.215376   3.375646   2.223030   1.105773
    13  H    2.164784   3.019519   3.066093   2.218309   1.109719
                    6          7          8          9         10
     6  H    0.000000
     7  H    2.599556   0.000000
     8  H    4.217897   2.659366   0.000000
     9  H    4.014427   2.740066   1.767131   0.000000
    10  H    3.916566   3.916497   2.380240   3.050711   0.000000
    11  H    4.338239   4.338232   2.826436   2.433798   1.777055
    12  H    2.659355   4.217826   4.123071   4.095807   2.380275
    13  H    2.740006   4.014449   4.095774   3.311301   3.050695
                   11         12         13
    11  H    0.000000
    12  H    2.826510   0.000000
    13  H    2.433801   1.767143   0.000000
 Stoichiometry    C5H8
 Framework group  C1[X(C5H8)]
 Deg. of freedom    33
 Full point group                 C1      NOp   1
 Largest Abelian subgroup         C1      NOp   1
 Largest concise Abelian subgroup C1      NOp   1
                         Standard orientation:                         
 ---------------------------------------------------------------------
 Center     Atomic      Atomic             Coordinates (Angstroms)
 Number     Number       Type             X           Y           Z
 ---------------------------------------------------------------------
      1          6           0        0.669531    1.074882   -0.047982
      2          6           0       -0.668592    1.075474   -0.048075
      3          6           0       -1.233711   -0.317718    0.104717
      4          6           0       -0.000548   -1.225708   -0.138192
      5          6           0        1.233449   -0.318759    0.104678
      6          1           0        1.300629    1.967772   -0.104327
      7          1           0       -1.298927    1.968875   -0.104448
      8          1           0       -2.061774   -0.530769   -0.596456
      9          1           0       -1.655836   -0.455374    1.121764
     10          1           0       -0.000700   -1.563455   -1.188977
     11          1           0       -0.000926   -2.126781    0.496427
     12          1           0        2.061297   -0.532481   -0.596553
     13          1           0        1.655465   -0.456810    1.121693
 ---------------------------------------------------------------------
 Rotational constants (GHZ):           7.2741504           7.1932454           3.9255214
 Standard basis: def2SVPP (5D, 7F)
 There are    91 symmetry adapted cartesian basis functions of A   symmetry.
 There are    86 symmetry adapted basis functions of A   symmetry.
    86 basis functions,   157 primitive gaussians,    91 cartesian basis functions
    19 alpha electrons       19 beta electrons
       nuclear repulsion energy       170.6485332790 Hartrees.
 NAtoms=   13 NActive=   13 NUniq=   13 SFac= 1.00D+00 NAtFMM=   60 NAOKFM=F Big=F
 Integral buffers will be    131072 words long.
 Raffenetti 2 integral format.
 Two-electron integral symmetry is turned on.
 Nuclear repulsion after empirical dispersion term =      170.6315322946 Hartrees.
 One-electron integrals computed using PRISM.
   1 Symmetry operations used in ECPInt.
 ECPInt:  NShTT=    1081 NPrTT=    4367 LenC2=    1082 LenP2D=    3750.
 LDataN:  DoStor=T MaxTD1= 4 Len=   56
 NBasis=    86 RedAO= T EigKep=  1.23D-03  NBF=    86
 NBsUse=    86 1.00D-06 EigRej= -1.00D+00 NBFU=    86
 Initial guess from the checkpoint file:  "/home/software/g16/scr/Gau-97648.chk"
 B after Tr=    -0.000000    0.000000    0.000000
         Rot=    0.999999   -0.001231   -0.000002    0.000145 Ang=  -0.14 deg.
 ExpMin= 1.22D-01 ExpMax= 1.24D+03 ExpMxC= 1.86D+02 IAcc=3 IRadAn=         5 AccDes= 0.00D+00
 Harris functional with IExCor=  402 and IRadAn=       5 diagonalized for initial guess.
 HarFok:  IExCor=  402 AccDes= 0.00D+00 IRadAn=         5 IDoV= 1 UseB2=F ITyADJ=14
 ICtDFT=  3500011 ScaDFX=  1.000000  1.000000  1.000000  1.000000
 FoFCou: FMM=F IPFlag=           0 FMFlag=      100000 FMFlg1=           0
         NFxFlg=           0 DoJE=T BraDBF=F KetDBF=T FulRan=T
         wScrn=  0.000000 ICntrl=       500 IOpCl=  0 I1Cent=   200000004 NGrid=           0
         NMat0=    1 NMatS0=      1 NMatT0=    0 NMatD0=    1 NMtDS0=    0 NMtDT0=    0
 Petite list used in FoFCou.
 Requested convergence on RMS density matrix=1.00D-08 within 128 cycles.
 Requested convergence on MAX density matrix=1.00D-06.
 Requested convergence on             energy=1.00D-06.
 No special actions if energy rises.
 Integral accuracy reduced to 1.0D-05 until final iterations.
 Initial convergence to 1.0D-05 achieved.  Increase integral accuracy.
 SCF Done:  E(RB3LYP) =  -195.185940173     A.U. after   10 cycles
            NFock= 10  Conv=0.44D-08     -V/T= 2.0115
   1 Symmetry operations used in ECPInt.
 ECPInt:  NShTT=    1081 NPrTT=    4367 LenC2=    1082 LenP2D=    3750.
 LDataN:  DoStor=T MaxTD1= 5 Len=  102
 Calling FoFJK, ICntrl=      2127 FMM=F ISym2X=0 I1Cent= 0 IOpClX= 0 NMat=1 NMatS=1 NMatT=0.
 ***** Axes restored to original set *****
 -------------------------------------------------------------------
 Center     Atomic                   Forces (Hartrees/Bohr)
 Number     Number              X              Y              Z
 -------------------------------------------------------------------
      1        6          -0.001220389    0.000169706   -0.000045819
      2        6           0.001127557    0.000477591   -0.000080054
      3        6           0.001160527   -0.000613706   -0.000095630
      4        6          -0.000077021    0.000412873   -0.000313895
      5        6          -0.000916457   -0.000945542   -0.000096607
      6        1           0.000179674    0.000211118    0.000081384
      7        1          -0.000229084    0.000163658    0.000083310
      8        1          -0.000331136    0.000107562    0.000144897
      9        1          -0.000483570    0.000082465    0.000000787
     10        1           0.000027068   -0.000180030    0.000035237
     11        1           0.000042693   -0.000295777    0.000157079
     12        1           0.000289756    0.000199284    0.000140505
     13        1           0.000430382    0.000210798   -0.000011195
 -------------------------------------------------------------------
 Cartesian Forces:  Max     0.001220389 RMS     0.000448675

 GradGradGradGradGradGradGradGradGradGradGradGradGradGradGradGradGradGrad
 Berny optimization.
 Using GEDIIS/GDIIS optimizer.
 FormGI is forming the generalized inverse of G from B-inverse, IUseBI=4.
 Internal  Forces:  Max     0.000986621 RMS     0.000192661
 Search for a local minimum.
 Step number   5 out of a maximum of   81
 All quantities printed in internal units (Hartrees-Bohrs-Radians)
 Mixed Optimization -- En-DIIS/RFO-DIIS
 Swapping is turned off.
 Update second derivatives using D2CorX and points    1    2    3    4    5
 DE= -4.46D-05 DEPred=-1.89D-05 R= 2.36D+00
 TightC=F SS=  1.41D+00  RLast= 2.24D-01 DXNew= 9.8696D-01 6.7212D-01
 Trust test= 2.36D+00 RLast= 2.24D-01 DXMaxT set to 6.72D-01
 ITU=  1  1  1  1  0
     Eigenvalues ---    0.00100   0.01167   0.01422   0.01932   0.03450
     Eigenvalues ---    0.03564   0.04851   0.05697   0.05908   0.06925
     Eigenvalues ---    0.07137   0.07635   0.08279   0.08490   0.09639
     Eigenvalues ---    0.11164   0.15969   0.17034   0.21559   0.21778
     Eigenvalues ---    0.28537   0.28563   0.31574   0.33881   0.34059
     Eigenvalues ---    0.34233   0.34275   0.34301   0.34439   0.35792
     Eigenvalues ---    0.35888   0.36287   0.67480
 En-DIIS/RFO-DIIS/Sim-DIIS IScMMF=       -3 using points:     5    4    3    2
 RFO step:  Lambda=-1.47957294D-05.
 DidBck=F Rises=F RFO-DIIS coefs:    1.87104   -1.86066    1.28295   -0.29332
 Iteration  1 RMS(Cart)=  0.00322972 RMS(Int)=  0.00008155
 Iteration  2 RMS(Cart)=  0.00000788 RMS(Int)=  0.00008113
 Iteration  3 RMS(Cart)=  0.00000000 RMS(Int)=  0.00008113
 Variable       Old X    -DE/DX   Delta X   Delta X   Delta X     New X
                                 (Linear)    (Quad)   (Total)
    R1        2.52869   0.00099   0.00142   0.00033   0.00168   2.53036
    R2        2.85564   0.00049   0.00269  -0.00052   0.00214   2.85778
    R3        2.06898   0.00003   0.00042  -0.00036   0.00007   2.06905
    R4        2.85573   0.00047   0.00262  -0.00054   0.00205   2.85778
    R5        2.06894   0.00005   0.00043  -0.00032   0.00011   2.06905
    R6        2.93008   0.00023   0.00064  -0.00044   0.00026   2.93033
    R7        2.08960  -0.00017  -0.00035  -0.00042  -0.00077   2.08883
    R8        2.09710  -0.00019  -0.00032  -0.00043  -0.00074   2.09636
    R9        2.93017   0.00021   0.00062  -0.00051   0.00016   2.93033
   R10        2.08575   0.00009   0.00071  -0.00024   0.00047   2.08622
   R11        2.08271   0.00015   0.00089  -0.00031   0.00059   2.08330
   R12        2.08961  -0.00018  -0.00035  -0.00043  -0.00078   2.08883
   R13        2.09706  -0.00018  -0.00031  -0.00039  -0.00070   2.09637
    A1        1.95367  -0.00014  -0.00036   0.00005  -0.00016   1.95351
    A2        2.18469  -0.00022  -0.00239  -0.00010  -0.00256   2.18213
    A3        2.14386   0.00036   0.00277   0.00008   0.00278   2.14664
    A4        1.95362  -0.00013  -0.00027   0.00000  -0.00012   1.95350
    A5        2.18474  -0.00023  -0.00246  -0.00007  -0.00260   2.18214
    A6        2.14385   0.00036   0.00275   0.00012   0.00280   2.14665
    A7        1.79940   0.00007  -0.00144  -0.00010  -0.00127   1.79813
    A8        1.97529  -0.00010  -0.00091   0.00023  -0.00078   1.97452
    A9        1.92758  -0.00009  -0.00123  -0.00070  -0.00201   1.92558
   A10        1.96428  -0.00002  -0.00017   0.00042   0.00018   1.96446
   A11        1.95353  -0.00013  -0.00159  -0.00023  -0.00190   1.95163
   A12        1.84667   0.00025   0.00500   0.00033   0.00537   1.85204
   A13        1.83991   0.00015   0.00040   0.00047   0.00122   1.84113
   A14        1.90523  -0.00002  -0.00021  -0.00013  -0.00036   1.90487
   A15        1.96957  -0.00000   0.00148  -0.00024   0.00110   1.97067
   A16        1.90521  -0.00002  -0.00016  -0.00017  -0.00035   1.90485
   A17        1.96957  -0.00001   0.00151  -0.00029   0.00108   1.97065
   A18        1.87340  -0.00010  -0.00308   0.00035  -0.00269   1.87072
   A19        1.79941   0.00007  -0.00139  -0.00017  -0.00130   1.79811
   A20        1.97530  -0.00010  -0.00083   0.00010  -0.00083   1.97447
   A21        1.92754  -0.00008  -0.00133  -0.00049  -0.00190   1.92565
   A22        1.96430  -0.00003  -0.00013   0.00033   0.00012   1.96443
   A23        1.95350  -0.00013  -0.00161  -0.00015  -0.00184   1.95166
   A24        1.84671   0.00025   0.00495   0.00034   0.00533   1.85204
    D1        0.00015  -0.00000   0.00019  -0.00050  -0.00031  -0.00017
    D2        3.09548   0.00004   0.00078   0.00086   0.00165   3.09713
    D3       -3.09540  -0.00005  -0.00059  -0.00126  -0.00186  -3.09726
    D4       -0.00006   0.00000  -0.00001   0.00011   0.00010   0.00004
    D5        0.22718  -0.00004   0.00239  -0.00001   0.00239   0.22957
    D6        2.35403  -0.00008   0.00089   0.00033   0.00125   2.35528
    D7       -1.86247   0.00011   0.00570   0.00050   0.00617  -1.85630
    D8       -2.95921  -0.00002   0.00302   0.00072   0.00374  -2.95547
    D9       -0.83235  -0.00006   0.00152   0.00106   0.00260  -0.82975
   D10        1.23433   0.00014   0.00633   0.00123   0.00753   1.24185
   D11       -0.22741   0.00005  -0.00268   0.00078  -0.00190  -0.22931
   D12       -2.35423   0.00009  -0.00106   0.00021  -0.00087  -2.35511
   D13        1.86230  -0.00011  -0.00595   0.00012  -0.00580   1.85650
   D14        2.95918   0.00002  -0.00311  -0.00054  -0.00365   2.95553
   D15        0.83235   0.00006  -0.00150  -0.00111  -0.00262   0.82973
   D16       -1.23430  -0.00014  -0.00638  -0.00120  -0.00755  -1.24185
   D17        0.35229  -0.00001   0.00426  -0.00064   0.00365   0.35594
   D18       -1.69231  -0.00006   0.00421  -0.00062   0.00359  -1.68872
   D19        2.50940   0.00008   0.00730  -0.00083   0.00651   2.51592
   D20        2.48652  -0.00010   0.00217  -0.00020   0.00199   2.48852
   D21        0.44192  -0.00015   0.00211  -0.00019   0.00193   0.44386
   D22       -1.63955  -0.00001   0.00520  -0.00039   0.00486  -1.63469
   D23       -1.71943   0.00011   0.00735   0.00035   0.00768  -1.71175
   D24        2.51915   0.00007   0.00729   0.00037   0.00762   2.52677
   D25        0.43768   0.00021   0.01038   0.00017   0.01055   0.44823
   D26       -0.35222   0.00001  -0.00417   0.00040  -0.00380  -0.35602
   D27       -2.48648   0.00010  -0.00222   0.00021  -0.00204  -2.48852
   D28        1.71944  -0.00011  -0.00736  -0.00035  -0.00769   1.71175
   D29        1.69240   0.00006  -0.00415   0.00041  -0.00375   1.68865
   D30       -0.44186   0.00015  -0.00220   0.00022  -0.00199  -0.44385
   D31       -2.51913  -0.00006  -0.00734  -0.00034  -0.00763  -2.52676
   D32       -2.50933  -0.00008  -0.00718   0.00055  -0.00668  -2.51601
   D33        1.63960   0.00001  -0.00523   0.00036  -0.00492   1.63468
   D34       -0.43767  -0.00021  -0.01037  -0.00020  -0.01057  -0.44824
         Item               Value     Threshold  Converged?
 Maximum Force            0.000987     0.000450     NO 
 RMS     Force            0.000193     0.000300     YES
 Maximum Displacement     0.010606     0.001800     NO 
 RMS     Displacement     0.003229     0.001200     NO 
 Predicted change in Energy=-1.129321D-08
 GradGradGradGradGradGradGradGradGradGradGradGradGradGradGradGradGradGrad

                          Input orientation:                          
 ---------------------------------------------------------------------
 Center     Atomic      Atomic             Coordinates (Angstroms)
 Number     Number       Type             X           Y           Z
 ---------------------------------------------------------------------
      1          6           0       -0.813134    0.904367    0.073434
      2          6           0        0.511545    1.099719    0.070252
      3          6           0        1.273010   -0.195699   -0.100144
      4          6           0        0.185056   -1.274591    0.138418
      5          6           0       -1.169062   -0.555796   -0.094507
      6          1           0       -1.565095    1.697111    0.143421
      7          1           0        1.002995    2.075820    0.137286
      8          1           0        2.126151   -0.292697    0.595964
      9          1           0        1.700409   -0.259959   -1.121833
     10          1           0        0.237849   -1.616271    1.186862
     11          1           0        0.314634   -2.163439   -0.500736
     12          1           0       -1.954716   -0.894469    0.605398
     13          1           0       -1.564362   -0.741347   -1.114294
 ---------------------------------------------------------------------
                    Distance matrix (angstroms):
                    1          2          3          4          5
     1  C    0.000000
     2  C    1.339009   0.000000
     3  C    2.364798   1.512273   0.000000
     4  C    2.397595   2.397622   1.550665   0.000000
     5  C    1.512271   2.364807   2.468484   1.550663   0.000000
     6  H    1.094892   2.162098   3.420072   3.448778   2.299792
     7  H    2.162106   1.094893   2.299800   3.448808   3.420082
     8  H    3.216426   2.195939   1.105362   2.222907   3.377040
     9  H    3.016988   2.164068   1.109347   2.216756   3.062153
    10  H    2.949221   2.949293   2.178524   1.103978   2.178511
    11  H    3.318578   3.318584   2.225075   1.102433   2.225059
    12  H    2.195907   3.216459   3.377023   2.222878   1.105359
    13  H    2.164120   3.016962   3.062174   2.216777   1.109350
                    6          7          8          9         10
     6  H    0.000000
     7  H    2.595871   0.000000
     8  H    4.217752   2.661153   0.000000
     9  H    4.011797   2.743653   1.770072   0.000000
    10  H    3.913806   3.913897   2.380481   3.051022   0.000000
    11  H    4.341908   4.341915   2.825601   2.435030   1.775746
    12  H    2.661112   4.217796   4.125008   4.092172   2.380428
    13  H    2.743707   4.011758   4.092207   3.300079   3.051029
                   11         12         13
    11  H    0.000000
    12  H    2.825555   0.000000
    13  H    2.435041   1.770075   0.000000
 Stoichiometry    C5H8
 Framework group  C1[X(C5H8)]
 Deg. of freedom    33
 Full point group                 C1      NOp   1
 Largest Abelian subgroup         C1      NOp   1
 Largest concise Abelian subgroup C1      NOp   1
                         Standard orientation:                         
 ---------------------------------------------------------------------
 Center     Atomic      Atomic             Coordinates (Angstroms)
 Number     Number       Type             X           Y           Z
 ---------------------------------------------------------------------
      1          6           0        0.669269    1.075485   -0.048210
      2          6           0       -0.669741    1.075213   -0.048114
      3          6           0       -1.234175   -0.319303    0.105866
      4          6           0        0.000271   -1.225067   -0.139692
      5          6           0        1.234310   -0.318767    0.105919
      6          1           0        1.297507    1.970271   -0.107050
      7          1           0       -1.298364    1.969734   -0.106897
      8          1           0       -2.062387   -0.532315   -0.594502
      9          1           0       -1.649952   -0.456378    1.125174
     10          1           0        0.000376   -1.559402   -1.191827
     11          1           0        0.000467   -2.130188    0.489684
     12          1           0        2.062622   -0.531444   -0.594429
     13          1           0        1.650127   -0.455640    1.125242
 ---------------------------------------------------------------------
 Rotational constants (GHZ):           7.2698247           7.1893661           3.9245363
 Standard basis: def2SVPP (5D, 7F)
 There are    91 symmetry adapted cartesian basis functions of A   symmetry.
 There are    86 symmetry adapted basis functions of A   symmetry.
    86 basis functions,   157 primitive gaussians,    91 cartesian basis functions
    19 alpha electrons       19 beta electrons
       nuclear repulsion energy       170.6095221437 Hartrees.
 NAtoms=   13 NActive=   13 NUniq=   13 SFac= 1.00D+00 NAtFMM=   60 NAOKFM=F Big=F
 Integral buffers will be    131072 words long.
 Raffenetti 2 integral format.
 Two-electron integral symmetry is turned on.
 Nuclear repulsion after empirical dispersion term =      170.5925199272 Hartrees.
 One-electron integrals computed using PRISM.
   1 Symmetry operations used in ECPInt.
 ECPInt:  NShTT=    1081 NPrTT=    4367 LenC2=    1082 LenP2D=    3750.
 LDataN:  DoStor=T MaxTD1= 4 Len=   56
 NBasis=    86 RedAO= T EigKep=  1.23D-03  NBF=    86
 NBsUse=    86 1.00D-06 EigRej= -1.00D+00 NBFU=    86
 Initial guess from the checkpoint file:  "/home/software/g16/scr/Gau-97648.chk"
 B after Tr=     0.000000   -0.000000    0.000000
         Rot=    1.000000   -0.000178    0.000003   -0.000324 Ang=  -0.04 deg.
 Requested convergence on RMS density matrix=1.00D-08 within 128 cycles.
 Requested convergence on MAX density matrix=1.00D-06.
 Requested convergence on             energy=1.00D-06.
 No special actions if energy rises.
 SCF Done:  E(RB3LYP) =  -195.185951512     A.U. after    8 cycles
            NFock=  8  Conv=0.72D-08     -V/T= 2.0115
   1 Symmetry operations used in ECPInt.
 ECPInt:  NShTT=    1081 NPrTT=    4367 LenC2=    1082 LenP2D=    3750.
 LDataN:  DoStor=T MaxTD1= 5 Len=  102
 Calling FoFJK, ICntrl=      2127 FMM=F ISym2X=0 I1Cent= 0 IOpClX= 0 NMat=1 NMatS=1 NMatT=0.
 ***** Axes restored to original set *****
 -------------------------------------------------------------------
 Center     Atomic                   Forces (Hartrees/Bohr)
 Number     Number              X              Y              Z
 -------------------------------------------------------------------
      1        6          -0.000106628   -0.000009399    0.000029917
      2        6           0.000104260    0.000011893    0.000057357
      3        6           0.000011285   -0.000014408   -0.000096869
      4        6           0.000000346   -0.000002318    0.000074285
      5        6          -0.000006808   -0.000019357   -0.000073932
      6        1           0.000016682    0.000016384   -0.000004297
      7        1          -0.000021421    0.000009605   -0.000002615
      8        1          -0.000026601   -0.000001578   -0.000011591
      9        1          -0.000008059    0.000012007    0.000001349
     10        1           0.000001366   -0.000004674   -0.000001407
     11        1           0.000004908   -0.000021007    0.000037859
     12        1           0.000022785    0.000002858   -0.000013047
     13        1           0.000007886    0.000019995    0.000002991
 -------------------------------------------------------------------
 Cartesian Forces:  Max     0.000106628 RMS     0.000036883

 GradGradGradGradGradGradGradGradGradGradGradGradGradGradGradGradGradGrad
 Berny optimization.
 Using GEDIIS/GDIIS optimizer.
 FormGI is forming the generalized inverse of G from B-inverse, IUseBI=4.
 Internal  Forces:  Max     0.000059851 RMS     0.000016399
 Search for a local minimum.
 Step number   6 out of a maximum of   81
 All quantities printed in internal units (Hartrees-Bohrs-Radians)
 Mixed Optimization -- En-DIIS/RFO-DIIS
 Swapping is turned off.
 Update second derivatives using D2CorX and points    2    3    4    5    6
 DE= -1.13D-05 DEPred=-1.13D-08 R= 1.00D+03
 TightC=F SS=  1.41D+00  RLast= 3.22D-02 DXNew= 1.1304D+00 9.6669D-02
 Trust test= 1.00D+03 RLast= 3.22D-02 DXMaxT set to 6.72D-01
 ITU=  1  1  1  1  1  0
     Eigenvalues ---    0.00109   0.01168   0.01423   0.01928   0.03460
     Eigenvalues ---    0.03585   0.04417   0.05002   0.05913   0.05916
     Eigenvalues ---    0.07149   0.07643   0.08156   0.08268   0.09597
     Eigenvalues ---    0.11161   0.14810   0.15971   0.21554   0.21653
     Eigenvalues ---    0.28537   0.28662   0.31567   0.32488   0.33882
     Eigenvalues ---    0.34154   0.34236   0.34277   0.34301   0.34558
     Eigenvalues ---    0.35849   0.36127   0.60068
 En-DIIS/RFO-DIIS/Sim-DIIS IScMMF=       -3 using points:     6    5    4    3    2
 RFO step:  Lambda=-2.72043065D-06.
 DIIS inversion failure, remove point   5.
 RFO-DIIS uses    4 points instead of    5
 DidBck=T Rises=F RFO-DIIS coefs:    0.68296    0.74813   -0.70345    0.27236    0.00000
 Iteration  1 RMS(Cart)=  0.00401894 RMS(Int)=  0.00001711
 Iteration  2 RMS(Cart)=  0.00000923 RMS(Int)=  0.00001524
 Iteration  3 RMS(Cart)=  0.00000000 RMS(Int)=  0.00001524
 Variable       Old X    -DE/DX   Delta X   Delta X   Delta X     New X
                                 (Linear)    (Quad)   (Total)
    R1        2.53036   0.00006   0.00040  -0.00017   0.00022   2.53058
    R2        2.85778   0.00001   0.00056  -0.00030   0.00025   2.85803
    R3        2.06905   0.00000   0.00016  -0.00017  -0.00002   2.06903
    R4        2.85778   0.00001   0.00056  -0.00030   0.00025   2.85803
    R5        2.06905  -0.00000   0.00015  -0.00017  -0.00002   2.06903
    R6        2.93033   0.00002  -0.00011  -0.00028  -0.00038   2.92996
    R7        2.08883  -0.00003   0.00009  -0.00021  -0.00012   2.08871
    R8        2.09636  -0.00001   0.00024  -0.00019   0.00006   2.09642
    R9        2.93033   0.00002  -0.00008  -0.00030  -0.00037   2.92996
   R10        2.08622   0.00000   0.00020  -0.00010   0.00010   2.08632
   R11        2.08330  -0.00000   0.00019  -0.00016   0.00003   2.08333
   R12        2.08883  -0.00003   0.00009  -0.00021  -0.00012   2.08871
   R13        2.09637  -0.00001   0.00024  -0.00019   0.00005   2.09642
    A1        1.95351  -0.00002  -0.00051   0.00002  -0.00047   1.95305
    A2        2.18213  -0.00002   0.00018  -0.00015   0.00002   2.18215
    A3        2.14664   0.00003   0.00030   0.00013   0.00041   2.14706
    A4        1.95350  -0.00001  -0.00049   0.00001  -0.00045   1.95305
    A5        2.18214  -0.00002   0.00017  -0.00015   0.00001   2.18215
    A6        2.14665   0.00003   0.00028   0.00014   0.00041   2.14706
    A7        1.79813   0.00001  -0.00059  -0.00013  -0.00067   1.79746
    A8        1.97452  -0.00002   0.00051  -0.00004   0.00045   1.97496
    A9        1.92558   0.00000  -0.00027   0.00005  -0.00024   1.92534
   A10        1.96446  -0.00002   0.00024  -0.00008   0.00015   1.96461
   A11        1.95163   0.00001  -0.00021   0.00011  -0.00012   1.95151
   A12        1.85204   0.00001   0.00029   0.00010   0.00040   1.85244
   A13        1.84113  -0.00002  -0.00094   0.00007  -0.00081   1.84032
   A14        1.90487   0.00002  -0.00061   0.00020  -0.00040   1.90447
   A15        1.97067   0.00000   0.00106  -0.00033   0.00070   1.97137
   A16        1.90485   0.00002  -0.00059   0.00020  -0.00039   1.90446
   A17        1.97065   0.00000   0.00107  -0.00033   0.00071   1.97137
   A18        1.87072  -0.00002  -0.00010   0.00022   0.00013   1.87085
   A19        1.79811   0.00002  -0.00056  -0.00013  -0.00065   1.79745
   A20        1.97447  -0.00002   0.00056  -0.00005   0.00049   1.97496
   A21        1.92565  -0.00000  -0.00033   0.00005  -0.00030   1.92535
   A22        1.96443  -0.00002   0.00027  -0.00008   0.00018   1.96461
   A23        1.95166   0.00001  -0.00024   0.00011  -0.00015   1.95150
   A24        1.85204   0.00001   0.00029   0.00011   0.00040   1.85244
    D1       -0.00017   0.00001   0.00017  -0.00001   0.00016  -0.00001
    D2        3.09713  -0.00001  -0.00072  -0.00011  -0.00082   3.09632
    D3       -3.09726   0.00001   0.00085   0.00011   0.00094  -3.09632
    D4        0.00004  -0.00000  -0.00003  -0.00000  -0.00003   0.00000
    D5        0.22957   0.00002   0.00390   0.00023   0.00412   0.23369
    D6        2.35528   0.00000   0.00417   0.00002   0.00418   2.35947
    D7       -1.85630  -0.00000   0.00466   0.00016   0.00481  -1.85149
    D8       -2.95547   0.00001   0.00324   0.00011   0.00335  -2.95212
    D9       -0.82975  -0.00000   0.00351  -0.00010   0.00341  -0.82634
   D10        1.24185  -0.00001   0.00400   0.00004   0.00403   1.24588
   D11       -0.22931  -0.00003  -0.00416  -0.00022  -0.00437  -0.23368
   D12       -2.35511  -0.00000  -0.00435  -0.00001  -0.00436  -2.35947
   D13        1.85650  -0.00000  -0.00487  -0.00014  -0.00500   1.85150
   D14        2.95553  -0.00001  -0.00330  -0.00011  -0.00340   2.95212
   D15        0.82973   0.00001  -0.00350   0.00010  -0.00339   0.82633
   D16       -1.24185   0.00001  -0.00402  -0.00003  -0.00404  -1.24589
   D17        0.35594   0.00003   0.00629   0.00037   0.00667   0.36261
   D18       -1.68872   0.00002   0.00774   0.00001   0.00775  -1.68097
   D19        2.51592   0.00003   0.00761  -0.00019   0.00742   2.52334
   D20        2.48852   0.00001   0.00666   0.00019   0.00686   2.49538
   D21        0.44386  -0.00000   0.00812  -0.00017   0.00795   0.45180
   D22       -1.63469   0.00000   0.00798  -0.00037   0.00762  -1.62707
   D23       -1.71175   0.00002   0.00706   0.00034   0.00740  -1.70435
   D24        2.52677  -0.00000   0.00851  -0.00002   0.00848   2.53525
   D25        0.44823   0.00001   0.00838  -0.00022   0.00815   0.45638
   D26       -0.35602  -0.00003  -0.00620  -0.00038  -0.00659  -0.36261
   D27       -2.48852  -0.00002  -0.00667  -0.00019  -0.00686  -2.49538
   D28        1.71175  -0.00002  -0.00705  -0.00034  -0.00740   1.70436
   D29        1.68865  -0.00001  -0.00767  -0.00001  -0.00768   1.68097
   D30       -0.44385   0.00000  -0.00813   0.00018  -0.00795  -0.45180
   D31       -2.52676  -0.00000  -0.00852   0.00002  -0.00848  -2.53525
   D32       -2.51601  -0.00002  -0.00752   0.00019  -0.00734  -2.52335
   D33        1.63468  -0.00001  -0.00798   0.00038  -0.00761   1.62707
   D34       -0.44824  -0.00001  -0.00836   0.00022  -0.00814  -0.45638
         Item               Value     Threshold  Converged?
 Maximum Force            0.000060     0.000450     YES
 RMS     Force            0.000016     0.000300     YES
 Maximum Displacement     0.012943     0.001800     NO 
 RMS     Displacement     0.004020     0.001200     NO 
 Predicted change in Energy=-1.240523D-06
 GradGradGradGradGradGradGradGradGradGradGradGradGradGradGradGradGradGrad

                          Input orientation:                          
 ---------------------------------------------------------------------
 Center     Atomic      Atomic             Coordinates (Angstroms)
 Number     Number       Type             X           Y           Z
 ---------------------------------------------------------------------
      1          6           0       -0.813140    0.904015    0.075198
      2          6           0        0.511656    1.099365    0.072115
      3          6           0        1.272511   -0.196057   -0.102102
      4          6           0        0.185009   -1.274213    0.140516
      5          6           0       -1.168496   -0.555998   -0.096430
      6          1           0       -1.565082    1.696626    0.146747
      7          1           0        1.003141    2.075325    0.140773
      8          1           0        2.128568   -0.293831    0.590203
      9          1           0        1.695056   -0.259842   -1.125872
     10          1           0        0.237001   -1.610281    1.190868
     11          1           0        0.315090   -2.166406   -0.493887
     12          1           0       -1.956735   -0.896237    0.599699
     13          1           0       -1.559301   -0.739719   -1.118309
 ---------------------------------------------------------------------
                    Distance matrix (angstroms):
                    1          2          3          4          5
     1  C    0.000000
     2  C    1.339124   0.000000
     3  C    2.364643   1.512406   0.000000
     4  C    2.396924   2.396925   1.550466   0.000000
     5  C    1.512406   2.364644   2.467409   1.550468   0.000000
     6  H    1.094883   2.162205   3.419958   3.448005   2.300159
     7  H    2.162208   1.094883   2.300158   3.448006   3.419961
     8  H    3.217718   2.196319   1.105296   2.222789   3.377992
     9  H    3.014661   2.164036   1.109377   2.216513   3.057350
    10  H    2.944350   2.944355   2.178091   1.104031   2.178089
    11  H    3.320278   3.320279   2.225404   1.102450   2.225402
    12  H    2.196320   3.217721   3.377989   2.222787   1.105296
    13  H    2.164042   3.014664   3.057352   2.216515   1.109377
                    6          7          8          9         10
     6  H    0.000000
     7  H    2.596001   0.000000
     8  H    4.219197   2.661104   0.000000
     9  H    4.009468   2.745204   1.770311   0.000000
    10  H    3.908110   3.908115   2.381568   3.052359   0.000000
    11  H    4.343786   4.343787   2.823206   2.436944   1.775887
    12  H    2.661108   4.219202   4.129490   4.088787   2.381558
    13  H    2.745210   4.009472   4.088790   3.289556   3.052356
                   11         12         13
    11  H    0.000000
    12  H    2.823199   0.000000
    13  H    2.436940   1.770311   0.000000
 Stoichiometry    C5H8
 Framework group  C1[X(C5H8)]
 Deg. of freedom    33
 Full point group                 C1      NOp   1
 Largest Abelian subgroup         C1      NOp   1
 Largest concise Abelian subgroup C1      NOp   1
                         Standard orientation:                         
 ---------------------------------------------------------------------
 Center     Atomic      Atomic             Coordinates (Angstroms)
 Number     Number       Type             X           Y           Z
 ---------------------------------------------------------------------
      1          6           0        0.669525    1.075183   -0.049013
      2          6           0       -0.669599    1.075138   -0.049009
      3          6           0       -1.233693   -0.319338    0.107858
      4          6           0        0.000041   -1.224452   -0.142368
      5          6           0        1.233716   -0.319253    0.107860
      6          1           0        1.297932    1.969776   -0.108815
      7          1           0       -1.298069    1.969688   -0.108812
      8          1           0       -2.064728   -0.532962   -0.588868
      9          1           0       -1.644762   -0.455869    1.129180
     10          1           0        0.000057   -1.552387   -1.196571
     11          1           0        0.000075   -2.133325    0.481608
     12          1           0        2.064762   -0.532825   -0.588867
     13          1           0        1.644794   -0.455760    1.129181
 ---------------------------------------------------------------------
 Rotational constants (GHZ):           7.2700800           7.1909868           3.9269312
 Standard basis: def2SVPP (5D, 7F)
 There are    91 symmetry adapted cartesian basis functions of A   symmetry.
 There are    86 symmetry adapted basis functions of A   symmetry.
    86 basis functions,   157 primitive gaussians,    91 cartesian basis functions
    19 alpha electrons       19 beta electrons
       nuclear repulsion energy       170.6246993259 Hartrees.
 NAtoms=   13 NActive=   13 NUniq=   13 SFac= 1.00D+00 NAtFMM=   60 NAOKFM=F Big=F
 Integral buffers will be    131072 words long.
 Raffenetti 2 integral format.
 Two-electron integral symmetry is turned on.
 Nuclear repulsion after empirical dispersion term =      170.6076934671 Hartrees.
 One-electron integrals computed using PRISM.
   1 Symmetry operations used in ECPInt.
 ECPInt:  NShTT=    1081 NPrTT=    4367 LenC2=    1082 LenP2D=    3752.
 LDataN:  DoStor=T MaxTD1= 4 Len=   56
 NBasis=    86 RedAO= T EigKep=  1.23D-03  NBF=    86
 NBsUse=    86 1.00D-06 EigRej= -1.00D+00 NBFU=    86
 Initial guess from the checkpoint file:  "/home/software/g16/scr/Gau-97648.chk"
 B after Tr=    -0.000000   -0.000000   -0.000000
         Rot=    1.000000   -0.000199   -0.000002    0.000091 Ang=  -0.03 deg.
 Requested convergence on RMS density matrix=1.00D-08 within 128 cycles.
 Requested convergence on MAX density matrix=1.00D-06.
 Requested convergence on             energy=1.00D-06.
 No special actions if energy rises.
 SCF Done:  E(RB3LYP) =  -195.185952622     A.U. after    8 cycles
            NFock=  8  Conv=0.42D-08     -V/T= 2.0115
   1 Symmetry operations used in ECPInt.
 ECPInt:  NShTT=    1081 NPrTT=    4367 LenC2=    1082 LenP2D=    3752.
 LDataN:  DoStor=T MaxTD1= 5 Len=  102
 Calling FoFJK, ICntrl=      2127 FMM=F ISym2X=0 I1Cent= 0 IOpClX= 0 NMat=1 NMatS=1 NMatT=0.
 ***** Axes restored to original set *****
 -------------------------------------------------------------------
 Center     Atomic                   Forces (Hartrees/Bohr)
 Number     Number              X              Y              Z
 -------------------------------------------------------------------
      1        6          -0.000009989   -0.000008013    0.000001002
      2        6           0.000011671   -0.000005927    0.000002239
      3        6          -0.000015051    0.000004979   -0.000009375
      4        6          -0.000000026   -0.000004941    0.000013525
      5        6           0.000013942    0.000008490   -0.000008384
      6        1           0.000008255    0.000005707    0.000000863
      7        1          -0.000009889    0.000002968    0.000000861
      8        1          -0.000000435   -0.000005152   -0.000004313
      9        1           0.000000620   -0.000000181    0.000006522
     10        1          -0.000000972    0.000008670   -0.000006350
     11        1           0.000000648   -0.000002356    0.000001215
     12        1           0.000001601   -0.000004542   -0.000004414
     13        1          -0.000000376    0.000000296    0.000006610
 -------------------------------------------------------------------
 Cartesian Forces:  Max     0.000015051 RMS     0.000006665

 GradGradGradGradGradGradGradGradGradGradGradGradGradGradGradGradGradGrad
 Berny optimization.
 Using GEDIIS/GDIIS optimizer.
 FormGI is forming the generalized inverse of G from B-inverse, IUseBI=4.
 Internal  Forces:  Max     0.000011145 RMS     0.000003685
 Search for a local minimum.
 Step number   7 out of a maximum of   81
 All quantities printed in internal units (Hartrees-Bohrs-Radians)
 Mixed Optimization -- En-DIIS/RFO-DIIS
 Swapping is turned off.
 Update second derivatives using D2CorX and points    2    3    4    5    6
                                                      7
 DE= -1.11D-06 DEPred=-1.24D-06 R= 8.94D-01
 TightC=F SS=  1.41D+00  RLast= 3.53D-02 DXNew= 1.1304D+00 1.0583D-01
 Trust test= 8.94D-01 RLast= 3.53D-02 DXMaxT set to 6.72D-01
 ITU=  1  1  1  1  1  1  0
     Eigenvalues ---    0.00125   0.01169   0.01427   0.01927   0.03463
     Eigenvalues ---    0.03594   0.04292   0.05010   0.05914   0.05929
     Eigenvalues ---    0.07141   0.07639   0.08144   0.08263   0.09590
     Eigenvalues ---    0.11156   0.14628   0.15970   0.21540   0.21626
     Eigenvalues ---    0.28527   0.28707   0.31555   0.32469   0.33887
     Eigenvalues ---    0.34156   0.34247   0.34281   0.34301   0.34619
     Eigenvalues ---    0.35850   0.36203   0.59927
 En-DIIS/RFO-DIIS/Sim-DIIS IScMMF=       -3 using points:     7    6    5    4    3    2
 RFO step:  Lambda=-4.29714456D-08.
 DIIS inversion failure, remove point   6.
 RFO-DIIS uses    5 points instead of    6
 DidBck=F Rises=F RFO-DIIS coefs:    1.08233   -0.08275    0.01245   -0.00814   -0.00388
                  RFO-DIIS coefs:    0.00000
 Iteration  1 RMS(Cart)=  0.00071832 RMS(Int)=  0.00000228
 Iteration  2 RMS(Cart)=  0.00000029 RMS(Int)=  0.00000227
 Variable       Old X    -DE/DX   Delta X   Delta X   Delta X     New X
                                 (Linear)    (Quad)   (Total)
    R1        2.53058  -0.00001   0.00002  -0.00001   0.00001   2.53059
    R2        2.85803  -0.00000   0.00003  -0.00001   0.00002   2.85805
    R3        2.06903  -0.00000  -0.00000  -0.00000  -0.00001   2.06902
    R4        2.85803  -0.00000   0.00003  -0.00001   0.00002   2.85806
    R5        2.06903  -0.00000  -0.00000  -0.00000  -0.00001   2.06902
    R6        2.92996  -0.00001  -0.00008  -0.00002  -0.00010   2.92986
    R7        2.08871  -0.00000  -0.00001  -0.00001  -0.00002   2.08869
    R8        2.09642  -0.00001   0.00002  -0.00002  -0.00000   2.09642
    R9        2.92996  -0.00001  -0.00008  -0.00002  -0.00010   2.92986
   R10        2.08632  -0.00001   0.00002  -0.00003  -0.00001   2.08630
   R11        2.08333   0.00000   0.00000   0.00001   0.00001   2.08334
   R12        2.08871  -0.00000  -0.00001  -0.00001  -0.00002   2.08869
   R13        2.09642  -0.00001   0.00002  -0.00002  -0.00000   2.09642
    A1        1.95305  -0.00000  -0.00008  -0.00001  -0.00009   1.95296
    A2        2.18215  -0.00001   0.00004  -0.00007  -0.00003   2.18212
    A3        2.14706   0.00001   0.00004   0.00008   0.00012   2.14718
    A4        1.95305  -0.00000  -0.00008  -0.00000  -0.00009   1.95296
    A5        2.18215  -0.00001   0.00004  -0.00008  -0.00004   2.18212
    A6        2.14706   0.00001   0.00003   0.00008   0.00012   2.14718
    A7        1.79746   0.00000  -0.00010   0.00001  -0.00010   1.79735
    A8        1.97496   0.00000   0.00012   0.00002   0.00014   1.97510
    A9        1.92534   0.00000  -0.00005   0.00002  -0.00003   1.92532
   A10        1.96461  -0.00000   0.00005  -0.00004   0.00001   1.96462
   A11        1.95151   0.00000  -0.00003   0.00000  -0.00003   1.95148
   A12        1.85244  -0.00000   0.00002  -0.00001   0.00001   1.85245
   A13        1.84032  -0.00000  -0.00014  -0.00000  -0.00016   1.84016
   A14        1.90447   0.00000  -0.00010  -0.00001  -0.00011   1.90435
   A15        1.97137   0.00000   0.00013   0.00000   0.00014   1.97151
   A16        1.90446   0.00000  -0.00010  -0.00001  -0.00011   1.90435
   A17        1.97137   0.00000   0.00013   0.00001   0.00014   1.97151
   A18        1.87085   0.00000   0.00007   0.00002   0.00009   1.87093
   A19        1.79745   0.00000  -0.00010   0.00001  -0.00010   1.79735
   A20        1.97496   0.00000   0.00012   0.00001   0.00014   1.97510
   A21        1.92535   0.00000  -0.00006   0.00002  -0.00003   1.92532
   A22        1.96461  -0.00000   0.00005  -0.00004   0.00001   1.96462
   A23        1.95150   0.00000  -0.00004   0.00001  -0.00003   1.95148
   A24        1.85244  -0.00000   0.00002  -0.00001   0.00001   1.85245
    D1       -0.00001   0.00000   0.00001  -0.00001   0.00000  -0.00000
    D2        3.09632   0.00000  -0.00013   0.00002  -0.00011   3.09621
    D3       -3.09632  -0.00000   0.00014  -0.00003   0.00011  -3.09621
    D4        0.00000  -0.00000  -0.00000   0.00000  -0.00000   0.00000
    D5        0.23369   0.00000   0.00072   0.00001   0.00074   0.23442
    D6        2.35947  -0.00000   0.00079  -0.00003   0.00076   2.36023
    D7       -1.85149  -0.00000   0.00085  -0.00001   0.00084  -1.85065
    D8       -2.95212   0.00000   0.00060   0.00002   0.00063  -2.95149
    D9       -0.82634  -0.00000   0.00067  -0.00001   0.00065  -0.82569
   D10        1.24588  -0.00000   0.00073  -0.00000   0.00073   1.24661
   D11       -0.23368  -0.00000  -0.00075   0.00001  -0.00074  -0.23442
   D12       -2.35947   0.00000  -0.00080   0.00004  -0.00076  -2.36023
   D13        1.85150   0.00000  -0.00087   0.00003  -0.00084   1.85066
   D14        2.95212  -0.00000  -0.00061  -0.00002  -0.00063   2.95149
   D15        0.82633   0.00000  -0.00067   0.00002  -0.00065   0.82569
   D16       -1.24589   0.00000  -0.00073   0.00000  -0.00073  -1.24661
   D17        0.36261   0.00000   0.00115   0.00000   0.00115   0.36376
   D18       -1.68097   0.00000   0.00140   0.00002   0.00142  -1.67955
   D19        2.52334   0.00000   0.00130   0.00001   0.00130   2.52464
   D20        2.49538   0.00000   0.00125   0.00001   0.00126   2.49664
   D21        0.45180   0.00000   0.00150   0.00003   0.00153   0.45333
   D22       -1.62707   0.00000   0.00140   0.00001   0.00141  -1.62566
   D23       -1.70435  -0.00000   0.00129  -0.00003   0.00125  -1.70310
   D24        2.53525  -0.00000   0.00153  -0.00001   0.00152   2.53678
   D25        0.45638  -0.00000   0.00143  -0.00003   0.00141   0.45778
   D26       -0.36261  -0.00000  -0.00114  -0.00001  -0.00115  -0.36376
   D27       -2.49538  -0.00000  -0.00125  -0.00001  -0.00126  -2.49664
   D28        1.70436   0.00000  -0.00128   0.00003  -0.00126   1.70310
   D29        1.68097  -0.00000  -0.00139  -0.00003  -0.00142   1.67955
   D30       -0.45180  -0.00000  -0.00150  -0.00003  -0.00153  -0.45333
   D31       -2.53525  -0.00000  -0.00153   0.00000  -0.00153  -2.53678
   D32       -2.52335  -0.00000  -0.00129  -0.00001  -0.00130  -2.52465
   D33        1.62707  -0.00000  -0.00140  -0.00001  -0.00141   1.62566
   D34       -0.45638   0.00000  -0.00143   0.00002  -0.00141  -0.45778
         Item               Value     Threshold  Converged?
 Maximum Force            0.000011     0.000450     YES
 RMS     Force            0.000004     0.000300     YES
 Maximum Displacement     0.002278     0.001800     NO 
 RMS     Displacement     0.000718     0.001200     YES
 Predicted change in Energy=-2.092032D-08
 GradGradGradGradGradGradGradGradGradGradGradGradGradGradGradGradGradGrad

                          Input orientation:                          
 ---------------------------------------------------------------------
 Center     Atomic      Atomic             Coordinates (Angstroms)
 Number     Number       Type             X           Y           Z
 ---------------------------------------------------------------------
      1          6           0       -0.813134    0.903951    0.075505
      2          6           0        0.511669    1.099301    0.072423
      3          6           0        1.272404   -0.196119   -0.102444
      4          6           0        0.184999   -1.274141    0.140875
      5          6           0       -1.168376   -0.556025   -0.096771
      6          1           0       -1.565042    1.696560    0.147370
      7          1           0        1.003121    2.075250    0.141397
      8          1           0        2.128990   -0.294078    0.589166
      9          1           0        1.694121   -0.259842   -1.126557
     10          1           0        0.236838   -1.609139    1.191571
     11          1           0        0.315172   -2.166929   -0.492681
     12          1           0       -1.957074   -0.896593    0.598664
     13          1           0       -1.558408   -0.739445   -1.118997
 ---------------------------------------------------------------------
                    Distance matrix (angstroms):
                    1          2          3          4          5
     1  C    0.000000
     2  C    1.339131   0.000000
     3  C    2.364590   1.512418   0.000000
     4  C    2.396795   2.396795   1.550415   0.000000
     5  C    1.512417   2.364589   2.467179   1.550416   0.000000
     6  H    1.094879   2.162190   3.419904   3.447862   2.300237
     7  H    2.162190   1.094879   2.300237   3.447862   3.419903
     8  H    3.217952   2.196419   1.105287   2.222744   3.378128
     9  H    3.014248   2.164027   1.109375   2.216447   3.056480
    10  H    2.943410   2.943411   2.177957   1.104025   2.177958
    11  H    3.320574   3.320574   2.225459   1.102456   2.225460
    12  H    2.196418   3.217951   3.378127   2.222744   1.105287
    13  H    2.164028   3.014247   3.056481   2.216449   1.109375
                    6          7          8          9         10
     6  H    0.000000
     7  H    2.595940   0.000000
     8  H    4.219444   2.661165   0.000000
     9  H    4.009057   2.745513   1.770307   0.000000
    10  H    3.907016   3.907017   2.381705   3.052538   0.000000
    11  H    4.344125   4.344124   2.822747   2.437268   1.775942
    12  H    2.661165   4.219443   4.130259   4.088161   2.381704
    13  H    2.745515   4.009057   4.088163   3.287707   3.052539
                   11         12         13
    11  H    0.000000
    12  H    2.822746   0.000000
    13  H    2.437270   1.770307   0.000000
 Stoichiometry    C5H8
 Framework group  C1[X(C5H8)]
 Deg. of freedom    33
 Full point group                 C1      NOp   1
 Largest Abelian subgroup         C1      NOp   1
 Largest concise Abelian subgroup C1      NOp   1
                         Standard orientation:                         
 ---------------------------------------------------------------------
 Center     Atomic      Atomic             Coordinates (Angstroms)
 Number     Number       Type             X           Y           Z
 ---------------------------------------------------------------------
      1          6           0        0.669578    1.075116   -0.049150
      2          6           0       -0.669554    1.075131   -0.049148
      3          6           0       -1.233593   -0.319326    0.108198
      4          6           0       -0.000014   -1.224339   -0.142838
      5          6           0        1.233586   -0.319352    0.108199
      6          1           0        1.297991    1.969687   -0.109159
      7          1           0       -1.297949    1.969714   -0.109156
      8          1           0       -2.065136   -0.533097   -0.587862
      9          1           0       -1.643858   -0.455786    1.129851
     10          1           0       -0.000017   -1.551060   -1.197411
     11          1           0       -0.000023   -2.133881    0.480174
     12          1           0        2.065123   -0.533142   -0.587861
     13          1           0        1.643849   -0.455820    1.129852
 ---------------------------------------------------------------------
 Rotational constants (GHZ):           7.2701768           7.1914602           3.9274150
 Standard basis: def2SVPP (5D, 7F)
 There are    91 symmetry adapted cartesian basis functions of A   symmetry.
 There are    86 symmetry adapted basis functions of A   symmetry.
    86 basis functions,   157 primitive gaussians,    91 cartesian basis functions
    19 alpha electrons       19 beta electrons
       nuclear repulsion energy       170.6286998989 Hartrees.
 NAtoms=   13 NActive=   13 NUniq=   13 SFac= 1.00D+00 NAtFMM=   60 NAOKFM=F Big=F
 Integral buffers will be    131072 words long.
 Raffenetti 2 integral format.
 Two-electron integral symmetry is turned on.
 Nuclear repulsion after empirical dispersion term =      170.6116933164 Hartrees.
 One-electron integrals computed using PRISM.
   1 Symmetry operations used in ECPInt.
 ECPInt:  NShTT=    1081 NPrTT=    4367 LenC2=    1082 LenP2D=    3752.
 LDataN:  DoStor=T MaxTD1= 4 Len=   56
 NBasis=    86 RedAO= T EigKep=  1.23D-03  NBF=    86
 NBsUse=    86 1.00D-06 EigRej= -1.00D+00 NBFU=    86
 Initial guess from the checkpoint file:  "/home/software/g16/scr/Gau-97648.chk"
 B after Tr=     0.000000   -0.000000   -0.000000
         Rot=    1.000000   -0.000037   -0.000000    0.000023 Ang=  -0.01 deg.
 Requested convergence on RMS density matrix=1.00D-08 within 128 cycles.
 Requested convergence on MAX density matrix=1.00D-06.
 Requested convergence on             energy=1.00D-06.
 No special actions if energy rises.
 SCF Done:  E(RB3LYP) =  -195.185952643     A.U. after    6 cycles
            NFock=  6  Conv=0.77D-08     -V/T= 2.0115
   1 Symmetry operations used in ECPInt.
 ECPInt:  NShTT=    1081 NPrTT=    4367 LenC2=    1082 LenP2D=    3752.
 LDataN:  DoStor=T MaxTD1= 5 Len=  102
 Calling FoFJK, ICntrl=      2127 FMM=F ISym2X=0 I1Cent= 0 IOpClX= 0 NMat=1 NMatS=1 NMatT=0.
 ***** Axes restored to original set *****
 -------------------------------------------------------------------
 Center     Atomic                   Forces (Hartrees/Bohr)
 Number     Number              X              Y              Z
 -------------------------------------------------------------------
      1        6          -0.000005026   -0.000005476   -0.000001417
      2        6           0.000006662   -0.000004070   -0.000000714
      3        6          -0.000002555    0.000003207    0.000000228
      4        6          -0.000000434   -0.000000302    0.000000706
      5        6           0.000001866    0.000003225    0.000000940
      6        1           0.000002843    0.000002205   -0.000000030
      7        1          -0.000003395    0.000001364   -0.000000014
      8        1           0.000001024   -0.000000384    0.000000255
      9        1           0.000001312   -0.000000690    0.000000779
     10        1          -0.000000190    0.000001100   -0.000000190
     11        1          -0.000000179    0.000001505   -0.000001587
     12        1          -0.000001003   -0.000000756    0.000000213
     13        1          -0.000000927   -0.000000926    0.000000830
 -------------------------------------------------------------------
 Cartesian Forces:  Max     0.000006662 RMS     0.000002217

 GradGradGradGradGradGradGradGradGradGradGradGradGradGradGradGradGradGrad
 Berny optimization.
 Using GEDIIS/GDIIS optimizer.
 FormGI is forming the generalized inverse of G from B-inverse, IUseBI=4.
 Internal  Forces:  Max     0.000004154 RMS     0.000001255
 Search for a local minimum.
 Step number   8 out of a maximum of   81
 All quantities printed in internal units (Hartrees-Bohrs-Radians)
 Mixed Optimization -- En-DIIS/RFO-DIIS
 Swapping is turned off.
 Update second derivatives using D2CorX and points    2    3    4    5    6
                                                      7    8
 DE= -2.09D-08 DEPred=-2.09D-08 R= 9.99D-01
 Trust test= 9.99D-01 RLast= 6.34D-03 DXMaxT set to 6.72D-01
 ITU=  0  1  1  1  1  1  1  0
     Eigenvalues ---    0.00131   0.01169   0.01432   0.01927   0.03463
     Eigenvalues ---    0.03600   0.04343   0.05050   0.05915   0.05960
     Eigenvalues ---    0.07139   0.07639   0.08148   0.08262   0.09582
     Eigenvalues ---    0.11155   0.14139   0.15970   0.21538   0.21741
     Eigenvalues ---    0.28526   0.28892   0.31553   0.32533   0.33889
     Eigenvalues ---    0.34142   0.34244   0.34281   0.34301   0.34556
     Eigenvalues ---    0.35849   0.36211   0.59781
 En-DIIS/RFO-DIIS/Sim-DIIS IScMMF=       -3 using points:     8    7    6    5    4    3    2
 RFO step:  Lambda=-5.06967667D-10.
 DIIS inversion failure, remove point   7.
 DIIS inversion failure, remove point   6.
 DIIS inversion failure, remove point   5.
 DIIS inversion failure, remove point   4.
 DIIS inversion failure, remove point   3.
 RFO-DIIS uses    2 points instead of    7
 DidBck=F Rises=F RFO-DIIS coefs:    0.83367    0.16633    0.00000    0.00000    0.00000
                  RFO-DIIS coefs:    0.00000    0.00000
 Iteration  1 RMS(Cart)=  0.00012045 RMS(Int)=  0.00000001
 Iteration  2 RMS(Cart)=  0.00000001 RMS(Int)=  0.00000001
 Variable       Old X    -DE/DX   Delta X   Delta X   Delta X     New X
                                 (Linear)    (Quad)   (Total)
    R1        2.53059   0.00000  -0.00000   0.00000   0.00000   2.53059
    R2        2.85805  -0.00000  -0.00000  -0.00001  -0.00001   2.85804
    R3        2.06902  -0.00000   0.00000  -0.00000  -0.00000   2.06902
    R4        2.85806  -0.00000  -0.00000  -0.00001  -0.00001   2.85804
    R5        2.06902  -0.00000   0.00000  -0.00000  -0.00000   2.06902
    R6        2.92986   0.00000   0.00002  -0.00000   0.00001   2.92987
    R7        2.08869   0.00000   0.00000   0.00000   0.00000   2.08869
    R8        2.09642  -0.00000   0.00000  -0.00000  -0.00000   2.09641
    R9        2.92986  -0.00000   0.00002  -0.00000   0.00001   2.92987
   R10        2.08630  -0.00000   0.00000  -0.00001  -0.00000   2.08630
   R11        2.08334  -0.00000  -0.00000   0.00000  -0.00000   2.08334
   R12        2.08869   0.00000   0.00000   0.00000   0.00000   2.08869
   R13        2.09642  -0.00000   0.00000  -0.00000  -0.00000   2.09641
    A1        1.95296   0.00000   0.00001   0.00000   0.00002   1.95298
    A2        2.18212  -0.00000   0.00001  -0.00003  -0.00003   2.18209
    A3        2.14718   0.00000  -0.00002   0.00003   0.00001   2.14719
    A4        1.95296   0.00000   0.00001   0.00000   0.00002   1.95298
    A5        2.18212  -0.00000   0.00001  -0.00003  -0.00003   2.18209
    A6        2.14718   0.00000  -0.00002   0.00003   0.00001   2.14719
    A7        1.79735  -0.00000   0.00002  -0.00000   0.00001   1.79737
    A8        1.97510   0.00000  -0.00002   0.00001  -0.00002   1.97509
    A9        1.92532   0.00000   0.00000   0.00001   0.00002   1.92533
   A10        1.96462   0.00000  -0.00000  -0.00001  -0.00001   1.96461
   A11        1.95148   0.00000   0.00000   0.00001   0.00001   1.95149
   A12        1.85245  -0.00000  -0.00000  -0.00001  -0.00001   1.85244
   A13        1.84016   0.00000   0.00003   0.00000   0.00003   1.84019
   A14        1.90435  -0.00000   0.00002  -0.00001   0.00001   1.90437
   A15        1.97151  -0.00000  -0.00002  -0.00000  -0.00003   1.97148
   A16        1.90435  -0.00000   0.00002  -0.00001   0.00001   1.90436
   A17        1.97151  -0.00000  -0.00002  -0.00000  -0.00003   1.97148
   A18        1.87093   0.00000  -0.00001   0.00001  -0.00000   1.87093
   A19        1.79735  -0.00000   0.00002  -0.00000   0.00001   1.79737
   A20        1.97510   0.00000  -0.00002   0.00001  -0.00001   1.97509
   A21        1.92532   0.00000   0.00001   0.00001   0.00001   1.92533
   A22        1.96462   0.00000  -0.00000  -0.00001  -0.00001   1.96461
   A23        1.95148   0.00000   0.00000   0.00000   0.00001   1.95149
   A24        1.85245  -0.00000  -0.00000  -0.00001  -0.00001   1.85244
    D1       -0.00000   0.00000  -0.00000   0.00001   0.00001   0.00000
    D2        3.09621   0.00000   0.00002   0.00001   0.00002   3.09623
    D3       -3.09621  -0.00000  -0.00002  -0.00000  -0.00002  -3.09623
    D4        0.00000   0.00000   0.00000  -0.00000  -0.00000  -0.00000
    D5        0.23442  -0.00000  -0.00012  -0.00000  -0.00013   0.23430
    D6        2.36023  -0.00000  -0.00013  -0.00001  -0.00014   2.36009
    D7       -1.85065  -0.00000  -0.00014  -0.00001  -0.00015  -1.85081
    D8       -2.95149  -0.00000  -0.00010   0.00000  -0.00010  -2.95160
    D9       -0.82569  -0.00000  -0.00011  -0.00000  -0.00011  -0.82580
   D10        1.24661  -0.00000  -0.00012  -0.00001  -0.00013   1.24648
   D11       -0.23442   0.00000   0.00012  -0.00001   0.00012  -0.23430
   D12       -2.36023   0.00000   0.00013   0.00000   0.00013  -2.36010
   D13        1.85066   0.00000   0.00014   0.00000   0.00014   1.85080
   D14        2.95149   0.00000   0.00010  -0.00000   0.00010   2.95160
   D15        0.82569   0.00000   0.00011   0.00001   0.00011   0.82580
   D16       -1.24661   0.00000   0.00012   0.00001   0.00013  -1.24648
   D17        0.36376  -0.00000  -0.00019   0.00000  -0.00019   0.36357
   D18       -1.67955  -0.00000  -0.00024   0.00001  -0.00022  -1.67977
   D19        2.52464  -0.00000  -0.00022   0.00000  -0.00022   2.52443
   D20        2.49664  -0.00000  -0.00021   0.00001  -0.00020   2.49644
   D21        0.45333   0.00000  -0.00025   0.00001  -0.00024   0.45309
   D22       -1.62566  -0.00000  -0.00023   0.00000  -0.00023  -1.62590
   D23       -1.70310  -0.00000  -0.00021  -0.00001  -0.00022  -1.70332
   D24        2.53678  -0.00000  -0.00025  -0.00000  -0.00026   2.53652
   D25        0.45778  -0.00000  -0.00023  -0.00001  -0.00025   0.45754
   D26       -0.36376   0.00000   0.00019   0.00000   0.00019  -0.36357
   D27       -2.49664  -0.00000   0.00021  -0.00001   0.00020  -2.49643
   D28        1.70310   0.00000   0.00021   0.00001   0.00022   1.70332
   D29        1.67955   0.00000   0.00024  -0.00001   0.00023   1.67978
   D30       -0.45333  -0.00000   0.00025  -0.00001   0.00024  -0.45309
   D31       -2.53678   0.00000   0.00025   0.00000   0.00026  -2.53652
   D32       -2.52465   0.00000   0.00022   0.00000   0.00022  -2.52443
   D33        1.62566   0.00000   0.00023  -0.00000   0.00023   1.62590
   D34       -0.45778   0.00000   0.00023   0.00001   0.00025  -0.45754
         Item               Value     Threshold  Converged?
 Maximum Force            0.000004     0.000450     YES
 RMS     Force            0.000001     0.000300     YES
 Maximum Displacement     0.000387     0.001800     YES
 RMS     Displacement     0.000120     0.001200     YES
 Predicted change in Energy=-1.041195D-09
 Optimization completed.
    -- Stationary point found.
                           ----------------------------
                           !   Optimized Parameters   !
                           ! (Angstroms and Degrees)  !
 --------------------------                            --------------------------
 ! Name  Definition              Value          Derivative Info.                !
 --------------------------------------------------------------------------------
 ! R1    R(1,2)                  1.3391         -DE/DX =    0.0                 !
 ! R2    R(1,5)                  1.5124         -DE/DX =    0.0                 !
 ! R3    R(1,6)                  1.0949         -DE/DX =    0.0                 !
 ! R4    R(2,3)                  1.5124         -DE/DX =    0.0                 !
 ! R5    R(2,7)                  1.0949         -DE/DX =    0.0                 !
 ! R6    R(3,4)                  1.5504         -DE/DX =    0.0                 !
 ! R7    R(3,8)                  1.1053         -DE/DX =    0.0                 !
 ! R8    R(3,9)                  1.1094         -DE/DX =    0.0                 !
 ! R9    R(4,5)                  1.5504         -DE/DX =    0.0                 !
 ! R10   R(4,10)                 1.104          -DE/DX =    0.0                 !
 ! R11   R(4,11)                 1.1025         -DE/DX =    0.0                 !
 ! R12   R(5,12)                 1.1053         -DE/DX =    0.0                 !
 ! R13   R(5,13)                 1.1094         -DE/DX =    0.0                 !
 ! A1    A(2,1,5)              111.8963         -DE/DX =    0.0                 !
 ! A2    A(2,1,6)              125.026          -DE/DX =    0.0                 !
 ! A3    A(5,1,6)              123.0242         -DE/DX =    0.0                 !
 ! A4    A(1,2,3)              111.8964         -DE/DX =    0.0                 !
 ! A5    A(1,2,7)              125.0261         -DE/DX =    0.0                 !
 ! A6    A(3,2,7)              123.0241         -DE/DX =    0.0                 !
 ! A7    A(2,3,4)              102.9808         -DE/DX =    0.0                 !
 ! A8    A(2,3,8)              113.1649         -DE/DX =    0.0                 !
 ! A9    A(2,3,9)              110.3125         -DE/DX =    0.0                 !
 ! A10   A(4,3,8)              112.5646         -DE/DX =    0.0                 !
 ! A11   A(4,3,9)              111.8114         -DE/DX =    0.0                 !
 ! A12   A(8,3,9)              106.1374         -DE/DX =    0.0                 !
 ! A13   A(3,4,5)              105.4335         -DE/DX =    0.0                 !
 ! A14   A(3,4,10)             109.1114         -DE/DX =    0.0                 !
 ! A15   A(3,4,11)             112.959          -DE/DX =    0.0                 !
 ! A16   A(5,4,10)             109.1114         -DE/DX =    0.0                 !
 ! A17   A(5,4,11)             112.959          -DE/DX =    0.0                 !
 ! A18   A(10,4,11)            107.1964         -DE/DX =    0.0                 !
 ! A19   A(1,5,4)              102.9808         -DE/DX =    0.0                 !
 ! A20   A(1,5,12)             113.1649         -DE/DX =    0.0                 !
 ! A21   A(1,5,13)             110.3126         -DE/DX =    0.0                 !
 ! A22   A(4,5,12)             112.5645         -DE/DX =    0.0                 !
 ! A23   A(4,5,13)             111.8115         -DE/DX =    0.0                 !
 ! A24   A(12,5,13)            106.1375         -DE/DX =    0.0                 !
 ! D1    D(5,1,2,3)             -0.0002         -DE/DX =    0.0                 !
 ! D2    D(5,1,2,7)            177.3998         -DE/DX =    0.0                 !
 ! D3    D(6,1,2,3)           -177.3999         -DE/DX =    0.0                 !
 ! D4    D(6,1,2,7)              0.0001         -DE/DX =    0.0                 !
 ! D5    D(2,1,5,4)             13.4315         -DE/DX =    0.0                 !
 ! D6    D(2,1,5,12)           135.2311         -DE/DX =    0.0                 !
 ! D7    D(2,1,5,13)          -106.0347         -DE/DX =    0.0                 !
 ! D8    D(6,1,5,4)           -169.1082         -DE/DX =    0.0                 !
 ! D9    D(6,1,5,12)           -47.3085         -DE/DX =    0.0                 !
 ! D10   D(6,1,5,13)            71.4256         -DE/DX =    0.0                 !
 ! D11   D(1,2,3,4)            -13.4312         -DE/DX =    0.0                 !
 ! D12   D(1,2,3,8)           -135.231          -DE/DX =    0.0                 !
 ! D13   D(1,2,3,9)            106.0349         -DE/DX =    0.0                 !
 ! D14   D(7,2,3,4)            169.1082         -DE/DX =    0.0                 !
 ! D15   D(7,2,3,8)             47.3084         -DE/DX =    0.0                 !
 ! D16   D(7,2,3,9)            -71.4257         -DE/DX =    0.0                 !
 ! D17   D(2,3,4,5)             20.842          -DE/DX =    0.0                 !
 ! D18   D(2,3,4,10)           -96.2311         -DE/DX =    0.0                 !
 ! D19   D(2,3,4,11)           144.6514         -DE/DX =    0.0                 !
 ! D20   D(8,3,4,5)            143.0469         -DE/DX =    0.0                 !
 ! D21   D(8,3,4,10)            25.9738         -DE/DX =    0.0                 !
 ! D22   D(8,3,4,11)           -93.1437         -DE/DX =    0.0                 !
 ! D23   D(9,3,4,5)            -97.5803         -DE/DX =    0.0                 !
 ! D24   D(9,3,4,10)           145.3466         -DE/DX =    0.0                 !
 ! D25   D(9,3,4,11)            26.2291         -DE/DX =    0.0                 !
 ! D26   D(3,4,5,1)            -20.8421         -DE/DX =    0.0                 !
 ! D27   D(3,4,5,12)          -143.0468         -DE/DX =    0.0                 !
 ! D28   D(3,4,5,13)            97.5804         -DE/DX =    0.0                 !
 ! D29   D(10,4,5,1)            96.231          -DE/DX =    0.0                 !
 ! D30   D(10,4,5,12)          -25.9737         -DE/DX =    0.0                 !
 ! D31   D(10,4,5,13)         -145.3465         -DE/DX =    0.0                 !
 ! D32   D(11,4,5,1)          -144.6515         -DE/DX =    0.0                 !
 ! D33   D(11,4,5,12)           93.1437         -DE/DX =    0.0                 !
 ! D34   D(11,4,5,13)          -26.2291         -DE/DX =    0.0                 !
 --------------------------------------------------------------------------------
 GradGradGradGradGradGradGradGradGradGradGradGradGradGradGradGradGradGrad

                          Input orientation:                          
 ---------------------------------------------------------------------
 Center     Atomic      Atomic             Coordinates (Angstroms)
 Number     Number       Type             X           Y           Z
 ---------------------------------------------------------------------
      1          6           0       -0.813134    0.903951    0.075505
      2          6           0        0.511669    1.099301    0.072423
      3          6           0        1.272404   -0.196119   -0.102444
      4          6           0        0.184999   -1.274141    0.140875
      5          6           0       -1.168376   -0.556025   -0.096771
      6          1           0       -1.565042    1.696560    0.147370
      7          1           0        1.003121    2.075250    0.141397
      8          1           0        2.128990   -0.294078    0.589166
      9          1           0        1.694121   -0.259842   -1.126557
     10          1           0        0.236838   -1.609139    1.191571
     11          1           0        0.315172   -2.166929   -0.492681
     12          1           0       -1.957074   -0.896593    0.598664
     13          1           0       -1.558408   -0.739445   -1.118997
 ---------------------------------------------------------------------
                    Distance matrix (angstroms):
                    1          2          3          4          5
     1  C    0.000000
     2  C    1.339131   0.000000
     3  C    2.364590   1.512418   0.000000
     4  C    2.396795   2.396795   1.550415   0.000000
     5  C    1.512417   2.364589   2.467179   1.550416   0.000000
     6  H    1.094879   2.162190   3.419904   3.447862   2.300237
     7  H    2.162190   1.094879   2.300237   3.447862   3.419903
     8  H    3.217952   2.196419   1.105287   2.222744   3.378128
     9  H    3.014248   2.164027   1.109375   2.216447   3.056480
    10  H    2.943410   2.943411   2.177957   1.104025   2.177958
    11  H    3.320574   3.320574   2.225459   1.102456   2.225460
    12  H    2.196418   3.217951   3.378127   2.222744   1.105287
    13  H    2.164028   3.014247   3.056481   2.216449   1.109375
                    6          7          8          9         10
     6  H    0.000000
     7  H    2.595940   0.000000
     8  H    4.219444   2.661165   0.000000
     9  H    4.009057   2.745513   1.770307   0.000000
    10  H    3.907016   3.907017   2.381705   3.052538   0.000000
    11  H    4.344125   4.344124   2.822747   2.437268   1.775942
    12  H    2.661165   4.219443   4.130259   4.088161   2.381704
    13  H    2.745515   4.009057   4.088163   3.287707   3.052539
                   11         12         13
    11  H    0.000000
    12  H    2.822746   0.000000
    13  H    2.437270   1.770307   0.000000
 Stoichiometry    C5H8
 Framework group  C1[X(C5H8)]
 Deg. of freedom    33
 Full point group                 C1      NOp   1
 Largest Abelian subgroup         C1      NOp   1
 Largest concise Abelian subgroup C1      NOp   1
                         Standard orientation:                         
 ---------------------------------------------------------------------
 Center     Atomic      Atomic             Coordinates (Angstroms)
 Number     Number       Type             X           Y           Z
 ---------------------------------------------------------------------
      1          6           0        0.669578    1.075116   -0.049150
      2          6           0       -0.669554    1.075131   -0.049148
      3          6           0       -1.233593   -0.319326    0.108198
      4          6           0       -0.000014   -1.224339   -0.142838
      5          6           0        1.233586   -0.319352    0.108199
      6          1           0        1.297991    1.969687   -0.109159
      7          1           0       -1.297949    1.969714   -0.109156
      8          1           0       -2.065136   -0.533097   -0.587862
      9          1           0       -1.643858   -0.455786    1.129851
     10          1           0       -0.000017   -1.551060   -1.197411
     11          1           0       -0.000023   -2.133881    0.480174
     12          1           0        2.065123   -0.533142   -0.587861
     13          1           0        1.643849   -0.455820    1.129852
 ---------------------------------------------------------------------
 Rotational constants (GHZ):           7.2701768           7.1914602           3.9274150

 **********************************************************************

            Population analysis using the SCF Density.

 **********************************************************************

 Orbital symmetries:
       Occupied  (A) (A) (A) (A) (A) (A) (A) (A) (A) (A) (A) (A)
                 (A) (A) (A) (A) (A) (A) (A)
       Virtual   (A) (A) (A) (A) (A) (A) (A) (A) (A) (A) (A) (A)
                 (A) (A) (A) (A) (A) (A) (A) (A) (A) (A) (A) (A)
                 (A) (A) (A) (A) (A) (A) (A) (A) (A) (A) (A) (A)
                 (A) (A) (A) (A) (A) (A) (A) (A) (A) (A) (A) (A)
                 (A) (A) (A) (A) (A) (A) (A) (A) (A) (A) (A) (A)
                 (A) (A) (A) (A) (A) (A) (A)
 The electronic state is 1-A.
 Alpha  occ. eigenvalues --  -10.17966 -10.17965 -10.17752 -10.17686 -10.17614
 Alpha  occ. eigenvalues --   -0.83105  -0.69681  -0.69496  -0.56566  -0.52180
 Alpha  occ. eigenvalues --   -0.49498  -0.46480  -0.39698  -0.37922  -0.35052
 Alpha  occ. eigenvalues --   -0.34936  -0.34238  -0.34106  -0.24127
 Alpha virt. eigenvalues --    0.02026   0.05898   0.08992   0.10267   0.10379
 Alpha virt. eigenvalues --    0.13027   0.13605   0.14913   0.18147   0.18512
 Alpha virt. eigenvalues --    0.20024   0.26977   0.31444   0.39121   0.39820
 Alpha virt. eigenvalues --    0.43331   0.46920   0.48526   0.49864   0.50641
 Alpha virt. eigenvalues --    0.53765   0.58450   0.60530   0.62477   0.62677
 Alpha virt. eigenvalues --    0.63913   0.64983   0.67617   0.68961   0.69335
 Alpha virt. eigenvalues --    0.70801   0.71641   0.72417   0.73599   0.74856
 Alpha virt. eigenvalues --    0.76696   0.80398   0.83945   0.94856   1.01158
 Alpha virt. eigenvalues --    1.10779   1.17838   1.44443   1.46167   1.51289
 Alpha virt. eigenvalues --    1.67803   1.74129   1.79062   1.82553   1.87057
 Alpha virt. eigenvalues --    1.89782   1.94999   1.96017   2.00922   2.04714
 Alpha virt. eigenvalues --    2.12581   2.16034   2.29753   2.32413   2.37942
 Alpha virt. eigenvalues --    2.41702   2.43663   2.50701   2.58024   2.61860
 Alpha virt. eigenvalues --    2.81411   2.88261
          Condensed to atoms (all electrons):
               1          2          3          4          5          6
     1  C    4.917390   0.643171  -0.004242  -0.065482   0.317194   0.408398
     2  C    0.643171   4.917391   0.317195  -0.065482  -0.004242  -0.058592
     3  C   -0.004242   0.317195   4.888388   0.431400  -0.140484   0.013830
     4  C   -0.065482  -0.065482   0.431400   4.768905   0.431400   0.007170
     5  C    0.317194  -0.004242  -0.140484   0.431400   4.888387  -0.062807
     6  H    0.408398  -0.058592   0.013830   0.007170  -0.062807   0.638438
     7  H   -0.058592   0.408398  -0.062807   0.007170   0.013830  -0.009229
     8  H    0.000708  -0.016967   0.356487  -0.020042   0.009301  -0.000374
     9  H   -0.009576  -0.008373   0.327640  -0.012307   0.002678  -0.000423
    10  H    0.001485   0.001485  -0.019952   0.354869  -0.019952  -0.000192
    11  H    0.005951   0.005951  -0.015621   0.349478  -0.015621  -0.000308
    12  H   -0.016967   0.000708   0.009301  -0.020042   0.356487  -0.001380
    13  H   -0.008373  -0.009576   0.002677  -0.012307   0.327641   0.001483
               7          8          9         10         11         12
     1  C   -0.058592   0.000708  -0.009576   0.001485   0.005951  -0.016967
     2  C    0.408398  -0.016967  -0.008373   0.001485   0.005951   0.000708
     3  C   -0.062807   0.356487   0.327640  -0.019952  -0.015621   0.009301
     4  C    0.007170  -0.020042  -0.012307   0.354869   0.349478  -0.020042
     5  C    0.013830   0.009301   0.002678  -0.019952  -0.015621   0.356487
     6  H   -0.009229  -0.000374  -0.000423  -0.000192  -0.000308  -0.001380
     7  H    0.638438  -0.001380   0.001483  -0.000192  -0.000308  -0.000374
     8  H   -0.001380   0.637883  -0.036329  -0.014547   0.002609   0.000016
     9  H    0.001483  -0.036329   0.649420   0.007755  -0.010158  -0.000754
    10  H   -0.000192  -0.014547   0.007755   0.646079  -0.031229  -0.014547
    11  H   -0.000308   0.002609  -0.010158  -0.031229   0.639278   0.002609
    12  H   -0.000374   0.000016  -0.000754  -0.014547   0.002609   0.637884
    13  H   -0.000423  -0.000754   0.003430   0.007755  -0.010158  -0.036329
              13
     1  C   -0.008373
     2  C   -0.009576
     3  C    0.002677
     4  C   -0.012307
     5  C    0.327641
     6  H    0.001483
     7  H   -0.000423
     8  H   -0.000754
     9  H    0.003430
    10  H    0.007755
    11  H   -0.010158
    12  H   -0.036329
    13  H    0.649419
 Mulliken charges:
               1
     1  C   -0.131064
     2  C   -0.131065
     3  C   -0.103813
     4  C   -0.154727
     5  C   -0.103813
     6  H    0.063985
     7  H    0.063985
     8  H    0.083388
     9  H    0.085513
    10  H    0.081183
    11  H    0.077527
    12  H    0.083388
    13  H    0.085513
 Sum of Mulliken charges =  -0.00000
 Mulliken charges with hydrogens summed into heavy atoms:
               1
     1  C   -0.067079
     2  C   -0.067080
     3  C    0.065088
     4  C    0.003983
     5  C    0.065088
 Electronic spatial extent (au):  <R**2>=            377.8246
 Charge=             -0.0000 electrons
 Dipole moment (field-independent basis, Debye):
    X=             -0.0000    Y=             -0.1233    Z=              0.0794  Tot=              0.1466
 Quadrupole moment (field-independent basis, Debye-Ang):
   XX=            -31.0302   YY=            -31.6275   ZZ=            -32.6474
   XY=             -0.0000   XZ=              0.0000   YZ=             -0.1150
 Traceless Quadrupole moment (field-independent basis, Debye-Ang):
   XX=              0.7381   YY=              0.1408   ZZ=             -0.8790
   XY=             -0.0000   XZ=              0.0000   YZ=             -0.1150
 Octapole moment (field-independent basis, Debye-Ang**2):
  XXX=              0.0000  YYY=              2.5822  ZZZ=              0.5807  XYY=             -0.0000
  XXY=              1.7449  XXZ=             -0.6309  XZZ=             -0.0000  YZZ=             -2.5339
  YYZ=             -0.1027  XYZ=             -0.0000
 Hexadecapole moment (field-independent basis, Debye-Ang**3):
 XXXX=           -235.8544 YYYY=           -225.6370 ZZZZ=            -58.0847 XXXY=              0.0001
 XXXZ=              0.0000 YYYX=             -0.0000 YYYZ=             -2.3162 ZZZX=              0.0000
 ZZZY=              0.7138 XXYY=            -74.9243 XXZZ=            -47.8736 YYZZ=            -50.1394
 XXYZ=              0.2901 YYXZ=             -0.0000 ZZXY=             -0.0000
 N-N= 1.706116933164D+02 E-N=-7.919442344651D+02  KE= 1.929591303202D+02
 Unable to Open any file for archive entry.
 1\1\GINC-NODE02\FOpt\RB3LYP\def2SVPP\C5H8\XUHJ\22-Dec-2023\0\\#N opt f
 req B3LYP/def2SVPP symm=veryloose em=gd3bj scale=0.961 press=0.987\\C1
 =CCCC1_1\\0,1\C,-0.8131337174,0.9039506164,0.0755046696\C,0.5116687984
 ,1.0993005767,0.0724228848\C,1.2724038073,-0.1961188148,-0.1024435517\
 C,0.1849988788,-1.2741414525,0.1408753605\C,-1.1683761774,-0.556025222
 ,-0.0967710393\H,-1.565042358,1.6965601708,0.1473695911\H,1.0031212234
 ,2.0752504217,0.141397057\H,2.1289903562,-0.2940783986,0.5891660193\H,
 1.6941206733,-0.2598418946,-1.1265566396\H,0.2368379669,-1.6091391794,
 1.1915705754\H,0.3151724062,-2.1669289101,-0.4926814067\H,-1.957074210
 8,-0.8965927548,0.5986635594\H,-1.5584076468,-0.7394451589,-1.11899707
 97\\Version=ES64L-G16RevC.01\State=1-A\HF=-195.1859526\RMSD=7.661e-09\
 RMSF=2.217e-06\Dipole=0.0069488,-0.0476278,-0.0318102\Quadrupole=0.539
 2303,0.1121773,-0.6514076,0.0645965,-0.0164844,0.0928801\PG=C01 [X(C5H
 8)]\\@
 The archive entry for this job was punched.


 TO DRY ONE'S EYES AND LAUGH AT A FALL
 AND BAFFLED, GET UP AND BEGIN AGAIN.
           R. BROWNING
 Job cpu time:       0 days  0 hours  7 minutes  7.6 seconds.
 Elapsed time:       0 days  0 hours  0 minutes 30.0 seconds.
 File lengths (MBytes):  RWF=     22 Int=      0 D2E=      0 Chk=      3 Scr=      2
 Normal termination of Gaussian 16 at Fri Dec 22 15:35:05 2023.
 Link1:  Proceeding to internal job step number  2.
 --------------------------------------------------------------------
 #N Geom=AllCheck Guess=TCheck SCRF=Check GenChk RB3LYP/def2SVPP Freq
 --------------------------------------------------------------------
 1/10=4,29=7,30=1,38=1,40=1,113=-987000,114=961000/1,3;
 2/12=2,17=2,18=2,40=1/2;
 3/5=43,7=202,11=2,14=-4,25=1,30=1,70=2,71=2,74=-5,116=1,124=41,140=1/1,2,3;
 4/5=101/1;
 5/5=2,38=6,98=1/2;
 8/6=4,10=90,11=11/1;
 11/6=1,8=1,9=11,15=111,16=1/1,2,10;
 10/6=1/2;
 6/7=2,8=2,9=2,10=2,28=1/1;
 7/8=1,10=1,25=1/1,2,3,16;
 1/10=4,30=1/3;
 99//99;
 Structure from the checkpoint file:  "/home/software/g16/scr/Gau-97648.chk"
 ----------
 C1=CCCC1_1
 ----------
 Charge =  0 Multiplicity = 1
 Redundant internal coordinates found in file.  (old form).
 C,0,-0.8131337174,0.9039506164,0.0755046696
 C,0,0.5116687984,1.0993005767,0.0724228848
 C,0,1.2724038073,-0.1961188148,-0.1024435517
 C,0,0.1849988788,-1.2741414525,0.1408753605
 C,0,-1.1683761774,-0.556025222,-0.0967710393
 H,0,-1.565042358,1.6965601708,0.1473695911
 H,0,1.0031212234,2.0752504217,0.141397057
 H,0,2.1289903562,-0.2940783986,0.5891660193
 H,0,1.6941206733,-0.2598418946,-1.1265566396
 H,0,0.2368379669,-1.6091391794,1.1915705754
 H,0,0.3151724062,-2.1669289101,-0.4926814067
 H,0,-1.9570742108,-0.8965927548,0.5986635594
 H,0,-1.5584076468,-0.7394451589,-1.1189970797
 Recover connectivity data from disk.

 GradGradGradGradGradGradGradGradGradGradGradGradGradGradGradGradGradGrad
 Berny optimization.
 Initialization pass.
                           ----------------------------
                           !    Initial Parameters    !
                           ! (Angstroms and Degrees)  !
 --------------------------                            --------------------------
 ! Name  Definition              Value          Derivative Info.                !
 --------------------------------------------------------------------------------
 ! R1    R(1,2)                  1.3391         calculate D2E/DX2 analytically  !
 ! R2    R(1,5)                  1.5124         calculate D2E/DX2 analytically  !
 ! R3    R(1,6)                  1.0949         calculate D2E/DX2 analytically  !
 ! R4    R(2,3)                  1.5124         calculate D2E/DX2 analytically  !
 ! R5    R(2,7)                  1.0949         calculate D2E/DX2 analytically  !
 ! R6    R(3,4)                  1.5504         calculate D2E/DX2 analytically  !
 ! R7    R(3,8)                  1.1053         calculate D2E/DX2 analytically  !
 ! R8    R(3,9)                  1.1094         calculate D2E/DX2 analytically  !
 ! R9    R(4,5)                  1.5504         calculate D2E/DX2 analytically  !
 ! R10   R(4,10)                 1.104          calculate D2E/DX2 analytically  !
 ! R11   R(4,11)                 1.1025         calculate D2E/DX2 analytically  !
 ! R12   R(5,12)                 1.1053         calculate D2E/DX2 analytically  !
 ! R13   R(5,13)                 1.1094         calculate D2E/DX2 analytically  !
 ! A1    A(2,1,5)              111.8963         calculate D2E/DX2 analytically  !
 ! A2    A(2,1,6)              125.026          calculate D2E/DX2 analytically  !
 ! A3    A(5,1,6)              123.0242         calculate D2E/DX2 analytically  !
 ! A4    A(1,2,3)              111.8964         calculate D2E/DX2 analytically  !
 ! A5    A(1,2,7)              125.0261         calculate D2E/DX2 analytically  !
 ! A6    A(3,2,7)              123.0241         calculate D2E/DX2 analytically  !
 ! A7    A(2,3,4)              102.9808         calculate D2E/DX2 analytically  !
 ! A8    A(2,3,8)              113.1649         calculate D2E/DX2 analytically  !
 ! A9    A(2,3,9)              110.3125         calculate D2E/DX2 analytically  !
 ! A10   A(4,3,8)              112.5646         calculate D2E/DX2 analytically  !
 ! A11   A(4,3,9)              111.8114         calculate D2E/DX2 analytically  !
 ! A12   A(8,3,9)              106.1374         calculate D2E/DX2 analytically  !
 ! A13   A(3,4,5)              105.4335         calculate D2E/DX2 analytically  !
 ! A14   A(3,4,10)             109.1114         calculate D2E/DX2 analytically  !
 ! A15   A(3,4,11)             112.959          calculate D2E/DX2 analytically  !
 ! A16   A(5,4,10)             109.1114         calculate D2E/DX2 analytically  !
 ! A17   A(5,4,11)             112.959          calculate D2E/DX2 analytically  !
 ! A18   A(10,4,11)            107.1964         calculate D2E/DX2 analytically  !
 ! A19   A(1,5,4)              102.9808         calculate D2E/DX2 analytically  !
 ! A20   A(1,5,12)             113.1649         calculate D2E/DX2 analytically  !
 ! A21   A(1,5,13)             110.3126         calculate D2E/DX2 analytically  !
 ! A22   A(4,5,12)             112.5645         calculate D2E/DX2 analytically  !
 ! A23   A(4,5,13)             111.8115         calculate D2E/DX2 analytically  !
 ! A24   A(12,5,13)            106.1375         calculate D2E/DX2 analytically  !
 ! D1    D(5,1,2,3)             -0.0002         calculate D2E/DX2 analytically  !
 ! D2    D(5,1,2,7)            177.3998         calculate D2E/DX2 analytically  !
 ! D3    D(6,1,2,3)           -177.3999         calculate D2E/DX2 analytically  !
 ! D4    D(6,1,2,7)              0.0001         calculate D2E/DX2 analytically  !
 ! D5    D(2,1,5,4)             13.4315         calculate D2E/DX2 analytically  !
 ! D6    D(2,1,5,12)           135.2311         calculate D2E/DX2 analytically  !
 ! D7    D(2,1,5,13)          -106.0347         calculate D2E/DX2 analytically  !
 ! D8    D(6,1,5,4)           -169.1082         calculate D2E/DX2 analytically  !
 ! D9    D(6,1,5,12)           -47.3085         calculate D2E/DX2 analytically  !
 ! D10   D(6,1,5,13)            71.4256         calculate D2E/DX2 analytically  !
 ! D11   D(1,2,3,4)            -13.4312         calculate D2E/DX2 analytically  !
 ! D12   D(1,2,3,8)           -135.231          calculate D2E/DX2 analytically  !
 ! D13   D(1,2,3,9)            106.0349         calculate D2E/DX2 analytically  !
 ! D14   D(7,2,3,4)            169.1082         calculate D2E/DX2 analytically  !
 ! D15   D(7,2,3,8)             47.3084         calculate D2E/DX2 analytically  !
 ! D16   D(7,2,3,9)            -71.4257         calculate D2E/DX2 analytically  !
 ! D17   D(2,3,4,5)             20.842          calculate D2E/DX2 analytically  !
 ! D18   D(2,3,4,10)           -96.2311         calculate D2E/DX2 analytically  !
 ! D19   D(2,3,4,11)           144.6514         calculate D2E/DX2 analytically  !
 ! D20   D(8,3,4,5)            143.0469         calculate D2E/DX2 analytically  !
 ! D21   D(8,3,4,10)            25.9738         calculate D2E/DX2 analytically  !
 ! D22   D(8,3,4,11)           -93.1437         calculate D2E/DX2 analytically  !
 ! D23   D(9,3,4,5)            -97.5803         calculate D2E/DX2 analytically  !
 ! D24   D(9,3,4,10)           145.3466         calculate D2E/DX2 analytically  !
 ! D25   D(9,3,4,11)            26.2291         calculate D2E/DX2 analytically  !
 ! D26   D(3,4,5,1)            -20.8421         calculate D2E/DX2 analytically  !
 ! D27   D(3,4,5,12)          -143.0468         calculate D2E/DX2 analytically  !
 ! D28   D(3,4,5,13)            97.5804         calculate D2E/DX2 analytically  !
 ! D29   D(10,4,5,1)            96.231          calculate D2E/DX2 analytically  !
 ! D30   D(10,4,5,12)          -25.9737         calculate D2E/DX2 analytically  !
 ! D31   D(10,4,5,13)         -145.3465         calculate D2E/DX2 analytically  !
 ! D32   D(11,4,5,1)          -144.6515         calculate D2E/DX2 analytically  !
 ! D33   D(11,4,5,12)           93.1437         calculate D2E/DX2 analytically  !
 ! D34   D(11,4,5,13)          -26.2291         calculate D2E/DX2 analytically  !
 --------------------------------------------------------------------------------
 Trust Radius=3.00D-01 FncErr=1.00D-07 GrdErr=1.00D-07 EigMax=2.50D+02 EigMin=1.00D-04
 Number of steps in this run=      2 maximum allowed number of steps=      2.
 GradGradGradGradGradGradGradGradGradGradGradGradGradGradGradGradGradGrad

                          Input orientation:                          
 ---------------------------------------------------------------------
 Center     Atomic      Atomic             Coordinates (Angstroms)
 Number     Number       Type             X           Y           Z
 ---------------------------------------------------------------------
      1          6           0       -0.813134    0.903951    0.075505
      2          6           0        0.511669    1.099301    0.072423
      3          6           0        1.272404   -0.196119   -0.102444
      4          6           0        0.184999   -1.274141    0.140875
      5          6           0       -1.168376   -0.556025   -0.096771
      6          1           0       -1.565042    1.696560    0.147370
      7          1           0        1.003121    2.075250    0.141397
      8          1           0        2.128990   -0.294078    0.589166
      9          1           0        1.694121   -0.259842   -1.126557
     10          1           0        0.236838   -1.609139    1.191571
     11          1           0        0.315172   -2.166929   -0.492681
     12          1           0       -1.957074   -0.896593    0.598664
     13          1           0       -1.558408   -0.739445   -1.118997
 ---------------------------------------------------------------------
                    Distance matrix (angstroms):
                    1          2          3          4          5
     1  C    0.000000
     2  C    1.339131   0.000000
     3  C    2.364590   1.512418   0.000000
     4  C    2.396795   2.396795   1.550415   0.000000
     5  C    1.512417   2.364589   2.467179   1.550416   0.000000
     6  H    1.094879   2.162190   3.419904   3.447862   2.300237
     7  H    2.162190   1.094879   2.300237   3.447862   3.419903
     8  H    3.217952   2.196419   1.105287   2.222744   3.378128
     9  H    3.014248   2.164027   1.109375   2.216447   3.056480
    10  H    2.943410   2.943411   2.177957   1.104025   2.177958
    11  H    3.320574   3.320574   2.225459   1.102456   2.225460
    12  H    2.196418   3.217951   3.378127   2.222744   1.105287
    13  H    2.164028   3.014247   3.056481   2.216449   1.109375
                    6          7          8          9         10
     6  H    0.000000
     7  H    2.595940   0.000000
     8  H    4.219444   2.661165   0.000000
     9  H    4.009057   2.745513   1.770307   0.000000
    10  H    3.907016   3.907017   2.381705   3.052538   0.000000
    11  H    4.344125   4.344124   2.822747   2.437268   1.775942
    12  H    2.661165   4.219443   4.130259   4.088161   2.381704
    13  H    2.745515   4.009057   4.088163   3.287707   3.052539
                   11         12         13
    11  H    0.000000
    12  H    2.822746   0.000000
    13  H    2.437270   1.770307   0.000000
 This structure is nearly, but not quite of a higher symmetry.
 Consider Symm=Loose if the higher symmetry is desired.
 Stoichiometry    C5H8
 Framework group  CS[SG(CH2),X(C4H6)]
 Deg. of freedom    18
 Full point group                 CS      NOp   2
 Largest Abelian subgroup         CS      NOp   2
 Largest concise Abelian subgroup CS      NOp   2
                         Standard orientation:                         
 ---------------------------------------------------------------------
 Center     Atomic      Atomic             Coordinates (Angstroms)
 Number     Number       Type             X           Y           Z
 ---------------------------------------------------------------------
      1          6           0       -0.171872    1.062357   -0.669689
      2          6           0       -0.171872    1.062357    0.669689
      3          6           0        0.141654   -0.304965    1.233838
      4          6           0       -0.000000   -1.232643    0.000000
      5          6           0        0.141654   -0.304965   -1.233838
      6          1           0       -0.333704    1.944114   -1.298239
      7          1           0       -0.333704    1.944114    1.298239
      8          1           0       -0.526843   -0.598176    2.063778
      9          1           0        1.171297   -0.322228    1.646452
     10          1           0       -1.009606   -1.679366    0.000000
     11          1           0        0.724210   -2.063864    0.000000
     12          1           0       -0.526843   -0.598176   -2.063778
     13          1           0        1.171297   -0.322228   -1.646452
 ---------------------------------------------------------------------
 Rotational constants (GHZ):           7.2729306           7.1914163           3.9266382
 Standard basis: def2SVPP (5D, 7F)
 There are    51 symmetry adapted cartesian basis functions of A'  symmetry.
 There are    40 symmetry adapted cartesian basis functions of A"  symmetry.
 There are    48 symmetry adapted basis functions of A'  symmetry.
 There are    38 symmetry adapted basis functions of A"  symmetry.
    86 basis functions,   157 primitive gaussians,    91 cartesian basis functions
    19 alpha electrons       19 beta electrons
       nuclear repulsion energy       170.6374709626 Hartrees.
 NAtoms=   13 NActive=   13 NUniq=    8 SFac= 2.64D+00 NAtFMM=   60 NAOKFM=F Big=F
 Integral buffers will be    131072 words long.
 Raffenetti 2 integral format.
 Two-electron integral symmetry is turned on.
 Nuclear repulsion after empirical dispersion term =      170.6204647653 Hartrees.
 One-electron integrals computed using PRISM.
   2 Symmetry operations used in ECPInt.
 ECPInt:  NShTT=    1081 NPrTT=    4367 LenC2=    1082 LenP2D=    3752.
 LDataN:  DoStor=T MaxTD1= 4 Len=   56
 NBasis=    86 RedAO= T EigKep=  1.23D-03  NBF=    48    38
 NBsUse=    86 1.00D-06 EigRej= -1.00D+00 NBFU=    48    38
 Initial guess from the checkpoint file:  "/home/software/g16/scr/Gau-97648.chk"
 B after Tr=    -0.001319   -0.000148    0.000000
         Rot=    0.705938    0.040635   -0.705938   -0.040643 Ang=  90.19 deg.
 Initial guess orbital symmetries:
       Occupied  (A") (A') (A') (A') (A") (A') (A') (A") (A') (A")
                 (A') (A') (A") (A') (A') (A") (A') (A") (A')
       Virtual   (A") (A') (A') (A') (A") (A') (A") (A") (A') (A')
                 (A") (A') (A") (A") (A') (A') (A') (A') (A") (A")
                 (A') (A') (A") (A') (A") (A') (A") (A') (A') (A")
                 (A') (A") (A') (A") (A') (A") (A') (A") (A') (A")
                 (A') (A") (A") (A') (A') (A') (A") (A') (A") (A')
                 (A') (A") (A') (A") (A') (A') (A") (A") (A') (A')
                 (A") (A") (A') (A') (A") (A") (A")
 Requested convergence on RMS density matrix=1.00D-08 within 128 cycles.
 Requested convergence on MAX density matrix=1.00D-06.
 Requested convergence on             energy=1.00D-06.
 No special actions if energy rises.
 SCF Done:  E(RB3LYP) =  -195.185949308     A.U. after    8 cycles
            NFock=  8  Conv=0.32D-08     -V/T= 2.0115
 DoSCS=F DFT=T ScalE2(SS,OS)=  1.000000  1.000000
 Range of M.O.s used for correlation:     1    86
 NBasis=    86 NAE=    19 NBE=    19 NFC=     0 NFV=     0
 NROrb=     86 NOA=    19 NOB=    19 NVA=    67 NVB=    67

 **** Warning!!: The largest alpha MO coefficient is  0.10931353D+02

   2 Symmetry operations used in ECPInt.
 ECPInt:  NShTT=    1081 NPrTT=    4367 LenC2=    1082 LenP2D=    3752.
 LDataN:  DoStor=T MaxTD1= 5 Len=  102
 Symmetrizing basis deriv contribution to polar:
 IMax=3 JMax=2 DiffMx= 0.00D+00
 G2DrvN: will do    14 centers at a time, making    1 passes.
 Calling FoFCou, ICntrl=  3107 FMM=F I1Cent=   0 AccDes= 0.00D+00.
 End of G2Drv F.D. properties file   721 does not exist.
 End of G2Drv F.D. properties file   722 does not exist.
 End of G2Drv F.D. properties file   788 does not exist.
          IDoAtm=1111111111111
          Differentiating once with respect to electric field.
                with respect to dipole field.
          Differentiating once with respect to nuclear coordinates.
 Keep R1 ints in memory in symmetry-blocked form, NReq=21597371.
          There are    27 degrees of freedom in the 1st order CPHF.  IDoFFX=4 NUNeed=    27.
     27 vectors produced by pass  0 Test12= 4.71D-15 3.70D-09 XBig12= 5.80D+01 5.72D+00.
 AX will form    27 AO Fock derivatives at one time.
     27 vectors produced by pass  1 Test12= 4.71D-15 3.70D-09 XBig12= 1.44D+01 1.28D+00.
     27 vectors produced by pass  2 Test12= 4.71D-15 3.70D-09 XBig12= 1.35D-01 6.53D-02.
     27 vectors produced by pass  3 Test12= 4.71D-15 3.70D-09 XBig12= 8.05D-04 4.64D-03.
     27 vectors produced by pass  4 Test12= 4.71D-15 3.70D-09 XBig12= 1.62D-06 2.04D-04.
     16 vectors produced by pass  5 Test12= 4.71D-15 3.70D-09 XBig12= 1.18D-09 5.22D-06.
      3 vectors produced by pass  6 Test12= 4.71D-15 3.70D-09 XBig12= 9.14D-13 1.43D-07.
      1 vectors produced by pass  7 Test12= 4.71D-15 3.70D-09 XBig12= 8.76D-16 4.70D-09.
 InvSVY:  IOpt=1 It=  1 EMax= 3.55D-15
 Solved reduced A of dimension   155 with    27 vectors.
 Isotropic polarizability for W=    0.000000       50.30 Bohr**3.
 End of Minotr F.D. properties file   721 does not exist.
 End of Minotr F.D. properties file   722 does not exist.
 End of Minotr F.D. properties file   788 does not exist.

 **********************************************************************

            Population analysis using the SCF Density.

 **********************************************************************

 Orbital symmetries:
       Occupied  (A") (A') (A') (A') (A") (A') (A') (A") (A') (A")
                 (A') (A') (A") (A') (A') (A") (A') (A") (A')
       Virtual   (A") (A') (A') (A') (A") (A') (A") (A") (A') (A')
                 (A") (A') (A") (A") (A') (A') (A') (A') (A") (A")
                 (A') (A') (A") (A') (A") (A') (A") (A') (A') (A")
                 (A') (A") (A') (A") (A') (A") (A') (A") (A') (A")
                 (A') (A") (A") (A') (A') (A') (A") (A') (A") (A')
                 (A') (A") (A') (A") (A') (A') (A") (A") (A') (A')
                 (A") (A") (A') (A') (A") (A") (A")
 The electronic state is 1-A'.
 Alpha  occ. eigenvalues --  -10.17961 -10.17960 -10.17747 -10.17686 -10.17614
 Alpha  occ. eigenvalues --   -0.83110  -0.69680  -0.69508  -0.56563  -0.52185
 Alpha  occ. eigenvalues --   -0.49499  -0.46483  -0.39700  -0.37924  -0.35044
 Alpha  occ. eigenvalues --   -0.34942  -0.34236  -0.34119  -0.24115
 Alpha virt. eigenvalues --    0.02030   0.05893   0.08990   0.10269   0.10376
 Alpha virt. eigenvalues --    0.13030   0.13607   0.14905   0.18151   0.18520
 Alpha virt. eigenvalues --    0.20011   0.27026   0.31470   0.39160   0.39831
 Alpha virt. eigenvalues --    0.43317   0.46918   0.48547   0.49868   0.50649
 Alpha virt. eigenvalues --    0.53787   0.58475   0.60519   0.62487   0.62678
 Alpha virt. eigenvalues --    0.63941   0.64976   0.67613   0.68971   0.69328
 Alpha virt. eigenvalues --    0.70795   0.71638   0.72412   0.73634   0.74868
 Alpha virt. eigenvalues --    0.76668   0.80402   0.83935   0.94787   1.01089
 Alpha virt. eigenvalues --    1.10832   1.17834   1.44359   1.46204   1.51252
 Alpha virt. eigenvalues --    1.67871   1.74157   1.79112   1.82599   1.87068
 Alpha virt. eigenvalues --    1.89747   1.94964   1.96053   2.00938   2.04707
 Alpha virt. eigenvalues --    2.12524   2.16054   2.29744   2.32465   2.37958
 Alpha virt. eigenvalues --    2.41758   2.43649   2.50774   2.58064   2.61827
 Alpha virt. eigenvalues --    2.81424   2.88302
          Condensed to atoms (all electrons):
               1          2          3          4          5          6
     1  C    4.917257   0.643023  -0.004094  -0.065454   0.317455   0.408422
     2  C    0.643023   4.917257   0.317455  -0.065454  -0.004094  -0.058589
     3  C   -0.004094   0.317455   4.887641   0.431448  -0.140397   0.013816
     4  C   -0.065454  -0.065454   0.431448   4.768933   0.431448   0.007178
     5  C    0.317455  -0.004094  -0.140397   0.431448   4.887641  -0.062815
     6  H    0.408422  -0.058589   0.013816   0.007178  -0.062815   0.638421
     7  H   -0.058589   0.408422  -0.062815   0.007178   0.013816  -0.009217
     8  H    0.000681  -0.016947   0.356585  -0.020035   0.009267  -0.000372
     9  H   -0.009527  -0.008441   0.327509  -0.012327   0.002694  -0.000425
    10  H    0.001482   0.001482  -0.019838   0.354414  -0.019838  -0.000196
    11  H    0.005912   0.005912  -0.015536   0.349643  -0.015536  -0.000307
    12  H   -0.016947   0.000681   0.009267  -0.020035   0.356585  -0.001376
    13  H   -0.008441  -0.009527   0.002694  -0.012327   0.327509   0.001473
               7          8          9         10         11         12
     1  C   -0.058589   0.000681  -0.009527   0.001482   0.005912  -0.016947
     2  C    0.408422  -0.016947  -0.008441   0.001482   0.005912   0.000681
     3  C   -0.062815   0.356585   0.327509  -0.019838  -0.015536   0.009267
     4  C    0.007178  -0.020035  -0.012327   0.354414   0.349643  -0.020035
     5  C    0.013816   0.009267   0.002694  -0.019838  -0.015536   0.356585
     6  H   -0.009217  -0.000372  -0.000425  -0.000196  -0.000307  -0.001376
     7  H    0.638421  -0.001376   0.001473  -0.000196  -0.000307  -0.000372
     8  H   -0.001376   0.637774  -0.036357  -0.014622   0.002634   0.000022
     9  H    0.001473  -0.036357   0.649796   0.007770  -0.010185  -0.000755
    10  H   -0.000196  -0.014622   0.007770   0.646623  -0.031202  -0.014622
    11  H   -0.000307   0.002634  -0.010185  -0.031202   0.638784   0.002634
    12  H   -0.000372   0.000022  -0.000755  -0.014622   0.002634   0.637774
    13  H   -0.000425  -0.000755   0.003400   0.007770  -0.010185  -0.036357
              13
     1  C   -0.008441
     2  C   -0.009527
     3  C    0.002694
     4  C   -0.012327
     5  C    0.327509
     6  H    0.001473
     7  H   -0.000425
     8  H   -0.000755
     9  H    0.003400
    10  H    0.007770
    11  H   -0.010185
    12  H   -0.036357
    13  H    0.649796
 Mulliken charges:
               1
     1  C   -0.131180
     2  C   -0.131180
     3  C   -0.103735
     4  C   -0.154613
     5  C   -0.103735
     6  H    0.063987
     7  H    0.063987
     8  H    0.083503
     9  H    0.085376
    10  H    0.080974
    11  H    0.077738
    12  H    0.083503
    13  H    0.085376
 Sum of Mulliken charges =   0.00000
 Mulliken charges with hydrogens summed into heavy atoms:
               1
     1  C   -0.067194
     2  C   -0.067194
     3  C    0.065144
     4  C    0.004099
     5  C    0.065144
 APT charges:
               1
     1  C   -0.031130
     2  C   -0.031130
     3  C    0.089096
     4  C    0.081507
     5  C    0.089096
     6  H    0.019180
     7  H    0.019180
     8  H   -0.033323
     9  H   -0.049537
    10  H   -0.037866
    11  H   -0.032215
    12  H   -0.033323
    13  H   -0.049537
 Sum of APT charges =   0.00000
 APT charges with hydrogens summed into heavy atoms:
               1
     1  C   -0.011950
     2  C   -0.011950
     3  C    0.006237
     4  C    0.011426
     5  C    0.006237
 Electronic spatial extent (au):  <R**2>=            377.8244
 Charge=             -0.0000 electrons
 Dipole moment (field-independent basis, Debye):
    X=              0.0911    Y=             -0.1146    Z=             -0.0000  Tot=              0.1464
 Quadrupole moment (field-independent basis, Debye-Ang):
   XX=            -32.6093   YY=            -31.6668   ZZ=            -31.0288
   XY=             -0.2258   XZ=             -0.0000   YZ=             -0.0000
 Traceless Quadrupole moment (field-independent basis, Debye-Ang):
   XX=             -0.8410   YY=              0.1015   ZZ=              0.7395
   XY=             -0.2258   XZ=             -0.0000   YZ=             -0.0000
 Octapole moment (field-independent basis, Debye-Ang**2):
  XXX=              1.4792  YYY=              2.3962  ZZZ=             -0.0000  XYY=             -0.9228
  XXY=             -2.2947  XXZ=             -0.0000  XZZ=             -0.8109  YZZ=              1.6633
  YYZ=             -0.0000  XYZ=              0.0000
 Hexadecapole moment (field-independent basis, Debye-Ang**3):
 XXXX=            -60.7365 YYYY=           -224.7004 ZZZZ=           -235.9476 XXXY=             11.0533
 XXXZ=             -0.0000 YYYX=              6.4322 YYYZ=              0.0000 ZZZX=             -0.0000
 ZZZY=              0.0000 XXYY=            -49.2349 XXZZ=            -48.2910 YYZZ=            -74.5071
 XXYZ=              0.0000 YYXZ=             -0.0000 ZZXY=              3.3703
 N-N= 1.706204647653D+02 E-N=-7.919626933720D+02  KE= 1.929604603118D+02
 Symmetry A'   KE= 1.170131111001D+02
 Symmetry A"   KE= 7.594734921173D+01
  Exact polarizability:      38.785      -2.286      50.848       0.000      -0.000      61.257
 Approx polarizability:      56.080      -2.639      64.970      -0.000      -0.000      91.911
   2 Symmetry operations used in ECPInt.
 ECPInt:  NShTT=    1081 NPrTT=    4367 LenC2=    1082 LenP2D=    3752.
 LDataN:  DoStor=T MaxTD1= 6 Len=  172
 Calling FoFJK, ICntrl=    100127 FMM=F ISym2X=1 I1Cent= 0 IOpClX= 0 NMat=1 NMatS=1 NMatT=0.
 Full mass-weighted force constant matrix:
 Low frequencies ---  -13.7231   -9.9792   -0.0009    0.0007    0.0007    2.4281
 Low frequencies ---  150.8342  392.3095  609.6195
 Diagonal vibrational polarizability:
        2.7582188       0.4536184       0.7628890
 Harmonic frequencies (cm**-1), IR intensities (KM/Mole), Raman scattering
 activities (A**4/AMU), depolarization ratios for plane and unpolarized
 incident light, reduced masses (AMU), force constants (mDyne/A),
 and normal coordinates:
                      1                      2                      3
                     A'                     A"                     A'
 Frequencies --    150.8342               392.3088               609.6195
 Red. masses --      1.5801                 2.0250                 1.5890
 Frc consts  --      0.0212                 0.1836                 0.3479
 IR Inten    --      0.2476                 0.0822                10.8815
  Atom  AN      X      Y      Z        X      Y      Z        X      Y      Z
     1   6     0.06   0.02   0.00     0.20   0.04   0.01     0.02  -0.07  -0.00
     2   6     0.06   0.02  -0.00    -0.20  -0.04   0.01     0.02  -0.07   0.00
     3   6    -0.11  -0.00   0.03     0.05   0.01  -0.01     0.04   0.00   0.11
     4   6     0.13  -0.02   0.00     0.00   0.00   0.02     0.03   0.13  -0.00
     5   6    -0.11  -0.00  -0.03    -0.05  -0.01  -0.01     0.04   0.00  -0.11
     6   1     0.14   0.04   0.01     0.39   0.07   0.01    -0.32  -0.08   0.07
     7   1     0.14   0.04  -0.01    -0.39  -0.07   0.01    -0.32  -0.08  -0.07
     8   1    -0.33   0.03  -0.13     0.32  -0.13   0.15    -0.21  -0.00  -0.09
     9   1    -0.22  -0.05   0.30     0.16   0.24  -0.27    -0.07  -0.07   0.37
    10   1     0.27  -0.34  -0.00     0.00   0.00   0.09    -0.12   0.47  -0.00
    11   1     0.38   0.20  -0.00    -0.00   0.00  -0.00    -0.27  -0.13  -0.00
    12   1    -0.33   0.03   0.13    -0.32   0.13   0.15    -0.21  -0.00   0.09
    13   1    -0.22  -0.05  -0.30    -0.16  -0.24  -0.27    -0.07  -0.07  -0.37
                      4                      5                      6
                     A'                     A"                     A'
 Frequencies --    713.5174               780.3352               829.6609
 Red. masses --      1.3750                 5.1519                 1.6190
 Frc consts  --      0.4124                 1.8483                 0.6566
 IR Inten    --     27.8305                 0.1422                 0.2892
  Atom  AN      X      Y      Z        X      Y      Z        X      Y      Z
     1   6    -0.06  -0.06  -0.00    -0.02   0.26  -0.24    -0.04   0.06   0.00
     2   6    -0.06  -0.06   0.00     0.02  -0.26  -0.24    -0.04   0.06  -0.00
     3   6    -0.02   0.00   0.07     0.06  -0.17   0.12     0.02  -0.03  -0.12
     4   6     0.03   0.09   0.00    -0.00   0.00   0.18     0.10  -0.06   0.00
     5   6    -0.02   0.00  -0.07    -0.06   0.17   0.12     0.02  -0.03   0.12
     6   1     0.61   0.12   0.08     0.05   0.40  -0.05     0.20   0.00  -0.14
     7   1     0.61   0.12  -0.08    -0.05  -0.40  -0.05     0.20   0.00   0.14
     8   1     0.08  -0.16   0.09    -0.09   0.09   0.09    -0.18  -0.12  -0.31
     9   1     0.02   0.18  -0.01     0.00  -0.07   0.27    -0.10   0.07   0.18
    10   1    -0.01   0.17   0.00     0.00  -0.00   0.25    -0.12   0.42  -0.00
    11   1    -0.05   0.02   0.00     0.00   0.00  -0.16    -0.30  -0.40   0.00
    12   1     0.08  -0.16  -0.09     0.09  -0.09   0.09    -0.18  -0.12   0.31
    13   1     0.02   0.18   0.01    -0.00   0.07   0.27    -0.10   0.07  -0.18
                      7                      8                      9
                     A"                     A'                     A"
 Frequencies --    897.9608               915.5133               924.4973
 Red. masses --      1.5584                 2.9091                 1.6875
 Frc consts  --      0.7403                 1.4366                 0.8498
 IR Inten    --      3.4599                 0.4173                 6.8676
  Atom  AN      X      Y      Z        X      Y      Z        X      Y      Z
     1   6    -0.04   0.06   0.00     0.03  -0.07  -0.00    -0.00  -0.07  -0.05
     2   6     0.04  -0.06   0.00     0.03  -0.07   0.00     0.00   0.07  -0.05
     3   6    -0.11  -0.00  -0.06    -0.03  -0.05  -0.17    -0.04  -0.10   0.11
     4   6    -0.00  -0.00   0.10    -0.01   0.31   0.00    -0.00   0.00  -0.03
     5   6     0.11   0.00  -0.06    -0.03  -0.05   0.17     0.04   0.10   0.11
     6   1    -0.20   0.14   0.16    -0.05  -0.17  -0.10    -0.08  -0.28  -0.31
     7   1     0.20  -0.14   0.16    -0.05  -0.17   0.10     0.08   0.28  -0.31
     8   1     0.19   0.10   0.21    -0.02  -0.26  -0.24     0.20  -0.18   0.27
     9   1     0.04   0.02  -0.42    -0.01  -0.21  -0.22     0.09  -0.15  -0.22
    10   1     0.00  -0.00  -0.17     0.12   0.04   0.00     0.00  -0.00  -0.32
    11   1     0.00   0.00   0.47     0.20   0.51   0.00     0.00   0.00  -0.12
    12   1    -0.19  -0.10   0.21    -0.02  -0.26   0.24    -0.20   0.18   0.27
    13   1    -0.04  -0.02  -0.42    -0.01  -0.21   0.22    -0.09   0.15  -0.22
                     10                     11                     12
                     A"                     A'                     A"
 Frequencies --    974.9561               982.6537              1046.1315
 Red. masses --      1.2487                 2.4259                 1.7789
 Frc consts  --      0.6994                 1.3801                 1.1470
 IR Inten    --      0.1161                 0.6020                 1.9981
  Atom  AN      X      Y      Z        X      Y      Z        X      Y      Z
     1   6    -0.10  -0.03   0.00    -0.03   0.17  -0.04     0.03  -0.06   0.00
     2   6     0.10   0.03   0.00    -0.03   0.17   0.04    -0.03   0.06   0.00
     3   6    -0.01  -0.01  -0.00     0.01  -0.15   0.10     0.03  -0.09  -0.09
     4   6     0.00  -0.00   0.01     0.01   0.05   0.00     0.00   0.00   0.17
     5   6     0.01   0.01  -0.00     0.01  -0.15  -0.10    -0.03   0.09  -0.09
     6   1     0.66   0.11  -0.00    -0.08   0.22   0.02     0.01  -0.15  -0.13
     7   1    -0.66  -0.11  -0.00    -0.08   0.22  -0.02    -0.01   0.15  -0.13
     8   1     0.02   0.07   0.04     0.11  -0.52   0.04    -0.07  -0.31  -0.25
     9   1     0.02  -0.14  -0.08     0.05  -0.30  -0.03    -0.02  -0.31   0.02
    10   1    -0.00  -0.00  -0.06     0.04  -0.03   0.00    -0.00   0.00   0.31
    11   1    -0.00  -0.00   0.06     0.02   0.05   0.00     0.00  -0.00   0.49
    12   1    -0.02  -0.07   0.04     0.11  -0.52  -0.04     0.07   0.31  -0.25
    13   1    -0.02   0.14  -0.08     0.05  -0.30   0.03     0.02   0.31   0.02
                     13                     14                     15
                     A'                     A'                     A"
 Frequencies --   1071.6375              1115.8729              1152.5352
 Red. masses --      1.7255                 1.1049                 1.1840
 Frc consts  --      1.1675                 0.8106                 0.9266
 IR Inten    --      5.2622                 0.3625                 1.7292
  Atom  AN      X      Y      Z        X      Y      Z        X      Y      Z
     1   6    -0.08  -0.00  -0.00     0.01  -0.02   0.04    -0.07  -0.01  -0.01
     2   6    -0.08  -0.00   0.00     0.01  -0.02  -0.04     0.07   0.01  -0.01
     3   6     0.13   0.01  -0.01    -0.00   0.01  -0.04    -0.05  -0.02  -0.00
     4   6    -0.12   0.00   0.00     0.01  -0.02   0.00     0.00  -0.00   0.01
     5   6     0.13   0.01   0.01    -0.00   0.01   0.04     0.05   0.02  -0.00
     6   1     0.23   0.09   0.04    -0.09   0.34   0.59     0.03   0.02   0.00
     7   1     0.23   0.09  -0.04    -0.09   0.34  -0.59    -0.03  -0.02   0.00
     8   1    -0.20   0.20  -0.20    -0.01  -0.10  -0.09     0.09  -0.43  -0.04
     9   1     0.02  -0.35   0.26    -0.01  -0.02  -0.04    -0.05   0.47   0.03
    10   1     0.03  -0.33  -0.00    -0.01   0.03  -0.00     0.00   0.00   0.37
    11   1     0.16   0.25   0.00    -0.01  -0.04   0.00    -0.00   0.00  -0.14
    12   1    -0.20   0.20   0.20    -0.01  -0.10   0.09    -0.09   0.43  -0.04
    13   1     0.02  -0.35  -0.26    -0.01  -0.02   0.04     0.05  -0.47   0.03
                     16                     17                     18
                     A"                     A'                     A"
 Frequencies --   1225.9654              1230.4746              1309.8700
 Red. masses --      1.4234                 1.2197                 1.3335
 Frc consts  --      1.2605                 1.0880                 1.3480
 IR Inten    --      0.0032                 1.4899                 1.0817
  Atom  AN      X      Y      Z        X      Y      Z        X      Y      Z
     1   6    -0.02   0.06  -0.02     0.03  -0.00  -0.00    -0.01   0.03   0.05
     2   6     0.02  -0.06  -0.02     0.03  -0.00   0.00     0.01  -0.03   0.05
     3   6     0.04   0.06   0.06     0.03   0.02  -0.00     0.01  -0.09  -0.03
     4   6    -0.00  -0.00  -0.11    -0.12  -0.02   0.00    -0.00  -0.00  -0.06
     5   6    -0.04  -0.06   0.06     0.03   0.02   0.00    -0.01   0.09  -0.03
     6   1     0.02   0.02  -0.08    -0.07  -0.04  -0.03     0.06  -0.21  -0.30
     7   1    -0.02  -0.02  -0.08    -0.07  -0.04   0.03    -0.06   0.21  -0.30
     8   1     0.02  -0.32  -0.09     0.01  -0.39  -0.16    -0.03   0.37   0.10
     9   1     0.02   0.01   0.10    -0.04   0.46   0.22    -0.03   0.33   0.10
    10   1    -0.00  -0.00  -0.31    -0.02  -0.24  -0.00    -0.00   0.00   0.15
    11   1     0.00   0.00   0.78     0.07   0.14  -0.00     0.00   0.00   0.37
    12   1    -0.02   0.32  -0.09     0.01  -0.39   0.16     0.03  -0.37   0.10
    13   1    -0.02  -0.01   0.10    -0.04   0.46  -0.22     0.03  -0.33   0.10
                     19                     20                     21
                     A"                     A'                     A"
 Frequencies --   1328.4567              1339.2625              1384.3424
 Red. masses --      1.3033                 1.7403                 1.7211
 Frc consts  --      1.3552                 1.8391                 1.9433
 IR Inten    --      1.0316                 0.1524                 0.7326
  Atom  AN      X      Y      Z        X      Y      Z        X      Y      Z
     1   6    -0.00   0.06   0.01     0.00  -0.04  -0.03     0.03  -0.12  -0.07
     2   6     0.00  -0.06   0.01     0.00  -0.04   0.03    -0.03   0.12  -0.07
     3   6    -0.05   0.05   0.02    -0.02   0.16   0.02     0.01  -0.07   0.04
     4   6    -0.00  -0.00  -0.10     0.02  -0.07   0.00    -0.00  -0.00  -0.11
     5   6     0.05  -0.05   0.02    -0.02   0.16  -0.02    -0.01   0.07   0.04
     6   1    -0.01  -0.06  -0.16     0.03  -0.09  -0.10    -0.05   0.24   0.47
     7   1     0.01   0.06  -0.16     0.03  -0.09   0.10     0.05  -0.24   0.47
     8   1     0.02  -0.00   0.06     0.06  -0.46  -0.13     0.03   0.12   0.13
     9   1     0.02  -0.31  -0.17     0.02  -0.44  -0.10     0.00   0.01   0.07
    10   1    -0.00   0.00   0.81    -0.02  -0.00  -0.00    -0.00   0.00   0.38
    11   1     0.00   0.00   0.00    -0.03  -0.12  -0.00     0.00   0.00   0.41
    12   1    -0.02   0.00   0.06     0.06  -0.46   0.13    -0.03  -0.12   0.13
    13   1    -0.02   0.31  -0.17     0.02  -0.44   0.10    -0.00  -0.01   0.07
                     22                     23                     24
                     A'                     A"                     A'
 Frequencies --   1465.2047              1472.1173              1491.5080
 Red. masses --      1.0818                 1.0918                 1.1081
 Frc consts  --      1.3683                 1.3940                 1.4523
 IR Inten    --      1.5610                 2.0992                 2.1055
  Atom  AN      X      Y      Z        X      Y      Z        X      Y      Z
     1   6    -0.00  -0.00  -0.01     0.00   0.01   0.00     0.00   0.00   0.01
     2   6    -0.00  -0.00   0.01    -0.00  -0.01   0.00     0.00   0.00  -0.01
     3   6    -0.01   0.00  -0.04    -0.02   0.02  -0.06     0.01  -0.01   0.05
     4   6    -0.01  -0.06   0.00     0.00   0.00   0.00    -0.01  -0.06   0.00
     5   6    -0.01   0.00   0.04     0.02  -0.02  -0.06     0.01  -0.01  -0.05
     6   1    -0.00   0.01   0.01     0.00  -0.01  -0.03     0.00  -0.01  -0.02
     7   1    -0.00   0.01  -0.01    -0.00   0.01  -0.03     0.00  -0.01   0.02
     8   1     0.27  -0.01   0.20     0.41  -0.04   0.29    -0.31   0.00  -0.21
     9   1    -0.13  -0.09   0.29    -0.20  -0.15   0.43     0.15   0.09  -0.32
    10   1    -0.23   0.47  -0.00     0.00  -0.00  -0.01    -0.21   0.42  -0.00
    11   1     0.41   0.33  -0.00    -0.00  -0.00  -0.02     0.38   0.28  -0.00
    12   1     0.27  -0.01  -0.20    -0.41   0.04   0.29    -0.31   0.00   0.21
    13   1    -0.13  -0.09  -0.29     0.20   0.15   0.43     0.15   0.09   0.32
                     25                     26                     27
                     A'                     A'                     A"
 Frequencies --   1696.9885              2989.1294              2990.1675
 Red. masses --      6.1389                 1.0708                 1.0696
 Frc consts  --     10.4160                 5.6372                 5.6348
 IR Inten    --      1.4222                28.7348                52.9787
  Atom  AN      X      Y      Z        X      Y      Z        X      Y      Z
     1   6    -0.02   0.06   0.48    -0.00   0.00   0.00     0.00  -0.00   0.00
     2   6    -0.02   0.06  -0.48    -0.00   0.00  -0.00    -0.00   0.00   0.00
     3   6     0.00  -0.00   0.05    -0.04   0.00  -0.03    -0.04   0.01  -0.03
     4   6    -0.01   0.01  -0.00     0.01  -0.00  -0.00    -0.00  -0.00   0.00
     5   6     0.00  -0.00  -0.05    -0.04   0.00   0.03     0.04  -0.01  -0.03
     6   1     0.09  -0.41  -0.08     0.00  -0.01   0.01    -0.00   0.01  -0.01
     7   1     0.09  -0.41   0.08     0.00  -0.01  -0.01     0.00  -0.01  -0.01
     8   1     0.10  -0.19   0.06    -0.13  -0.05   0.14    -0.14  -0.06   0.16
     9   1    -0.02  -0.15   0.07     0.63  -0.01   0.24     0.63  -0.01   0.24
    10   1    -0.01   0.02   0.00    -0.03  -0.01   0.00     0.00   0.00   0.00
    11   1     0.03   0.04   0.00    -0.06   0.07   0.00    -0.00   0.00  -0.00
    12   1     0.10  -0.19  -0.06    -0.13  -0.05  -0.14     0.14   0.06   0.16
    13   1    -0.02  -0.15  -0.07     0.63  -0.01  -0.24    -0.63   0.01   0.24
                     28                     29                     30
                     A'                     A"                     A'
 Frequencies --   3034.4062              3047.5710              3053.7769
 Red. masses --      1.0753                 1.0962                 1.0850
 Frc consts  --      5.8336                 5.9984                 5.9617
 IR Inten    --      9.5871                26.8379                46.2212
  Atom  AN      X      Y      Z        X      Y      Z        X      Y      Z
     1   6     0.00   0.00  -0.00     0.00  -0.00   0.00    -0.00   0.00  -0.00
     2   6     0.00   0.00   0.00    -0.00   0.00   0.00    -0.00   0.00   0.00
     3   6     0.03   0.01  -0.02     0.05   0.01  -0.04     0.04   0.01  -0.03
     4   6    -0.04  -0.05   0.00    -0.00   0.00   0.00     0.01   0.04   0.00
     5   6     0.03   0.01   0.02    -0.05  -0.01  -0.04     0.04   0.01   0.03
     6   1    -0.00  -0.00   0.00    -0.00   0.01  -0.01     0.00  -0.02   0.01
     7   1    -0.00  -0.00  -0.00     0.00  -0.01  -0.01     0.00  -0.02  -0.01
     8   1    -0.22  -0.10   0.27    -0.41  -0.18   0.50    -0.34  -0.15   0.42
     9   1    -0.10   0.00  -0.04    -0.19   0.01  -0.08    -0.13   0.00  -0.06
    10   1     0.69   0.29  -0.00    -0.00  -0.00  -0.00    -0.37  -0.16   0.00
    11   1    -0.26   0.27  -0.00     0.00  -0.00  -0.00     0.27  -0.30  -0.00
    12   1    -0.22  -0.10  -0.27     0.41   0.18   0.50    -0.34  -0.15  -0.42
    13   1    -0.10   0.00   0.04     0.19  -0.01  -0.08    -0.13   0.00   0.06
                     31                     32                     33
                     A'                     A"                     A'
 Frequencies --   3093.7901              3169.7912              3193.4617
 Red. masses --      1.1057                 1.0855                 1.1044
 Frc consts  --      6.2357                 6.4263                 6.6357
 IR Inten    --     34.5948                 6.2498                20.8259
  Atom  AN      X      Y      Z        X      Y      Z        X      Y      Z
     1   6    -0.00   0.00  -0.00     0.01  -0.05   0.03     0.01  -0.05   0.04
     2   6    -0.00   0.00   0.00    -0.01   0.05   0.03     0.01  -0.05  -0.04
     3   6     0.01   0.00  -0.00    -0.00  -0.00   0.00    -0.00   0.00  -0.00
     4   6     0.09  -0.04  -0.00     0.00  -0.00  -0.00     0.00   0.00   0.00
     5   6     0.01   0.00   0.00     0.00   0.00   0.00    -0.00   0.00   0.00
     6   1    -0.00   0.00  -0.00    -0.11   0.57  -0.40    -0.10   0.57  -0.41
     7   1    -0.00   0.00   0.00     0.11  -0.57  -0.40    -0.10   0.57   0.41
     8   1    -0.05  -0.02   0.07     0.01   0.01  -0.01    -0.01  -0.01   0.02
     9   1    -0.09   0.00  -0.04    -0.00   0.00  -0.00     0.01  -0.00   0.00
    10   1    -0.47  -0.21  -0.00     0.00   0.00   0.00    -0.01  -0.00  -0.00
    11   1    -0.55   0.62   0.00    -0.00   0.00   0.00     0.01  -0.01  -0.00
    12   1    -0.05  -0.02  -0.07    -0.01  -0.01  -0.01    -0.01  -0.01  -0.02
    13   1    -0.09   0.00   0.04     0.00  -0.00  -0.00     0.01  -0.00  -0.00

 -------------------
 - Thermochemistry -
 -------------------
 Temperature   298.150 Kelvin.  Pressure   0.98700 Atm.
 Thermochemistry will use frequencies scaled by 0.9610.
 Atom     1 has atomic number  6 and mass  12.00000
 Atom     2 has atomic number  6 and mass  12.00000
 Atom     3 has atomic number  6 and mass  12.00000
 Atom     4 has atomic number  6 and mass  12.00000
 Atom     5 has atomic number  6 and mass  12.00000
 Atom     6 has atomic number  1 and mass   1.00783
 Atom     7 has atomic number  1 and mass   1.00783
 Atom     8 has atomic number  1 and mass   1.00783
 Atom     9 has atomic number  1 and mass   1.00783
 Atom    10 has atomic number  1 and mass   1.00783
 Atom    11 has atomic number  1 and mass   1.00783
 Atom    12 has atomic number  1 and mass   1.00783
 Atom    13 has atomic number  1 and mass   1.00783
 Molecular mass:    68.06260 amu.
 Principal axes and moments of inertia in atomic units:
                           1         2         3
     Eigenvalues --   248.14498 250.95769 459.61484
           X            0.00000  -0.11440   0.99344
           Y           -0.00000   0.99344   0.11440
           Z            1.00000   0.00000  -0.00000
 This molecule is an asymmetric top.
 Rotational symmetry number  1.
 Rotational temperatures (Kelvin)      0.34905     0.34513     0.18845
 Rotational constants (GHZ):           7.27293     7.19142     3.92664
 Zero-point vibrational energy     293578.1 (Joules/Mol)
                                   70.16684 (Kcal/Mol)
 Warning -- explicit consideration of   3 degrees of freedom as
           vibrations may cause significant error
 Vibrational temperatures:    208.55   542.43   842.90   986.56  1078.94
          (Kelvin)           1147.14  1241.58  1265.85  1278.27  1348.04
                             1358.68  1446.45  1481.72  1542.88  1593.57
                             1695.10  1701.33  1811.11  1836.81  1851.75
                             1914.08  2025.89  2035.44  2062.26  2346.37
                             4132.96  4134.40  4195.57  4213.77  4222.35
                             4277.67  4382.76  4415.49
 
 Zero-point correction=                           0.111818 (Hartree/Particle)
 Thermal correction to Energy=                    0.116592
 Thermal correction to Enthalpy=                  0.117536
 Thermal correction to Gibbs Free Energy=         0.084386
 Sum of electronic and zero-point Energies=           -195.074131
 Sum of electronic and thermal Energies=              -195.069357
 Sum of electronic and thermal Enthalpies=            -195.068413
 Sum of electronic and thermal Free Energies=         -195.101564
 
                     E (Thermal)             CV                S
                      KCal/Mol        Cal/Mol-Kelvin    Cal/Mol-Kelvin
 Total                   73.163             17.887             69.772
 Electronic               0.000              0.000              0.000
 Translational            0.889              2.981             38.597
 Rotational               0.889              2.981             24.863
 Vibrational             71.385             11.925              6.312
 Vibration     1          0.616              1.908              2.737
 Vibration     2          0.748              1.519              1.051
 Vibration     3          0.943              1.062              0.475
                       Q            Log10(Q)             Ln(Q)
 Total Bot       0.153236D-38        -38.814639        -89.374010
 Total V=0       0.414969D+13         12.618015         29.054054
 Vib (Bot)       0.113153D-50        -50.946335       -117.308271
 Vib (Bot)    1  0.140088D+01          0.146400          0.337099
 Vib (Bot)    2  0.480579D+00         -0.318235         -0.732764
 Vib (Bot)    3  0.258582D+00         -0.587401         -1.352541
 Vib (V=0)       0.306422D+01          0.486320          1.119794
 Vib (V=0)    1  0.198743D+01          0.298293          0.686844
 Vib (V=0)    2  0.119351D+01          0.076826          0.176899
 Vib (V=0)    3  0.106291D+01          0.026495          0.061008
 Electronic      0.100000D+01          0.000000          0.000000
 Translational   0.223614D+08          7.349500         16.922848
 Rotational      0.605614D+05          4.782196         11.011412
 ***** Axes restored to original set *****
 -------------------------------------------------------------------
 Center     Atomic                   Forces (Hartrees/Bohr)
 Number     Number              X              Y              Z
 -------------------------------------------------------------------
      1        6           0.000305030    0.000182106    0.000313391
      2        6          -0.000341747    0.000086725    0.000316399
      3        6           0.000105698   -0.000047212   -0.000574365
      4        6           0.000008850   -0.000040362    0.000623177
      5        6          -0.000092792   -0.000076484   -0.000573442
      6        1           0.000024507    0.000026281   -0.000049295
      7        1          -0.000031498    0.000018022   -0.000049035
      8        1          -0.000024879    0.000094481    0.000022193
      9        1           0.000102509   -0.000113465    0.000008009
     10        1           0.000024896   -0.000169319   -0.000015778
     11        1          -0.000012006    0.000079771   -0.000052136
     12        1          -0.000003252    0.000097671    0.000022093
     13        1          -0.000065315   -0.000138215    0.000008789
 -------------------------------------------------------------------
 Cartesian Forces:  Max     0.000623177 RMS     0.000204981
 FormGI is forming the generalized inverse of G from B-inverse, IUseBI=4.

 GradGradGradGradGradGradGradGradGradGradGradGradGradGradGradGradGradGrad
 Berny optimization.
 Internal  Forces:  Max     0.000281216 RMS     0.000084949
 Search for a local minimum.
 Step number   1 out of a maximum of    2
 All quantities printed in internal units (Hartrees-Bohrs-Radians)
 Second derivative matrix not updated -- analytic derivatives used.
 ITU=  0
     Eigenvalues ---    0.00126   0.00893   0.01229   0.01515   0.03011
     Eigenvalues ---    0.04041   0.04063   0.04441   0.04592   0.05394
     Eigenvalues ---    0.06255   0.06782   0.07110   0.08093   0.09285
     Eigenvalues ---    0.09469   0.10134   0.10832   0.19195   0.23039
     Eigenvalues ---    0.23758   0.25235   0.29918   0.29957   0.31770
     Eigenvalues ---    0.31927   0.32883   0.33141   0.33223   0.33793
     Eigenvalues ---    0.35718   0.35964   0.57668
 Angle between quadratic step and forces=  60.24 degrees.
 Linear search not attempted -- first point.
 Iteration  1 RMS(Cart)=  0.00226370 RMS(Int)=  0.00000319
 Iteration  2 RMS(Cart)=  0.00000382 RMS(Int)=  0.00000147
 Iteration  3 RMS(Cart)=  0.00000000 RMS(Int)=  0.00000147
 ClnCor:  largest displacement from symmetrization is 2.13D-11 for atom     7.
 Variable       Old X    -DE/DX   Delta X   Delta X   Delta X     New X
                                 (Linear)    (Quad)   (Total)
    R1        2.53106  -0.00028   0.00000  -0.00046  -0.00046   2.53060
    R2        2.85726   0.00020   0.00000   0.00078   0.00079   2.85804
    R3        2.06902  -0.00000   0.00000  -0.00000  -0.00000   2.06902
    R4        2.85726   0.00020   0.00000   0.00078   0.00079   2.85804
    R5        2.06902  -0.00000   0.00000  -0.00000  -0.00000   2.06902
    R6        2.92939   0.00016   0.00000   0.00046   0.00046   2.92985
    R7        2.08869  -0.00001   0.00000   0.00000   0.00000   2.08869
    R8        2.09642   0.00004   0.00000  -0.00000  -0.00000   2.09642
    R9        2.92939   0.00016   0.00000   0.00046   0.00046   2.92985
   R10        2.08630   0.00004   0.00000   0.00001   0.00001   2.08631
   R11        2.08334  -0.00004   0.00000  -0.00000  -0.00000   2.08334
   R12        2.08869  -0.00001   0.00000   0.00000   0.00000   2.08869
   R13        2.09642   0.00004   0.00000  -0.00000  -0.00000   2.09642
    A1        1.95316   0.00005   0.00000  -0.00021  -0.00021   1.95295
    A2        2.18228  -0.00006   0.00000  -0.00021  -0.00020   2.18207
    A3        2.14687   0.00001   0.00000   0.00035   0.00035   2.14723
    A4        1.95316   0.00005   0.00000  -0.00021  -0.00021   1.95295
    A5        2.18228  -0.00006   0.00000  -0.00021  -0.00020   2.18207
    A6        2.14687   0.00001   0.00000   0.00035   0.00035   2.14723
    A7        1.79800  -0.00005   0.00000  -0.00067  -0.00067   1.79733
    A8        1.97648  -0.00009   0.00000  -0.00136  -0.00135   1.97513
    A9        1.92336   0.00014   0.00000   0.00196   0.00196   1.92531
   A10        1.96453   0.00002   0.00000   0.00011   0.00011   1.96464
   A11        1.95146   0.00002   0.00000   0.00001   0.00001   1.95147
   A12        1.85245  -0.00003   0.00000  -0.00000  -0.00000   1.85245
   A13        1.84112  -0.00007   0.00000  -0.00097  -0.00098   1.84014
   A14        1.90256   0.00009   0.00000   0.00176   0.00176   1.90433
   A15        1.97271  -0.00003   0.00000  -0.00119  -0.00119   1.97152
   A16        1.90256   0.00009   0.00000   0.00176   0.00176   1.90433
   A17        1.97271  -0.00003   0.00000  -0.00119  -0.00119   1.97152
   A18        1.87093  -0.00004   0.00000   0.00005   0.00005   1.87098
   A19        1.79800  -0.00005   0.00000  -0.00067  -0.00067   1.79733
   A20        1.97648  -0.00009   0.00000  -0.00136  -0.00135   1.97513
   A21        1.92336   0.00014   0.00000   0.00196   0.00196   1.92531
   A22        1.96453   0.00002   0.00000   0.00011   0.00011   1.96464
   A23        1.95146   0.00002   0.00000   0.00001   0.00001   1.95147
   A24        1.85245  -0.00003   0.00000  -0.00000  -0.00000   1.85245
    D1        0.00000   0.00000   0.00000  -0.00000   0.00000   0.00000
    D2        3.09770  -0.00008   0.00000  -0.00156  -0.00156   3.09615
    D3       -3.09770   0.00008   0.00000   0.00156   0.00156  -3.09615
    D4       -0.00000  -0.00000   0.00000   0.00000   0.00000   0.00000
    D5        0.23074   0.00012   0.00000   0.00381   0.00381   0.23455
    D6        2.35759   0.00006   0.00000   0.00278   0.00278   2.36037
    D7       -1.85375   0.00006   0.00000   0.00324   0.00324  -1.85050
    D8       -2.95371   0.00004   0.00000   0.00228   0.00227  -2.95143
    D9       -0.82686  -0.00002   0.00000   0.00125   0.00125  -0.82561
   D10        1.24499  -0.00002   0.00000   0.00171   0.00171   1.24670
   D11       -0.23074  -0.00012   0.00000  -0.00381  -0.00381  -0.23455
   D12       -2.35759  -0.00006   0.00000  -0.00278  -0.00278  -2.36037
   D13        1.85375  -0.00006   0.00000  -0.00324  -0.00324   1.85050
   D14        2.95371  -0.00004   0.00000  -0.00228  -0.00227   2.95143
   D15        0.82686   0.00002   0.00000  -0.00125  -0.00125   0.82561
   D16       -1.24499   0.00002   0.00000  -0.00171  -0.00171  -1.24670
   D17        0.35810   0.00017   0.00000   0.00586   0.00586   0.36396
   D18       -1.68276   0.00005   0.00000   0.00346   0.00346  -1.67929
   D19        2.52189   0.00006   0.00000   0.00296   0.00296   2.52485
   D20        2.49300   0.00003   0.00000   0.00386   0.00386   2.49686
   D21        0.45214  -0.00008   0.00000   0.00146   0.00146   0.45360
   D22       -1.62639  -0.00008   0.00000   0.00096   0.00096  -1.62543
   D23       -1.70681   0.00002   0.00000   0.00394   0.00394  -1.70287
   D24        2.53551  -0.00009   0.00000   0.00154   0.00154   2.53705
   D25        0.45698  -0.00009   0.00000   0.00104   0.00104   0.45802
   D26       -0.35810  -0.00017   0.00000  -0.00586  -0.00586  -0.36396
   D27       -2.49300  -0.00003   0.00000  -0.00386  -0.00386  -2.49686
   D28        1.70681  -0.00002   0.00000  -0.00394  -0.00394   1.70287
   D29        1.68276  -0.00005   0.00000  -0.00346  -0.00346   1.67929
   D30       -0.45214   0.00008   0.00000  -0.00146  -0.00146  -0.45360
   D31       -2.53551   0.00009   0.00000  -0.00154  -0.00154  -2.53705
   D32       -2.52189  -0.00006   0.00000  -0.00296  -0.00296  -2.52485
   D33        1.62639   0.00008   0.00000  -0.00096  -0.00096   1.62543
   D34       -0.45698   0.00009   0.00000  -0.00104  -0.00104  -0.45802
         Item               Value     Threshold  Converged?
 Maximum Force            0.000281     0.000450     YES
 RMS     Force            0.000085     0.000300     YES
 Maximum Displacement     0.006548     0.001800     NO 
 RMS     Displacement     0.002265     0.001200     NO 
 Predicted change in Energy=-3.068974D-06
                           ----------------------------
                           ! Non-Optimized Parameters !
                           ! (Angstroms and Degrees)  !
 --------------------------                            --------------------------
 ! Name  Definition              Value          Derivative Info.                !
 --------------------------------------------------------------------------------
 ! R1    R(1,2)                  1.3391         -DE/DX =   -0.0003              !
 ! R2    R(1,5)                  1.5124         -DE/DX =    0.0002              !
 ! R3    R(1,6)                  1.0949         -DE/DX =    0.0                 !
 ! R4    R(2,3)                  1.5124         -DE/DX =    0.0002              !
 ! R5    R(2,7)                  1.0949         -DE/DX =    0.0                 !
 ! R6    R(3,4)                  1.5504         -DE/DX =    0.0002              !
 ! R7    R(3,8)                  1.1053         -DE/DX =    0.0                 !
 ! R8    R(3,9)                  1.1094         -DE/DX =    0.0                 !
 ! R9    R(4,5)                  1.5504         -DE/DX =    0.0002              !
 ! R10   R(4,10)                 1.104          -DE/DX =    0.0                 !
 ! R11   R(4,11)                 1.1025         -DE/DX =    0.0                 !
 ! R12   R(5,12)                 1.1053         -DE/DX =    0.0                 !
 ! R13   R(5,13)                 1.1094         -DE/DX =    0.0                 !
 ! A1    A(2,1,5)              111.8958         -DE/DX =    0.0                 !
 ! A2    A(2,1,6)              125.0236         -DE/DX =   -0.0001              !
 ! A3    A(5,1,6)              123.027          -DE/DX =    0.0                 !
 ! A4    A(1,2,3)              111.8958         -DE/DX =    0.0                 !
 ! A5    A(1,2,7)              125.0236         -DE/DX =   -0.0001              !
 ! A6    A(3,2,7)              123.027          -DE/DX =    0.0                 !
 ! A7    A(2,3,4)              102.9792         -DE/DX =   -0.0001              !
 ! A8    A(2,3,8)              113.1665         -DE/DX =   -0.0001              !
 ! A9    A(2,3,9)              110.3124         -DE/DX =    0.0001              !
 ! A10   A(4,3,8)              112.5653         -DE/DX =    0.0                 !
 ! A11   A(4,3,9)              111.811          -DE/DX =    0.0                 !
 ! A12   A(8,3,9)              106.1373         -DE/DX =    0.0                 !
 ! A13   A(3,4,5)              105.4325         -DE/DX =   -0.0001              !
 ! A14   A(3,4,10)             109.1099         -DE/DX =    0.0001              !
 ! A15   A(3,4,11)             112.9596         -DE/DX =    0.0                 !
 ! A16   A(5,4,10)             109.1099         -DE/DX =    0.0001              !
 ! A17   A(5,4,11)             112.9596         -DE/DX =    0.0                 !
 ! A18   A(10,4,11)            107.1991         -DE/DX =    0.0                 !
 ! A19   A(1,5,4)              102.9792         -DE/DX =   -0.0001              !
 ! A20   A(1,5,12)             113.1665         -DE/DX =   -0.0001              !
 ! A21   A(1,5,13)             110.3124         -DE/DX =    0.0001              !
 ! A22   A(4,5,12)             112.5653         -DE/DX =    0.0                 !
 ! A23   A(4,5,13)             111.811          -DE/DX =    0.0                 !
 ! A24   A(12,5,13)            106.1373         -DE/DX =    0.0                 !
 ! D1    D(5,1,2,3)              0.0            -DE/DX =    0.0                 !
 ! D2    D(5,1,2,7)            177.3961         -DE/DX =   -0.0001              !
 ! D3    D(6,1,2,3)           -177.3961         -DE/DX =    0.0001              !
 ! D4    D(6,1,2,7)              0.0            -DE/DX =    0.0                 !
 ! D5    D(2,1,5,4)             13.4387         -DE/DX =    0.0001              !
 ! D6    D(2,1,5,12)           135.2392         -DE/DX =    0.0001              !
 ! D7    D(2,1,5,13)          -106.026          -DE/DX =    0.0001              !
 ! D8    D(6,1,5,4)           -169.1046         -DE/DX =    0.0                 !
 ! D9    D(6,1,5,12)           -47.3041         -DE/DX =    0.0                 !
 ! D10   D(6,1,5,13)            71.4307         -DE/DX =    0.0                 !
 ! D11   D(1,2,3,4)            -13.4387         -DE/DX =   -0.0001              !
 ! D12   D(1,2,3,8)           -135.2392         -DE/DX =   -0.0001              !
 ! D13   D(1,2,3,9)            106.026          -DE/DX =   -0.0001              !
 ! D14   D(7,2,3,4)            169.1046         -DE/DX =    0.0                 !
 ! D15   D(7,2,3,8)             47.3041         -DE/DX =    0.0                 !
 ! D16   D(7,2,3,9)            -71.4307         -DE/DX =    0.0                 !
 ! D17   D(2,3,4,5)             20.8535         -DE/DX =    0.0002              !
 ! D18   D(2,3,4,10)           -96.2165         -DE/DX =    0.0001              !
 ! D19   D(2,3,4,11)           144.6634         -DE/DX =    0.0001              !
 ! D20   D(8,3,4,5)            143.0597         -DE/DX =    0.0                 !
 ! D21   D(8,3,4,10)            25.9896         -DE/DX =   -0.0001              !
 ! D22   D(8,3,4,11)           -93.1305         -DE/DX =   -0.0001              !
 ! D23   D(9,3,4,5)            -97.5675         -DE/DX =    0.0                 !
 ! D24   D(9,3,4,10)           145.3625         -DE/DX =   -0.0001              !
 ! D25   D(9,3,4,11)            26.2423         -DE/DX =   -0.0001              !
 ! D26   D(3,4,5,1)            -20.8535         -DE/DX =   -0.0002              !
 ! D27   D(3,4,5,12)          -143.0597         -DE/DX =    0.0                 !
 ! D28   D(3,4,5,13)            97.5675         -DE/DX =    0.0                 !
 ! D29   D(10,4,5,1)            96.2165         -DE/DX =   -0.0001              !
 ! D30   D(10,4,5,12)          -25.9896         -DE/DX =    0.0001              !
 ! D31   D(10,4,5,13)         -145.3625         -DE/DX =    0.0001              !
 ! D32   D(11,4,5,1)          -144.6634         -DE/DX =   -0.0001              !
 ! D33   D(11,4,5,12)           93.1305         -DE/DX =    0.0001              !
 ! D34   D(11,4,5,13)          -26.2423         -DE/DX =    0.0001              !
 --------------------------------------------------------------------------------
 GradGradGradGradGradGradGradGradGradGradGradGradGradGradGradGradGradGrad


 ----------------------------------------------------------------------

 Electric dipole moment (input orientation):
 (Debye = 10**-18 statcoulomb cm , SI units = C m)
                  (au)            (Debye)         (10**-30 SI)
   Tot        0.576004D-01      0.146406D+00      0.488357D+00
   x          0.694841D-02      0.176611D-01      0.589111D-01
   y         -0.480919D-01     -0.122237D+00     -0.407740D+00
   z         -0.309305D-01     -0.786175D-01     -0.262240D+00

 Dipole polarizability, Alpha (input orientation).
 (esu units = cm**3 , SI units = C**2 m**2 J**-1)
 Alpha(0;0):
               (au)            (10**-24 esu)      (10**-40 SI)
   iso        0.502964D+02      0.745316D+01      0.829276D+01
   aniso      0.198768D+02      0.294543D+01      0.327724D+01
   xx         0.610405D+02      0.904527D+01      0.100642D+02
   yx         0.145712D+01      0.215922D+00      0.240246D+00
   yy         0.514062D+02      0.761761D+01      0.847573D+01
   zx        -0.247453D+00     -0.366688D-01     -0.407995D-01
   zy         0.958708D+00      0.142066D+00      0.158070D+00
   zz         0.384425D+02      0.569659D+01      0.633831D+01

 ----------------------------------------------------------------------

 Dipole orientation:
     6         -1.39290106         -0.71363759         -1.68821167
     6          1.11013404         -1.08922416         -1.68821167
     6          2.33409044         -0.11667718          0.70344344
     6          0.22120903          1.51500762          1.90952790
     6         -2.27751530          0.57530560          0.70344344
     1         -2.68581629         -1.32562382         -3.18310182
     1          2.16649353         -2.05372484         -3.18310182
     1          4.08300739          0.96961146          0.35145628
     1          2.88212689         -1.71891685          1.93934039
     1          0.52080318          3.51160369          1.38370037
     1          0.20719508          1.42161396          3.99072402
     1         -3.63058809          2.12705543          0.35145628
     1         -3.27166822         -0.79552476          1.93934039

 Electric dipole moment (dipole orientation):
 (Debye = 10**-18 statcoulomb cm , SI units = C m)
                  (au)            (Debye)         (10**-30 SI)
   Tot        0.576004D-01      0.146406D+00      0.488357D+00
   x          0.000000D+00      0.000000D+00      0.000000D+00
   y          0.000000D+00      0.000000D+00      0.000000D+00
   z          0.576004D-01      0.146406D+00      0.488357D+00

 Dipole polarizability, Alpha (dipole orientation).
 (esu units = cm**3 , SI units = C**2 m**2 J**-1)
 Alpha(0;0):
               (au)            (10**-24 esu)      (10**-40 SI)
   iso        0.502964D+02      0.745316D+01      0.829276D+01
   aniso      0.198768D+02      0.294543D+01      0.327724D+01
   xx         0.608155D+02      0.901193D+01      0.100271D+02
   yx        -0.293943D+01     -0.435579D+00     -0.484646D+00
   yy         0.416672D+02      0.617445D+01      0.687000D+01
   zx         0.795132D+00      0.117826D+00      0.131100D+00
   zy         0.529903D+01      0.785235D+00      0.873692D+00
   zz         0.484065D+02      0.717310D+01      0.798115D+01

 ----------------------------------------------------------------------
 Unable to Open any file for archive entry.
 1\1\GINC-NODE02\Freq\RB3LYP\def2SVPP\C5H8\XUHJ\22-Dec-2023\0\\#N Geom=
 AllCheck Guess=TCheck SCRF=Check GenChk RB3LYP/def2SVPP Freq\\C1=CCCC1
 _1\\0,1\C,-0.8131337174,0.9039506164,0.0755046696\C,0.5118989254,1.099
 3559431,0.0693441485\C,1.2724038073,-0.1961188148,-0.1024435517\C,0.18
 53102711,-1.2740955309,0.1408739128\C,-1.1688436822,-0.5561346724,-0.0
 910933734\H,-1.565042358,1.6965601708,0.1473695911\H,1.0036267387,2.07
 53671585,0.1354269869\H,2.1289903562,-0.2940783986,0.5891660193\H,1.69
 41206733,-0.2598418946,-1.1265566396\H,0.239545946,-1.6087398281,1.191
 5579851\H,0.3140569432,-2.1670934097,-0.4926762205\H,-1.9543586277,-0.
 8962583876,0.6081508782\H,-1.5635161913,-0.7402523957,-1.1114107933\\V
 ersion=ES64L-G16RevC.01\State=1-A'\HF=-195.1859493\RMSD=3.223e-09\RMSF
 =2.050e-04\ZeroPoint=0.111818\Thermal=0.1165921\ETot=-195.0693572\HTot
 =-195.068413\GTot=-195.1015637\Dipole=0.0069484,-0.0480919,-0.0309305\
 DipoleDeriv=0.0292903,0.0278694,0.0058462,0.0407794,0.0821616,0.023198
 8,0.0696651,0.0520471,-0.2048424,0.0517925,-0.0365091,-0.0145808,-0.04
 95954,0.0588505,0.020622,-0.083993,0.0297016,-0.2040335,0.0502041,-0.0
 224871,0.0150353,-0.0032389,0.0088064,-0.0138229,0.0528989,-0.0222635,
 0.2082786,0.0119291,-0.012977,-0.0052817,-0.0128559,0.0984676,0.039726
 6,-0.0014422,0.0136913,0.1341231,0.039161,0.0314387,-0.008908,0.012319
 ,0.0192934,-0.0174338,-0.0426975,-0.0366196,0.2088346,-0.0140936,0.078
 1535,0.0079587,0.0848571,-0.0624497,-0.016533,0.0007749,-0.0145982,0.1
 340847,0.0269447,-0.0513343,-0.0018033,-0.0580649,-0.103515,-0.01728,0
 .0045252,-0.013415,0.1341117,-0.1103303,0.0099899,-0.0752182,0.0368546
 ,0.0227411,0.0072956,-0.1251554,0.0176169,-0.0123803,-0.0230988,-0.004
 3834,0.0659362,0.0607667,0.001702,-0.006851,0.1259539,-0.0110974,-0.12
 72129,0.0055512,-0.0005093,-0.0068859,-0.0007417,0.0118737,0.0423884,-
 0.0142563,0.0923667,-0.1310227,0.0243412,0.0213187,0.0095244,0.0215427
 ,-0.1207028,-0.0654586,0.0166308,-0.1136465,-0.0002819,-0.0846078,-0.0
 422861,0.0706241,-0.0693107,-0.001184,0.0293145,0.1154923,0.0533664,-0
 .0141778,-0.0070835,0.0017162,-0.0622471,-0.0633119,-0.0160449,-0.0251
 666,-0.1183967,-0.0471497,-0.1254812\Polar=61.0405361,1.457117,51.4061
 661,-0.247453,0.9587079,38.4424843\Quadrupole=0.5401267,0.1123004,-0.6
 524271,0.0649349,-0.0188282,0.0897707\PG=CS [SG(C1H2),X(C4H6)]\NImag=0
 \\0.86810436,-0.06032815,0.56941856,-0.01294503,0.04232090,0.14621724,
 -0.53902784,-0.06749001,-0.00047361,0.80981534,-0.06078820,-0.11362546
 ,-0.00207042,0.13321454,0.62777052,0.00553908,-0.00115255,-0.05486155,
 -0.00604108,0.04239923,0.14615430,-0.03275010,0.02729545,0.00668175,-0
 .11249761,0.04655259,0.00562329,0.56903485,0.01886341,-0.00210271,-0.0
 0310901,0.05736076,-0.17346181,-0.01279199,-0.03072121,0.41871526,0.00
 340409,-0.00173352,0.00776063,0.00641563,-0.01224785,-0.07405455,0.020
 16800,-0.00306409,0.55771980,-0.00185161,0.01687942,0.00291574,0.00737
 039,-0.00568860,-0.00371219,-0.12041188,-0.04849236,0.00875580,0.40141
 018,0.02513416,-0.02987422,0.00301705,-0.01387206,-0.03915527,0.002227
 29,-0.04567859,-0.11930054,0.01291618,-0.02515307,0.56921668,0.0037889
 2,-0.00464841,0.00107700,-0.00232442,-0.00543870,0.00113604,0.01294456
 ,0.01397283,-0.08544547,-0.00348983,0.02975404,0.59087600,-0.08889588,
 -0.02116864,-0.00152773,-0.01751176,-0.03194914,-0.00522694,-0.0331241
 6,-0.00216127,-0.00403481,-0.14660116,0.03759066,-0.01592094,0.5391930
 2,-0.03198025,-0.19713740,-0.01341501,-0.02353437,-0.01742353,-0.00465
 763,-0.00988441,0.00668790,-0.00502709,0.04040831,-0.09334072,0.009284
 69,0.06703984,0.44819831,-0.00242890,-0.01322113,-0.07398070,-0.002497
 16,-0.00231789,0.00784310,0.00558203,-0.00364478,-0.00515560,-0.011609
 26,0.00950780,-0.08521601,-0.01834628,-0.00921886,0.55807858,-0.187404
 18,0.13708140,0.01246785,-0.01197100,0.02504638,0.00233677,-0.00399775
 ,-0.00151787,-0.00035711,-0.00093706,-0.00285785,-0.00036780,0.0087743
 4,-0.00741410,-0.00023832,0.19441535,0.14140742,-0.20486583,-0.0161285
 3,-0.00682284,0.00807069,0.00034689,-0.00183108,-0.00063430,-0.0006997
 9,-0.00135364,-0.00385094,-0.00186475,0.01933681,-0.00941312,0.0003097
 9,-0.15241684,0.20954632,0.01221160,-0.01586201,-0.03846826,0.00013519
 ,-0.00059444,0.00483802,0.00048347,-0.00064931,0.01165818,-0.00011631,
 -0.00019465,0.00178294,0.00248830,-0.00093990,0.00099027,-0.01414859,0
 .01712858,0.02529890,-0.00528427,-0.02907428,-0.00220628,-0.11201468,-
 0.10922293,-0.00646528,0.01053524,0.01341911,0.00003387,-0.00233389,0.
 00331196,0.00092347,-0.00463927,0.00030318,0.00069183,0.00121832,0.000
 77007,-0.00010958,0.11157489,0.00279920,0.00136297,-0.00036324,-0.1135
 5154,-0.28042775,-0.01768356,-0.01331563,-0.01119442,0.00050295,0.0017
 9295,-0.00244665,-0.00168992,0.00061705,0.00000923,-0.00055692,-0.0005
 4404,0.00048637,0.00054875,0.12302434,0.29258771,0.00013053,-0.0003389
 2,0.00485901,-0.00629107,-0.01739379,-0.03829584,-0.00218004,-0.001724
 00,0.00101067,0.00020261,-0.00017726,0.00177548,-0.00012796,-0.0007483
 8,0.01165616,-0.00011627,0.00054166,-0.00575903,0.00765142,0.01900605,
 0.02509798,-0.00000962,0.00162130,-0.00043331,-0.01148373,0.00164600,-
 0.00670463,-0.19571740,0.01591905,-0.12570124,-0.01360294,0.00281010,-
 0.00989595,-0.00182211,-0.00198831,-0.00068800,-0.00054896,-0.00002794
 ,0.00092449,0.00032757,0.00034421,0.00040184,0.21406795,0.00159385,-0.
 00475419,-0.00077559,0.02276026,0.00062937,0.01983969,0.01738715,-0.05
 037351,0.01446716,-0.01822700,0.00307067,-0.01374939,-0.00134688,-0.00
 371178,0.00120048,0.00087295,0.00055884,-0.00190640,-0.00102243,0.0005
 8462,-0.00037052,-0.01897159,0.05163139,0.00039442,-0.00014173,0.00024
 327,0.00554071,-0.00017980,0.00515445,-0.12864957,0.01424169,-0.153156
 83,0.00689849,-0.00063901,0.00361955,0.00195421,0.00082314,0.00071626,
 0.00026364,-0.00002382,-0.00040526,-0.00039307,0.00038284,0.00017548,0
 .13508197,-0.01695627,0.16102380,0.00049587,0.00209870,0.00085811,-0.0
 0920784,0.00388035,0.01379488,-0.07948367,0.00201865,0.08260509,-0.005
 24298,0.00116984,0.01854350,-0.00052666,0.00004501,0.00146641,-0.00037
 753,0.00019808,-0.00152438,0.00000606,0.00021060,-0.00001802,0.0099534
 1,-0.00203095,-0.02224503,0.08596353,-0.00009821,-0.00336257,-0.000384
 83,0.01413617,-0.00113020,-0.02727497,0.00487652,-0.04587089,-0.016100
 79,-0.00704904,-0.00065116,0.02253013,-0.00034092,-0.00037680,-0.00030
 262,0.00046137,0.00003071,0.00224565,-0.00058093,-0.00005688,0.0008051
 6,-0.00137057,0.00067362,0.00267942,-0.00606303,0.05142154,-0.00159498
 ,-0.00126146,0.00049706,0.00307009,-0.00285955,0.00073431,0.08224735,-
 0.01122149,-0.26107325,-0.00001873,0.00079143,-0.00224258,0.00076028,0
 .00062170,-0.00003088,0.00008515,-0.00005562,0.00002056,0.00041521,-0.
 00052350,-0.00011449,0.00680493,-0.00135011,-0.01906502,-0.09297558,0.
 01496569,0.27924476,-0.00121959,-0.00079305,-0.00057289,-0.00108721,0.
 00035763,0.00065252,-0.00194479,-0.00859121,0.02313523,-0.04405911,0.0
 0469966,-0.01142925,-0.00500072,0.00897125,-0.02819953,0.00012394,0.00
 022244,0.00036505,0.00016071,-0.00012781,-0.00029932,0.00085542,0.0005
 0865,0.00065134,-0.00218695,-0.00427121,0.00092238,0.05696305,0.000772
 78,0.00035424,-0.00032010,-0.00121053,0.00022857,-0.00013008,-0.000256
 39,-0.00612394,0.02096003,0.00468730,-0.07289650,0.06980480,0.00079513
 ,-0.00331243,0.01338260,0.00000242,-0.00014693,-0.00018361,0.00008861,
 -0.00018667,-0.00028196,0.00031010,0.00139293,-0.00005856,-0.00180693,
 -0.00259519,0.00058036,-0.00284231,0.07324625,-0.00010531,0.00001283,0
 .00024231,0.00011085,0.00003945,0.00023560,0.00059631,0.00023693,-0.00
 352550,-0.01182117,0.07246238,-0.28743120,-0.00062696,-0.00002722,-0.0
 0328107,-0.00003705,0.00015240,-0.00016804,-0.00001163,0.00015780,-0.0
 0016507,0.00021281,-0.00025138,0.00171013,0.00060028,0.00105189,0.0011
 7146,0.01289815,-0.07965309,0.30416216,-0.00476482,0.00150429,-0.00025
 365,-0.00360836,-0.00213185,0.00027849,0.00389084,-0.01822271,-0.01345
 564,-0.05062349,0.02450764,0.01780334,-0.00143074,0.02187713,0.0159575
 0,0.00064884,0.00121528,-0.00021727,0.00083218,-0.00078460,0.00016927,
 -0.00079587,-0.00066960,-0.00015417,0.00129273,0.00073614,-0.00007326,
 0.00019341,-0.00156208,-0.00085703,0.05390442,0.00165712,-0.00148615,0
 .00001276,-0.00229789,-0.00263079,0.00011041,0.00370785,-0.01340263,-0
 .01059603,0.02452729,-0.21731006,-0.12369860,-0.00019680,-0.00794912,-
 0.00624391,-0.00017888,-0.00058340,0.00011630,0.00060708,-0.00076641,0
 .00016978,-0.00056517,-0.00085616,0.00006597,0.00042214,0.00114397,0.0
 0031539,-0.00142515,0.00979838,0.00531267,-0.02645616,0.23371518,-0.00
 120082,0.00132579,0.00039811,0.00080653,0.00163951,0.00038628,-0.00051
 703,0.00716790,0.00354191,0.01842653,-0.12792443,-0.14146008,-0.001528
 64,0.00682863,0.00340998,0.00009425,0.00042892,0.00014665,-0.00022111,
 0.00039183,0.00014631,0.00010542,-0.00005817,0.00010066,-0.00031159,0.
 00016845,0.00128430,0.00348640,-0.02413995,-0.01585543,-0.01931366,0.1
 3400487,0.14651971,-0.00376963,-0.00297500,0.00077725,0.00048635,-0.00
 004347,0.00063660,-0.00291741,0.00223506,0.00034224,-0.01640889,-0.008
 70815,0.01363770,-0.17225797,-0.05269367,0.11641828,0.00016143,-0.0004
 6775,-0.00027702,-0.00022840,-0.00020916,-0.00033614,-0.00049389,-0.00
 051517,0.00012534,-0.00069635,-0.00046651,0.00001530,0.00111984,-0.000
 39280,-0.00012528,-0.00114166,0.00047980,-0.00007348,0.18777782,-0.023
 88974,-0.00709944,0.02116524,-0.00002068,-0.00524858,-0.00060996,0.001
 60064,-0.00263045,0.00133795,0.01223128,0.00592482,-0.01042237,-0.0541
 6361,-0.07155391,0.05052178,0.00089090,0.00075066,-0.00047965,-0.00112
 803,0.00023006,-0.00208278,0.00021988,0.00048214,-0.00008957,-0.000072
 41,0.00063407,0.00003215,-0.00059251,0.00112113,-0.00029594,0.00058274
 ,-0.00050985,-0.00009062,0.06003187,0.07550476,-0.00513965,-0.00172809
 ,0.00516916,-0.00033890,-0.00024179,0.00024169,-0.00207771,0.00020816,
 0.00073024,-0.00625449,-0.00252708,0.00357135,0.11930817,0.05114362,-0
 .15543587,0.00026475,0.00048351,0.00017558,-0.00024563,-0.00009786,-0.
 00039704,-0.00009017,-0.00011793,-0.00002426,-0.00047338,-0.00025009,-
 0.00008771,-0.00060054,-0.00023973,0.00171751,0.00013909,0.00010412,0.
 00010014,-0.12476064,-0.05566114,0.16344056,-0.00362268,-0.00465142,-0
 .00528819,0.00073797,-0.00087331,-0.00071151,-0.00061615,-0.00010942,-
 0.00131115,-0.00670756,-0.00295430,-0.02421331,-0.07615693,-0.01114961
 ,-0.07610859,-0.00010574,-0.00023000,-0.00021494,-0.00015445,-0.000255
 56,0.00081317,-0.00072982,-0.00033924,0.00053172,0.00001038,0.00003022
 ,0.00034186,-0.00391799,0.00141471,-0.00083396,0.00160252,-0.00028122,
 0.00024718,0.00836877,0.00430966,0.02026910,0.08129170,-0.01514338,-0.
 00682778,-0.02994923,0.00132819,-0.00359577,-0.00062277,0.00026713,-0.
 00030796,-0.00071512,0.00543716,0.00061387,0.01616564,-0.01405225,-0.0
 5067665,-0.03941634,0.00057417,0.00005092,0.00077067,-0.00049574,-0.00
 018219,0.00259498,0.00005293,0.00067205,-0.00010430,-0.00007005,0.0001
 3977,-0.00003499,0.00388361,-0.00087983,0.00080128,-0.00059623,0.00083
 702,0.00025726,0.00372496,0.00239459,0.00892429,0.01508949,0.05776196,
 -0.00205395,-0.00357171,0.00084673,0.00188725,-0.00073394,0.00048816,-
 0.00090241,0.00037716,-0.00001023,-0.00017720,0.00078623,-0.00204302,-
 0.07717070,-0.03466770,-0.25959422,-0.00024727,-0.00061922,-0.00011049
 ,-0.00006321,-0.00007524,0.00001037,-0.00001816,0.00002843,-0.00009222
 ,-0.00032029,-0.00013311,-0.00033852,-0.00100954,0.00027929,0.00118715
 ,-0.00002300,0.00032628,0.00128146,-0.00638017,-0.00332511,-0.01920135
 ,0.08647863,0.04132863,0.27757618\\-0.00030503,-0.00018211,-0.00031339
 ,0.00034175,-0.00008672,-0.00031640,-0.00010570,0.00004721,0.00057436,
 -0.00000885,0.00004036,-0.00062318,0.00009279,0.00007648,0.00057344,-0
 .00002451,-0.00002628,0.00004930,0.00003150,-0.00001802,0.00004903,0.0
 0002488,-0.00009448,-0.00002219,-0.00010251,0.00011347,-0.00000801,-0.
 00002490,0.00016932,0.00001578,0.00001201,-0.00007977,0.00005214,0.000
 00325,-0.00009767,-0.00002209,0.00006531,0.00013821,-0.00000879\\\@
 The archive entry for this job was punched.


 TIME GOES, YOU SAY?  AH NO!
 ALAS, TIME STAYS, WE GO.
    -- A. DOBSON (1840-1921)
 Job cpu time:       0 days  0 hours  3 minutes 15.9 seconds.
 Elapsed time:       0 days  0 hours  0 minutes 13.0 seconds.
 File lengths (MBytes):  RWF=     89 Int=      0 D2E=      0 Chk=      3 Scr=      2
 Normal termination of Gaussian 16 at Fri Dec 22 15:35:18 2023.
