%nprocshared=16
%mem=1600MB
#N opt freq B3LYP/def2SVPP symm=veryloose em=gd3bj scale=0.961 press=0.987

C1=CCCC1_1

0 1
C         -0.80966        0.89382        0.04225
C          0.51095        1.08817        0.03932
C          1.26518       -0.19314       -0.07626
C          0.18239       -1.25727        0.10418
C         -1.16216       -0.55097       -0.07033
H         -1.54628        1.68333        0.09112
H          0.98880        2.05722        0.08567
H          2.03375       -0.27906        0.69828
H          1.74331       -0.26919       -1.05795
H          0.24857       -1.69012        1.11117
H          0.30258       -2.08279       -0.60528
H         -1.86967       -0.85456        0.70750
H         -1.60248       -0.76269       -1.05015

