%nprocshared=16
%mem=960MB
#N opt freq B3LYP/def2SVPP symm=veryloose em=gd3bj scale=0.961 press=0.987

C1CC1_1

0 1
C         -0.17657        0.85746       -0.05750
C          0.83107       -0.27155        0.05930
C         -0.65571       -0.57563        0.08505
H          0.00562        1.28370       -1.06719
H         -0.00059        1.47631        0.84827
H          1.19319       -0.59070        1.05998
H          1.19940       -0.78330       -0.85547
H         -1.20313       -0.58644        1.05178
H         -1.19692       -0.77904       -0.86367

