%nprocshared=8
%mem=1600MB
#N opt freq B3LYP/def2SVPP symm=veryloose em=gd3bj scale=0.961 press=0.987

OCCO_1

0 1
O          1.04558        0.13814        0.01616
C          2.47387        0.08471        0.02233
C          3.01364        1.39178       -0.54424
O          2.56358        2.48076        0.26006
H          0.73162       -0.70292        0.39386
H          2.79962       -0.76636       -0.58266
H          2.79728       -0.05018        1.05830
H          2.64564        1.55951       -1.56080
H          4.10702        1.39480       -0.55305
H          1.60134        2.33650        0.35909

