 Entering Gaussian System, Link 0=g16
 Initial command:
 /opt/g16/l1.exe "/tmp/scratch/Gau-4074433.inp" -scrdir="/tmp/scratch/"
 Entering Link 1 = /opt/g16/l1.exe PID=   4074435.
  
 Copyright (c) 1988-2019, Gaussian, Inc.  All Rights Reserved.
  
 This is part of the Gaussian(R) 16 program.  It is based on
 the Gaussian(R) 09 system (copyright 2009, Gaussian, Inc.),
 the Gaussian(R) 03 system (copyright 2003, Gaussian, Inc.),
 the Gaussian(R) 98 system (copyright 1998, Gaussian, Inc.),
 the Gaussian(R) 94 system (copyright 1995, Gaussian, Inc.),
 the Gaussian 92(TM) system (copyright 1992, Gaussian, Inc.),
 the Gaussian 90(TM) system (copyright 1990, Gaussian, Inc.),
 the Gaussian 88(TM) system (copyright 1988, Gaussian, Inc.),
 the Gaussian 86(TM) system (copyright 1986, Carnegie Mellon
 University), and the Gaussian 82(TM) system (copyright 1983,
 Carnegie Mellon University). Gaussian is a federally registered
 trademark of Gaussian, Inc.
  
 This software contains proprietary and confidential information,
 including trade secrets, belonging to Gaussian, Inc.
  
 This software is provided under written license and may be
 used, copied, transmitted, or stored only in accord with that
 written license.
  
 The following legend is applicable only to US Government
 contracts under FAR:
  
                    RESTRICTED RIGHTS LEGEND
  
 Use, reproduction and disclosure by the US Government is
 subject to restrictions as set forth in subparagraphs (a)
 and (c) of the Commercial Computer Software - Restricted
 Rights clause in FAR 52.227-19.
  
 Gaussian, Inc.
 340 Quinnipiac St., Bldg. 40, Wallingford CT 06492
  
  
 ---------------------------------------------------------------
 Warning -- This program may not be used in any manner that
 competes with the business of Gaussian, Inc. or will provide
 assistance to any competitor of Gaussian, Inc.  The licensee
 of this program is prohibited from giving any competitor of
 Gaussian, Inc. access to this program.  By using this program,
 the user acknowledges that Gaussian, Inc. is engaged in the
 business of creating and licensing software in the field of
 computational chemistry and represents and warrants to the
 licensee that it is not a competitor of Gaussian, Inc. and that
 it will not use this program in any manner prohibited above.
 ---------------------------------------------------------------
  

 Cite this work as:
 Gaussian 16, Revision C.01,
 M. J. Frisch, G. W. Trucks, H. B. Schlegel, G. E. Scuseria, 
 M. A. Robb, J. R. Cheeseman, G. Scalmani, V. Barone, 
 G. A. Petersson, H. Nakatsuji, X. Li, M. Caricato, A. V. Marenich, 
 J. Bloino, B. G. Janesko, R. Gomperts, B. Mennucci, H. P. Hratchian, 
 J. V. Ortiz, A. F. Izmaylov, J. L. Sonnenberg, D. Williams-Young, 
 F. Ding, F. Lipparini, F. Egidi, J. Goings, B. Peng, A. Petrone, 
 T. Henderson, D. Ranasinghe, V. G. Zakrzewski, J. Gao, N. Rega, 
 G. Zheng, W. Liang, M. Hada, M. Ehara, K. Toyota, R. Fukuda, 
 J. Hasegawa, M. Ishida, T. Nakajima, Y. Honda, O. Kitao, H. Nakai, 
 T. Vreven, K. Throssell, J. A. Montgomery, Jr., J. E. Peralta, 
 F. Ogliaro, M. J. Bearpark, J. J. Heyd, E. N. Brothers, K. N. Kudin, 
 V. N. Staroverov, T. A. Keith, R. Kobayashi, J. Normand, 
 K. Raghavachari, A. P. Rendell, J. C. Burant, S. S. Iyengar, 
 J. Tomasi, M. Cossi, J. M. Millam, M. Klene, C. Adamo, R. Cammi, 
 J. W. Ochterski, R. L. Martin, K. Morokuma, O. Farkas, 
 J. B. Foresman, and D. J. Fox, Gaussian, Inc., Wallingford CT, 2019.
 
 ******************************************
 Gaussian 16:  ES64L-G16RevC.01  3-Jul-2019
                14-Sep-2024 
 ******************************************
 %nprocshared=8
 Will use up to    8 processors via shared memory.
 %mem=1600MB
 ----------------------------------------------------------------------
 #N opt freq B3LYP/def2SVPP symm=veryloose em=gd3bj scale=0.961 press=0
 .987
 ----------------------------------------------------------------------
 1/18=20,19=15,26=3,38=1,113=-987000,114=961000/1,3;
 2/9=110,12=2,17=2,18=2,40=1/2;
 3/5=43,7=202,11=2,25=1,30=1,71=1,74=-5,124=41/1,2,3;
 4//1;
 5/5=2,38=5/2;
 6/7=2,8=2,9=2,10=2,28=1/1;
 7//1,2,3,16;
 1/18=20,19=15,26=3/3(2);
 2/9=110/2;
 99//99;
 2/9=110/2;
 3/5=43,7=202,11=2,25=1,30=1,71=1,74=-5,124=41/1,2,3;
 4/5=5,16=3,69=1/1;
 5/5=2,38=5/2;
 7//1,2,3,16;
 1/18=20,19=15,26=3/3(-5);
 2/9=110/2;
 6/7=2,8=2,9=2,10=2,19=2,28=1/1;
 99/9=1/99;
 ------
 OCCO_1
 ------
 Symbolic Z-matrix:
 Charge =  0 Multiplicity = 1
 O                     1.04558   0.13814   0.01616 
 C                     2.47387   0.08471   0.02233 
 C                     3.01364   1.39178  -0.54424 
 O                     2.56358   2.48076   0.26006 
 H                     0.73162  -0.70292   0.39386 
 H                     2.79962  -0.76636  -0.58266 
 H                     2.79728  -0.05018   1.0583 
 H                     2.64564   1.55951  -1.5608 
 H                     4.10702   1.3948   -0.55305 
 H                     1.60134   2.3365    0.35909 
 

 GradGradGradGradGradGradGradGradGradGradGradGradGradGradGradGradGradGrad
 Berny optimization.
 Initialization pass.
                           ----------------------------
                           !    Initial Parameters    !
                           ! (Angstroms and Degrees)  !
 --------------------------                            --------------------------
 ! Name  Definition              Value          Derivative Info.                !
 --------------------------------------------------------------------------------
 ! R1    R(1,2)                  1.4293         estimate D2E/DX2                !
 ! R2    R(1,5)                  0.974          estimate D2E/DX2                !
 ! R3    R(2,3)                  1.5234         estimate D2E/DX2                !
 ! R4    R(2,6)                  1.0938         estimate D2E/DX2                !
 ! R5    R(2,7)                  1.0936         estimate D2E/DX2                !
 ! R6    R(3,4)                  1.4266         estimate D2E/DX2                !
 ! R7    R(3,8)                  1.0941         estimate D2E/DX2                !
 ! R8    R(3,9)                  1.0934         estimate D2E/DX2                !
 ! R9    R(4,10)                 0.978          estimate D2E/DX2                !
 ! A1    A(2,1,5)              106.7484         estimate D2E/DX2                !
 ! A2    A(1,2,3)              108.6863         estimate D2E/DX2                !
 ! A3    A(1,2,6)              108.9229         estimate D2E/DX2                !
 ! A4    A(1,2,7)              107.7108         estimate D2E/DX2                !
 ! A5    A(3,2,6)              110.8765         estimate D2E/DX2                !
 ! A6    A(3,2,7)              110.6922         estimate D2E/DX2                !
 ! A7    A(6,2,7)              109.8708         estimate D2E/DX2                !
 ! A8    A(2,3,4)              109.4794         estimate D2E/DX2                !
 ! A9    A(2,3,8)              110.9728         estimate D2E/DX2                !
 ! A10   A(2,3,9)              111.0799         estimate D2E/DX2                !
 ! A11   A(4,3,8)              107.4997         estimate D2E/DX2                !
 ! A12   A(4,3,9)              108.5353         estimate D2E/DX2                !
 ! A13   A(8,3,9)              109.1742         estimate D2E/DX2                !
 ! A14   A(3,4,10)             104.7659         estimate D2E/DX2                !
 ! D1    D(5,1,2,3)           -179.2366         estimate D2E/DX2                !
 ! D2    D(5,1,2,6)             59.8578         estimate D2E/DX2                !
 ! D3    D(5,1,2,7)            -59.2646         estimate D2E/DX2                !
 ! D4    D(1,2,3,4)             59.8777         estimate D2E/DX2                !
 ! D5    D(1,2,3,8)            -58.6232         estimate D2E/DX2                !
 ! D6    D(1,2,3,9)            179.7268         estimate D2E/DX2                !
 ! D7    D(6,2,3,4)            179.5731         estimate D2E/DX2                !
 ! D8    D(6,2,3,8)             61.0722         estimate D2E/DX2                !
 ! D9    D(6,2,3,9)            -60.5778         estimate D2E/DX2                !
 ! D10   D(7,2,3,4)            -58.2237         estimate D2E/DX2                !
 ! D11   D(7,2,3,8)           -176.7246         estimate D2E/DX2                !
 ! D12   D(7,2,3,9)             61.6254         estimate D2E/DX2                !
 ! D13   D(2,3,4,10)           -49.0231         estimate D2E/DX2                !
 ! D14   D(8,3,4,10)            71.6143         estimate D2E/DX2                !
 ! D15   D(9,3,4,10)          -170.4206         estimate D2E/DX2                !
 --------------------------------------------------------------------------------
 Trust Radius=3.00D-01 FncErr=1.00D-07 GrdErr=1.00D-06 EigMax=2.50D+02 EigMin=1.00D-04
 Number of steps in this run=     48 maximum allowed number of steps=    100.
 GradGradGradGradGradGradGradGradGradGradGradGradGradGradGradGradGradGrad

                          Input orientation:                          
 ---------------------------------------------------------------------
 Center     Atomic      Atomic             Coordinates (Angstroms)
 Number     Number       Type             X           Y           Z
 ---------------------------------------------------------------------
      1          8           0        1.045580    0.138140    0.016160
      2          6           0        2.473870    0.084710    0.022330
      3          6           0        3.013640    1.391780   -0.544240
      4          8           0        2.563580    2.480760    0.260060
      5          1           0        0.731620   -0.702920    0.393860
      6          1           0        2.799620   -0.766360   -0.582660
      7          1           0        2.797280   -0.050180    1.058300
      8          1           0        2.645640    1.559510   -1.560800
      9          1           0        4.107020    1.394800   -0.553050
     10          1           0        1.601340    2.336500    0.359090
 ---------------------------------------------------------------------
                    Distance matrix (angstroms):
                    1          2          3          4          5
     1  O    0.000000
     2  C    1.429302   0.000000
     3  C    2.399775   1.523412   0.000000
     4  O    2.802085   2.409485   1.426650   0.000000
     5  H    0.973966   1.947776   3.236575   3.675568   0.000000
     6  H    2.062368   1.093822   2.169066   3.362987   2.287846
     7  H    2.046942   1.093628   2.166609   2.664106   2.265944
     8  H    2.658437   2.170447   1.094053   2.042294   3.550036
     9  H    3.357917   2.171308   1.093420   2.054912   4.085388
    10  H    2.293307   2.438293   1.924342   0.978020   3.161597
                    6          7          8          9         10
     6  H    0.000000
     7  H    1.790438   0.000000
     8  H    2.527872   3.077951   0.000000
     9  H    2.526021   2.529789   1.782785   0.000000
    10  H    3.456951   2.759603   2.319537   2.827938   0.000000
 Stoichiometry    C2H6O2
 Framework group  C1[X(C2H6O2)]
 Deg. of freedom    24
 Full point group                 C1      NOp   1
 Largest Abelian subgroup         C1      NOp   1
 Largest concise Abelian subgroup C1      NOp   1
                         Standard orientation:                         
 ---------------------------------------------------------------------
 Center     Atomic      Atomic             Coordinates (Angstroms)
 Number     Number       Type             X           Y           Z
 ---------------------------------------------------------------------
      1          8           0       -1.344245   -0.570291    0.208773
      2          6           0       -0.667601    0.595091   -0.267612
      3          6           0        0.758766    0.584197    0.267313
      4          8           0        1.429300   -0.589202   -0.189685
      5          1           0       -2.245822   -0.541198   -0.158544
      6          1           0       -1.205950    1.483140    0.075892
      7          1           0       -0.670702    0.558135   -1.360612
      8          1           0        0.766624    0.562672    1.361125
      9          1           0        1.315228    1.459535   -0.078663
     10          1           0        0.813191   -1.322073    0.009895
 ---------------------------------------------------------------------
 Rotational constants (GHZ):          15.4184258           5.5795641           4.5963920
 Standard basis: def2SVPP (5D, 7F)
 There are    72 symmetry adapted cartesian basis functions of A   symmetry.
 There are    68 symmetry adapted basis functions of A   symmetry.
    68 basis functions,   124 primitive gaussians,    72 cartesian basis functions
    17 alpha electrons       17 beta electrons
       nuclear repulsion energy       133.0140407298 Hartrees.
 NAtoms=   10 NActive=   10 NUniq=   10 SFac= 1.00D+00 NAtFMM=   60 NAOKFM=F Big=F
 Integral buffers will be    131072 words long.
 Raffenetti 2 integral format.
 Two-electron integral symmetry is turned on.
 Nuclear repulsion after empirical dispersion term =      133.0050813414 Hartrees.
 One-electron integrals computed using PRISM.
   1 Symmetry operations used in ECPInt.
 ECPInt:  NShTT=     666 NPrTT=    2698 LenC2=     666 LenP2D=    2342.
 LDataN:  DoStor=T MaxTD1= 4 Len=   56
 NBasis=    68 RedAO= T EigKep=  3.65D-03  NBF=    68
 NBsUse=    68 1.00D-06 EigRej= -1.00D+00 NBFU=    68
 ExpMin= 1.22D-01 ExpMax= 2.27D+03 ExpMxC= 3.41D+02 IAcc=3 IRadAn=         5 AccDes= 0.00D+00
 Harris functional with IExCor=  402 and IRadAn=       5 diagonalized for initial guess.
 HarFok:  IExCor=  402 AccDes= 0.00D+00 IRadAn=         5 IDoV= 1 UseB2=F ITyADJ=14
 ICtDFT=  3500011 ScaDFX=  1.000000  1.000000  1.000000  1.000000
 FoFCou: FMM=F IPFlag=           0 FMFlag=      100000 FMFlg1=           0
         NFxFlg=           0 DoJE=T BraDBF=F KetDBF=T FulRan=T
         wScrn=  0.000000 ICntrl=       500 IOpCl=  0 I1Cent=   200000004 NGrid=           0
         NMat0=    1 NMatS0=      1 NMatT0=    0 NMatD0=    1 NMtDS0=    0 NMtDT0=    0
 Petite list used in FoFCou.
 Keep R1 ints in memory in canonical form, NReq=9934999.
 Requested convergence on RMS density matrix=1.00D-08 within 128 cycles.
 Requested convergence on MAX density matrix=1.00D-06.
 Requested convergence on             energy=1.00D-06.
 No special actions if energy rises.
 Integral accuracy reduced to 1.0D-05 until final iterations.
 Initial convergence to 1.0D-05 achieved.  Increase integral accuracy.
 SCF Done:  E(RB3LYP) =  -230.058106659     A.U. after   12 cycles
            NFock= 12  Conv=0.36D-08     -V/T= 2.0076

 **********************************************************************

            Population analysis using the SCF Density.

 **********************************************************************

 Orbital symmetries:
       Occupied  (A) (A) (A) (A) (A) (A) (A) (A) (A) (A) (A) (A)
                 (A) (A) (A) (A) (A)
       Virtual   (A) (A) (A) (A) (A) (A) (A) (A) (A) (A) (A) (A)
                 (A) (A) (A) (A) (A) (A) (A) (A) (A) (A) (A) (A)
                 (A) (A) (A) (A) (A) (A) (A) (A) (A) (A) (A) (A)
                 (A) (A) (A) (A) (A) (A) (A) (A) (A) (A) (A) (A)
                 (A) (A) (A)
 The electronic state is 1-A.
 Alpha  occ. eigenvalues --  -19.13574 -19.11187 -10.23006 -10.22322  -1.01998
 Alpha  occ. eigenvalues --   -0.98748  -0.72953  -0.61314  -0.53151  -0.49239
 Alpha  occ. eigenvalues --   -0.46254  -0.42400  -0.41142  -0.35625  -0.32421
 Alpha  occ. eigenvalues --   -0.28223  -0.26149
 Alpha virt. eigenvalues --    0.03501   0.08522   0.09262   0.11739   0.12657
 Alpha virt. eigenvalues --    0.14441   0.18760   0.20713   0.22877   0.47412
 Alpha virt. eigenvalues --    0.47779   0.48681   0.50841   0.56689   0.59704
 Alpha virt. eigenvalues --    0.62430   0.66944   0.67637   0.68351   0.69849
 Alpha virt. eigenvalues --    0.71418   0.72284   0.84759   0.98087   1.00936
 Alpha virt. eigenvalues --    1.03860   1.05978   1.22392   1.27706   1.45013
 Alpha virt. eigenvalues --    1.51471   1.56363   1.61082   1.82499   1.85993
 Alpha virt. eigenvalues --    1.88731   2.07866   2.09065   2.13969   2.20997
 Alpha virt. eigenvalues --    2.46738   2.60739   2.64680   2.82925   2.85311
 Alpha virt. eigenvalues --    2.87050   2.95393   2.98560   2.99707   3.32164
 Alpha virt. eigenvalues --    3.35638
          Condensed to atoms (all electrons):
               1          2          3          4          5          6
     1  O    8.018239   0.311282  -0.059120  -0.004654   0.266061  -0.033400
     2  C    0.311282   4.679170   0.410359  -0.035049  -0.027888   0.344442
     3  C   -0.059120   0.410359   4.649949   0.321856   0.009218  -0.021991
     4  O   -0.004654  -0.035049   0.321856   7.992501  -0.000040   0.005168
     5  H    0.266061  -0.027888   0.009218  -0.000040   0.452287  -0.004299
     6  H   -0.033400   0.344442  -0.021991   0.005168  -0.004299   0.690369
     7  H   -0.037745   0.356832  -0.021600   0.003312  -0.003671  -0.042936
     8  H    0.001105  -0.026211   0.347942  -0.036303  -0.000495  -0.004181
     9  H    0.003633  -0.011966   0.351247  -0.028218  -0.000410   0.000870
    10  H    0.027539  -0.008727  -0.057731   0.275129  -0.001238   0.001651
               7          8          9         10
     1  O   -0.037745   0.001105   0.003633   0.027539
     2  C    0.356832  -0.026211  -0.011966  -0.008727
     3  C   -0.021600   0.347942   0.351247  -0.057731
     4  O    0.003312  -0.036303  -0.028218   0.275129
     5  H   -0.003671  -0.000495  -0.000410  -0.001238
     6  H   -0.042936  -0.004181   0.000870   0.001651
     7  H    0.671787   0.011439  -0.007337  -0.001723
     8  H    0.011439   0.676939  -0.037708  -0.002844
     9  H   -0.007337  -0.037708   0.635976   0.009356
    10  H   -0.001723  -0.002844   0.009356   0.450871
 Mulliken charges:
               1
     1  O   -0.492939
     2  C    0.007756
     3  C    0.069869
     4  O   -0.493702
     5  H    0.310476
     6  H    0.064307
     7  H    0.071641
     8  H    0.070317
     9  H    0.084557
    10  H    0.307717
 Sum of Mulliken charges =  -0.00000
 Mulliken charges with hydrogens summed into heavy atoms:
               1
     1  O   -0.182463
     2  C    0.143704
     3  C    0.224744
     4  O   -0.185985
 Electronic spatial extent (au):  <R**2>=            299.4283
 Charge=              0.0000 electrons
 Dipole moment (field-independent basis, Debye):
    X=             -2.4892    Y=              1.1089    Z=             -0.3050  Tot=              2.7421
 Quadrupole moment (field-independent basis, Debye-Ang):
   XX=            -24.4460   YY=            -23.1874   ZZ=            -25.4117
   XY=              1.0269   XZ=              2.6923   YZ=              0.0990
 Traceless Quadrupole moment (field-independent basis, Debye-Ang):
   XX=             -0.0976   YY=              1.1610   ZZ=             -1.0634
   XY=              1.0269   XZ=              2.6923   YZ=              0.0990
 Octapole moment (field-independent basis, Debye-Ang**2):
  XXX=            -22.9141  YYY=             -7.5586  ZZZ=             -0.1253  XYY=              1.5964
  XXY=              0.0897  XXZ=             -1.7406  XZZ=             -0.3672  YZZ=             -1.3042
  YYZ=             -0.1616  XYZ=             -1.7611
 Hexadecapole moment (field-independent basis, Debye-Ang**3):
 XXXX=           -189.8389 YYYY=            -87.3744 ZZZZ=            -45.4060 XXXY=             14.4246
 XXXZ=              5.1740 YYYX=             -2.1808 YYYZ=              0.0286 ZZZX=              0.0276
 ZZZY=             -0.0150 XXYY=            -49.5149 XXZZ=            -45.0445 YYZZ=            -23.8703
 XXYZ=              0.7785 YYXZ=             -0.5319 ZZXY=              0.2667
 N-N= 1.330050813414D+02 E-N=-8.056577426949D+02  KE= 2.283211500941D+02
   1 Symmetry operations used in ECPInt.
 ECPInt:  NShTT=     666 NPrTT=    2698 LenC2=     666 LenP2D=    2342.
 LDataN:  DoStor=T MaxTD1= 5 Len=  102
 Calling FoFJK, ICntrl=      2127 FMM=F ISym2X=0 I1Cent= 0 IOpClX= 0 NMat=1 NMatS=1 NMatT=0.
 ***** Axes restored to original set *****
 -------------------------------------------------------------------
 Center     Atomic                   Forces (Hartrees/Bohr)
 Number     Number              X              Y              Z
 -------------------------------------------------------------------
      1        8           0.001630261    0.001013532   -0.001706535
      2        6          -0.010850431    0.002521028   -0.006346218
      3        6          -0.017607994    0.008464580    0.017263322
      4        8           0.001629139   -0.005618834   -0.000258067
      5        1          -0.001704606    0.005172533   -0.000980776
      6        1           0.007883680   -0.007089806   -0.004831374
      7        1           0.010170783    0.000411697    0.006822253
      8        1          -0.000334334   -0.006462223   -0.011743869
      9        1           0.005764064    0.000022520    0.001335742
     10        1           0.003419440    0.001564974    0.000445523
 -------------------------------------------------------------------
 Cartesian Forces:  Max     0.017607994 RMS     0.006905660

 GradGradGradGradGradGradGradGradGradGradGradGradGradGradGradGradGradGrad
 Berny optimization.
 FormGI is forming the generalized inverse of G from B-inverse, IUseBI=4.
 Internal  Forces:  Max     0.013563981 RMS     0.005146819
 Search for a local minimum.
 Step number   1 out of a maximum of   48
 All quantities printed in internal units (Hartrees-Bohrs-Radians)
 Mixed Optimization -- RFO/linear search
 Second derivative matrix not updated -- first step.
 ITU=  0
     Eigenvalues ---    0.00456   0.01304   0.01339   0.05215   0.05325
     Eigenvalues ---    0.05693   0.05738   0.11343   0.11469   0.13664
     Eigenvalues ---    0.13739   0.16000   0.16000   0.22035   0.22054
     Eigenvalues ---    0.30040   0.34348   0.34375   0.34397   0.34420
     Eigenvalues ---    0.41090   0.41474   0.51771   0.52575
 RFO step:  Lambda=-5.48124986D-03 EMin= 4.56246956D-03
 Linear search not attempted -- first point.
 Iteration  1 RMS(Cart)=  0.04942232 RMS(Int)=  0.00174115
 Iteration  2 RMS(Cart)=  0.00163400 RMS(Int)=  0.00077110
 Iteration  3 RMS(Cart)=  0.00000159 RMS(Int)=  0.00077110
 Iteration  4 RMS(Cart)=  0.00000000 RMS(Int)=  0.00077110
 Variable       Old X    -DE/DX   Delta X   Delta X   Delta X     New X
                                 (Linear)    (Quad)   (Total)
    R1        2.70099   0.00032   0.00000   0.00076   0.00076   2.70175
    R2        1.84053  -0.00430   0.00000  -0.00809  -0.00809   1.83244
    R3        2.87883  -0.00689   0.00000  -0.02251  -0.02251   2.85632
    R4        2.06702   0.01054   0.00000   0.03017   0.03017   2.09719
    R5        2.06666   0.00942   0.00000   0.02696   0.02696   2.09361
    R6        2.69598  -0.00458   0.00000  -0.01090  -0.01090   2.68507
    R7        2.06746   0.01003   0.00000   0.02875   0.02875   2.09621
    R8        2.06626   0.00575   0.00000   0.01645   0.01645   2.08272
    R9        1.84819  -0.00355   0.00000  -0.00678  -0.00678   1.84141
    A1        1.86311   0.00603   0.00000   0.03646   0.03646   1.89957
    A2        1.89693  -0.01356   0.00000  -0.05560  -0.05531   1.84162
    A3        1.90106   0.00743   0.00000   0.05553   0.05488   1.95594
    A4        1.87991   0.00923   0.00000   0.06091   0.05923   1.93913
    A5        1.93516   0.00157   0.00000  -0.00380  -0.00332   1.93184
    A6        1.93194  -0.00312   0.00000  -0.04145  -0.04115   1.89080
    A7        1.91761  -0.00128   0.00000  -0.01246  -0.01453   1.90308
    A8        1.91078   0.00327   0.00000   0.02073   0.02060   1.93138
    A9        1.93684  -0.00608   0.00000  -0.03491  -0.03618   1.90066
   A10        1.93871  -0.00093   0.00000  -0.02273  -0.02323   1.91548
   A11        1.87622   0.00593   0.00000   0.07461   0.07486   1.95108
   A12        1.89430  -0.00272   0.00000  -0.02295  -0.02269   1.87161
   A13        1.90545   0.00080   0.00000  -0.01146  -0.01245   1.89300
   A14        1.82851   0.00243   0.00000   0.01468   0.01468   1.84319
    D1       -3.12827   0.00212   0.00000   0.05132   0.05161  -3.07666
    D2        1.04472   0.00392   0.00000   0.05612   0.05798   1.10270
    D3       -1.03436  -0.00395   0.00000   0.00537   0.00322  -1.03114
    D4        1.04506   0.00205   0.00000   0.00053   0.00070   1.04577
    D5       -1.02317  -0.00360   0.00000  -0.08316  -0.08231  -1.10548
    D6        3.13682   0.00021   0.00000  -0.02886  -0.02891   3.10792
    D7        3.13414   0.00359   0.00000   0.03141   0.03116  -3.11788
    D8        1.06591  -0.00207   0.00000  -0.05228  -0.05185   1.01406
    D9       -1.05728   0.00174   0.00000   0.00201   0.00155  -1.05573
   D10       -1.01619   0.00089   0.00000  -0.01559  -0.01598  -1.03217
   D11       -3.08443  -0.00476   0.00000  -0.09928  -0.09899   3.09977
   D12        1.07557  -0.00096   0.00000  -0.04499  -0.04559   1.02998
   D13       -0.85561   0.00041   0.00000  -0.01183  -0.01268  -0.86829
   D14        1.24991  -0.00150   0.00000   0.00258   0.00360   1.25351
   D15       -2.97440   0.00124   0.00000   0.01756   0.01739  -2.95701
         Item               Value     Threshold  Converged?
 Maximum Force            0.013564     0.000450     NO 
 RMS     Force            0.005147     0.000300     NO 
 Maximum Displacement     0.132322     0.001800     NO 
 RMS     Displacement     0.049571     0.001200     NO 
 Predicted change in Energy=-2.895545D-03
 GradGradGradGradGradGradGradGradGradGradGradGradGradGradGradGradGradGrad

                          Input orientation:                          
 ---------------------------------------------------------------------
 Center     Atomic      Atomic             Coordinates (Angstroms)
 Number     Number       Type             X           Y           Z
 ---------------------------------------------------------------------
      1          8           0        1.057005    0.168553   -0.002284
      2          6           0        2.483255    0.070322    0.012451
      3          6           0        2.984942    1.387094   -0.534407
      4          8           0        2.541767    2.467538    0.274999
      5          1           0        0.683836   -0.632898    0.396102
      6          1           0        2.849317   -0.775758   -0.605427
      7          1           0        2.864468   -0.045642    1.046210
      8          1           0        2.644608    1.492954   -1.584855
      9          1           0        4.086917    1.400048   -0.521586
     10          1           0        1.583076    2.334529    0.387848
 ---------------------------------------------------------------------
                    Distance matrix (angstroms):
                    1          2          3          4          5
     1  O    0.000000
     2  C    1.429705   0.000000
     3  C    2.341995   1.511500   0.000000
     4  O    2.750770   2.412260   1.420880   0.000000
     5  H    0.969685   1.969673   3.200203   3.616528   0.000000
     6  H    2.113738   1.109787   2.168263   3.374715   2.390141
     7  H    2.100510   1.107893   2.136725   2.648579   2.350035
     8  H    2.603662   2.145065   1.109268   2.102248   3.505433
     9  H    3.311589   2.150604   1.102126   2.039993   4.068904
    10  H    2.262832   2.465335   1.927023   0.974430   3.100698
                    6          7          8          9         10
     6  H    0.000000
     7  H    1.805880   0.000000
     8  H    2.479564   3.055834   0.000000
     9  H    2.504559   2.458126   1.794277   0.000000
    10  H    3.501978   2.782197   2.393044   2.823039   0.000000
 Stoichiometry    C2H6O2
 Framework group  C1[X(C2H6O2)]
 Deg. of freedom    24
 Full point group                 C1      NOp   1
 Largest Abelian subgroup         C1      NOp   1
 Largest concise Abelian subgroup C1      NOp   1
                         Standard orientation:                         
 ---------------------------------------------------------------------
 Center     Atomic      Atomic             Coordinates (Angstroms)
 Number     Number       Type             X           Y           Z
 ---------------------------------------------------------------------
      1          8           0       -1.302504   -0.588514    0.205022
      2          6           0       -0.679904    0.608038   -0.268991
      3          6           0        0.729165    0.574282    0.276918
      4          8           0        1.419869   -0.576680   -0.189038
      5          1           0       -2.195943   -0.645338   -0.167572
      6          1           0       -1.211860    1.519271    0.074964
      7          1           0       -0.624834    0.617696   -1.375473
      8          1           0        0.686175    0.608256    1.384832
      9          1           0        1.287228    1.455960   -0.077892
     10          1           0        0.824738   -1.328211   -0.014295
 ---------------------------------------------------------------------
 Rotational constants (GHZ):          15.1083608           5.7585494           4.7014719
 Standard basis: def2SVPP (5D, 7F)
 There are    72 symmetry adapted cartesian basis functions of A   symmetry.
 There are    68 symmetry adapted basis functions of A   symmetry.
    68 basis functions,   124 primitive gaussians,    72 cartesian basis functions
    17 alpha electrons       17 beta electrons
       nuclear repulsion energy       133.5155947611 Hartrees.
 NAtoms=   10 NActive=   10 NUniq=   10 SFac= 1.00D+00 NAtFMM=   60 NAOKFM=F Big=F
 Integral buffers will be    131072 words long.
 Raffenetti 2 integral format.
 Two-electron integral symmetry is turned on.
 Nuclear repulsion after empirical dispersion term =      133.5066021933 Hartrees.
 One-electron integrals computed using PRISM.
   1 Symmetry operations used in ECPInt.
 ECPInt:  NShTT=     666 NPrTT=    2698 LenC2=     666 LenP2D=    2344.
 LDataN:  DoStor=T MaxTD1= 4 Len=   56
 NBasis=    68 RedAO= T EigKep=  3.55D-03  NBF=    68
 NBsUse=    68 1.00D-06 EigRej= -1.00D+00 NBFU=    68
 Initial guess from the checkpoint file:  "/tmp/scratch/Gau-4074435.chk"
 B after Tr=     0.000000    0.000000   -0.000000
         Rot=    0.999968   -0.003856    0.002432   -0.006558 Ang=  -0.92 deg.
 ExpMin= 1.22D-01 ExpMax= 2.27D+03 ExpMxC= 3.41D+02 IAcc=3 IRadAn=         5 AccDes= 0.00D+00
 Harris functional with IExCor=  402 and IRadAn=       5 diagonalized for initial guess.
 HarFok:  IExCor=  402 AccDes= 0.00D+00 IRadAn=         5 IDoV= 1 UseB2=F ITyADJ=14
 ICtDFT=  3500011 ScaDFX=  1.000000  1.000000  1.000000  1.000000
 FoFCou: FMM=F IPFlag=           0 FMFlag=      100000 FMFlg1=           0
         NFxFlg=           0 DoJE=T BraDBF=F KetDBF=T FulRan=T
         wScrn=  0.000000 ICntrl=       500 IOpCl=  0 I1Cent=   200000004 NGrid=           0
         NMat0=    1 NMatS0=      1 NMatT0=    0 NMatD0=    1 NMtDS0=    0 NMtDT0=    0
 Petite list used in FoFCou.
 Keep R1 ints in memory in canonical form, NReq=9934999.
 Requested convergence on RMS density matrix=1.00D-08 within 128 cycles.
 Requested convergence on MAX density matrix=1.00D-06.
 Requested convergence on             energy=1.00D-06.
 No special actions if energy rises.
 Integral accuracy reduced to 1.0D-05 until final iterations.
 Initial convergence to 1.0D-05 achieved.  Increase integral accuracy.
 SCF Done:  E(RB3LYP) =  -230.060631206     A.U. after   11 cycles
            NFock= 11  Conv=0.25D-08     -V/T= 2.0078
   1 Symmetry operations used in ECPInt.
 ECPInt:  NShTT=     666 NPrTT=    2698 LenC2=     666 LenP2D=    2344.
 LDataN:  DoStor=T MaxTD1= 5 Len=  102
 Calling FoFJK, ICntrl=      2127 FMM=F ISym2X=0 I1Cent= 0 IOpClX= 0 NMat=1 NMatS=1 NMatT=0.
 ***** Axes restored to original set *****
 -------------------------------------------------------------------
 Center     Atomic                   Forces (Hartrees/Bohr)
 Number     Number              X              Y              Z
 -------------------------------------------------------------------
      1        8           0.005446614   -0.003326927    0.000066492
      2        6          -0.006343323    0.001649420    0.000329398
      3        6           0.000181918    0.007488846    0.005045425
      4        8           0.001764859   -0.005661680   -0.005159594
      5        1          -0.000908708    0.000592808    0.000754278
      6        1          -0.000616183   -0.000225878   -0.000024909
      7        1          -0.000454310   -0.001909687    0.000752442
      8        1          -0.000086942    0.000766018   -0.000929284
      9        1           0.000815126    0.000711820   -0.000812009
     10        1           0.000200949   -0.000084739   -0.000022239
 -------------------------------------------------------------------
 Cartesian Forces:  Max     0.007488846 RMS     0.002811296

 GradGradGradGradGradGradGradGradGradGradGradGradGradGradGradGradGradGrad
 Berny optimization.
 Using GEDIIS/GDIIS optimizer.
 FormGI is forming the generalized inverse of G from B-inverse, IUseBI=4.
 Internal  Forces:  Max     0.007935196 RMS     0.001866787
 Search for a local minimum.
 Step number   2 out of a maximum of   48
 All quantities printed in internal units (Hartrees-Bohrs-Radians)
 Mixed Optimization -- RFO/linear search
 Update second derivatives using D2CorX and points    1    2
 DE= -2.52D-03 DEPred=-2.90D-03 R= 8.72D-01
 TightC=F SS=  1.41D+00  RLast= 2.34D-01 DXNew= 5.0454D-01 7.0339D-01
 Trust test= 8.72D-01 RLast= 2.34D-01 DXMaxT set to 5.05D-01
 ITU=  1  0
 Use linear search instead of GDIIS.
     Eigenvalues ---    0.00459   0.01285   0.01339   0.05257   0.05658
     Eigenvalues ---    0.05878   0.06067   0.11136   0.11871   0.13491
     Eigenvalues ---    0.13652   0.15613   0.16020   0.22002   0.23047
     Eigenvalues ---    0.31243   0.32394   0.34370   0.34401   0.34443
     Eigenvalues ---    0.41158   0.43535   0.51763   0.52631
 RFO step:  Lambda=-4.42938175D-04 EMin= 4.58817179D-03
 Quartic linear search produced a step of -0.07151.
 Iteration  1 RMS(Cart)=  0.01874531 RMS(Int)=  0.00017662
 Iteration  2 RMS(Cart)=  0.00017781 RMS(Int)=  0.00004801
 Iteration  3 RMS(Cart)=  0.00000002 RMS(Int)=  0.00004801
 Variable       Old X    -DE/DX   Delta X   Delta X   Delta X     New X
                                 (Linear)    (Quad)   (Total)
    R1        2.70175  -0.00472  -0.00005  -0.01053  -0.01058   2.69117
    R2        1.83244   0.00017   0.00058  -0.00088  -0.00030   1.83214
    R3        2.85632   0.00444   0.00161   0.01039   0.01200   2.86832
    R4        2.09719  -0.00002  -0.00216   0.00434   0.00218   2.09938
    R5        2.09361   0.00075  -0.00193   0.00593   0.00400   2.09762
    R6        2.68507  -0.00794   0.00078  -0.01929  -0.01851   2.66656
    R7        2.09621   0.00098  -0.00206   0.00682   0.00477   2.10098
    R8        2.08272   0.00081  -0.00118   0.00458   0.00341   2.08612
    R9        1.84141  -0.00019   0.00049  -0.00132  -0.00084   1.84057
    A1        1.89957   0.00171  -0.00261   0.01524   0.01263   1.91220
    A2        1.84162   0.00277   0.00396   0.00477   0.00868   1.85030
    A3        1.95594  -0.00135  -0.00392  -0.00174  -0.00563   1.95031
    A4        1.93913  -0.00158  -0.00424   0.00114  -0.00306   1.93607
    A5        1.93184  -0.00042   0.00024  -0.00100  -0.00078   1.93106
    A6        1.89080   0.00114   0.00294   0.00656   0.00947   1.90026
    A7        1.90308  -0.00041   0.00104  -0.00892  -0.00775   1.89533
    A8        1.93138   0.00002  -0.00147   0.00362   0.00214   1.93351
    A9        1.90066   0.00038   0.00259  -0.00448  -0.00180   1.89887
   A10        1.91548   0.00100   0.00166   0.00669   0.00837   1.92385
   A11        1.95108  -0.00072  -0.00535   0.00186  -0.00351   1.94757
   A12        1.87161  -0.00008   0.00162  -0.00053   0.00104   1.87264
   A13        1.89300  -0.00060   0.00089  -0.00711  -0.00614   1.88686
   A14        1.84319  -0.00017  -0.00105   0.00117   0.00012   1.84331
    D1       -3.07666  -0.00002  -0.00369   0.03939   0.03568  -3.04098
    D2        1.10270  -0.00051  -0.00415   0.03856   0.03431   1.13700
    D3       -1.03114   0.00212  -0.00023   0.05051   0.05041  -0.98073
    D4        1.04577  -0.00037  -0.00005  -0.02469  -0.02474   1.02102
    D5       -1.10548   0.00026   0.00589  -0.02638  -0.02053  -1.12601
    D6        3.10792   0.00017   0.00207  -0.01900  -0.01690   3.09102
    D7       -3.11788  -0.00053  -0.00223  -0.02443  -0.02664   3.13866
    D8        1.01406   0.00009   0.00371  -0.02611  -0.02243   0.99163
    D9       -1.05573   0.00001  -0.00011  -0.01873  -0.01880  -1.07453
   D10       -1.03217  -0.00057   0.00114  -0.03185  -0.03072  -1.06289
   D11        3.09977   0.00005   0.00708  -0.03354  -0.02650   3.07326
   D12        1.02998  -0.00004   0.00326  -0.02616  -0.02287   1.00711
   D13       -0.86829   0.00043   0.00091   0.00682   0.00779  -0.86050
   D14        1.25351   0.00044  -0.00026   0.00491   0.00458   1.25808
   D15       -2.95701  -0.00075  -0.00124  -0.00303  -0.00426  -2.96127
         Item               Value     Threshold  Converged?
 Maximum Force            0.007935     0.000450     NO 
 RMS     Force            0.001867     0.000300     NO 
 Maximum Displacement     0.056379     0.001800     NO 
 RMS     Displacement     0.018708     0.001200     NO 
 Predicted change in Energy=-2.400520D-04
 GradGradGradGradGradGradGradGradGradGradGradGradGradGradGradGradGradGrad

                          Input orientation:                          
 ---------------------------------------------------------------------
 Center     Atomic      Atomic             Coordinates (Angstroms)
 Number     Number       Type             X           Y           Z
 ---------------------------------------------------------------------
      1          8           0        1.059477    0.163791    0.005388
      2          6           0        2.480414    0.068930    0.008821
      3          6           0        2.989823    1.393501   -0.529595
      4          8           0        2.533895    2.465992    0.266049
      5          1           0        0.680582   -0.623333    0.425936
      6          1           0        2.838190   -0.773434   -0.620952
      7          1           0        2.865925   -0.071627    1.040203
      8          1           0        2.662310    1.500286   -1.586672
      9          1           0        4.093336    1.415116   -0.508420
     10          1           0        1.575238    2.327518    0.368294
 ---------------------------------------------------------------------
                    Distance matrix (angstroms):
                    1          2          3          4          5
     1  O    0.000000
     2  C    1.424105   0.000000
     3  C    2.350453   1.517852   0.000000
     4  O    2.746267   2.411417   1.411084   0.000000
     5  H    0.969528   1.972969   3.211424   3.606142   0.000000
     6  H    2.105828   1.110943   2.174153   3.372424   2.402869
     7  H    2.095118   1.110010   2.150864   2.673775   2.336113
     8  H    2.624871   2.151154   1.111791   2.093240   3.533779
     9  H    3.321764   2.163624   1.103928   2.033715   4.083526
    10  H    2.253758   2.459631   1.918239   0.973987   3.084031
                    6          7          8          9         10
     6  H    0.000000
     7  H    1.803534   0.000000
     8  H    2.476560   3.068035   0.000000
     9  H    2.525431   2.472889   1.793799   0.000000
    10  H    3.491354   2.805928   2.384938   2.818141   0.000000
 Stoichiometry    C2H6O2
 Framework group  C1[X(C2H6O2)]
 Deg. of freedom    24
 Full point group                 C1      NOp   1
 Largest Abelian subgroup         C1      NOp   1
 Largest concise Abelian subgroup C1      NOp   1
                         Standard orientation:                         
 ---------------------------------------------------------------------
 Center     Atomic      Atomic             Coordinates (Angstroms)
 Number     Number       Type             X           Y           Z
 ---------------------------------------------------------------------
      1          8           0       -1.304802   -0.583561    0.204514
      2          6           0       -0.681849    0.609811   -0.260101
      3          6           0        0.741058    0.571943    0.266945
      4          8           0        1.413177   -0.582116   -0.188641
      5          1           0       -2.192173   -0.657062   -0.179094
      6          1           0       -1.209717    1.517639    0.102387
      7          1           0       -0.653345    0.636199   -1.369432
      8          1           0        0.713077    0.617408    1.377453
      9          1           0        1.306743    1.446795   -0.098146
     10          1           0        0.813157   -1.326091   -0.001214
 ---------------------------------------------------------------------
 Rotational constants (GHZ):          15.1723838           5.7606489           4.6955746
 Standard basis: def2SVPP (5D, 7F)
 There are    72 symmetry adapted cartesian basis functions of A   symmetry.
 There are    68 symmetry adapted basis functions of A   symmetry.
    68 basis functions,   124 primitive gaussians,    72 cartesian basis functions
    17 alpha electrons       17 beta electrons
       nuclear repulsion energy       133.6060275692 Hartrees.
 NAtoms=   10 NActive=   10 NUniq=   10 SFac= 1.00D+00 NAtFMM=   60 NAOKFM=F Big=F
 Integral buffers will be    131072 words long.
 Raffenetti 2 integral format.
 Two-electron integral symmetry is turned on.
 Nuclear repulsion after empirical dispersion term =      133.5970443461 Hartrees.
 One-electron integrals computed using PRISM.
   1 Symmetry operations used in ECPInt.
 ECPInt:  NShTT=     666 NPrTT=    2698 LenC2=     666 LenP2D=    2343.
 LDataN:  DoStor=T MaxTD1= 4 Len=   56
 NBasis=    68 RedAO= T EigKep=  3.62D-03  NBF=    68
 NBsUse=    68 1.00D-06 EigRej= -1.00D+00 NBFU=    68
 Initial guess from the checkpoint file:  "/tmp/scratch/Gau-4074435.chk"
 B after Tr=    -0.000000   -0.000000   -0.000000
         Rot=    0.999996   -0.000017   -0.002039    0.001908 Ang=  -0.32 deg.
 ExpMin= 1.22D-01 ExpMax= 2.27D+03 ExpMxC= 3.41D+02 IAcc=3 IRadAn=         5 AccDes= 0.00D+00
 Harris functional with IExCor=  402 and IRadAn=       5 diagonalized for initial guess.
 HarFok:  IExCor=  402 AccDes= 0.00D+00 IRadAn=         5 IDoV= 1 UseB2=F ITyADJ=14
 ICtDFT=  3500011 ScaDFX=  1.000000  1.000000  1.000000  1.000000
 FoFCou: FMM=F IPFlag=           0 FMFlag=      100000 FMFlg1=           0
         NFxFlg=           0 DoJE=T BraDBF=F KetDBF=T FulRan=T
         wScrn=  0.000000 ICntrl=       500 IOpCl=  0 I1Cent=   200000004 NGrid=           0
         NMat0=    1 NMatS0=      1 NMatT0=    0 NMatD0=    1 NMtDS0=    0 NMtDT0=    0
 Petite list used in FoFCou.
 Keep R1 ints in memory in canonical form, NReq=9934999.
 Requested convergence on RMS density matrix=1.00D-08 within 128 cycles.
 Requested convergence on MAX density matrix=1.00D-06.
 Requested convergence on             energy=1.00D-06.
 No special actions if energy rises.
 Integral accuracy reduced to 1.0D-05 until final iterations.
 Initial convergence to 1.0D-05 achieved.  Increase integral accuracy.
 SCF Done:  E(RB3LYP) =  -230.060927112     A.U. after   10 cycles
            NFock= 10  Conv=0.23D-08     -V/T= 2.0078
   1 Symmetry operations used in ECPInt.
 ECPInt:  NShTT=     666 NPrTT=    2698 LenC2=     666 LenP2D=    2343.
 LDataN:  DoStor=T MaxTD1= 5 Len=  102
 Calling FoFJK, ICntrl=      2127 FMM=F ISym2X=0 I1Cent= 0 IOpClX= 0 NMat=1 NMatS=1 NMatT=0.
 ***** Axes restored to original set *****
 -------------------------------------------------------------------
 Center     Atomic                   Forces (Hartrees/Bohr)
 Number     Number              X              Y              Z
 -------------------------------------------------------------------
      1        8           0.002077206   -0.000377841   -0.000896568
      2        6          -0.002046334   -0.000467937    0.000882697
      3        6           0.000146841    0.002733979    0.001357941
      4        8           0.000263589   -0.001693557   -0.001537060
      5        1           0.000244370    0.000316122    0.000634286
      6        1          -0.000070067    0.000510578    0.000069864
      7        1          -0.000249423   -0.000537393   -0.000397791
      8        1           0.000240572   -0.000052758   -0.000047482
      9        1          -0.000294808   -0.000570876   -0.000452862
     10        1          -0.000311945    0.000139685    0.000386976
 -------------------------------------------------------------------
 Cartesian Forces:  Max     0.002733979 RMS     0.000955274

 GradGradGradGradGradGradGradGradGradGradGradGradGradGradGradGradGradGrad
 Berny optimization.
 Using GEDIIS/GDIIS optimizer.
 FormGI is forming the generalized inverse of G from B-inverse, IUseBI=4.
 Internal  Forces:  Max     0.002320067 RMS     0.000561397
 Search for a local minimum.
 Step number   3 out of a maximum of   48
 All quantities printed in internal units (Hartrees-Bohrs-Radians)
 Mixed Optimization -- En-DIIS/RFO-DIIS
 Update second derivatives using D2CorX and points    1    2    3
 DE= -2.96D-04 DEPred=-2.40D-04 R= 1.23D+00
 TightC=F SS=  1.41D+00  RLast= 1.07D-01 DXNew= 8.4853D-01 3.1969D-01
 Trust test= 1.23D+00 RLast= 1.07D-01 DXMaxT set to 5.05D-01
 ITU=  1  1  0
 Use linear search instead of GDIIS.
     Eigenvalues ---    0.00462   0.00998   0.01343   0.05192   0.05514
     Eigenvalues ---    0.05720   0.06057   0.11124   0.12102   0.13471
     Eigenvalues ---    0.13934   0.15626   0.16736   0.22051   0.22992
     Eigenvalues ---    0.31675   0.33018   0.34398   0.34409   0.34691
     Eigenvalues ---    0.37271   0.42403   0.51859   0.52628
 RFO step:  Lambda=-9.54337800D-05 EMin= 4.62397408D-03
 Quartic linear search produced a step of  0.32855.
 Iteration  1 RMS(Cart)=  0.01275114 RMS(Int)=  0.00025162
 Iteration  2 RMS(Cart)=  0.00022847 RMS(Int)=  0.00000933
 Iteration  3 RMS(Cart)=  0.00000007 RMS(Int)=  0.00000933
 Variable       Old X    -DE/DX   Delta X   Delta X   Delta X     New X
                                 (Linear)    (Quad)   (Total)
    R1        2.69117  -0.00232  -0.00348  -0.00626  -0.00974   2.68143
    R2        1.83214  -0.00008  -0.00010  -0.00047  -0.00056   1.83158
    R3        2.86832   0.00060   0.00394   0.00034   0.00429   2.87261
    R4        2.09938  -0.00045   0.00072  -0.00090  -0.00018   2.09919
    R5        2.09762  -0.00039   0.00131  -0.00101   0.00030   2.09792
    R6        2.66656  -0.00181  -0.00608  -0.00398  -0.01006   2.65650
    R7        2.10098  -0.00003   0.00157   0.00036   0.00193   2.10291
    R8        2.08612  -0.00031   0.00112  -0.00104   0.00008   2.08620
    R9        1.84057   0.00033  -0.00028   0.00071   0.00043   1.84100
    A1        1.91220  -0.00039   0.00415  -0.00349   0.00066   1.91286
    A2        1.85030  -0.00020   0.00285  -0.00428  -0.00145   1.84886
    A3        1.95031   0.00011  -0.00185   0.00228   0.00042   1.95074
    A4        1.93607  -0.00008  -0.00101   0.00256   0.00152   1.93760
    A5        1.93106  -0.00015  -0.00026  -0.00224  -0.00249   1.92857
    A6        1.90026   0.00049   0.00311   0.00286   0.00596   1.90622
    A7        1.89533  -0.00015  -0.00255  -0.00115  -0.00370   1.89162
    A8        1.93351  -0.00020   0.00070   0.00022   0.00092   1.93443
    A9        1.89887   0.00005  -0.00059  -0.00284  -0.00344   1.89543
   A10        1.92385  -0.00031   0.00275  -0.00471  -0.00198   1.92187
   A11        1.94757   0.00003  -0.00115   0.00312   0.00197   1.94954
   A12        1.87264   0.00059   0.00034   0.00785   0.00817   1.88082
   A13        1.88686  -0.00016  -0.00202  -0.00374  -0.00578   1.88108
   A14        1.84331   0.00064   0.00004   0.00597   0.00601   1.84932
    D1       -3.04098   0.00019   0.01172   0.03602   0.04774  -2.99324
    D2        1.13700   0.00043   0.01127   0.04017   0.05145   1.18845
    D3       -0.98073   0.00061   0.01656   0.03827   0.05483  -0.92590
    D4        1.02102  -0.00012  -0.00813   0.00050  -0.00762   1.01340
    D5       -1.12601  -0.00006  -0.00675  -0.00164  -0.00837  -1.13438
    D6        3.09102   0.00029  -0.00555   0.00738   0.00184   3.09286
    D7        3.13866  -0.00020  -0.00875  -0.00065  -0.00940   3.12926
    D8        0.99163  -0.00014  -0.00737  -0.00279  -0.01015   0.98148
    D9       -1.07453   0.00021  -0.00618   0.00623   0.00006  -1.07447
   D10       -1.06289  -0.00017  -0.01009  -0.00164  -0.01174  -1.07463
   D11        3.07326  -0.00011  -0.00871  -0.00378  -0.01249   3.06077
   D12        1.00711   0.00024  -0.00751   0.00524  -0.00228   1.00483
   D13       -0.86050   0.00009   0.00256   0.01124   0.01381  -0.84670
   D14        1.25808   0.00003   0.00150   0.00991   0.01141   1.26949
   D15       -2.96127   0.00022  -0.00140   0.01197   0.01056  -2.95071
         Item               Value     Threshold  Converged?
 Maximum Force            0.002320     0.000450     NO 
 RMS     Force            0.000561     0.000300     NO 
 Maximum Displacement     0.045819     0.001800     NO 
 RMS     Displacement     0.012774     0.001200     NO 
 Predicted change in Energy=-6.742269D-05
 GradGradGradGradGradGradGradGradGradGradGradGradGradGradGradGradGradGrad

                          Input orientation:                          
 ---------------------------------------------------------------------
 Center     Atomic      Atomic             Coordinates (Angstroms)
 Number     Number       Type             X           Y           Z
 ---------------------------------------------------------------------
      1          8           0        1.063975    0.162697   -0.003771
      2          6           0        2.479703    0.067499    0.005010
      3          6           0        2.990589    1.396622   -0.527154
      4          8           0        2.525150    2.463153    0.261540
      5          1           0        0.683715   -0.604593    0.450183
      6          1           0        2.840232   -0.770020   -0.629465
      7          1           0        2.862125   -0.084626    1.036073
      8          1           0        2.672118    1.500080   -1.588390
      9          1           0        4.094114    1.416370   -0.502933
     10          1           0        1.567470    2.319558    0.367958
 ---------------------------------------------------------------------
                    Distance matrix (angstroms):
                    1          2          3          4          5
     1  O    0.000000
     2  C    1.418952   0.000000
     3  C    2.346986   1.520122   0.000000
     4  O    2.738160   2.409778   1.405759   0.000000
     5  H    0.969230   1.968619   3.206512   3.582951   0.000000
     6  H    2.101557   1.110845   2.174261   3.368467   2.417348
     7  H    2.091838   1.110171   2.157377   2.684144   2.314975
     8  H    2.624068   2.151333   1.112811   2.090777   3.541070
     9  H    3.317017   2.164205   1.103967   2.035146   4.077198
    10  H    2.245828   2.456760   1.917891   0.974215   3.055887
                    6          7          8          9         10
     6  H    0.000000
     7  H    1.801183   0.000000
     8  H    2.470051   3.071677   0.000000
     9  H    2.523595   2.477765   1.790893   0.000000
    10  H    3.487158   2.811158   2.391462   2.821016   0.000000
 Stoichiometry    C2H6O2
 Framework group  C1[X(C2H6O2)]
 Deg. of freedom    24
 Full point group                 C1      NOp   1
 Largest Abelian subgroup         C1      NOp   1
 Largest concise Abelian subgroup C1      NOp   1
                         Standard orientation:                         
 ---------------------------------------------------------------------
 Center     Atomic      Atomic             Coordinates (Angstroms)
 Number     Number       Type             X           Y           Z
 ---------------------------------------------------------------------
      1          8           0       -1.300571   -0.580654    0.209152
      2          6           0       -0.684422    0.609192   -0.257808
      3          6           0        0.743627    0.571225    0.261812
      4          8           0        1.408694   -0.582850   -0.187584
      5          1           0       -2.172968   -0.677879   -0.201794
      6          1           0       -1.208531    1.516585    0.110872
      7          1           0       -0.668837    0.640449   -1.367430
      8          1           0        0.718557    0.625269    1.373028
      9          1           0        1.304815    1.447995   -0.105729
     10          1           0        0.806746   -1.326895   -0.005511
 ---------------------------------------------------------------------
 Rotational constants (GHZ):          15.1927757           5.7865804           4.7119817
 Standard basis: def2SVPP (5D, 7F)
 There are    72 symmetry adapted cartesian basis functions of A   symmetry.
 There are    68 symmetry adapted basis functions of A   symmetry.
    68 basis functions,   124 primitive gaussians,    72 cartesian basis functions
    17 alpha electrons       17 beta electrons
       nuclear repulsion energy       133.8014484444 Hartrees.
 NAtoms=   10 NActive=   10 NUniq=   10 SFac= 1.00D+00 NAtFMM=   60 NAOKFM=F Big=F
 Integral buffers will be    131072 words long.
 Raffenetti 2 integral format.
 Two-electron integral symmetry is turned on.
 Nuclear repulsion after empirical dispersion term =      133.7924586551 Hartrees.
 One-electron integrals computed using PRISM.
   1 Symmetry operations used in ECPInt.
 ECPInt:  NShTT=     666 NPrTT=    2698 LenC2=     666 LenP2D=    2343.
 LDataN:  DoStor=T MaxTD1= 4 Len=   56
 NBasis=    68 RedAO= T EigKep=  3.64D-03  NBF=    68
 NBsUse=    68 1.00D-06 EigRej= -1.00D+00 NBFU=    68
 Initial guess from the checkpoint file:  "/tmp/scratch/Gau-4074435.chk"
 B after Tr=     0.000000    0.000000    0.000000
         Rot=    0.999999    0.000649   -0.000937   -0.000180 Ang=   0.13 deg.
 ExpMin= 1.22D-01 ExpMax= 2.27D+03 ExpMxC= 3.41D+02 IAcc=3 IRadAn=         5 AccDes= 0.00D+00
 Harris functional with IExCor=  402 and IRadAn=       5 diagonalized for initial guess.
 HarFok:  IExCor=  402 AccDes= 0.00D+00 IRadAn=         5 IDoV= 1 UseB2=F ITyADJ=14
 ICtDFT=  3500011 ScaDFX=  1.000000  1.000000  1.000000  1.000000
 FoFCou: FMM=F IPFlag=           0 FMFlag=      100000 FMFlg1=           0
         NFxFlg=           0 DoJE=T BraDBF=F KetDBF=T FulRan=T
         wScrn=  0.000000 ICntrl=       500 IOpCl=  0 I1Cent=   200000004 NGrid=           0
         NMat0=    1 NMatS0=      1 NMatT0=    0 NMatD0=    1 NMtDS0=    0 NMtDT0=    0
 Petite list used in FoFCou.
 Keep R1 ints in memory in canonical form, NReq=9934999.
 Requested convergence on RMS density matrix=1.00D-08 within 128 cycles.
 Requested convergence on MAX density matrix=1.00D-06.
 Requested convergence on             energy=1.00D-06.
 No special actions if energy rises.
 Integral accuracy reduced to 1.0D-05 until final iterations.
 Initial convergence to 1.0D-05 achieved.  Increase integral accuracy.
 SCF Done:  E(RB3LYP) =  -230.061002262     A.U. after   10 cycles
            NFock= 10  Conv=0.57D-08     -V/T= 2.0077
   1 Symmetry operations used in ECPInt.
 ECPInt:  NShTT=     666 NPrTT=    2698 LenC2=     666 LenP2D=    2343.
 LDataN:  DoStor=T MaxTD1= 5 Len=  102
 Calling FoFJK, ICntrl=      2127 FMM=F ISym2X=0 I1Cent= 0 IOpClX= 0 NMat=1 NMatS=1 NMatT=0.
 ***** Axes restored to original set *****
 -------------------------------------------------------------------
 Center     Atomic                   Forces (Hartrees/Bohr)
 Number     Number              X              Y              Z
 -------------------------------------------------------------------
      1        8          -0.001043889   -0.000193515   -0.000445794
      2        6           0.000884064   -0.000238944    0.000196030
      3        6           0.000308793   -0.000547032   -0.000593203
      4        8           0.000033577    0.000906913    0.000459402
      5        1          -0.000041855    0.000073056    0.000468294
      6        1           0.000064280    0.000275097   -0.000057712
      7        1          -0.000092357    0.000125982   -0.000397082
      8        1           0.000103498   -0.000058017    0.000336869
      9        1          -0.000221747   -0.000045667    0.000109198
     10        1           0.000005636   -0.000297873   -0.000076002
 -------------------------------------------------------------------
 Cartesian Forces:  Max     0.001043889 RMS     0.000398372

 GradGradGradGradGradGradGradGradGradGradGradGradGradGradGradGradGradGrad
 Berny optimization.
 Using GEDIIS/GDIIS optimizer.
 FormGI is forming the generalized inverse of G from B-inverse, IUseBI=4.
 Internal  Forces:  Max     0.001074857 RMS     0.000279261
 Search for a local minimum.
 Step number   4 out of a maximum of   48
 All quantities printed in internal units (Hartrees-Bohrs-Radians)
 Mixed Optimization -- En-DIIS/RFO-DIIS
 Swapping is turned off.
 Update second derivatives using D2CorX and points    1    2    3    4
 DE= -7.51D-05 DEPred=-6.74D-05 R= 1.11D+00
 TightC=F SS=  1.41D+00  RLast= 9.71D-02 DXNew= 8.4853D-01 2.9121D-01
 Trust test= 1.11D+00 RLast= 9.71D-02 DXMaxT set to 5.05D-01
 ITU=  1  1  1  0
     Eigenvalues ---    0.00447   0.00653   0.01342   0.05213   0.05645
     Eigenvalues ---    0.05775   0.06069   0.11232   0.12031   0.13586
     Eigenvalues ---    0.13951   0.16221   0.16877   0.22042   0.24349
     Eigenvalues ---    0.31520   0.34288   0.34408   0.34435   0.35100
     Eigenvalues ---    0.42223   0.45447   0.51866   0.52647
 En-DIIS/RFO-DIIS/Sim-DIIS IScMMF=       -3 using points:     4    3
 RFO step:  Lambda=-3.05533345D-05.
 DidBck=F Rises=F RFO-DIIS coefs:    1.59969   -0.59969
 Iteration  1 RMS(Cart)=  0.00805348 RMS(Int)=  0.00012373
 Iteration  2 RMS(Cart)=  0.00011630 RMS(Int)=  0.00000356
 Iteration  3 RMS(Cart)=  0.00000002 RMS(Int)=  0.00000356
 Variable       Old X    -DE/DX   Delta X   Delta X   Delta X     New X
                                 (Linear)    (Quad)   (Total)
    R1        2.68143   0.00107  -0.00584   0.00621   0.00037   2.68180
    R2        1.83158   0.00018  -0.00034   0.00055   0.00022   1.83179
    R3        2.87261  -0.00004   0.00257  -0.00116   0.00141   2.87402
    R4        2.09919  -0.00015  -0.00011  -0.00011  -0.00022   2.09897
    R5        2.09792  -0.00042   0.00018  -0.00104  -0.00086   2.09706
    R6        2.65650   0.00066  -0.00603   0.00458  -0.00146   2.65504
    R7        2.10291  -0.00036   0.00116  -0.00147  -0.00031   2.10260
    R8        2.08620  -0.00022   0.00005  -0.00041  -0.00036   2.08584
    R9        1.84100   0.00003   0.00026  -0.00021   0.00005   1.84105
    A1        1.91286  -0.00003   0.00040   0.00063   0.00103   1.91388
    A2        1.84886   0.00048  -0.00087   0.00354   0.00267   1.85152
    A3        1.95074  -0.00004   0.00025   0.00076   0.00102   1.95175
    A4        1.93760  -0.00008   0.00091  -0.00087   0.00004   1.93764
    A5        1.92857  -0.00020  -0.00149  -0.00017  -0.00166   1.92690
    A6        1.90622  -0.00031   0.00357  -0.00475  -0.00118   1.90504
    A7        1.89162   0.00014  -0.00222   0.00131  -0.00091   1.89072
    A8        1.93443   0.00010   0.00055   0.00031   0.00086   1.93529
    A9        1.89543  -0.00005  -0.00206   0.00109  -0.00098   1.89445
   A10        1.92187  -0.00008  -0.00119   0.00050  -0.00070   1.92117
   A11        1.94954   0.00001   0.00118  -0.00015   0.00103   1.95056
   A12        1.88082  -0.00005   0.00490  -0.00418   0.00073   1.88155
   A13        1.88108   0.00006  -0.00346   0.00248  -0.00099   1.88009
   A14        1.84932  -0.00053   0.00360  -0.00616  -0.00255   1.84677
    D1       -2.99324   0.00031   0.02863   0.00511   0.03374  -2.95950
    D2        1.18845   0.00027   0.03085   0.00265   0.03350   1.22196
    D3       -0.92590   0.00018   0.03288   0.00105   0.03393  -0.89198
    D4        1.01340  -0.00001  -0.00457   0.00187  -0.00271   1.01069
    D5       -1.13438  -0.00005  -0.00502   0.00113  -0.00389  -1.13827
    D6        3.09286  -0.00005   0.00110  -0.00280  -0.00171   3.09115
    D7        3.12926   0.00012  -0.00564   0.00485  -0.00079   3.12847
    D8        0.98148   0.00007  -0.00609   0.00411  -0.00197   0.97951
    D9       -1.07447   0.00008   0.00003   0.00018   0.00021  -1.07426
   D10       -1.07463  -0.00001  -0.00704   0.00341  -0.00364  -1.07827
   D11        3.06077  -0.00006  -0.00749   0.00267  -0.00482   3.05595
   D12        1.00483  -0.00006  -0.00137  -0.00127  -0.00264   1.00219
   D13       -0.84670   0.00003   0.00828  -0.00121   0.00708  -0.83962
   D14        1.26949   0.00005   0.00684   0.00029   0.00713   1.27662
   D15       -2.95071   0.00010   0.00633   0.00063   0.00696  -2.94375
         Item               Value     Threshold  Converged?
 Maximum Force            0.001075     0.000450     NO 
 RMS     Force            0.000279     0.000300     YES
 Maximum Displacement     0.033195     0.001800     NO 
 RMS     Displacement     0.008045     0.001200     NO 
 Predicted change in Energy=-1.533140D-05
 GradGradGradGradGradGradGradGradGradGradGradGradGradGradGradGradGradGrad

                          Input orientation:                          
 ---------------------------------------------------------------------
 Center     Atomic      Atomic             Coordinates (Angstroms)
 Number     Number       Type             X           Y           Z
 ---------------------------------------------------------------------
      1          8           0        1.062565    0.158538   -0.009793
      2          6           0        2.478695    0.066616    0.000841
      3          6           0        2.991327    1.397802   -0.526596
      4          8           0        2.522069    2.462667    0.260711
      5          1           0        0.683290   -0.594941    0.467749
      6          1           0        2.843147   -0.768048   -0.634947
      7          1           0        2.859810   -0.087683    1.031574
      8          1           0        2.678516    1.501472   -1.589320
      9          1           0        4.094553    1.417275   -0.497673
     10          1           0        1.565219    2.313040    0.366504
 ---------------------------------------------------------------------
                    Distance matrix (angstroms):
                    1          2          3          4          5
     1  O    0.000000
     2  C    1.419150   0.000000
     3  C    2.350102   1.520867   0.000000
     4  O    2.740864   2.410492   1.404988   0.000000
     5  H    0.969344   1.969553   3.207301   3.573925   0.000000
     6  H    2.102344   1.110727   2.173615   3.367909   2.431232
     7  H    2.091688   1.109715   2.156816   2.685625   2.304875
     8  H    2.628625   2.151128   1.112645   2.090690   3.550691
     9  H    3.318945   2.164207   1.103777   2.034869   4.076489
    10  H    2.244135   2.452462   1.915482   0.974240   3.040461
                    6          7          8          9         10
     6  H    0.000000
     7  H    1.800129   0.000000
     8  H    2.467519   3.070401   0.000000
     9  H    2.522002   2.475497   1.789956   0.000000
    10  H    3.482687   2.807447   2.392346   2.818994   0.000000
 Stoichiometry    C2H6O2
 Framework group  C1[X(C2H6O2)]
 Deg. of freedom    24
 Full point group                 C1      NOp   1
 Largest Abelian subgroup         C1      NOp   1
 Largest concise Abelian subgroup C1      NOp   1
                         Standard orientation:                         
 ---------------------------------------------------------------------
 Center     Atomic      Atomic             Coordinates (Angstroms)
 Number     Number       Type             X           Y           Z
 ---------------------------------------------------------------------
      1          8           0       -1.303675   -0.577860    0.211884
      2          6           0       -0.684065    0.609886   -0.256442
      3          6           0        0.746048    0.570766    0.259585
      4          8           0        1.408055   -0.585368   -0.186611
      5          1           0       -2.164209   -0.688961   -0.220278
      6          1           0       -1.203889    1.519733    0.111899
      7          1           0       -0.670142    0.640836   -1.365638
      8          1           0        0.723167    0.630201    1.370407
      9          1           0        1.307045    1.445630   -0.112194
     10          1           0        0.801082   -1.325523   -0.005236
 ---------------------------------------------------------------------
 Rotational constants (GHZ):          15.1902822           5.7811669           4.7068678
 Standard basis: def2SVPP (5D, 7F)
 There are    72 symmetry adapted cartesian basis functions of A   symmetry.
 There are    68 symmetry adapted basis functions of A   symmetry.
    68 basis functions,   124 primitive gaussians,    72 cartesian basis functions
    17 alpha electrons       17 beta electrons
       nuclear repulsion energy       133.7807706985 Hartrees.
 NAtoms=   10 NActive=   10 NUniq=   10 SFac= 1.00D+00 NAtFMM=   60 NAOKFM=F Big=F
 Integral buffers will be    131072 words long.
 Raffenetti 2 integral format.
 Two-electron integral symmetry is turned on.
 Nuclear repulsion after empirical dispersion term =      133.7717796607 Hartrees.
 One-electron integrals computed using PRISM.
   1 Symmetry operations used in ECPInt.
 ECPInt:  NShTT=     666 NPrTT=    2698 LenC2=     666 LenP2D=    2343.
 LDataN:  DoStor=T MaxTD1= 4 Len=   56
 NBasis=    68 RedAO= T EigKep=  3.64D-03  NBF=    68
 NBsUse=    68 1.00D-06 EigRej= -1.00D+00 NBFU=    68
 Initial guess from the checkpoint file:  "/tmp/scratch/Gau-4074435.chk"
 B after Tr=    -0.000000   -0.000000    0.000000
         Rot=    1.000000    0.000712   -0.000110    0.000658 Ang=   0.11 deg.
 ExpMin= 1.22D-01 ExpMax= 2.27D+03 ExpMxC= 3.41D+02 IAcc=3 IRadAn=         5 AccDes= 0.00D+00
 Harris functional with IExCor=  402 and IRadAn=       5 diagonalized for initial guess.
 HarFok:  IExCor=  402 AccDes= 0.00D+00 IRadAn=         5 IDoV= 1 UseB2=F ITyADJ=14
 ICtDFT=  3500011 ScaDFX=  1.000000  1.000000  1.000000  1.000000
 FoFCou: FMM=F IPFlag=           0 FMFlag=      100000 FMFlg1=           0
         NFxFlg=           0 DoJE=T BraDBF=F KetDBF=T FulRan=T
         wScrn=  0.000000 ICntrl=       500 IOpCl=  0 I1Cent=   200000004 NGrid=           0
         NMat0=    1 NMatS0=      1 NMatT0=    0 NMatD0=    1 NMtDS0=    0 NMtDT0=    0
 Petite list used in FoFCou.
 Keep R1 ints in memory in canonical form, NReq=9934999.
 Requested convergence on RMS density matrix=1.00D-08 within 128 cycles.
 Requested convergence on MAX density matrix=1.00D-06.
 Requested convergence on             energy=1.00D-06.
 No special actions if energy rises.
 Integral accuracy reduced to 1.0D-05 until final iterations.
 Initial convergence to 1.0D-05 achieved.  Increase integral accuracy.
 SCF Done:  E(RB3LYP) =  -230.061023931     A.U. after    9 cycles
            NFock=  9  Conv=0.42D-08     -V/T= 2.0077
   1 Symmetry operations used in ECPInt.
 ECPInt:  NShTT=     666 NPrTT=    2698 LenC2=     666 LenP2D=    2343.
 LDataN:  DoStor=T MaxTD1= 5 Len=  102
 Calling FoFJK, ICntrl=      2127 FMM=F ISym2X=0 I1Cent= 0 IOpClX= 0 NMat=1 NMatS=1 NMatT=0.
 ***** Axes restored to original set *****
 -------------------------------------------------------------------
 Center     Atomic                   Forces (Hartrees/Bohr)
 Number     Number              X              Y              Z
 -------------------------------------------------------------------
      1        8          -0.000857080    0.000119826   -0.000441923
      2        6           0.001205389   -0.000070655    0.000285568
      3        6           0.000176954   -0.001189889   -0.000862659
      4        8          -0.000254475    0.000912986    0.000653044
      5        1           0.000152864    0.000069994    0.000273052
      6        1          -0.000097773    0.000122552   -0.000099109
      7        1          -0.000116268    0.000102747   -0.000137388
      8        1          -0.000008191    0.000112964    0.000197299
      9        1          -0.000076920   -0.000102513    0.000124172
     10        1          -0.000124500   -0.000078012    0.000007944
 -------------------------------------------------------------------
 Cartesian Forces:  Max     0.001205389 RMS     0.000457721

 GradGradGradGradGradGradGradGradGradGradGradGradGradGradGradGradGradGrad
 Berny optimization.
 Using GEDIIS/GDIIS optimizer.
 FormGI is forming the generalized inverse of G from B-inverse, IUseBI=4.
 Internal  Forces:  Max     0.001129790 RMS     0.000252913
 Search for a local minimum.
 Step number   5 out of a maximum of   48
 All quantities printed in internal units (Hartrees-Bohrs-Radians)
 Mixed Optimization -- En-DIIS/RFO-DIIS
 Swapping is turned off.
 Update second derivatives using D2CorX and points    1    2    3    4    5
 DE= -2.17D-05 DEPred=-1.53D-05 R= 1.41D+00
 TightC=F SS=  1.41D+00  RLast= 6.05D-02 DXNew= 8.4853D-01 1.8162D-01
 Trust test= 1.41D+00 RLast= 6.05D-02 DXMaxT set to 5.05D-01
 ITU=  1  1  1  1  0
     Eigenvalues ---    0.00317   0.00485   0.01351   0.05222   0.05619
     Eigenvalues ---    0.06028   0.06364   0.11232   0.12291   0.13624
     Eigenvalues ---    0.14075   0.15828   0.17275   0.22123   0.24638
     Eigenvalues ---    0.32281   0.33836   0.34375   0.34423   0.34606
     Eigenvalues ---    0.43123   0.48447   0.51982   0.53146
 En-DIIS/RFO-DIIS/Sim-DIIS IScMMF=       -3 using points:     5    4    3
 RFO step:  Lambda=-2.40480362D-05.
 DidBck=F Rises=F RFO-DIIS coefs:    2.03553   -0.95091   -0.08462
 Iteration  1 RMS(Cart)=  0.00959548 RMS(Int)=  0.00018968
 Iteration  2 RMS(Cart)=  0.00018015 RMS(Int)=  0.00000117
 Iteration  3 RMS(Cart)=  0.00000005 RMS(Int)=  0.00000117
 Variable       Old X    -DE/DX   Delta X   Delta X   Delta X     New X
                                 (Linear)    (Quad)   (Total)
    R1        2.68180   0.00072  -0.00044   0.00154   0.00110   2.68291
    R2        1.83179   0.00002   0.00018  -0.00006   0.00011   1.83191
    R3        2.87402  -0.00044   0.00182  -0.00192  -0.00010   2.87392
    R4        2.09897  -0.00007  -0.00025  -0.00006  -0.00031   2.09866
    R5        2.09706  -0.00018  -0.00087  -0.00003  -0.00090   2.09616
    R6        2.65504   0.00113  -0.00236   0.00339   0.00103   2.65607
    R7        2.10260  -0.00018  -0.00016  -0.00027  -0.00043   2.10216
    R8        2.08584  -0.00008  -0.00037   0.00012  -0.00025   2.08559
    R9        1.84105   0.00014   0.00008   0.00030   0.00039   1.84143
    A1        1.91388  -0.00031   0.00112  -0.00243  -0.00131   1.91258
    A2        1.85152  -0.00016   0.00264  -0.00216   0.00048   1.85200
    A3        1.95175   0.00001   0.00109  -0.00146  -0.00037   1.95138
    A4        1.93764   0.00006   0.00017  -0.00056  -0.00038   1.93726
    A5        1.92690   0.00006  -0.00193   0.00153  -0.00041   1.92649
    A6        1.90504  -0.00007  -0.00072   0.00051  -0.00021   1.90483
    A7        1.89072   0.00009  -0.00125   0.00212   0.00087   1.89159
    A8        1.93529  -0.00012   0.00097  -0.00150  -0.00053   1.93476
    A9        1.89445   0.00017  -0.00131   0.00252   0.00121   1.89566
   A10        1.92117  -0.00013  -0.00089  -0.00057  -0.00146   1.91971
   A11        1.95056  -0.00006   0.00123  -0.00174  -0.00051   1.95006
   A12        1.88155   0.00008   0.00144  -0.00038   0.00106   1.88261
   A13        1.88009   0.00006  -0.00152   0.00172   0.00020   1.88029
   A14        1.84677  -0.00010  -0.00213   0.00049  -0.00165   1.84512
    D1       -2.95950   0.00020   0.03898   0.00161   0.04058  -2.91892
    D2        1.22196   0.00022   0.03905   0.00195   0.04099   1.26295
    D3       -0.89198   0.00005   0.03977   0.00063   0.04041  -0.85157
    D4        1.01069   0.00001  -0.00345   0.00201  -0.00144   1.00925
    D5       -1.13827   0.00005  -0.00473   0.00346  -0.00127  -1.13954
    D6        3.09115  -0.00004  -0.00161   0.00022  -0.00139   3.08976
    D7        3.12847  -0.00003  -0.00161  -0.00022  -0.00183   3.12664
    D8        0.97951  -0.00000  -0.00290   0.00123  -0.00166   0.97784
    D9       -1.07426  -0.00009   0.00022  -0.00200  -0.00178  -1.07604
   D10       -1.07827   0.00007  -0.00476   0.00362  -0.00114  -1.07941
   D11        3.05595   0.00010  -0.00605   0.00507  -0.00098   3.05498
   D12        1.00219   0.00001  -0.00293   0.00183  -0.00109   1.00109
   D13       -0.83962  -0.00008   0.00850  -0.00311   0.00539  -0.83424
   D14        1.27662   0.00002   0.00835  -0.00214   0.00621   1.28283
   D15       -2.94375   0.00010   0.00810  -0.00128   0.00682  -2.93693
         Item               Value     Threshold  Converged?
 Maximum Force            0.001130     0.000450     NO 
 RMS     Force            0.000253     0.000300     YES
 Maximum Displacement     0.037477     0.001800     NO 
 RMS     Displacement     0.009609     0.001200     NO 
 Predicted change in Energy=-1.204223D-05
 GradGradGradGradGradGradGradGradGradGradGradGradGradGradGradGradGradGrad

                          Input orientation:                          
 ---------------------------------------------------------------------
 Center     Atomic      Atomic             Coordinates (Angstroms)
 Number     Number       Type             X           Y           Z
 ---------------------------------------------------------------------
      1          8           0        1.062333    0.155061   -0.018595
      2          6           0        2.479136    0.065090   -0.003836
      3          6           0        2.992138    1.397875   -0.526706
      4          8           0        2.517233    2.460640    0.261023
      5          1           0        0.684773   -0.580451    0.487581
      6          1           0        2.846288   -0.767377   -0.640663
      7          1           0        2.856779   -0.090666    1.027443
      8          1           0        2.684456    1.504138   -1.590429
      9          1           0        4.095071    1.417410   -0.492248
     10          1           0        1.560984    2.305020    0.365479
 ---------------------------------------------------------------------
                    Distance matrix (angstroms):
                    1          2          3          4          5
     1  O    0.000000
     2  C    1.419734   0.000000
     3  C    2.350938   1.520815   0.000000
     4  O    2.740550   2.410448   1.405533   0.000000
     5  H    0.969403   1.969252   3.204135   3.557734   0.000000
     6  H    2.102465   1.110564   2.173148   3.367701   2.445409
     7  H    2.091558   1.109239   2.156259   2.685490   2.291060
     8  H    2.630961   2.151812   1.112415   2.090631   3.558422
     9  H    3.318941   2.162998   1.103644   2.036006   4.072057
    10  H    2.240198   2.448812   1.914970   0.974444   3.018045
                    6          7          8          9         10
     6  H    0.000000
     7  H    1.800174   0.000000
     8  H    2.467393   3.070236   0.000000
     9  H    2.520869   2.473281   1.789793   0.000000
    10  H    3.479074   2.802961   2.393571   2.818714   0.000000
 Stoichiometry    C2H6O2
 Framework group  C1[X(C2H6O2)]
 Deg. of freedom    24
 Full point group                 C1      NOp   1
 Largest Abelian subgroup         C1      NOp   1
 Largest concise Abelian subgroup C1      NOp   1
                         Standard orientation:                         
 ---------------------------------------------------------------------
 Center     Atomic      Atomic             Coordinates (Angstroms)
 Number     Number       Type             X           Y           Z
 ---------------------------------------------------------------------
      1          8           0       -1.304686   -0.575399    0.215786
      2          6           0       -0.683754    0.611040   -0.255858
      3          6           0        0.747110    0.571452    0.257889
      4          8           0        1.406219   -0.587874   -0.186025
      5          1           0       -2.149159   -0.704392   -0.242437
      6          1           0       -1.201682    1.521973    0.111977
      7          1           0       -0.671393    0.639395   -1.364666
      8          1           0        0.727522    0.634431    1.368348
      9          1           0        1.307438    1.444612   -0.118482
     10          1           0        0.794875   -1.324784   -0.005014
 ---------------------------------------------------------------------
 Rotational constants (GHZ):          15.1606728           5.7867882           4.7085793
 Standard basis: def2SVPP (5D, 7F)
 There are    72 symmetry adapted cartesian basis functions of A   symmetry.
 There are    68 symmetry adapted basis functions of A   symmetry.
    68 basis functions,   124 primitive gaussians,    72 cartesian basis functions
    17 alpha electrons       17 beta electrons
       nuclear repulsion energy       133.7789207379 Hartrees.
 NAtoms=   10 NActive=   10 NUniq=   10 SFac= 1.00D+00 NAtFMM=   60 NAOKFM=F Big=F
 Integral buffers will be    131072 words long.
 Raffenetti 2 integral format.
 Two-electron integral symmetry is turned on.
 Nuclear repulsion after empirical dispersion term =      133.7699254409 Hartrees.
 One-electron integrals computed using PRISM.
   1 Symmetry operations used in ECPInt.
 ECPInt:  NShTT=     666 NPrTT=    2698 LenC2=     666 LenP2D=    2343.
 LDataN:  DoStor=T MaxTD1= 4 Len=   56
 NBasis=    68 RedAO= T EigKep=  3.64D-03  NBF=    68
 NBsUse=    68 1.00D-06 EigRej= -1.00D+00 NBFU=    68
 Initial guess from the checkpoint file:  "/tmp/scratch/Gau-4074435.chk"
 B after Tr=     0.000000    0.000000    0.000000
         Rot=    1.000000    0.000848   -0.000131    0.000349 Ang=   0.11 deg.
 ExpMin= 1.22D-01 ExpMax= 2.27D+03 ExpMxC= 3.41D+02 IAcc=3 IRadAn=         5 AccDes= 0.00D+00
 Harris functional with IExCor=  402 and IRadAn=       5 diagonalized for initial guess.
 HarFok:  IExCor=  402 AccDes= 0.00D+00 IRadAn=         5 IDoV= 1 UseB2=F ITyADJ=14
 ICtDFT=  3500011 ScaDFX=  1.000000  1.000000  1.000000  1.000000
 FoFCou: FMM=F IPFlag=           0 FMFlag=      100000 FMFlg1=           0
         NFxFlg=           0 DoJE=T BraDBF=F KetDBF=T FulRan=T
         wScrn=  0.000000 ICntrl=       500 IOpCl=  0 I1Cent=   200000004 NGrid=           0
         NMat0=    1 NMatS0=      1 NMatT0=    0 NMatD0=    1 NMtDS0=    0 NMtDT0=    0
 Petite list used in FoFCou.
 Keep R1 ints in memory in canonical form, NReq=9934999.
 Requested convergence on RMS density matrix=1.00D-08 within 128 cycles.
 Requested convergence on MAX density matrix=1.00D-06.
 Requested convergence on             energy=1.00D-06.
 No special actions if energy rises.
 Integral accuracy reduced to 1.0D-05 until final iterations.
 Initial convergence to 1.0D-05 achieved.  Increase integral accuracy.
 SCF Done:  E(RB3LYP) =  -230.061038270     A.U. after    9 cycles
            NFock=  9  Conv=0.48D-08     -V/T= 2.0077
   1 Symmetry operations used in ECPInt.
 ECPInt:  NShTT=     666 NPrTT=    2698 LenC2=     666 LenP2D=    2343.
 LDataN:  DoStor=T MaxTD1= 5 Len=  102
 Calling FoFJK, ICntrl=      2127 FMM=F ISym2X=0 I1Cent= 0 IOpClX= 0 NMat=1 NMatS=1 NMatT=0.
 ***** Axes restored to original set *****
 -------------------------------------------------------------------
 Center     Atomic                   Forces (Hartrees/Bohr)
 Number     Number              X              Y              Z
 -------------------------------------------------------------------
      1        8          -0.000649368    0.000053001   -0.000146156
      2        6           0.000888747    0.000165887    0.000055619
      3        6           0.000060927   -0.000945464   -0.000554089
      4        8          -0.000175241    0.000550356    0.000514094
      5        1           0.000082180    0.000043104    0.000039258
      6        1          -0.000109856   -0.000033863   -0.000045578
      7        1          -0.000035082    0.000075959    0.000010453
      8        1          -0.000048089    0.000060761    0.000088448
      9        1           0.000019561    0.000055454    0.000084437
     10        1          -0.000033778   -0.000025195   -0.000046485
 -------------------------------------------------------------------
 Cartesian Forces:  Max     0.000945464 RMS     0.000322994

 GradGradGradGradGradGradGradGradGradGradGradGradGradGradGradGradGradGrad
 Berny optimization.
 Using GEDIIS/GDIIS optimizer.
 FormGI is forming the generalized inverse of G from B-inverse, IUseBI=4.
 Internal  Forces:  Max     0.000729749 RMS     0.000172233
 Search for a local minimum.
 Step number   6 out of a maximum of   48
 All quantities printed in internal units (Hartrees-Bohrs-Radians)
 Mixed Optimization -- En-DIIS/RFO-DIIS
 Swapping is turned off.
 Update second derivatives using D2CorX and points    1    2    3    4    5
                                                      6
 DE= -1.43D-05 DEPred=-1.20D-05 R= 1.19D+00
 TightC=F SS=  1.41D+00  RLast= 7.15D-02 DXNew= 8.4853D-01 2.1440D-01
 Trust test= 1.19D+00 RLast= 7.15D-02 DXMaxT set to 5.05D-01
 ITU=  1  1  1  1  1  0
     Eigenvalues ---    0.00307   0.00474   0.01363   0.05221   0.05569
     Eigenvalues ---    0.05927   0.06193   0.11205   0.12445   0.13447
     Eigenvalues ---    0.13994   0.15579   0.17270   0.22045   0.25003
     Eigenvalues ---    0.32131   0.32796   0.34377   0.34424   0.34598
     Eigenvalues ---    0.40079   0.44100   0.51970   0.52901
 En-DIIS/RFO-DIIS/Sim-DIIS IScMMF=       -3 using points:     6    5    4    3
 RFO step:  Lambda=-5.75276958D-06.
 DidBck=F Rises=F RFO-DIIS coefs:    1.85803   -1.31088    0.26360    0.18925
 Iteration  1 RMS(Cart)=  0.00266182 RMS(Int)=  0.00001593
 Iteration  2 RMS(Cart)=  0.00001512 RMS(Int)=  0.00000144
 Iteration  3 RMS(Cart)=  0.00000000 RMS(Int)=  0.00000144
 Variable       Old X    -DE/DX   Delta X   Delta X   Delta X     New X
                                 (Linear)    (Quad)   (Total)
    R1        2.68291   0.00057   0.00262  -0.00020   0.00242   2.68532
    R2        1.83191  -0.00004   0.00011  -0.00017  -0.00007   1.83184
    R3        2.87392  -0.00036  -0.00153   0.00001  -0.00153   2.87240
    R4        2.09866   0.00002  -0.00013   0.00002  -0.00011   2.09855
    R5        2.09616  -0.00001  -0.00044   0.00013  -0.00031   2.09585
    R6        2.65607   0.00073   0.00345  -0.00079   0.00266   2.65873
    R7        2.10216  -0.00007  -0.00060   0.00009  -0.00050   2.10166
    R8        2.08559   0.00002  -0.00007   0.00008   0.00002   2.08560
    R9        1.84143   0.00003   0.00023  -0.00009   0.00014   1.84157
    A1        1.91258  -0.00013  -0.00171   0.00052  -0.00119   1.91138
    A2        1.85200  -0.00012  -0.00052   0.00019  -0.00033   1.85167
    A3        1.95138  -0.00005  -0.00086  -0.00077  -0.00163   1.94975
    A4        1.93726   0.00005  -0.00064   0.00028  -0.00036   1.93690
    A5        1.92649   0.00013   0.00088   0.00053   0.00140   1.92790
    A6        1.90483  -0.00005  -0.00078   0.00032  -0.00045   1.90438
    A7        1.89159   0.00004   0.00186  -0.00050   0.00136   1.89294
    A8        1.93476  -0.00013  -0.00102  -0.00041  -0.00142   1.93334
    A9        1.89566   0.00009   0.00213  -0.00071   0.00142   1.89708
   A10        1.91971   0.00004  -0.00056   0.00117   0.00062   1.92033
   A11        1.95006  -0.00000  -0.00127   0.00052  -0.00075   1.94931
   A12        1.88261  -0.00002  -0.00096  -0.00016  -0.00113   1.88148
   A13        1.88029   0.00002   0.00171  -0.00038   0.00134   1.88163
   A14        1.84512  -0.00008  -0.00139  -0.00009  -0.00149   1.84363
    D1       -2.91892   0.00008   0.01051   0.00021   0.01072  -2.90820
    D2        1.26295   0.00003   0.01026  -0.00012   0.01015   1.27310
    D3       -0.85157  -0.00001   0.00893   0.00086   0.00979  -0.84178
    D4        1.00925   0.00004   0.00143   0.00106   0.00249   1.01174
    D5       -1.13954   0.00006   0.00225   0.00115   0.00340  -1.13614
    D6        3.08976  -0.00004  -0.00077   0.00135   0.00059   3.09034
    D7        3.12664  -0.00003   0.00057   0.00055   0.00111   3.12775
    D8        0.97784   0.00000   0.00139   0.00063   0.00202   0.97986
    D9       -1.07604  -0.00011  -0.00163   0.00084  -0.00079  -1.07684
   D10       -1.07941   0.00006   0.00289   0.00046   0.00334  -1.07607
   D11        3.05498   0.00009   0.00371   0.00054   0.00425   3.05923
   D12        1.00109  -0.00001   0.00069   0.00075   0.00144   1.00253
   D13       -0.83424  -0.00004  -0.00120  -0.00056  -0.00176  -0.83599
   D14        1.28283  -0.00002  -0.00006  -0.00139  -0.00145   1.28138
   D15       -2.93693   0.00000   0.00070  -0.00165  -0.00095  -2.93788
         Item               Value     Threshold  Converged?
 Maximum Force            0.000730     0.000450     NO 
 RMS     Force            0.000172     0.000300     YES
 Maximum Displacement     0.007888     0.001800     NO 
 RMS     Displacement     0.002665     0.001200     NO 
 Predicted change in Energy=-2.608625D-06
 GradGradGradGradGradGradGradGradGradGradGradGradGradGradGradGradGradGrad

                          Input orientation:                          
 ---------------------------------------------------------------------
 Center     Atomic      Atomic             Coordinates (Angstroms)
 Number     Number       Type             X           Y           Z
 ---------------------------------------------------------------------
      1          8           0        1.061985    0.154054   -0.022395
      2          6           0        2.480083    0.064764   -0.005059
      3          6           0        2.992558    1.397031   -0.527413
      4          8           0        2.516629    2.459262    0.262922
      5          1           0        0.685240   -0.576280    0.491755
      6          1           0        2.847056   -0.768542   -0.640790
      7          1           0        2.855603   -0.089332    1.027070
      8          1           0        2.684293    1.505510   -1.590466
      9          1           0        4.095444    1.417911   -0.491954
     10          1           0        1.560299    2.302363    0.365380
 ---------------------------------------------------------------------
                    Distance matrix (angstroms):
                    1          2          3          4          5
     1  O    0.000000
     2  C    1.421012   0.000000
     3  C    2.350988   1.520007   0.000000
     4  O    2.740689   2.409724   1.406938   0.000000
     5  H    0.969368   1.969574   3.202558   3.552586   0.000000
     6  H    2.102397   1.110505   2.173415   3.368174   2.448075
     7  H    2.092290   1.109077   2.155099   2.682193   2.287828
     8  H    2.630049   2.151968   1.112149   2.091124   3.558891
     9  H    3.319592   2.162745   1.103653   2.036396   4.071114
    10  H    2.239178   2.447464   1.915222   0.974516   3.011359
                    6          7          8          9         10
     6  H    0.000000
     7  H    1.800877   0.000000
     8  H    2.469755   3.069912   0.000000
     9  H    2.522142   2.473140   1.790460   0.000000
    10  H    3.478302   2.799259   2.392419   2.818553   0.000000
 Stoichiometry    C2H6O2
 Framework group  C1[X(C2H6O2)]
 Deg. of freedom    24
 Full point group                 C1      NOp   1
 Largest Abelian subgroup         C1      NOp   1
 Largest concise Abelian subgroup C1      NOp   1
                         Standard orientation:                         
 ---------------------------------------------------------------------
 Center     Atomic      Atomic             Coordinates (Angstroms)
 Number     Number       Type             X           Y           Z
 ---------------------------------------------------------------------
      1          8           0       -1.305255   -0.574558    0.217238
      2          6           0       -0.682717    0.611668   -0.256672
      3          6           0        0.746747    0.572057    0.258577
      4          8           0        1.405522   -0.588782   -0.186328
      5          1           0       -2.144498   -0.708318   -0.249082
      6          1           0       -1.202102    1.522522    0.109123
      7          1           0       -0.668539    0.636895   -1.365371
      8          1           0        0.727302    0.633605    1.368852
      9          1           0        1.308566    1.444158   -0.118053
     10          1           0        0.792957   -1.324492   -0.004180
 ---------------------------------------------------------------------
 Rotational constants (GHZ):          15.1396200           5.7885955           4.7100228
 Standard basis: def2SVPP (5D, 7F)
 There are    72 symmetry adapted cartesian basis functions of A   symmetry.
 There are    68 symmetry adapted basis functions of A   symmetry.
    68 basis functions,   124 primitive gaussians,    72 cartesian basis functions
    17 alpha electrons       17 beta electrons
       nuclear repulsion energy       133.7597340874 Hartrees.
 NAtoms=   10 NActive=   10 NUniq=   10 SFac= 1.00D+00 NAtFMM=   60 NAOKFM=F Big=F
 Integral buffers will be    131072 words long.
 Raffenetti 2 integral format.
 Two-electron integral symmetry is turned on.
 Nuclear repulsion after empirical dispersion term =      133.7507369003 Hartrees.
 One-electron integrals computed using PRISM.
   1 Symmetry operations used in ECPInt.
 ECPInt:  NShTT=     666 NPrTT=    2698 LenC2=     666 LenP2D=    2343.
 LDataN:  DoStor=T MaxTD1= 4 Len=   56
 NBasis=    68 RedAO= T EigKep=  3.64D-03  NBF=    68
 NBsUse=    68 1.00D-06 EigRej= -1.00D+00 NBFU=    68
 Initial guess from the checkpoint file:  "/tmp/scratch/Gau-4074435.chk"
 B after Tr=    -0.000000    0.000000   -0.000000
         Rot=    1.000000    0.000275    0.000152    0.000167 Ang=   0.04 deg.
 Keep R1 ints in memory in canonical form, NReq=9934999.
 Requested convergence on RMS density matrix=1.00D-08 within 128 cycles.
 Requested convergence on MAX density matrix=1.00D-06.
 Requested convergence on             energy=1.00D-06.
 No special actions if energy rises.
 SCF Done:  E(RB3LYP) =  -230.061041884     A.U. after    8 cycles
            NFock=  8  Conv=0.38D-08     -V/T= 2.0077
   1 Symmetry operations used in ECPInt.
 ECPInt:  NShTT=     666 NPrTT=    2698 LenC2=     666 LenP2D=    2343.
 LDataN:  DoStor=T MaxTD1= 5 Len=  102
 Calling FoFJK, ICntrl=      2127 FMM=F ISym2X=0 I1Cent= 0 IOpClX= 0 NMat=1 NMatS=1 NMatT=0.
 ***** Axes restored to original set *****
 -------------------------------------------------------------------
 Center     Atomic                   Forces (Hartrees/Bohr)
 Number     Number              X              Y              Z
 -------------------------------------------------------------------
      1        8          -0.000002312    0.000038032   -0.000009263
      2        6           0.000038965   -0.000033222   -0.000046153
      3        6           0.000000596   -0.000011505    0.000054753
      4        8          -0.000010419   -0.000011086    0.000011636
      5        1           0.000009835    0.000000702    0.000009455
      6        1          -0.000000048   -0.000012900    0.000014877
      7        1          -0.000010088   -0.000003240    0.000004972
      8        1          -0.000009161   -0.000001472   -0.000006593
      9        1          -0.000011551    0.000010024   -0.000021882
     10        1          -0.000005817    0.000024668   -0.000011803
 -------------------------------------------------------------------
 Cartesian Forces:  Max     0.000054753 RMS     0.000020102

 GradGradGradGradGradGradGradGradGradGradGradGradGradGradGradGradGradGrad
 Berny optimization.
 Using GEDIIS/GDIIS optimizer.
 FormGI is forming the generalized inverse of G from B-inverse, IUseBI=4.
 Internal  Forces:  Max     0.000064943 RMS     0.000016890
 Search for a local minimum.
 Step number   7 out of a maximum of   48
 All quantities printed in internal units (Hartrees-Bohrs-Radians)
 Mixed Optimization -- En-DIIS/RFO-DIIS
 Swapping is turned off.
 Update second derivatives using D2CorX and points    1    2    3    4    5
                                                      6    7
 DE= -3.61D-06 DEPred=-2.61D-06 R= 1.39D+00
 TightC=F SS=  1.41D+00  RLast= 2.02D-02 DXNew= 8.4853D-01 6.0693D-02
 Trust test= 1.39D+00 RLast= 2.02D-02 DXMaxT set to 5.05D-01
 ITU=  1  1  1  1  1  1  0
     Eigenvalues ---    0.00304   0.00471   0.01321   0.05243   0.05381
     Eigenvalues ---    0.05795   0.06134   0.11221   0.11865   0.13444
     Eigenvalues ---    0.14157   0.15811   0.17385   0.21949   0.25379
     Eigenvalues ---    0.31228   0.33813   0.34394   0.34428   0.34965
     Eigenvalues ---    0.36944   0.44364   0.52008   0.52821
 En-DIIS/RFO-DIIS/Sim-DIIS IScMMF=       -3 using points:     7    6    5    4    3
 RFO step:  Lambda=-1.24462272D-07.
 DidBck=F Rises=F RFO-DIIS coefs:    0.92816    0.23369   -0.26676    0.07905    0.02586
 Iteration  1 RMS(Cart)=  0.00038428 RMS(Int)=  0.00000027
 Iteration  2 RMS(Cart)=  0.00000014 RMS(Int)=  0.00000021
 Variable       Old X    -DE/DX   Delta X   Delta X   Delta X     New X
                                 (Linear)    (Quad)   (Total)
    R1        2.68532  -0.00001   0.00022  -0.00015   0.00007   2.68539
    R2        1.83184   0.00000   0.00001  -0.00001   0.00000   1.83185
    R3        2.87240  -0.00001  -0.00017   0.00012  -0.00004   2.87235
    R4        2.09855   0.00000  -0.00001   0.00001  -0.00001   2.09854
    R5        2.09585   0.00000  -0.00004   0.00002  -0.00002   2.09583
    R6        2.65873   0.00002   0.00039  -0.00031   0.00008   2.65880
    R7        2.10166   0.00001  -0.00005   0.00005  -0.00000   2.10165
    R8        2.08560  -0.00001  -0.00001  -0.00003  -0.00004   2.08556
    R9        1.84157   0.00000   0.00004  -0.00003   0.00000   1.84157
    A1        1.91138  -0.00002  -0.00025   0.00014  -0.00011   1.91127
    A2        1.85167  -0.00006  -0.00014  -0.00006  -0.00020   1.85147
    A3        1.94975   0.00002  -0.00006   0.00015   0.00009   1.94984
    A4        1.93690   0.00001  -0.00008  -0.00007  -0.00015   1.93675
    A5        1.92790   0.00004   0.00007   0.00020   0.00027   1.92817
    A6        1.90438   0.00001  -0.00003   0.00001  -0.00002   1.90436
    A7        1.89294  -0.00001   0.00023  -0.00023   0.00000   1.89295
    A8        1.93334   0.00002  -0.00010   0.00016   0.00006   1.93340
    A9        1.89708  -0.00001   0.00029  -0.00035  -0.00006   1.89702
   A10        1.92033   0.00001  -0.00016   0.00029   0.00013   1.92047
   A11        1.94931  -0.00001  -0.00019   0.00007  -0.00011   1.94920
   A12        1.88148  -0.00000  -0.00003   0.00007   0.00004   1.88151
   A13        1.88163  -0.00000   0.00019  -0.00025  -0.00006   1.88157
   A14        1.84363   0.00003  -0.00005   0.00009   0.00004   1.84367
    D1       -2.90820   0.00002   0.00102   0.00022   0.00124  -2.90696
    D2        1.27310  -0.00000   0.00106  -0.00008   0.00098   1.27408
    D3       -0.84178  -0.00000   0.00086   0.00015   0.00101  -0.84077
    D4        1.01174  -0.00002   0.00007  -0.00033  -0.00026   1.01148
    D5       -1.13614  -0.00001   0.00017  -0.00030  -0.00012  -1.13627
    D6        3.09034  -0.00000  -0.00014   0.00004  -0.00009   3.09025
    D7        3.12775  -0.00001  -0.00005  -0.00007  -0.00012   3.12763
    D8        0.97986  -0.00000   0.00005  -0.00003   0.00002   0.97988
    D9       -1.07684   0.00000  -0.00025   0.00030   0.00005  -1.07679
   D10       -1.07607   0.00001   0.00026  -0.00022   0.00004  -1.07603
   D11        3.05923   0.00001   0.00037  -0.00019   0.00018   3.05940
   D12        1.00253   0.00002   0.00006   0.00015   0.00021   1.00274
   D13       -0.83599  -0.00001  -0.00010  -0.00063  -0.00074  -0.83673
   D14        1.28138  -0.00001   0.00007  -0.00091  -0.00085   1.28053
   D15       -2.93788  -0.00003   0.00017  -0.00113  -0.00096  -2.93884
         Item               Value     Threshold  Converged?
 Maximum Force            0.000065     0.000450     YES
 RMS     Force            0.000017     0.000300     YES
 Maximum Displacement     0.001105     0.001800     YES
 RMS     Displacement     0.000384     0.001200     YES
 Predicted change in Energy=-6.008886D-08
 Optimization completed.
    -- Stationary point found.
                           ----------------------------
                           !   Optimized Parameters   !
                           ! (Angstroms and Degrees)  !
 --------------------------                            --------------------------
 ! Name  Definition              Value          Derivative Info.                !
 --------------------------------------------------------------------------------
 ! R1    R(1,2)                  1.421          -DE/DX =    0.0                 !
 ! R2    R(1,5)                  0.9694         -DE/DX =    0.0                 !
 ! R3    R(2,3)                  1.52           -DE/DX =    0.0                 !
 ! R4    R(2,6)                  1.1105         -DE/DX =    0.0                 !
 ! R5    R(2,7)                  1.1091         -DE/DX =    0.0                 !
 ! R6    R(3,4)                  1.4069         -DE/DX =    0.0                 !
 ! R7    R(3,8)                  1.1121         -DE/DX =    0.0                 !
 ! R8    R(3,9)                  1.1037         -DE/DX =    0.0                 !
 ! R9    R(4,10)                 0.9745         -DE/DX =    0.0                 !
 ! A1    A(2,1,5)              109.5142         -DE/DX =    0.0                 !
 ! A2    A(1,2,3)              106.0928         -DE/DX =   -0.0001              !
 ! A3    A(1,2,6)              111.7123         -DE/DX =    0.0                 !
 ! A4    A(1,2,7)              110.976          -DE/DX =    0.0                 !
 ! A5    A(3,2,6)              110.4603         -DE/DX =    0.0                 !
 ! A6    A(3,2,7)              109.1131         -DE/DX =    0.0                 !
 ! A7    A(6,2,7)              108.4577         -DE/DX =    0.0                 !
 ! A8    A(2,3,4)              110.772          -DE/DX =    0.0                 !
 ! A9    A(2,3,8)              108.6945         -DE/DX =    0.0                 !
 ! A10   A(2,3,9)              110.0268         -DE/DX =    0.0                 !
 ! A11   A(4,3,8)              111.6871         -DE/DX =    0.0                 !
 ! A12   A(4,3,9)              107.8007         -DE/DX =    0.0                 !
 ! A13   A(8,3,9)              107.8094         -DE/DX =    0.0                 !
 ! A14   A(3,4,10)             105.6324         -DE/DX =    0.0                 !
 ! D1    D(5,1,2,3)           -166.6276         -DE/DX =    0.0                 !
 ! D2    D(5,1,2,6)             72.943          -DE/DX =    0.0                 !
 ! D3    D(5,1,2,7)            -48.2304         -DE/DX =    0.0                 !
 ! D4    D(1,2,3,4)             57.9687         -DE/DX =    0.0                 !
 ! D5    D(1,2,3,8)            -65.0962         -DE/DX =    0.0                 !
 ! D6    D(1,2,3,9)            177.0637         -DE/DX =    0.0                 !
 ! D7    D(6,2,3,4)            179.2069         -DE/DX =    0.0                 !
 ! D8    D(6,2,3,8)             56.142          -DE/DX =    0.0                 !
 ! D9    D(6,2,3,9)            -61.6982         -DE/DX =    0.0                 !
 ! D10   D(7,2,3,4)            -61.6542         -DE/DX =    0.0                 !
 ! D11   D(7,2,3,8)            175.2809         -DE/DX =    0.0                 !
 ! D12   D(7,2,3,9)             57.4408         -DE/DX =    0.0                 !
 ! D13   D(2,3,4,10)           -47.8989         -DE/DX =    0.0                 !
 ! D14   D(8,3,4,10)            73.4175         -DE/DX =    0.0                 !
 ! D15   D(9,3,4,10)          -168.3279         -DE/DX =    0.0                 !
 --------------------------------------------------------------------------------
 GradGradGradGradGradGradGradGradGradGradGradGradGradGradGradGradGradGrad

                          Input orientation:                          
 ---------------------------------------------------------------------
 Center     Atomic      Atomic             Coordinates (Angstroms)
 Number     Number       Type             X           Y           Z
 ---------------------------------------------------------------------
      1          8           0        1.061985    0.154054   -0.022395
      2          6           0        2.480083    0.064764   -0.005059
      3          6           0        2.992558    1.397031   -0.527413
      4          8           0        2.516629    2.459262    0.262922
      5          1           0        0.685240   -0.576280    0.491755
      6          1           0        2.847056   -0.768542   -0.640790
      7          1           0        2.855603   -0.089332    1.027070
      8          1           0        2.684293    1.505510   -1.590466
      9          1           0        4.095444    1.417911   -0.491954
     10          1           0        1.560299    2.302363    0.365380
 ---------------------------------------------------------------------
                    Distance matrix (angstroms):
                    1          2          3          4          5
     1  O    0.000000
     2  C    1.421012   0.000000
     3  C    2.350988   1.520007   0.000000
     4  O    2.740689   2.409724   1.406938   0.000000
     5  H    0.969368   1.969574   3.202558   3.552586   0.000000
     6  H    2.102397   1.110505   2.173415   3.368174   2.448075
     7  H    2.092290   1.109077   2.155099   2.682193   2.287828
     8  H    2.630049   2.151968   1.112149   2.091124   3.558891
     9  H    3.319592   2.162745   1.103653   2.036396   4.071114
    10  H    2.239178   2.447464   1.915222   0.974516   3.011359
                    6          7          8          9         10
     6  H    0.000000
     7  H    1.800877   0.000000
     8  H    2.469755   3.069912   0.000000
     9  H    2.522142   2.473140   1.790460   0.000000
    10  H    3.478302   2.799259   2.392419   2.818553   0.000000
 Stoichiometry    C2H6O2
 Framework group  C1[X(C2H6O2)]
 Deg. of freedom    24
 Full point group                 C1      NOp   1
 Largest Abelian subgroup         C1      NOp   1
 Largest concise Abelian subgroup C1      NOp   1
                         Standard orientation:                         
 ---------------------------------------------------------------------
 Center     Atomic      Atomic             Coordinates (Angstroms)
 Number     Number       Type             X           Y           Z
 ---------------------------------------------------------------------
      1          8           0       -1.305255   -0.574558    0.217238
      2          6           0       -0.682717    0.611668   -0.256672
      3          6           0        0.746747    0.572057    0.258577
      4          8           0        1.405522   -0.588782   -0.186328
      5          1           0       -2.144498   -0.708318   -0.249082
      6          1           0       -1.202102    1.522522    0.109123
      7          1           0       -0.668539    0.636895   -1.365371
      8          1           0        0.727302    0.633605    1.368852
      9          1           0        1.308566    1.444158   -0.118053
     10          1           0        0.792957   -1.324492   -0.004180
 ---------------------------------------------------------------------
 Rotational constants (GHZ):          15.1396200           5.7885955           4.7100228

 **********************************************************************

            Population analysis using the SCF Density.

 **********************************************************************

 Orbital symmetries:
       Occupied  (A) (A) (A) (A) (A) (A) (A) (A) (A) (A) (A) (A)
                 (A) (A) (A) (A) (A)
       Virtual   (A) (A) (A) (A) (A) (A) (A) (A) (A) (A) (A) (A)
                 (A) (A) (A) (A) (A) (A) (A) (A) (A) (A) (A) (A)
                 (A) (A) (A) (A) (A) (A) (A) (A) (A) (A) (A) (A)
                 (A) (A) (A) (A) (A) (A) (A) (A) (A) (A) (A) (A)
                 (A) (A) (A)
 The electronic state is 1-A.
 Alpha  occ. eigenvalues --  -19.13958 -19.11325 -10.23215 -10.22241  -1.02573
 Alpha  occ. eigenvalues --   -0.99255  -0.73028  -0.61136  -0.53590  -0.49400
 Alpha  occ. eigenvalues --   -0.46555  -0.41878  -0.40714  -0.35580  -0.32444
 Alpha  occ. eigenvalues --   -0.28657  -0.26217
 Alpha virt. eigenvalues --    0.03613   0.08080   0.09612   0.11779   0.12542
 Alpha virt. eigenvalues --    0.14504   0.19033   0.22022   0.23223   0.47009
 Alpha virt. eigenvalues --    0.47880   0.49080   0.49884   0.57124   0.59372
 Alpha virt. eigenvalues --    0.62349   0.66832   0.67209   0.67775   0.69922
 Alpha virt. eigenvalues --    0.70496   0.71792   0.85420   0.97732   1.02284
 Alpha virt. eigenvalues --    1.03588   1.06163   1.22797   1.26358   1.43944
 Alpha virt. eigenvalues --    1.50112   1.55487   1.62160   1.83189   1.87104
 Alpha virt. eigenvalues --    1.89372   2.07632   2.08772   2.12791   2.19571
 Alpha virt. eigenvalues --    2.47332   2.60449   2.64870   2.80685   2.86256
 Alpha virt. eigenvalues --    2.87959   2.96551   3.00196   3.00789   3.32522
 Alpha virt. eigenvalues --    3.37265
          Condensed to atoms (all electrons):
               1          2          3          4          5          6
     1  O    8.005762   0.316920  -0.067090  -0.006058   0.265012  -0.033572
     2  C    0.316920   4.695543   0.408692  -0.035795  -0.026166   0.346593
     3  C   -0.067090   0.408692   4.668717   0.333489   0.009178  -0.027672
     4  O   -0.006058  -0.035795   0.333489   7.967988   0.000014   0.004956
     5  H    0.265012  -0.026166   0.009178   0.000014   0.450240  -0.001704
     6  H   -0.033572   0.346593  -0.027672   0.004956  -0.001704   0.689440
     7  H   -0.033581   0.349532  -0.018320   0.003382  -0.006347  -0.045230
     8  H   -0.000087  -0.031576   0.345495  -0.034704  -0.000588  -0.004432
     9  H    0.004202  -0.013302   0.350105  -0.030150  -0.000459   0.002056
    10  H    0.033212  -0.009613  -0.062164   0.276343  -0.001664   0.001803
               7          8          9         10
     1  O   -0.033581  -0.000087   0.004202   0.033212
     2  C    0.349532  -0.031576  -0.013302  -0.009613
     3  C   -0.018320   0.345495   0.350105  -0.062164
     4  O    0.003382  -0.034704  -0.030150   0.276343
     5  H   -0.006347  -0.000588  -0.000459  -0.001664
     6  H   -0.045230  -0.004432   0.002056   0.001803
     7  H    0.677834   0.011948  -0.009120  -0.001580
     8  H    0.011948   0.688634  -0.040617  -0.002544
     9  H   -0.009120  -0.040617   0.647629   0.010134
    10  H   -0.001580  -0.002544   0.010134   0.450355
 Mulliken charges:
               1
     1  O   -0.484721
     2  C   -0.000827
     3  C    0.059569
     4  O   -0.479464
     5  H    0.312486
     6  H    0.067762
     7  H    0.071484
     8  H    0.068471
     9  H    0.079523
    10  H    0.305717
 Sum of Mulliken charges =  -0.00000
 Mulliken charges with hydrogens summed into heavy atoms:
               1
     1  O   -0.172236
     2  C    0.138419
     3  C    0.207563
     4  O   -0.173747
 Electronic spatial extent (au):  <R**2>=            294.7758
 Charge=              0.0000 electrons
 Dipole moment (field-independent basis, Debye):
    X=             -2.4800    Y=              0.7373    Z=             -0.5616  Tot=              2.6475
 Quadrupole moment (field-independent basis, Debye-Ang):
   XX=            -24.9310   YY=            -22.8297   ZZ=            -25.4492
   XY=              1.5899   XZ=              2.8745   YZ=              0.3347
 Traceless Quadrupole moment (field-independent basis, Debye-Ang):
   XX=             -0.5277   YY=              1.5736   ZZ=             -1.0459
   XY=              1.5899   XZ=              2.8745   YZ=              0.3347
 Octapole moment (field-independent basis, Debye-Ang**2):
  XXX=            -20.3810  YYY=             -8.5117  ZZZ=             -0.3275  XYY=              0.5416
  XXY=             -1.6367  XXZ=             -2.5967  XZZ=             -0.5133  YZZ=             -1.4215
  YYZ=             -0.4878  XYZ=             -2.1175
 Hexadecapole moment (field-independent basis, Debye-Ang**3):
 XXXX=           -189.3418 YYYY=            -89.5316 ZZZZ=            -46.1938 XXXY=             16.5255
 XXXZ=              6.3086 YYYX=             -1.1675 YYYZ=              0.3042 ZZZX=             -0.1372
 ZZZY=              0.0653 XXYY=            -47.2049 XXZZ=            -43.7985 YYZZ=            -24.1932
 XXYZ=              1.6017 YYXZ=             -0.2025 ZZXY=              0.4913
 N-N= 1.337507369003D+02 E-N=-8.070895824504D+02  KE= 2.282927316316D+02
 Unable to Open any file for archive entry.
 1\1\GINC-NODE01\FOpt\RB3LYP\def2SVPP\C2H6O2\XUHJ\14-Sep-2024\0\\#N opt
  freq B3LYP/def2SVPP symm=veryloose em=gd3bj scale=0.961 press=0.987\\
 OCCO_1\\0,1\O,1.061985311,0.1540543603,-0.0223951004\C,2.4800827739,0.
 0647637981,-0.0050590234\C,2.992558403,1.3970307482,-0.527413172\O,2.5
 166289189,2.459261991,0.2629218772\H,0.6852399097,-0.5762799993,0.4917
 545773\H,2.8470559148,-0.7685423842,-0.6407897626\H,2.8556025731,-0.08
 93320749,1.0270703323\H,2.6842929674,1.50550984,-1.590465663\H,4.09544
 41812,1.417910524,-0.4919542754\H,1.560299047,2.3023631967,0.365380210
 1\\Version=ES64L-G16RevC.01\State=1-A\HF=-230.0610419\RMSD=3.848e-09\R
 MSF=2.010e-05\Dipole=-0.1775838,-1.0162209,0.1439122\Quadrupole=0.7538
 85,-0.5388652,-0.2150197,-0.4011531,-1.9106212,-1.6811043\PG=C01 [X(C2
 H6O2)]\\@
 The archive entry for this job was punched.


 IF I HAVE SEEN FARTHER, IT IS BY STANDING ON THE
 SHOULDERS OF GIANTS. -- SIR ISAAC NEWTON
 Job cpu time:       0 days  0 hours  1 minutes 54.5 seconds.
 Elapsed time:       0 days  0 hours  0 minutes 14.5 seconds.
 File lengths (MBytes):  RWF=      6 Int=      0 D2E=      0 Chk=      2 Scr=      1
 Normal termination of Gaussian 16 at Sat Sep 14 01:09:12 2024.
 Link1:  Proceeding to internal job step number  2.
 --------------------------------------------------------------------
 #N Geom=AllCheck Guess=TCheck SCRF=Check GenChk RB3LYP/def2SVPP Freq
 --------------------------------------------------------------------
 1/10=4,29=7,30=1,38=1,40=1,113=-987000,114=961000/1,3;
 2/12=2,17=2,18=2,40=1/2;
 3/5=43,7=202,11=2,14=-4,25=1,30=1,70=2,71=2,74=-5,116=1,124=41,140=1/1,2,3;
 4/5=101/1;
 5/5=2,38=6,98=1/2;
 8/6=4,10=90,11=11/1;
 11/6=1,8=1,9=11,15=111,16=1/1,2,10;
 10/6=1/2;
 6/7=2,8=2,9=2,10=2,28=1/1;
 7/8=1,10=1,25=1/1,2,3,16;
 1/10=4,30=1/3;
 99//99;
 Structure from the checkpoint file:  "/tmp/scratch/Gau-4074435.chk"
 ------
 OCCO_1
 ------
 Charge =  0 Multiplicity = 1
 Redundant internal coordinates found in file.  (old form).
 O,0,1.061985311,0.1540543603,-0.0223951004
 C,0,2.4800827739,0.0647637981,-0.0050590234
 C,0,2.992558403,1.3970307482,-0.527413172
 O,0,2.5166289189,2.459261991,0.2629218772
 H,0,0.6852399097,-0.5762799993,0.4917545773
 H,0,2.8470559148,-0.7685423842,-0.6407897626
 H,0,2.8556025731,-0.0893320749,1.0270703323
 H,0,2.6842929674,1.50550984,-1.590465663
 H,0,4.0954441812,1.417910524,-0.4919542754
 H,0,1.560299047,2.3023631967,0.3653802101
 Recover connectivity data from disk.

 GradGradGradGradGradGradGradGradGradGradGradGradGradGradGradGradGradGrad
 Berny optimization.
 Initialization pass.
                           ----------------------------
                           !    Initial Parameters    !
                           ! (Angstroms and Degrees)  !
 --------------------------                            --------------------------
 ! Name  Definition              Value          Derivative Info.                !
 --------------------------------------------------------------------------------
 ! R1    R(1,2)                  1.421          calculate D2E/DX2 analytically  !
 ! R2    R(1,5)                  0.9694         calculate D2E/DX2 analytically  !
 ! R3    R(2,3)                  1.52           calculate D2E/DX2 analytically  !
 ! R4    R(2,6)                  1.1105         calculate D2E/DX2 analytically  !
 ! R5    R(2,7)                  1.1091         calculate D2E/DX2 analytically  !
 ! R6    R(3,4)                  1.4069         calculate D2E/DX2 analytically  !
 ! R7    R(3,8)                  1.1121         calculate D2E/DX2 analytically  !
 ! R8    R(3,9)                  1.1037         calculate D2E/DX2 analytically  !
 ! R9    R(4,10)                 0.9745         calculate D2E/DX2 analytically  !
 ! A1    A(2,1,5)              109.5142         calculate D2E/DX2 analytically  !
 ! A2    A(1,2,3)              106.0928         calculate D2E/DX2 analytically  !
 ! A3    A(1,2,6)              111.7123         calculate D2E/DX2 analytically  !
 ! A4    A(1,2,7)              110.976          calculate D2E/DX2 analytically  !
 ! A5    A(3,2,6)              110.4603         calculate D2E/DX2 analytically  !
 ! A6    A(3,2,7)              109.1131         calculate D2E/DX2 analytically  !
 ! A7    A(6,2,7)              108.4577         calculate D2E/DX2 analytically  !
 ! A8    A(2,3,4)              110.772          calculate D2E/DX2 analytically  !
 ! A9    A(2,3,8)              108.6945         calculate D2E/DX2 analytically  !
 ! A10   A(2,3,9)              110.0268         calculate D2E/DX2 analytically  !
 ! A11   A(4,3,8)              111.6871         calculate D2E/DX2 analytically  !
 ! A12   A(4,3,9)              107.8007         calculate D2E/DX2 analytically  !
 ! A13   A(8,3,9)              107.8094         calculate D2E/DX2 analytically  !
 ! A14   A(3,4,10)             105.6324         calculate D2E/DX2 analytically  !
 ! D1    D(5,1,2,3)           -166.6276         calculate D2E/DX2 analytically  !
 ! D2    D(5,1,2,6)             72.943          calculate D2E/DX2 analytically  !
 ! D3    D(5,1,2,7)            -48.2304         calculate D2E/DX2 analytically  !
 ! D4    D(1,2,3,4)             57.9687         calculate D2E/DX2 analytically  !
 ! D5    D(1,2,3,8)            -65.0962         calculate D2E/DX2 analytically  !
 ! D6    D(1,2,3,9)            177.0637         calculate D2E/DX2 analytically  !
 ! D7    D(6,2,3,4)            179.2069         calculate D2E/DX2 analytically  !
 ! D8    D(6,2,3,8)             56.142          calculate D2E/DX2 analytically  !
 ! D9    D(6,2,3,9)            -61.6982         calculate D2E/DX2 analytically  !
 ! D10   D(7,2,3,4)            -61.6542         calculate D2E/DX2 analytically  !
 ! D11   D(7,2,3,8)            175.2809         calculate D2E/DX2 analytically  !
 ! D12   D(7,2,3,9)             57.4408         calculate D2E/DX2 analytically  !
 ! D13   D(2,3,4,10)           -47.8989         calculate D2E/DX2 analytically  !
 ! D14   D(8,3,4,10)            73.4175         calculate D2E/DX2 analytically  !
 ! D15   D(9,3,4,10)          -168.3279         calculate D2E/DX2 analytically  !
 --------------------------------------------------------------------------------
 Trust Radius=3.00D-01 FncErr=1.00D-07 GrdErr=1.00D-07 EigMax=2.50D+02 EigMin=1.00D-04
 Number of steps in this run=      2 maximum allowed number of steps=      2.
 GradGradGradGradGradGradGradGradGradGradGradGradGradGradGradGradGradGrad

                          Input orientation:                          
 ---------------------------------------------------------------------
 Center     Atomic      Atomic             Coordinates (Angstroms)
 Number     Number       Type             X           Y           Z
 ---------------------------------------------------------------------
      1          8           0        1.061985    0.154054   -0.022395
      2          6           0        2.480083    0.064764   -0.005059
      3          6           0        2.992558    1.397031   -0.527413
      4          8           0        2.516629    2.459262    0.262922
      5          1           0        0.685240   -0.576280    0.491755
      6          1           0        2.847056   -0.768542   -0.640790
      7          1           0        2.855603   -0.089332    1.027070
      8          1           0        2.684293    1.505510   -1.590466
      9          1           0        4.095444    1.417911   -0.491954
     10          1           0        1.560299    2.302363    0.365380
 ---------------------------------------------------------------------
                    Distance matrix (angstroms):
                    1          2          3          4          5
     1  O    0.000000
     2  C    1.421012   0.000000
     3  C    2.350988   1.520007   0.000000
     4  O    2.740689   2.409724   1.406938   0.000000
     5  H    0.969368   1.969574   3.202558   3.552586   0.000000
     6  H    2.102397   1.110505   2.173415   3.368174   2.448075
     7  H    2.092290   1.109077   2.155099   2.682193   2.287828
     8  H    2.630049   2.151968   1.112149   2.091124   3.558891
     9  H    3.319592   2.162745   1.103653   2.036396   4.071114
    10  H    2.239178   2.447464   1.915222   0.974516   3.011359
                    6          7          8          9         10
     6  H    0.000000
     7  H    1.800877   0.000000
     8  H    2.469755   3.069912   0.000000
     9  H    2.522142   2.473140   1.790460   0.000000
    10  H    3.478302   2.799259   2.392419   2.818553   0.000000
 Stoichiometry    C2H6O2
 Framework group  C1[X(C2H6O2)]
 Deg. of freedom    24
 Full point group                 C1      NOp   1
 Largest Abelian subgroup         C1      NOp   1
 Largest concise Abelian subgroup C1      NOp   1
                         Standard orientation:                         
 ---------------------------------------------------------------------
 Center     Atomic      Atomic             Coordinates (Angstroms)
 Number     Number       Type             X           Y           Z
 ---------------------------------------------------------------------
      1          8           0       -1.305255   -0.574558    0.217238
      2          6           0       -0.682717    0.611668   -0.256672
      3          6           0        0.746747    0.572057    0.258577
      4          8           0        1.405522   -0.588782   -0.186328
      5          1           0       -2.144498   -0.708318   -0.249082
      6          1           0       -1.202102    1.522522    0.109123
      7          1           0       -0.668539    0.636895   -1.365371
      8          1           0        0.727302    0.633605    1.368852
      9          1           0        1.308566    1.444158   -0.118053
     10          1           0        0.792957   -1.324492   -0.004180
 ---------------------------------------------------------------------
 Rotational constants (GHZ):          15.1396200           5.7885955           4.7100228
 Standard basis: def2SVPP (5D, 7F)
 There are    72 symmetry adapted cartesian basis functions of A   symmetry.
 There are    68 symmetry adapted basis functions of A   symmetry.
    68 basis functions,   124 primitive gaussians,    72 cartesian basis functions
    17 alpha electrons       17 beta electrons
       nuclear repulsion energy       133.7597340874 Hartrees.
 NAtoms=   10 NActive=   10 NUniq=   10 SFac= 1.00D+00 NAtFMM=   60 NAOKFM=F Big=F
 Integral buffers will be    131072 words long.
 Raffenetti 2 integral format.
 Two-electron integral symmetry is turned on.
 Nuclear repulsion after empirical dispersion term =      133.7507369003 Hartrees.
 One-electron integrals computed using PRISM.
   1 Symmetry operations used in ECPInt.
 ECPInt:  NShTT=     666 NPrTT=    2698 LenC2=     666 LenP2D=    2343.
 LDataN:  DoStor=T MaxTD1= 4 Len=   56
 NBasis=    68 RedAO= T EigKep=  3.64D-03  NBF=    68
 NBsUse=    68 1.00D-06 EigRej= -1.00D+00 NBFU=    68
 Initial guess from the checkpoint file:  "/tmp/scratch/Gau-4074435.chk"
 B after Tr=    -0.000000   -0.000000    0.000000
         Rot=    1.000000   -0.000000    0.000000    0.000000 Ang=   0.00 deg.
 Keep R1 ints in memory in canonical form, NReq=9934999.
 Requested convergence on RMS density matrix=1.00D-08 within 128 cycles.
 Requested convergence on MAX density matrix=1.00D-06.
 Requested convergence on             energy=1.00D-06.
 No special actions if energy rises.
 SCF Done:  E(RB3LYP) =  -230.061041884     A.U. after    1 cycles
            NFock=  1  Conv=0.39D-08     -V/T= 2.0077
 DoSCS=F DFT=T ScalE2(SS,OS)=  1.000000  1.000000
 Range of M.O.s used for correlation:     1    68
 NBasis=    68 NAE=    17 NBE=    17 NFC=     0 NFV=     0
 NROrb=     68 NOA=    17 NOB=    17 NVA=    51 NVB=    51
   1 Symmetry operations used in ECPInt.
 ECPInt:  NShTT=     666 NPrTT=    2698 LenC2=     666 LenP2D=    2343.
 LDataN:  DoStor=T MaxTD1= 5 Len=  102
 Symmetrizing basis deriv contribution to polar:
 IMax=3 JMax=2 DiffMx= 0.00D+00
 G2DrvN: will do    11 centers at a time, making    1 passes.
 Calling FoFCou, ICntrl=  3107 FMM=F I1Cent=   0 AccDes= 0.00D+00.
 End of G2Drv F.D. properties file   721 does not exist.
 End of G2Drv F.D. properties file   722 does not exist.
 End of G2Drv F.D. properties file   788 does not exist.
          IDoAtm=1111111111
          Differentiating once with respect to electric field.
                with respect to dipole field.
          Differentiating once with respect to nuclear coordinates.
 Keep R1 ints in memory in canonical form, NReq=9916596.
          There are    33 degrees of freedom in the 1st order CPHF.  IDoFFX=6 NUNeed=     3.
     30 vectors produced by pass  0 Test12= 2.63D-15 3.03D-09 XBig12= 1.70D+01 1.07D+00.
 AX will form    30 AO Fock derivatives at one time.
     30 vectors produced by pass  1 Test12= 2.63D-15 3.03D-09 XBig12= 1.08D+00 2.26D-01.
     30 vectors produced by pass  2 Test12= 2.63D-15 3.03D-09 XBig12= 1.43D-02 2.48D-02.
     30 vectors produced by pass  3 Test12= 2.63D-15 3.03D-09 XBig12= 2.15D-05 8.55D-04.
     30 vectors produced by pass  4 Test12= 2.63D-15 3.03D-09 XBig12= 1.70D-08 2.06D-05.
     13 vectors produced by pass  5 Test12= 2.63D-15 3.03D-09 XBig12= 8.84D-12 4.85D-07.
      3 vectors produced by pass  6 Test12= 2.63D-15 3.03D-09 XBig12= 4.75D-15 1.06D-08.
 InvSVY:  IOpt=1 It=  1 EMax= 3.55D-15
 Solved reduced A of dimension   166 with    33 vectors.
 Isotropic polarizability for W=    0.000000       29.44 Bohr**3.
 End of Minotr F.D. properties file   721 does not exist.
 End of Minotr F.D. properties file   722 does not exist.
 End of Minotr F.D. properties file   788 does not exist.

 **********************************************************************

            Population analysis using the SCF Density.

 **********************************************************************

 Orbital symmetries:
       Occupied  (A) (A) (A) (A) (A) (A) (A) (A) (A) (A) (A) (A)
                 (A) (A) (A) (A) (A)
       Virtual   (A) (A) (A) (A) (A) (A) (A) (A) (A) (A) (A) (A)
                 (A) (A) (A) (A) (A) (A) (A) (A) (A) (A) (A) (A)
                 (A) (A) (A) (A) (A) (A) (A) (A) (A) (A) (A) (A)
                 (A) (A) (A) (A) (A) (A) (A) (A) (A) (A) (A) (A)
                 (A) (A) (A)
 The electronic state is 1-A.
 Alpha  occ. eigenvalues --  -19.13958 -19.11326 -10.23215 -10.22241  -1.02573
 Alpha  occ. eigenvalues --   -0.99255  -0.73028  -0.61136  -0.53590  -0.49400
 Alpha  occ. eigenvalues --   -0.46555  -0.41878  -0.40714  -0.35580  -0.32444
 Alpha  occ. eigenvalues --   -0.28657  -0.26217
 Alpha virt. eigenvalues --    0.03613   0.08080   0.09612   0.11779   0.12542
 Alpha virt. eigenvalues --    0.14504   0.19033   0.22022   0.23223   0.47009
 Alpha virt. eigenvalues --    0.47880   0.49080   0.49884   0.57124   0.59372
 Alpha virt. eigenvalues --    0.62349   0.66832   0.67209   0.67775   0.69922
 Alpha virt. eigenvalues --    0.70496   0.71792   0.85420   0.97732   1.02284
 Alpha virt. eigenvalues --    1.03588   1.06163   1.22797   1.26358   1.43944
 Alpha virt. eigenvalues --    1.50112   1.55487   1.62160   1.83189   1.87104
 Alpha virt. eigenvalues --    1.89372   2.07632   2.08772   2.12791   2.19571
 Alpha virt. eigenvalues --    2.47332   2.60449   2.64870   2.80685   2.86256
 Alpha virt. eigenvalues --    2.87959   2.96551   3.00196   3.00789   3.32522
 Alpha virt. eigenvalues --    3.37265
          Condensed to atoms (all electrons):
               1          2          3          4          5          6
     1  O    8.005762   0.316920  -0.067090  -0.006058   0.265012  -0.033572
     2  C    0.316920   4.695543   0.408692  -0.035795  -0.026166   0.346593
     3  C   -0.067090   0.408692   4.668717   0.333489   0.009178  -0.027672
     4  O   -0.006058  -0.035795   0.333489   7.967988   0.000014   0.004956
     5  H    0.265012  -0.026166   0.009178   0.000014   0.450240  -0.001704
     6  H   -0.033572   0.346593  -0.027672   0.004956  -0.001704   0.689440
     7  H   -0.033581   0.349532  -0.018320   0.003382  -0.006347  -0.045230
     8  H   -0.000087  -0.031576   0.345495  -0.034704  -0.000588  -0.004432
     9  H    0.004202  -0.013302   0.350105  -0.030150  -0.000459   0.002056
    10  H    0.033212  -0.009613  -0.062164   0.276343  -0.001664   0.001803
               7          8          9         10
     1  O   -0.033581  -0.000087   0.004202   0.033212
     2  C    0.349532  -0.031576  -0.013302  -0.009613
     3  C   -0.018320   0.345495   0.350105  -0.062164
     4  O    0.003382  -0.034704  -0.030150   0.276343
     5  H   -0.006347  -0.000588  -0.000459  -0.001664
     6  H   -0.045230  -0.004432   0.002056   0.001803
     7  H    0.677834   0.011948  -0.009120  -0.001580
     8  H    0.011948   0.688634  -0.040617  -0.002544
     9  H   -0.009120  -0.040617   0.647629   0.010134
    10  H   -0.001580  -0.002544   0.010134   0.450355
 Mulliken charges:
               1
     1  O   -0.484721
     2  C   -0.000827
     3  C    0.059569
     4  O   -0.479464
     5  H    0.312486
     6  H    0.067762
     7  H    0.071484
     8  H    0.068471
     9  H    0.079523
    10  H    0.305717
 Sum of Mulliken charges =  -0.00000
 Mulliken charges with hydrogens summed into heavy atoms:
               1
     1  O   -0.172235
     2  C    0.138419
     3  C    0.207563
     4  O   -0.173747
 APT charges:
               1
     1  O   -0.619002
     2  C    0.486591
     3  C    0.506271
     4  O   -0.628155
     5  H    0.257376
     6  H   -0.088050
     7  H   -0.082131
     8  H   -0.091461
     9  H   -0.033790
    10  H    0.292350
 Sum of APT charges =  -0.00000
 APT charges with hydrogens summed into heavy atoms:
               1
     1  O   -0.361626
     2  C    0.316410
     3  C    0.381021
     4  O   -0.335805
 Electronic spatial extent (au):  <R**2>=            294.7758
 Charge=              0.0000 electrons
 Dipole moment (field-independent basis, Debye):
    X=             -2.4800    Y=              0.7373    Z=             -0.5616  Tot=              2.6475
 Quadrupole moment (field-independent basis, Debye-Ang):
   XX=            -24.9310   YY=            -22.8297   ZZ=            -25.4492
   XY=              1.5899   XZ=              2.8745   YZ=              0.3347
 Traceless Quadrupole moment (field-independent basis, Debye-Ang):
   XX=             -0.5277   YY=              1.5736   ZZ=             -1.0459
   XY=              1.5899   XZ=              2.8745   YZ=              0.3347
 Octapole moment (field-independent basis, Debye-Ang**2):
  XXX=            -20.3810  YYY=             -8.5117  ZZZ=             -0.3275  XYY=              0.5416
  XXY=             -1.6367  XXZ=             -2.5967  XZZ=             -0.5133  YZZ=             -1.4215
  YYZ=             -0.4878  XYZ=             -2.1175
 Hexadecapole moment (field-independent basis, Debye-Ang**3):
 XXXX=           -189.3418 YYYY=            -89.5316 ZZZZ=            -46.1938 XXXY=             16.5255
 XXXZ=              6.3086 YYYX=             -1.1675 YYYZ=              0.3042 ZZZX=             -0.1372
 ZZZY=              0.0653 XXYY=            -47.2049 XXZZ=            -43.7985 YYZZ=            -24.1932
 XXYZ=              1.6017 YYXZ=             -0.2025 ZZXY=              0.4913
 N-N= 1.337507369003D+02 E-N=-8.070895831015D+02  KE= 2.282927319229D+02
  Exact polarizability:      30.966       0.940      30.665       0.919       0.347      26.686
 Approx polarizability:      38.108       1.043      40.049      -0.174       0.076      34.779
   1 Symmetry operations used in ECPInt.
 ECPInt:  NShTT=     666 NPrTT=    2698 LenC2=     666 LenP2D=    2343.
 LDataN:  DoStor=T MaxTD1= 6 Len=  172
 Calling FoFJK, ICntrl=    100127 FMM=F ISym2X=0 I1Cent= 0 IOpClX= 0 NMat=1 NMatS=1 NMatT=0.
 Full mass-weighted force constant matrix:
 Low frequencies ---    0.0007    0.0012    0.0013    3.8276    6.0834    9.8455
 Low frequencies ---  181.8968  287.6806  338.5791
 Diagonal vibrational polarizability:
       20.4561477      18.9175155      33.3907901
 Harmonic frequencies (cm**-1), IR intensities (KM/Mole), Raman scattering
 activities (A**4/AMU), depolarization ratios for plane and unpolarized
 incident light, reduced masses (AMU), force constants (mDyne/A),
 and normal coordinates:
                      1                      2                      3
                      A                      A                      A
 Frequencies --    181.8961               287.6806               338.5791
 Red. masses --      3.1186                 1.1545                 2.0471
 Frc consts  --      0.0608                 0.0563                 0.1383
 IR Inten    --      7.8201               113.2233                13.8404
  Atom  AN      X      Y      Z        X      Y      Z        X      Y      Z
     1   8    -0.20   0.09   0.09     0.01  -0.04  -0.07     0.16   0.01   0.05
     2   6     0.02  -0.10  -0.08    -0.02   0.00   0.01     0.05  -0.00  -0.12
     3   6    -0.04  -0.10   0.07    -0.00  -0.00  -0.03    -0.06  -0.01   0.11
     4   8     0.20   0.09  -0.09     0.03  -0.00   0.04    -0.12   0.02  -0.04
     5   1    -0.23   0.20   0.10    -0.48   0.52   0.66    -0.07   0.08   0.43
     6   1     0.10   0.05  -0.33     0.01  -0.02   0.12    -0.08   0.01  -0.36
     7   1     0.17  -0.31  -0.08    -0.09   0.11   0.01     0.22  -0.22  -0.13
     8   1    -0.20  -0.34   0.08     0.01   0.06  -0.03    -0.29  -0.25   0.12
     9   1    -0.09   0.04   0.33    -0.02  -0.01  -0.08     0.07   0.03   0.38
    10   1     0.45  -0.11  -0.08     0.07  -0.03   0.04    -0.26   0.06  -0.31
                      4                      5                      6
                      A                      A                      A
 Frequencies --    500.0962               543.1095               894.2680
 Red. masses --      1.1547                 2.2978                 1.8757
 Frc consts  --      0.1701                 0.3993                 0.8838
 IR Inten    --    138.9646                25.6056                30.4189
  Atom  AN      X      Y      Z        X      Y      Z        X      Y      Z
     1   8     0.05   0.01  -0.01    -0.10  -0.06  -0.04    -0.09  -0.10   0.04
     2   6    -0.01   0.03  -0.01     0.13  -0.12   0.06    -0.00   0.04  -0.09
     3   6    -0.03  -0.02   0.02     0.11   0.11   0.09     0.17   0.10  -0.03
     4   8    -0.04  -0.00  -0.06    -0.12   0.05  -0.06    -0.00  -0.01   0.00
     5   1     0.03  -0.02   0.02    -0.15   0.27  -0.04    -0.10  -0.03   0.02
     6   1    -0.03   0.02  -0.00    -0.02  -0.08  -0.27    -0.04  -0.07   0.13
     7   1     0.02   0.04  -0.01     0.48  -0.32   0.06    -0.33   0.10  -0.08
     8   1    -0.05  -0.10   0.02     0.42   0.27   0.08    -0.26  -0.26  -0.01
     9   1     0.03  -0.03   0.10    -0.02   0.07  -0.21     0.50   0.12   0.50
    10   1     0.41  -0.14   0.88    -0.11   0.11   0.22    -0.20   0.20   0.20
                      7                      8                      9
                      A                      A                      A
 Frequencies --    908.6190              1084.0958              1098.3171
 Red. masses --      2.0549                 2.2189                 2.9124
 Frc consts  --      0.9996                 1.5365                 2.0699
 IR Inten    --     14.2586                61.9485                74.8953
  Atom  AN      X      Y      Z        X      Y      Z        X      Y      Z
     1   8    -0.00   0.01   0.02     0.05   0.07  -0.03    -0.04  -0.19   0.06
     2   6     0.20  -0.12   0.00    -0.02  -0.11   0.13     0.12   0.26   0.08
     3   6    -0.07  -0.05  -0.10    -0.07   0.17  -0.07    -0.13   0.01  -0.12
     4   8    -0.08   0.10   0.04     0.07  -0.14  -0.03     0.02  -0.02   0.01
     5   1     0.06   0.21  -0.16     0.10   0.40  -0.22     0.03   0.37  -0.25
     6   1     0.60  -0.07   0.45    -0.19  -0.12  -0.07     0.02   0.37  -0.37
     7   1    -0.21   0.16   0.01     0.00  -0.26   0.12     0.40  -0.22   0.09
     8   1    -0.37  -0.08  -0.10    -0.29  -0.27  -0.06    -0.24  -0.04  -0.12
     9   1    -0.15   0.08   0.08    -0.18   0.39   0.31     0.07  -0.06   0.01
    10   1    -0.04   0.07   0.06    -0.24   0.15   0.16     0.18  -0.17  -0.09
                     10                     11                     12
                      A                      A                      A
 Frequencies --   1141.2473              1184.2664              1261.8714
 Red. masses --      2.3705                 1.1309                 1.1290
 Frc consts  --      1.8191                 0.9345                 1.0592
 IR Inten    --     46.0651                28.3214                 6.0574
  Atom  AN      X      Y      Z        X      Y      Z        X      Y      Z
     1   8     0.05   0.05  -0.05     0.02   0.00   0.03     0.01  -0.01  -0.04
     2   6    -0.10  -0.04   0.12     0.01  -0.04  -0.03    -0.03   0.01   0.03
     3   6     0.11  -0.14  -0.13    -0.02   0.05   0.06     0.01   0.02   0.06
     4   8    -0.07   0.13   0.08    -0.01  -0.01  -0.02     0.01  -0.02  -0.03
     5   1     0.08   0.27  -0.16     0.11   0.42  -0.26    -0.02  -0.09   0.04
     6   1    -0.23   0.06  -0.29    -0.22  -0.21   0.09     0.53   0.43  -0.15
     7   1    -0.12  -0.51   0.10    -0.27   0.02  -0.03    -0.46  -0.43   0.03
     8   1     0.05  -0.34  -0.10    -0.19   0.35   0.05    -0.15   0.25   0.06
     9   1     0.39  -0.20   0.14     0.36  -0.27  -0.08     0.01  -0.01  -0.01
    10   1     0.10  -0.03  -0.07     0.28  -0.28  -0.19    -0.02   0.01   0.02
                     13                     14                     15
                      A                      A                      A
 Frequencies --   1299.8908              1390.2390              1432.4643
 Red. masses --      1.2477                 1.2140                 1.2601
 Frc consts  --      1.2422                 1.3824                 1.5234
 IR Inten    --     54.5633                 4.2528                56.8790
  Atom  AN      X      Y      Z        X      Y      Z        X      Y      Z
     1   8     0.02  -0.04   0.04     0.00  -0.01   0.00     0.02  -0.01   0.02
     2   6    -0.01   0.05  -0.08    -0.01  -0.03  -0.03    -0.08  -0.03  -0.03
     3   6     0.02  -0.07   0.05    -0.05   0.10  -0.02    -0.09  -0.00   0.01
     4   8     0.01   0.01   0.00    -0.04  -0.02   0.04     0.05   0.02  -0.02
     5   1     0.11   0.50  -0.29     0.01   0.00  -0.02     0.05   0.21  -0.12
     6   1    -0.10  -0.01  -0.06     0.27   0.13  -0.00     0.32   0.11   0.18
     7   1    -0.39  -0.03  -0.09    -0.10   0.05  -0.03     0.32   0.03  -0.02
     8   1     0.36  -0.13   0.06     0.64  -0.34   0.00     0.24   0.00   0.02
     9   1    -0.43   0.17  -0.08     0.10   0.13   0.24     0.45  -0.37   0.01
    10   1    -0.19   0.19   0.13     0.33  -0.35  -0.21    -0.34   0.36   0.18
                     16                     17                     18
                      A                      A                      A
 Frequencies --   1464.6243              1493.4763              1505.5360
 Red. masses --      1.5594                 1.0977                 1.0951
 Frc consts  --      1.9708                 1.4425                 1.4624
 IR Inten    --     21.1694                 2.8062                 6.2571
  Atom  AN      X      Y      Z        X      Y      Z        X      Y      Z
     1   8    -0.02   0.02  -0.03     0.00   0.00  -0.00     0.01  -0.01   0.01
     2   6     0.16   0.03   0.04    -0.00   0.01  -0.00     0.00  -0.07   0.04
     3   6    -0.13  -0.00  -0.00    -0.02  -0.07  -0.05    -0.00  -0.02  -0.01
     4   8     0.03   0.01  -0.01     0.00  -0.01  -0.01     0.00   0.00  -0.00
     5   1    -0.08  -0.29   0.18    -0.00  -0.00   0.01     0.01   0.05  -0.03
     6   1    -0.34  -0.20  -0.14    -0.06  -0.06   0.08     0.02   0.23  -0.63
     7   1    -0.53  -0.18   0.04     0.07  -0.08  -0.00    -0.14   0.69   0.04
     8   1     0.33  -0.08  -0.00     0.23   0.65  -0.06    -0.03   0.12  -0.01
     9   1     0.26  -0.26   0.02    -0.01   0.24   0.65     0.06  -0.02   0.08
    10   1    -0.18   0.20   0.11    -0.01   0.01   0.01    -0.05   0.06   0.03
                     19                     20                     21
                      A                      A                      A
 Frequencies --   2965.0188              2974.6118              3022.8453
 Red. masses --      1.0731                 1.0583                 1.1088
 Frc consts  --      5.5584                 5.5171                 5.9692
 IR Inten    --     51.2422                57.0021                84.5352
  Atom  AN      X      Y      Z        X      Y      Z        X      Y      Z
     1   8     0.00   0.00   0.00     0.00   0.00  -0.00     0.00   0.00   0.00
     2   6    -0.01   0.02   0.01    -0.03   0.05  -0.03     0.02  -0.04  -0.08
     3   6    -0.01  -0.01  -0.07     0.00  -0.00   0.01    -0.00  -0.01  -0.01
     4   8     0.00  -0.00  -0.00     0.00   0.00  -0.00     0.00   0.00   0.00
     5   1    -0.00  -0.00   0.00     0.00   0.01  -0.00    -0.01   0.00  -0.00
     6   1     0.10  -0.18  -0.08     0.37  -0.62  -0.27    -0.29   0.48   0.19
     7   1    -0.00   0.00  -0.05    -0.01   0.00   0.62     0.00  -0.01   0.78
     8   1    -0.01   0.03   0.95     0.00  -0.01  -0.15     0.00   0.00   0.17
     9   1     0.10   0.16  -0.08     0.01   0.02  -0.01     0.04   0.07  -0.03
    10   1    -0.00  -0.01   0.00     0.00  -0.00   0.00    -0.00  -0.00  -0.00
                     22                     23                     24
                      A                      A                      A
 Frequencies --   3084.9575              3635.9035              3702.7765
 Red. masses --      1.0956                 1.0648                 1.0667
 Frc consts  --      6.1434                 8.2933                 8.6169
 IR Inten    --     36.7039                37.7169                33.4629
  Atom  AN      X      Y      Z        X      Y      Z        X      Y      Z
     1   8     0.00   0.00  -0.00     0.00   0.00   0.00    -0.05  -0.01  -0.03
     2   6     0.00  -0.00   0.01    -0.00   0.00  -0.00    -0.00   0.00  -0.00
     3   6    -0.04  -0.06   0.04    -0.00  -0.00   0.00     0.00  -0.00   0.00
     4   8     0.00   0.00  -0.00    -0.04  -0.05   0.01    -0.00  -0.00   0.00
     5   1    -0.00   0.00  -0.00    -0.01  -0.00  -0.01     0.87   0.15   0.47
     6   1    -0.01   0.01   0.00    -0.00  -0.00   0.00     0.00   0.00  -0.00
     7   1    -0.00   0.00  -0.07     0.00  -0.00   0.00     0.00   0.00   0.00
     8   1    -0.01  -0.01  -0.18    -0.00   0.00   0.01     0.00   0.00   0.00
     9   1     0.51   0.76  -0.34     0.01   0.01  -0.01     0.00   0.00  -0.00
    10   1    -0.02  -0.01   0.01     0.60   0.77  -0.18     0.01   0.01  -0.00

 -------------------
 - Thermochemistry -
 -------------------
 Temperature   298.150 Kelvin.  Pressure   0.98700 Atm.
 Thermochemistry will use frequencies scaled by 0.9610.
 Atom     1 has atomic number  8 and mass  15.99491
 Atom     2 has atomic number  6 and mass  12.00000
 Atom     3 has atomic number  6 and mass  12.00000
 Atom     4 has atomic number  8 and mass  15.99491
 Atom     5 has atomic number  1 and mass   1.00783
 Atom     6 has atomic number  1 and mass   1.00783
 Atom     7 has atomic number  1 and mass   1.00783
 Atom     8 has atomic number  1 and mass   1.00783
 Atom     9 has atomic number  1 and mass   1.00783
 Atom    10 has atomic number  1 and mass   1.00783
 Molecular mass:    62.03678 amu.
 Principal axes and moments of inertia in atomic units:
                           1         2         3
     Eigenvalues --   119.20651 311.77532 383.17038
           X            0.99954   0.00923   0.02901
           Y           -0.00950   0.99991   0.00899
           Z           -0.02893  -0.00926   0.99954
 This molecule is an asymmetric top.
 Rotational symmetry number  1.
 Rotational temperatures (Kelvin)      0.72659     0.27781     0.22605
 Rotational constants (GHZ):          15.13962     5.78860     4.71002
 Zero-point vibrational energy     214956.6 (Joules/Mol)
                                   51.37585 (Kcal/Mol)
 Warning -- explicit consideration of   5 degrees of freedom as
           vibrations may cause significant error
 Vibrational temperatures:    251.50   397.77   468.14   691.47   750.94
          (Kelvin)           1236.47  1256.32  1498.94  1518.60  1577.96
                             1637.44  1744.74  1797.31  1922.23  1980.62
                             2025.08  2064.98  2081.65  4099.63  4112.89
                             4179.58  4265.46  5027.24  5119.70
 
 Zero-point correction=                           0.081873 (Hartree/Particle)
 Thermal correction to Energy=                    0.086891
 Thermal correction to Enthalpy=                  0.087835
 Thermal correction to Gibbs Free Energy=         0.054681
 Sum of electronic and zero-point Energies=           -229.979169
 Sum of electronic and thermal Energies=              -229.974151
 Sum of electronic and thermal Enthalpies=            -229.973206
 Sum of electronic and thermal Free Energies=         -230.006361
 
                     E (Thermal)             CV                S
                      KCal/Mol        Cal/Mol-Kelvin    Cal/Mol-Kelvin
 Total                   54.525             16.858             69.779
 Electronic               0.000              0.000              0.000
 Translational            0.889              2.981             38.321
 Rotational               0.889              2.981             24.169
 Vibrational             52.748             10.897              7.289
 Vibration     1          0.627              1.873              2.383
 Vibration     2          0.678              1.717              1.555
 Vibration     3          0.709              1.625              1.283
 Vibration     4          0.837              1.293              0.708
 Vibration     5          0.877              1.201              0.606
                       Q            Log10(Q)             Ln(Q)
 Total Bot       0.705494D-25        -25.151507        -57.913485
 Total V=0       0.321556D+13         12.507256         28.799021
 Vib (Bot)       0.848731D-37        -37.071230        -85.359661
 Vib (Bot)    1  0.115105D+01          0.061094          0.140674
 Vib (Bot)    2  0.696730D+00         -0.156936         -0.361358
 Vib (Bot)    3  0.575874D+00         -0.239673         -0.551866
 Vib (Bot)    4  0.347823D+00         -0.458641         -1.056060
 Vib (Bot)    5  0.308717D+00         -0.510440         -1.175331
 Vib (V=0)       0.386842D+01          0.587533          1.352845
 Vib (V=0)    1  0.175496D+01          0.244266          0.562444
 Vib (V=0)    2  0.135757D+01          0.132763          0.305699
 Vib (V=0)    3  0.126265D+01          0.101282          0.233211
 Vib (V=0)    4  0.110908D+01          0.044964          0.103533
 Vib (V=0)    5  0.108763D+01          0.036480          0.083999
 Electronic      0.100000D+01          0.000000          0.000000
 Translational   0.194586D+08          7.289111         16.783797
 Rotational      0.427181D+05          4.630612         10.662379
 ***** Axes restored to original set *****
 -------------------------------------------------------------------
 Center     Atomic                   Forces (Hartrees/Bohr)
 Number     Number              X              Y              Z
 -------------------------------------------------------------------
      1        8          -0.000002297    0.000038039   -0.000009266
      2        6           0.000038912   -0.000033224   -0.000046146
      3        6           0.000000625   -0.000011546    0.000054714
      4        8          -0.000010437   -0.000011061    0.000011649
      5        1           0.000009843    0.000000703    0.000009456
      6        1          -0.000000039   -0.000012898    0.000014876
      7        1          -0.000010080   -0.000003243    0.000004974
      8        1          -0.000009162   -0.000001467   -0.000006581
      9        1          -0.000011548    0.000010029   -0.000021876
     10        1          -0.000005817    0.000024668   -0.000011800
 -------------------------------------------------------------------
 Cartesian Forces:  Max     0.000054714 RMS     0.000020095
 FormGI is forming the generalized inverse of G from B-inverse, IUseBI=4.

 GradGradGradGradGradGradGradGradGradGradGradGradGradGradGradGradGradGrad
 Berny optimization.
 Internal  Forces:  Max     0.000064945 RMS     0.000016891
 Search for a local minimum.
 Step number   1 out of a maximum of    2
 All quantities printed in internal units (Hartrees-Bohrs-Radians)
 Second derivative matrix not updated -- analytic derivatives used.
 ITU=  0
     Eigenvalues ---    0.00302   0.00412   0.01032   0.04894   0.05000
     Eigenvalues ---    0.05902   0.06916   0.10090   0.10529   0.12164
     Eigenvalues ---    0.13786   0.15830   0.17945   0.23359   0.25787
     Eigenvalues ---    0.30978   0.31263   0.31647   0.32532   0.33508
     Eigenvalues ---    0.39900   0.40781   0.48020   0.49391
 Angle between quadratic step and forces=  69.81 degrees.
 Linear search not attempted -- first point.
 Iteration  1 RMS(Cart)=  0.00051625 RMS(Int)=  0.00000045
 Iteration  2 RMS(Cart)=  0.00000042 RMS(Int)=  0.00000001
 Variable       Old X    -DE/DX   Delta X   Delta X   Delta X     New X
                                 (Linear)    (Quad)   (Total)
    R1        2.68532  -0.00001   0.00000   0.00007   0.00007   2.68540
    R2        1.83184   0.00000   0.00000   0.00000   0.00000   1.83184
    R3        2.87240  -0.00001   0.00000  -0.00005  -0.00005   2.87235
    R4        2.09855   0.00000   0.00000  -0.00000  -0.00000   2.09855
    R5        2.09585   0.00000   0.00000  -0.00000  -0.00000   2.09585
    R6        2.65873   0.00002   0.00000   0.00000   0.00000   2.65873
    R7        2.10166   0.00001   0.00000   0.00004   0.00004   2.10169
    R8        2.08560  -0.00001   0.00000  -0.00005  -0.00005   2.08555
    R9        1.84157   0.00000   0.00000  -0.00002  -0.00002   1.84155
    A1        1.91138  -0.00002   0.00000  -0.00011  -0.00011   1.91128
    A2        1.85167  -0.00006   0.00000  -0.00027  -0.00027   1.85140
    A3        1.94975   0.00002   0.00000   0.00005   0.00005   1.94980
    A4        1.93690   0.00001   0.00000  -0.00009  -0.00009   1.93680
    A5        1.92790   0.00004   0.00000   0.00031   0.00031   1.92821
    A6        1.90438   0.00001   0.00000   0.00004   0.00004   1.90442
    A7        1.89294  -0.00001   0.00000  -0.00003  -0.00003   1.89291
    A8        1.93334   0.00002   0.00000   0.00008   0.00008   1.93341
    A9        1.89708  -0.00001   0.00000  -0.00018  -0.00018   1.89689
   A10        1.92033   0.00001   0.00000   0.00031   0.00031   1.92064
   A11        1.94931  -0.00001   0.00000  -0.00005  -0.00005   1.94925
   A12        1.88148  -0.00000   0.00000  -0.00003  -0.00003   1.88144
   A13        1.88163  -0.00000   0.00000  -0.00011  -0.00011   1.88152
   A14        1.84363   0.00003   0.00000   0.00012   0.00012   1.84375
    D1       -2.90820   0.00002   0.00000   0.00138   0.00138  -2.90682
    D2        1.27310  -0.00000   0.00000   0.00114   0.00114   1.27424
    D3       -0.84178  -0.00000   0.00000   0.00121   0.00121  -0.84057
    D4        1.01174  -0.00002   0.00000   0.00041   0.00041   1.01215
    D5       -1.13614  -0.00001   0.00000   0.00055   0.00055  -1.13559
    D6        3.09034  -0.00000   0.00000   0.00061   0.00061   3.09096
    D7        3.12775  -0.00001   0.00000   0.00048   0.00048   3.12823
    D8        0.97986  -0.00000   0.00000   0.00062   0.00062   0.98048
    D9       -1.07684   0.00000   0.00000   0.00069   0.00069  -1.07615
   D10       -1.07607   0.00001   0.00000   0.00065   0.00065  -1.07542
   D11        3.05923   0.00001   0.00000   0.00079   0.00079   3.06002
   D12        1.00253   0.00002   0.00000   0.00086   0.00086   1.00339
   D13       -0.83599  -0.00001   0.00000  -0.00180  -0.00180  -0.83779
   D14        1.28138  -0.00001   0.00000  -0.00202  -0.00202   1.27936
   D15       -2.93788  -0.00003   0.00000  -0.00220  -0.00220  -2.94008
         Item               Value     Threshold  Converged?
 Maximum Force            0.000065     0.000450     YES
 RMS     Force            0.000017     0.000300     YES
 Maximum Displacement     0.001270     0.001800     YES
 RMS     Displacement     0.000516     0.001200     YES
 Predicted change in Energy=-8.216593D-08
 Optimization completed.
    -- Stationary point found.
                           ----------------------------
                           !   Optimized Parameters   !
                           ! (Angstroms and Degrees)  !
 --------------------------                            --------------------------
 ! Name  Definition              Value          Derivative Info.                !
 --------------------------------------------------------------------------------
 ! R1    R(1,2)                  1.421          -DE/DX =    0.0                 !
 ! R2    R(1,5)                  0.9694         -DE/DX =    0.0                 !
 ! R3    R(2,3)                  1.52           -DE/DX =    0.0                 !
 ! R4    R(2,6)                  1.1105         -DE/DX =    0.0                 !
 ! R5    R(2,7)                  1.1091         -DE/DX =    0.0                 !
 ! R6    R(3,4)                  1.4069         -DE/DX =    0.0                 !
 ! R7    R(3,8)                  1.1121         -DE/DX =    0.0                 !
 ! R8    R(3,9)                  1.1037         -DE/DX =    0.0                 !
 ! R9    R(4,10)                 0.9745         -DE/DX =    0.0                 !
 ! A1    A(2,1,5)              109.5142         -DE/DX =    0.0                 !
 ! A2    A(1,2,3)              106.0928         -DE/DX =   -0.0001              !
 ! A3    A(1,2,6)              111.7123         -DE/DX =    0.0                 !
 ! A4    A(1,2,7)              110.976          -DE/DX =    0.0                 !
 ! A5    A(3,2,6)              110.4603         -DE/DX =    0.0                 !
 ! A6    A(3,2,7)              109.1131         -DE/DX =    0.0                 !
 ! A7    A(6,2,7)              108.4577         -DE/DX =    0.0                 !
 ! A8    A(2,3,4)              110.772          -DE/DX =    0.0                 !
 ! A9    A(2,3,8)              108.6945         -DE/DX =    0.0                 !
 ! A10   A(2,3,9)              110.0268         -DE/DX =    0.0                 !
 ! A11   A(4,3,8)              111.6871         -DE/DX =    0.0                 !
 ! A12   A(4,3,9)              107.8007         -DE/DX =    0.0                 !
 ! A13   A(8,3,9)              107.8094         -DE/DX =    0.0                 !
 ! A14   A(3,4,10)             105.6324         -DE/DX =    0.0                 !
 ! D1    D(5,1,2,3)           -166.6276         -DE/DX =    0.0                 !
 ! D2    D(5,1,2,6)             72.943          -DE/DX =    0.0                 !
 ! D3    D(5,1,2,7)            -48.2304         -DE/DX =    0.0                 !
 ! D4    D(1,2,3,4)             57.9687         -DE/DX =    0.0                 !
 ! D5    D(1,2,3,8)            -65.0962         -DE/DX =    0.0                 !
 ! D6    D(1,2,3,9)            177.0637         -DE/DX =    0.0                 !
 ! D7    D(6,2,3,4)            179.2069         -DE/DX =    0.0                 !
 ! D8    D(6,2,3,8)             56.142          -DE/DX =    0.0                 !
 ! D9    D(6,2,3,9)            -61.6982         -DE/DX =    0.0                 !
 ! D10   D(7,2,3,4)            -61.6542         -DE/DX =    0.0                 !
 ! D11   D(7,2,3,8)            175.2809         -DE/DX =    0.0                 !
 ! D12   D(7,2,3,9)             57.4408         -DE/DX =    0.0                 !
 ! D13   D(2,3,4,10)           -47.8989         -DE/DX =    0.0                 !
 ! D14   D(8,3,4,10)            73.4175         -DE/DX =    0.0                 !
 ! D15   D(9,3,4,10)          -168.3279         -DE/DX =    0.0                 !
 --------------------------------------------------------------------------------
 GradGradGradGradGradGradGradGradGradGradGradGradGradGradGradGradGradGrad


 ----------------------------------------------------------------------

 Electric dipole moment (input orientation):
 (Debye = 10**-18 statcoulomb cm , SI units = C m)
                  (au)            (Debye)         (10**-30 SI)
   Tot        0.104161D+01      0.264751D+01      0.883114D+01
   x         -0.177584D+00     -0.451374D+00     -0.150562D+01
   y         -0.101622D+01     -0.258298D+01     -0.861588D+01
   z          0.143912D+00      0.365788D+00      0.122014D+01

 Dipole polarizability, Alpha (input orientation).
 (esu units = cm**3 , SI units = C**2 m**2 J**-1)
 Alpha(0;0):
               (au)            (10**-24 esu)      (10**-40 SI)
   iso        0.294387D+02      0.436236D+01      0.485378D+01
   aniso      0.476129D+01      0.705551D+00      0.785031D+00
   xx         0.306374D+02      0.454000D+01      0.505143D+01
   yx         0.648120D+00      0.960415D-01      0.106861D+00
   yy         0.302140D+02      0.447726D+01      0.498162D+01
   zx        -0.200838D+01     -0.297612D+00     -0.331138D+00
   zy        -0.367690D+00     -0.544860D-01     -0.606239D-01
   zz         0.274645D+02      0.406982D+01      0.452828D+01

 ----------------------------------------------------------------------

 Dipole orientation:
     8          1.90584898         -0.28692056         -0.63202144
     6          4.54747132         -0.67421654         -0.91975519
     6          4.95495380         -1.36665478         -3.67749850
     8          4.03981948          0.55049686         -5.27621273
     1          1.57943008          0.53911504          0.97008878
     1          5.24855442         -2.20542120          0.33236728
     1          5.61406558          1.07730636         -0.48716015
     1          4.01484132         -3.20787476         -4.05573321
     1          6.99153776         -1.59940513         -4.06206293
     1          2.35511163          0.95496836         -4.65208339

 Electric dipole moment (dipole orientation):
 (Debye = 10**-18 statcoulomb cm , SI units = C m)
                  (au)            (Debye)         (10**-30 SI)
   Tot        0.104161D+01      0.264751D+01      0.883114D+01
   x          0.000000D+00      0.000000D+00      0.000000D+00
   y          0.000000D+00      0.000000D+00      0.000000D+00
   z          0.104161D+01      0.264751D+01      0.883114D+01

 Dipole polarizability, Alpha (dipole orientation).
 (esu units = cm**3 , SI units = C**2 m**2 J**-1)
 Alpha(0;0):
               (au)            (10**-24 esu)      (10**-40 SI)
   iso        0.294387D+02      0.436236D+01      0.485378D+01
   aniso      0.476129D+01      0.705551D+00      0.785031D+00
   xx         0.297026D+02      0.440147D+01      0.489729D+01
   yx        -0.221759D+01     -0.328613D+00     -0.365631D+00
   yy         0.280302D+02      0.415365D+01      0.462156D+01
   zx        -0.878572D+00     -0.130191D+00     -0.144857D+00
   zy         0.430530D+00      0.637979D-01      0.709847D-01
   zz         0.305832D+02      0.453196D+01      0.504249D+01

 ----------------------------------------------------------------------
 Unable to Open any file for archive entry.
 1\1\GINC-NODE01\Freq\RB3LYP\def2SVPP\C2H6O2\XUHJ\14-Sep-2024\0\\#N Geo
 m=AllCheck Guess=TCheck SCRF=Check GenChk RB3LYP/def2SVPP Freq\\OCCO_1
 \\0,1\O,1.061985311,0.1540543603,-0.0223951004\C,2.4800827739,0.064763
 7981,-0.0050590234\C,2.992558403,1.3970307482,-0.527413172\O,2.5166289
 189,2.459261991,0.2629218772\H,0.6852399097,-0.5762799993,0.4917545773
 \H,2.8470559148,-0.7685423842,-0.6407897626\H,2.8556025731,-0.08933207
 49,1.0270703323\H,2.6842929674,1.50550984,-1.590465663\H,4.0954441812,
 1.417910524,-0.4919542754\H,1.560299047,2.3023631967,0.3653802101\\Ver
 sion=ES64L-G16RevC.01\State=1-A\HF=-230.0610419\RMSD=3.899e-09\RMSF=2.
 010e-05\ZeroPoint=0.0818726\Thermal=0.0868912\ETot=-229.9741507\HTot=-
 229.9732065\GTot=-230.0063609\Dipole=-0.1775842,-1.0162211,0.1439119\D
 ipoleDeriv=-0.9905214,-0.0551139,0.0459322,-0.0547283,-0.4146006,-0.12
 37002,0.0133196,-0.1039752,-0.4518831,0.8317471,-0.0493548,-0.0452614,
 0.0502229,0.255668,0.0610756,-0.0070406,0.1133487,0.3723594,0.3614329,
 -0.1096827,-0.0743783,-0.182212,0.6009959,0.2200468,-0.0516829,0.15678
 49,0.5563853,-0.3839345,0.1962345,0.1285778,0.1614098,-0.8547942,-0.15
 14767,0.106232,-0.1243365,-0.6457354,0.2875025,0.0199459,-0.0052138,-0
 .0202668,0.1903515,0.1039861,0.0197457,0.0908469,0.2942735,-0.0734024,
 0.0331699,0.0451135,0.0780742,-0.1362246,-0.0922338,0.063467,-0.121643
 2,-0.0545228,-0.0772854,-0.0155105,-0.0313424,0.004033,0.0132923,0.020
 743,-0.0781878,0.0584194,-0.1824014,0.0107719,0.0161125,-0.0786571,0.0
 205603,-0.052002,-0.0031041,-0.0190795,-0.006943,-0.2331517,-0.1526894
 ,0.0041997,0.0214488,0.0050572,0.0095654,-0.0065414,-0.0279127,-0.0206
 445,0.0417537,0.1863789,-0.0400007,-0.0062194,-0.0621503,0.3877484,-0.
 0287953,-0.0188608,-0.0418574,0.3029225\Polar=30.6374363,0.6481203,30.
 2140265,-2.0083823,-0.3676898,27.4644991\Quadrupole=0.7538855,-0.53886
 63,-0.2150193,-0.4011535,-1.9106214,-1.6811044\PG=C01 [X(C2H6O2)]\NIma
 g=0\\0.42622426,0.11192038,0.36889709,-0.09022802,-0.21937712,0.203283
 16,-0.23131884,-0.00096771,0.01149478,0.47917284,0.03244500,-0.0864768
 3,0.01534100,-0.02812888,0.55312185,-0.01819403,0.01444970,-0.07897640
 ,0.00402912,0.01905487,0.60512000,-0.03662424,-0.04007473,0.02146305,-
 0.08645414,-0.02111912,0.00985393,0.64918166,-0.00649380,-0.00511338,-
 0.00118417,-0.04434607,-0.16536490,0.05189556,0.00003189,0.46930950,0.
 00390286,-0.00098884,0.00127447,0.01434738,0.04517057,-0.10676070,0.01
 783097,-0.00843339,0.55911720,0.00193613,-0.00486969,-0.00153429,0.000
 53782,0.00050852,-0.00142195,-0.11615392,0.05623025,0.04250217,0.55691
 127,-0.00054631,0.00180888,-0.00059728,0.01717262,-0.04963940,-0.03034
 190,0.01399881,-0.17179644,-0.07098490,0.02051792,0.27895575,-0.000259
 49,0.00224198,0.00302174,0.00069006,-0.00459074,0.00416140,0.01936805,
 -0.08377037,-0.13038158,-0.09699160,0.13250288,0.16562973,-0.09905645,
 -0.09783329,0.07172539,-0.01956936,-0.03516120,0.02427066,-0.00952775,
 0.00221289,-0.00078970,0.00103797,0.00150763,0.00015568,0.12434684,-0.
 14124769,-0.28594204,0.19898490,0.00674578,0.00197986,-0.00252868,-0.0
 0068743,-0.00056660,-0.00066761,-0.00126577,0.00058142,0.00016563,0.13
 247834,0.28199097,0.10315218,0.19947722,-0.14338318,-0.00592598,-0.001
 72021,-0.00075151,0.00003083,-0.00085881,0.00063996,-0.00069390,-0.000
 76310,-0.00031511,-0.09504216,-0.19642686,0.14162184,-0.03045265,0.027
 69056,0.01916914,-0.06711351,0.04704489,0.03872702,0.00563495,-0.00491
 223,-0.00884430,0.00099261,-0.00485829,0.00083600,0.00079215,0.0015847
 9,-0.00019893,0.08497947,0.00541784,0.00563063,0.00137525,0.04957181,-
 0.19198109,-0.10396587,0.01005188,-0.01623906,-0.02115218,-0.00157800,
 -0.00805575,0.00250444,0.00010138,0.00035060,0.00077210,-0.06059622,0.
 20236251,0.00402772,0.00376175,0.00760831,0.03872125,-0.10778291,-0.14
 049086,-0.00425141,0.00877748,0.00654326,0.00070815,0.00260677,0.00148
 604,0.00041840,-0.00055507,-0.00035013,-0.04620219,0.11661274,0.139652
 51,-0.03197736,0.00648843,-0.03283708,-0.07097849,0.00932041,-0.064696
 94,0.00461531,-0.00176330,0.01372987,-0.00015772,0.00086498,-0.0010718
 3,0.00206079,0.00175667,-0.00090211,0.00594990,-0.00206034,0.00688049,
 0.09022745,0.00145938,0.00308224,0.00318393,0.01014363,-0.05860888,0.0
 2503823,0.00764385,-0.00424582,0.03025238,-0.00027462,0.00375401,-0.00
 173054,-0.00045748,0.00040740,-0.00112517,-0.00645560,0.00509973,-0.02
 249000,-0.01125575,0.05484829,-0.00379271,-0.00054684,0.00846410,-0.06
 853763,0.02998517,-0.27191219,-0.00274235,0.00032130,-0.01426740,-0.00
 004400,-0.00079449,0.00357028,-0.00081602,0.00011370,0.00139973,-0.003
 70403,0.00290009,-0.01499141,0.07814274,-0.03478220,0.28727463,0.00184
 985,0.00091732,0.00008534,0.00311496,-0.00415926,0.01042601,-0.0797494
 0,0.00972667,-0.07129137,0.00781480,0.00222401,0.01686016,0.00019876,0
 .00011062,-0.00024724,0.00011282,0.00053404,-0.00035200,0.00003570,-0.
 00147538,0.00123143,0.07249651,0.00056977,0.00222422,-0.00219142,0.010
 20037,-0.00602098,0.03153427,0.00963336,-0.05476088,0.03274175,-0.0025
 4121,-0.00473394,-0.03654004,0.00045372,0.00023447,-0.00034487,0.00067
 769,0.00120244,-0.00047808,-0.00338326,-0.00501209,0.00252265,-0.01285
 158,0.06497635,0.00013211,-0.00087676,0.00165362,-0.00626497,0.0037608
 0,-0.01242501,-0.06714442,0.03509814,-0.25798881,0.00456982,-0.0149828
 8,-0.02191443,-0.00009283,-0.00031239,0.00037041,0.00042284,0.00086766
 ,0.00069363,0.00070784,0.00187833,0.00049897,0.07066764,-0.02605874,0.
 28850362,0.00048808,-0.00243858,0.00128797,-0.00913025,0.00155337,-0.0
 0233686,-0.31015011,-0.01222835,-0.01453673,-0.01100742,0.00516054,0.0
 0635189,-0.00022540,0.00017382,-0.00016657,0.00024062,-0.00076919,-0.0
 0001626,0.00062421,0.00015599,0.00046664,-0.00683079,-0.00140928,-0.00
 153037,0.33479043,-0.00343881,-0.00603929,0.00394174,-0.02725850,0.005
 00415,-0.00447267,-0.01782139,-0.05235941,0.00192664,0.03395627,-0.002
 91100,-0.00568274,-0.00198159,-0.00017633,0.00005361,0.00080445,0.0005
 4180,-0.00068679,0.00064952,0.00104056,0.00017894,0.00541857,0.0018720
 9,0.00125789,0.00736056,0.05781386,0.00084172,0.00222841,-0.00014044,0
 .01211976,0.00069552,-0.00035913,-0.02417435,0.00024097,-0.05285454,0.
 02552115,-0.00294275,-0.00142220,0.00078863,0.00010915,0.00048370,-0.0
 0037481,0.00002473,0.00018446,0.00031599,-0.00062673,0.00040461,-0.028
 33274,-0.00180138,0.00083073,0.01034052,0.00566475,0.05421341,-0.00106
 878,-0.00083271,-0.00062627,0.00173896,-0.00230372,-0.00065695,-0.0207
 7236,0.00154204,0.00314884,-0.44191153,-0.05604191,0.05406107,-0.00005
 755,0.00035087,-0.00000613,-0.00113635,-0.00067320,0.00006586,-0.00039
 978,0.00051597,-0.00020406,0.00095679,-0.00134957,-0.00146765,0.001200
 64,0.00231091,0.00295413,0.46144997,-0.00008576,0.00192848,0.00052317,
 0.00686695,-0.00201377,-0.00066352,0.03834288,0.00113699,-0.00786444,-
 0.10068367,-0.04796352,-0.00510048,-0.00132040,0.00114027,0.00093608,-
 0.00098004,0.00108819,0.00023410,-0.00061736,-0.00036543,0.00010168,-0
 .00044501,0.00001832,-0.00063206,0.00244112,-0.00478642,-0.00359268,0.
 05648130,0.04981690,0.00041767,-0.00036951,-0.00280538,-0.00067378,0.0
 0008592,0.00239439,0.02976570,-0.00208671,-0.00532187,0.02738446,-0.01
 370236,-0.02383588,-0.00061804,0.00111723,0.00028431,0.00016925,0.0000
 6103,-0.00033581,-0.00026896,0.00040178,-0.00044131,0.00095277,0.00061
 586,-0.00022274,0.00013976,-0.00218138,-0.00134059,-0.05726883,0.01605
 815,0.03162489\\0.00000230,-0.00003804,0.00000927,-0.00003891,0.000033
 22,0.00004615,-0.00000062,0.00001155,-0.00005471,0.00001044,0.00001106
 ,-0.00001165,-0.00000984,-0.00000070,-0.00000946,0.00000004,0.00001290
 ,-0.00001488,0.00001008,0.00000324,-0.00000497,0.00000916,0.00000147,0
 .00000658,0.00001155,-0.00001003,0.00002188,0.00000582,-0.00002467,0.0
 0001180\\\@
 The archive entry for this job was punched.


 NEVER TEACH A PIG TO SING.
 IT WASTES YOUR TIME AND ANNOYS THE PIG.
     -- SEEN ON A GREETING CARD
 Job cpu time:       0 days  0 hours  1 minutes 16.0 seconds.
 Elapsed time:       0 days  0 hours  0 minutes  9.5 seconds.
 File lengths (MBytes):  RWF=     10 Int=      0 D2E=      0 Chk=      2 Scr=      1
 Normal termination of Gaussian 16 at Sat Sep 14 01:09:21 2024.
