%nprocshared=16
%mem=4480MB
#N opt freq B3LYP/def2SVPP symm=veryloose em=gd3bj scale=0.961 press=0.987

c1ccc2cc3ccccc3cc2c1_1

0 1
C          3.66013       -0.69611       -0.00381
C          3.66068        0.69512        0.00324
C          2.45188        1.39279        0.00109
C          1.22641        0.70643       -0.00009
C          0.00124        1.39406        0.00159
C         -1.22347        0.70588        0.00198
C         -2.44916        1.39191        0.00072
C         -3.65772        0.69400       -0.00209
C         -3.65721       -0.69730       -0.00067
C         -2.44749       -1.39347        0.00349
C         -1.22300       -0.70554        0.00293
C          0.00178       -1.39310        0.00193
C          1.22607       -0.70497       -0.00238
C          2.45072       -1.39266       -0.00891
H          4.60030       -1.24140       -0.00521
H          4.60150        1.23918        0.01022
H          2.47291        2.48023        0.00147
H          0.00116        2.48237        0.00196
H         -2.47040        2.47933        0.00060
H         -4.59905        1.23806       -0.00635
H         -4.59702       -1.24294       -0.00362
H         -2.46696       -2.48094        0.00509
H          0.00199       -2.48131        0.00516
H          2.47049       -2.48000       -0.01786

