%nprocshared=8
%mem=5200MB
#N opt freq B3LYP/def2SVPP symm=veryloose em=gd3bj scale=0.961 press=0.987

c1ccc2c(c1)Cc1ccccc1-2_2

0 1
C          3.39430       -0.54690        0.14550
C          3.13520        0.73380       -0.37250
C          1.82320        1.19260       -0.53000
C          0.78400        0.35430       -0.16310
C          1.05150       -0.93110        0.35680
C          2.34740       -1.39320        0.51600
C         -0.24420       -1.64720        0.67960
C         -1.28090       -0.61630        0.28170
C         -2.66030       -0.71730        0.35480
C         -3.42010        0.37290       -0.07370
C         -2.79890        1.53470       -0.56340
C         -1.40500        1.62840       -0.63390
C         -0.65020        0.54790       -0.20920
H          4.42320       -0.88080        0.25840
H          3.96650        1.37580       -0.65440
H          1.63390        2.18240       -0.93070
H          2.54770       -2.38150        0.91570
H         -0.30830       -1.86730        1.74920
H         -0.34690       -2.55260        0.07440
H         -3.14000       -1.61380        0.73270
H         -4.50560        0.32440       -0.02890
H         -3.41100        2.37160       -0.89180
H         -0.93540        2.52920       -1.01330

