%nprocshared=16
%mem=960MB
#N opt freq B3LYP/def2SVPP symm=veryloose em=gd3bj scale=0.961 press=0.987

[CH2]CC_1

0 2
C          1.283110      -0.290138      -0.020790
C          0.056316       0.553156       0.034525
C         -1.247445      -0.253590      -0.024818
H          2.242865       0.135702      -0.290510
H          1.272299      -1.307631       0.355867
H          0.054983       1.157722       0.960394
H          0.075260       1.292457      -0.778365
H         -1.299697      -0.972614       0.800021
H         -2.122930       0.399182       0.045118
H         -1.317984      -0.817073      -0.960555

