%nprocshared=16
%mem=1600MB
#N opt freq B3LYP/def2SVPP symm=veryloose em=gd3bj scale=0.961 press=0.987

CCCCC_1

0 1
C          0.98290       -0.02085        0.10429
C          2.50339       -0.03347        0.09518
C          3.03813       -1.19445       -0.74097
C          4.56552       -1.21672       -0.75699
C          5.08602       -2.37581       -1.59179
H          0.61294        0.81470        0.70606
H          0.58678       -0.94862        0.52915
H          0.58679        0.08808       -0.91031
H          2.87008       -0.11402        1.12490
H          2.87006        0.91764       -0.30753
H          2.66178       -1.11073       -1.76791
H          2.66178       -2.14193       -0.33611
H          4.94917       -1.30698        0.26591
H          4.94919       -0.27515       -1.16677
H          4.74185       -3.33354       -1.18846
H          6.18007       -2.38090       -1.59545
H          4.74185       -2.29677       -2.62798

