%nprocshared=16
%mem=640MB
#N opt freq B3LYP/def2SVPP symm=veryloose em=gd3bj scale=0.961 press=0.987

CC_1

0 1
C          0.93567        0.05850        0.04888
C          2.45488        0.05850        0.04888
H          0.55925        1.09718       -0.06242
H          0.55925       -0.36446        1.00406
H          0.55925       -0.55724       -0.79500
H          2.83130        0.67423        0.89276
H          2.83130        0.48145       -0.90630
H          2.83130       -0.98019        0.16018

