 Entering Gaussian System, Link 0=g16
 Initial command:
 /home/software/g16/l1.exe "/home/software/g16tmp/Gau-49107.inp" -scrdir="/home/software/g16tmp/"
 Default is to use a total of   8 processors:
                                8 via shared-memory
                                1 via Linda
 Entering Link 1 = /home/software/g16/l1.exe PID=     49108.
  
 Copyright (c) 1988-2019, Gaussian, Inc.  All Rights Reserved.
  
 This is part of the Gaussian(R) 16 program.  It is based on
 the Gaussian(R) 09 system (copyright 2009, Gaussian, Inc.),
 the Gaussian(R) 03 system (copyright 2003, Gaussian, Inc.),
 the Gaussian(R) 98 system (copyright 1998, Gaussian, Inc.),
 the Gaussian(R) 94 system (copyright 1995, Gaussian, Inc.),
 the Gaussian 92(TM) system (copyright 1992, Gaussian, Inc.),
 the Gaussian 90(TM) system (copyright 1990, Gaussian, Inc.),
 the Gaussian 88(TM) system (copyright 1988, Gaussian, Inc.),
 the Gaussian 86(TM) system (copyright 1986, Carnegie Mellon
 University), and the Gaussian 82(TM) system (copyright 1983,
 Carnegie Mellon University). Gaussian is a federally registered
 trademark of Gaussian, Inc.
  
 This software contains proprietary and confidential information,
 including trade secrets, belonging to Gaussian, Inc.
  
 This software is provided under written license and may be
 used, copied, transmitted, or stored only in accord with that
 written license.
  
 The following legend is applicable only to US Government
 contracts under FAR:
  
                    RESTRICTED RIGHTS LEGEND
  
 Use, reproduction and disclosure by the US Government is
 subject to restrictions as set forth in subparagraphs (a)
 and (c) of the Commercial Computer Software - Restricted
 Rights clause in FAR 52.227-19.
  
 Gaussian, Inc.
 340 Quinnipiac St., Bldg. 40, Wallingford CT 06492
  
  
 ---------------------------------------------------------------
 Warning -- This program may not be used in any manner that
 competes with the business of Gaussian, Inc. or will provide
 assistance to any competitor of Gaussian, Inc.  The licensee
 of this program is prohibited from giving any competitor of
 Gaussian, Inc. access to this program.  By using this program,
 the user acknowledges that Gaussian, Inc. is engaged in the
 business of creating and licensing software in the field of
 computational chemistry and represents and warrants to the
 licensee that it is not a competitor of Gaussian, Inc. and that
 it will not use this program in any manner prohibited above.
 ---------------------------------------------------------------
  

 Cite this work as:
 Gaussian 16, Revision C.01,
 M. J. Frisch, G. W. Trucks, H. B. Schlegel, G. E. Scuseria, 
 M. A. Robb, J. R. Cheeseman, G. Scalmani, V. Barone, 
 G. A. Petersson, H. Nakatsuji, X. Li, M. Caricato, A. V. Marenich, 
 J. Bloino, B. G. Janesko, R. Gomperts, B. Mennucci, H. P. Hratchian, 
 J. V. Ortiz, A. F. Izmaylov, J. L. Sonnenberg, D. Williams-Young, 
 F. Ding, F. Lipparini, F. Egidi, J. Goings, B. Peng, A. Petrone, 
 T. Henderson, D. Ranasinghe, V. G. Zakrzewski, J. Gao, N. Rega, 
 G. Zheng, W. Liang, M. Hada, M. Ehara, K. Toyota, R. Fukuda, 
 J. Hasegawa, M. Ishida, T. Nakajima, Y. Honda, O. Kitao, H. Nakai, 
 T. Vreven, K. Throssell, J. A. Montgomery, Jr., J. E. Peralta, 
 F. Ogliaro, M. J. Bearpark, J. J. Heyd, E. N. Brothers, K. N. Kudin, 
 V. N. Staroverov, T. A. Keith, R. Kobayashi, J. Normand, 
 K. Raghavachari, A. P. Rendell, J. C. Burant, S. S. Iyengar, 
 J. Tomasi, M. Cossi, J. M. Millam, M. Klene, C. Adamo, R. Cammi, 
 J. W. Ochterski, R. L. Martin, K. Morokuma, O. Farkas, 
 J. B. Foresman, and D. J. Fox, Gaussian, Inc., Wallingford CT, 2019.
 
 ******************************************
 Gaussian 16:  ES64L-G16RevC.01  3-Jul-2019
                19-Dec-2023 
 ******************************************
 %nprocshared=16
 Will use up to   16 processors via shared memory.
 %mem=640MB
 ----------------------------------------------------------------------
 #N opt freq B3LYP/def2SVPP symm=veryloose em=gd3bj scale=0.961 press=0
 .987
 ----------------------------------------------------------------------
 1/18=20,19=15,26=3,38=1,113=-987000,114=961000/1,3;
 2/9=110,12=2,17=2,18=2,40=1/2;
 3/5=43,7=202,11=2,25=1,30=1,71=1,74=-5,124=41/1,2,3;
 4//1;
 5/5=2,38=5/2;
 6/7=2,8=2,9=2,10=2,28=1/1;
 7//1,2,3,16;
 1/18=20,19=15,26=3/3(2);
 2/9=110/2;
 99//99;
 2/9=110/2;
 3/5=43,7=202,11=2,25=1,30=1,71=1,74=-5,124=41/1,2,3;
 4/5=5,16=3,69=1/1;
 5/5=2,38=5/2;
 7//1,2,3,16;
 1/18=20,19=15,26=3/3(-5);
 2/9=110/2;
 6/7=2,8=2,9=2,10=2,19=2,28=1/1;
 99/9=1/99;
 ------
 [O]O_1
 ------
 Symbolic Z-matrix:
 Charge =  0 Multiplicity = 2
 O                     0.97431  -0.06403  -0.03532 
 O                     2.28944  -0.10472  -0.06056 
 H                     2.5723    0.70176   0.43964 
 

 GradGradGradGradGradGradGradGradGradGradGradGradGradGradGradGradGradGrad
 Berny optimization.
 Initialization pass.
                           ----------------------------
                           !    Initial Parameters    !
                           ! (Angstroms and Degrees)  !
 --------------------------                            --------------------------
 ! Name  Definition              Value          Derivative Info.                !
 --------------------------------------------------------------------------------
 ! R1    R(1,2)                  1.316          estimate D2E/DX2                !
 ! R2    R(2,3)                  0.9903         estimate D2E/DX2                !
 ! A1    A(1,2,3)              104.512          estimate D2E/DX2                !
 --------------------------------------------------------------------------------
 Trust Radius=3.00D-01 FncErr=1.00D-07 GrdErr=1.00D-06 EigMax=2.50D+02 EigMin=1.00D-04
 Number of steps in this run=     20 maximum allowed number of steps=    100.
 GradGradGradGradGradGradGradGradGradGradGradGradGradGradGradGradGradGrad

                          Input orientation:                          
 ---------------------------------------------------------------------
 Center     Atomic      Atomic             Coordinates (Angstroms)
 Number     Number       Type             X           Y           Z
 ---------------------------------------------------------------------
      1          8           0        0.974310   -0.064030   -0.035320
      2          8           0        2.289440   -0.104720   -0.060560
      3          1           0        2.572300    0.701760    0.439640
 ---------------------------------------------------------------------
                    Distance matrix (angstroms):
                    1          2          3
     1  O    0.000000
     2  O    1.316001   0.000000
     3  H    1.834555   0.990262   0.000000
 Stoichiometry    HO2(2)
 Framework group  CS[SG(HO2)]
 Deg. of freedom     3
 Full point group                 CS      NOp   2
 Largest Abelian subgroup         CS      NOp   2
 Largest concise Abelian subgroup C1      NOp   1
                         Standard orientation:                         
 ---------------------------------------------------------------------
 Center     Atomic      Atomic             Coordinates (Angstroms)
 Number     Number       Type             X           Y           Z
 ---------------------------------------------------------------------
      1          8           0       -0.056392    0.711303    0.000000
      2          8           0       -0.056392   -0.604698   -0.000000
      3          1           0        0.902276   -0.852841    0.000000
 ---------------------------------------------------------------------
 Rotational constants (GHZ):         597.5357625          34.3680774          32.4988615
 Standard basis: def2SVPP (5D, 7F)
 There are    24 symmetry adapted cartesian basis functions of A'  symmetry.
 There are     8 symmetry adapted cartesian basis functions of A"  symmetry.
 There are    22 symmetry adapted basis functions of A'  symmetry.
 There are     8 symmetry adapted basis functions of A"  symmetry.
    30 basis functions,    54 primitive gaussians,    32 cartesian basis functions
     9 alpha electrons        8 beta electrons
       nuclear repulsion energy        32.3176795408 Hartrees.
 NAtoms=    3 NActive=    3 NUniq=    3 SFac= 1.00D+00 NAtFMM=   60 NAOKFM=F Big=F
 Integral buffers will be    131072 words long.
 Raffenetti 2 integral format.
 Two-electron integral symmetry is turned on.
 Nuclear repulsion after empirical dispersion term =       32.3168120341 Hartrees.
 One-electron integrals computed using PRISM.
   2 Symmetry operations used in ECPInt.
 ECPInt:  NShTT=     105 NPrTT=     435 LenC2=     106 LenP2D=     406.
 LDataN:  DoStor=T MaxTD1= 4 Len=   56
 NBasis=    30 RedAO= T EigKep=  2.02D-02  NBF=    22     8
 NBsUse=    30 1.00D-06 EigRej= -1.00D+00 NBFU=    22     8
 ExpMin= 1.22D-01 ExpMax= 2.27D+03 ExpMxC= 3.41D+02 IAcc=3 IRadAn=         5 AccDes= 0.00D+00
 Harris functional with IExCor=  402 and IRadAn=       5 diagonalized for initial guess.
 HarFok:  IExCor=  402 AccDes= 0.00D+00 IRadAn=         5 IDoV= 1 UseB2=F ITyADJ=14
 ICtDFT=  3500011 ScaDFX=  1.000000  1.000000  1.000000  1.000000
 FoFCou: FMM=F IPFlag=           0 FMFlag=      100000 FMFlg1=           0
         NFxFlg=           0 DoJE=T BraDBF=F KetDBF=T FulRan=T
         wScrn=  0.000000 ICntrl=       500 IOpCl=  0 I1Cent=   200000004 NGrid=           0
         NMat0=    1 NMatS0=      1 NMatT0=    0 NMatD0=    1 NMtDS0=    0 NMtDT0=    0
 Petite list used in FoFCou.
 Initial guess orbital symmetries:
 Alpha Orbitals:
       Occupied  (A') (A') (A') (A') (A') (A') (A") (A') (A")
       Virtual   (A') (A') (A') (A') (A') (A") (A') (A") (A') (A')
                 (A') (A") (A') (A") (A') (A') (A") (A') (A') (A")
                 (A')
 Beta  Orbitals:
       Occupied  (A') (A') (A') (A') (A') (A') (A") (A')
       Virtual   (A") (A') (A') (A') (A') (A') (A") (A') (A") (A')
                 (A') (A') (A") (A') (A") (A') (A') (A") (A') (A')
                 (A") (A')
 The electronic state of the initial guess is 2-A".
 Initial guess <Sx>= 0.0000 <Sy>= 0.0000 <Sz>= 0.5000 <S**2>= 0.7500 S= 0.5000
 Keep R1 and R2 ints in memory in symmetry-blocked form, NReq=13937162.
 Requested convergence on RMS density matrix=1.00D-08 within 128 cycles.
 Requested convergence on MAX density matrix=1.00D-06.
 Requested convergence on             energy=1.00D-06.
 No special actions if energy rises.
 Integral accuracy reduced to 1.0D-05 until final iterations.
 Initial convergence to 1.0D-05 achieved.  Increase integral accuracy.
 SCF Done:  E(UB3LYP) =  -150.777877709     A.U. after   14 cycles
            NFock= 14  Conv=0.68D-08     -V/T= 2.0047
 <Sx>= 0.0000 <Sy>= 0.0000 <Sz>= 0.5000 <S**2>= 0.7526 S= 0.5013
 <L.S>=  0.00000000000    
 Annihilation of the first spin contaminant:
 S**2 before annihilation     0.7526,   after     0.7500

 **********************************************************************

            Population analysis using the SCF Density.

 **********************************************************************

 Orbital symmetries:
 Alpha Orbitals:
       Occupied  (A') (A') (A') (A') (A') (A") (A') (A") (A')
       Virtual   (A') (A') (A') (A') (A") (A') (A") (A') (A') (A')
                 (A') (A") (A') (A") (A') (A') (A") (A') (A") (A')
                 (A')
 Beta  Orbitals:
       Occupied  (A') (A') (A') (A') (A') (A') (A") (A')
       Virtual   (A") (A') (A') (A') (A') (A') (A") (A') (A') (A")
                 (A') (A') (A") (A') (A") (A') (A') (A") (A') (A')
                 (A") (A')
 The electronic state is 2-A".
 Alpha  occ. eigenvalues --  -19.25236 -19.20817  -1.19254  -0.85156  -0.56251
 Alpha  occ. eigenvalues --   -0.49706  -0.47912  -0.29852  -0.29246
 Alpha virt. eigenvalues --    0.02057   0.13002   0.54652   0.81962   0.82860
 Alpha virt. eigenvalues --    0.84325   0.94397   0.96369   0.97335   1.08529
 Alpha virt. eigenvalues --    1.22883   2.15378   2.20045   2.42638   2.51422
 Alpha virt. eigenvalues --    2.58702   2.63130   2.89060   3.13112   3.13961
 Alpha virt. eigenvalues --    3.78381
  Beta  occ. eigenvalues --  -19.24362 -19.18756  -1.16593  -0.81191  -0.54650
  Beta  occ. eigenvalues --   -0.46290  -0.41771  -0.27331
  Beta virt. eigenvalues --   -0.11232   0.02388   0.15183   0.54917   0.83587
  Beta virt. eigenvalues --    0.85134   0.87293   0.97410   0.98074   1.00384
  Beta virt. eigenvalues --    1.09452   1.24223   2.19275   2.20654   2.46008
  Beta virt. eigenvalues --    2.56954   2.61782   2.68358   2.91441   3.14740
  Beta virt. eigenvalues --    3.17881   3.80324
          Condensed to atoms (all electrons):
               1          2          3
     1  O    8.076817   0.102744  -0.032769
     2  O    0.102744   7.836205   0.249634
     3  H   -0.032769   0.249634   0.447760
          Atomic-Atomic Spin Densities.
               1          2          3
     1  O    0.867711  -0.124088   0.001052
     2  O   -0.124088   0.392843  -0.000565
     3  H    0.001052  -0.000565  -0.013353
 Mulliken charges and spin densities:
               1          2
     1  O   -0.146793   0.744676
     2  O   -0.188583   0.268191
     3  H    0.335376  -0.012867
 Sum of Mulliken charges =  -0.00000   1.00000
 Mulliken charges and spin densities with hydrogens summed into heavy atoms:
               1          2
     1  O   -0.146793   0.744676
     2  O    0.146793   0.255324
 Electronic spatial extent (au):  <R**2>=             53.7237
 Charge=              0.0000 electrons
 Dipole moment (field-independent basis, Debye):
    X=              1.8375    Y=             -1.3928    Z=              0.0000  Tot=              2.3057
 Quadrupole moment (field-independent basis, Debye-Ang):
   XX=             -9.6031   YY=            -10.9091   ZZ=            -10.6076
   XY=             -1.6233   XZ=             -0.0000   YZ=             -0.0000
 Traceless Quadrupole moment (field-independent basis, Debye-Ang):
   XX=              0.7702   YY=             -0.5358   ZZ=             -0.2343
   XY=             -1.6233   XZ=             -0.0000   YZ=             -0.0000
 Octapole moment (field-independent basis, Debye-Ang**2):
  XXX=              2.0646  YYY=             -1.4704  ZZZ=              0.0000  XYY=              1.7042
  XXY=             -1.7894  XXZ=              0.0000  XZZ=              0.2401  YZZ=              0.0932
  YYZ=              0.0000  XYZ=             -0.0000
 Hexadecapole moment (field-independent basis, Debye-Ang**3):
 XXXX=             -8.3069 YYYY=            -34.7005 ZZZZ=             -6.9330 XXXY=             -0.1069
 XXXZ=             -0.0000 YYYX=             -0.3227 YYYZ=             -0.0000 ZZZX=             -0.0000
 ZZZY=             -0.0000 XXYY=             -7.0878 XXZZ=             -2.7666 YYZZ=             -7.2558
 XXYZ=             -0.0000 YYXZ=             -0.0000 ZZXY=              0.2885
 N-N= 3.231681203409D+01 E-N=-4.213946107727D+02  KE= 1.500769508996D+02
 Symmetry A'   KE= 1.426793808144D+02
 Symmetry A"   KE= 7.397570085182D+00
 Symmetry A'   SP=-2.534377211810D-15
 Symmetry A"   SP= 1.000000000000D+00
                          Isotropic Fermi Contact Couplings
        Atom                 a.u.       MegaHertz       Gauss      10(-4) cm-1
     1  O(17)              0.26547    -160.92892     -57.42344     -53.68011
     2  O(17)              0.12202     -73.96869     -26.39387     -24.67330
     3  H(1)              -0.00540     -24.13552      -8.61215      -8.05074
 --------------------------------------------------------
       Center         ----  Spin Dipole Couplings  ----
                      3XX-RR        3YY-RR        3ZZ-RR
 --------------------------------------------------------
     1   Atom       -1.543584     -1.550762      3.094346
     2   Atom       -0.676097     -0.717213      1.393310
     3   Atom        0.048824     -0.019247     -0.029577
 --------------------------------------------------------
                        XY            XZ            YZ
 --------------------------------------------------------
     1   Atom        0.007163      0.000000      0.000000
     2   Atom       -0.024840     -0.000000      0.000000
     3   Atom       -0.038865      0.000000     -0.000000
 --------------------------------------------------------


 ---------------------------------------------------------------------------------
              Anisotropic Spin Dipole Couplings in Principal Axis System
 ---------------------------------------------------------------------------------

       Atom             a.u.   MegaHertz   Gauss  10(-4) cm-1        Axes

              Baa    -1.5552   112.532    40.154    37.537 -0.5254  0.8509 -0.0000
     1 O(17)  Bbb    -1.5392   111.373    39.741    37.150  0.8509  0.5254 -0.0000
              Bcc     3.0943  -223.905   -79.895   -74.687  0.0000  0.0000  1.0000
 
              Baa    -0.7289    52.743    18.820    17.593  0.4257  0.9049 -0.0000
     2 O(17)  Bbb    -0.6644    48.076    17.155    16.037  0.9049 -0.4257  0.0000
              Bcc     1.3933  -100.819   -35.975   -33.630  0.0000  0.0000  1.0000
 
              Baa    -0.0369   -19.674    -7.020    -6.562  0.4130  0.9107 -0.0000
     3 H(1)   Bbb    -0.0296   -15.781    -5.631    -5.264  0.0000  0.0000  1.0000
              Bcc     0.0665    35.455    12.651    11.826  0.9107 -0.4130  0.0000
 

 ---------------------------------------------------------------------------------

   2 Symmetry operations used in ECPInt.
 ECPInt:  NShTT=     105 NPrTT=     435 LenC2=     106 LenP2D=     406.
 LDataN:  DoStor=T MaxTD1= 5 Len=  102
 Calling FoFJK, ICntrl=      2127 FMM=F ISym2X=1 I1Cent= 0 IOpClX= 1 NMat=1 NMatS=1 NMatT=0.
 ***** Axes restored to original set *****
 -------------------------------------------------------------------
 Center     Atomic                   Forces (Hartrees/Bohr)
 Number     Number              X              Y              Z
 -------------------------------------------------------------------
      1        8          -0.002901153   -0.003004257   -0.001863315
      2        8          -0.000813880    0.006798597    0.004216675
      3        1           0.003715032   -0.003794339   -0.002353360
 -------------------------------------------------------------------
 Cartesian Forces:  Max     0.006798597 RMS     0.003641041

 GradGradGradGradGradGradGradGradGradGradGradGradGradGradGradGradGradGrad
 Berny optimization.
 FormGI is forming the generalized inverse of G from B-inverse, IUseBI=4.
 Internal  Forces:  Max     0.009048724 RMS     0.005770859
 Search for a local minimum.
 Step number   1 out of a maximum of   20
 All quantities printed in internal units (Hartrees-Bohrs-Radians)
 Mixed Optimization -- RFO/linear search
 Second derivative matrix not updated -- first step.
 The second derivative matrix:
                          R1        R2        A1
           R1           0.62938
           R2           0.00000   0.49442
           A1           0.00000   0.00000   0.16000
 ITU=  0
     Eigenvalues ---    0.16000   0.49442   0.62938
 RFO step:  Lambda=-5.43111678D-04 EMin= 1.60000000D-01
 Linear search not attempted -- first point.
 Iteration  1 RMS(Cart)=  0.03719909 RMS(Int)=  0.00072339
 Iteration  2 RMS(Cart)=  0.00063406 RMS(Int)=  0.00000003
 Iteration  3 RMS(Cart)=  0.00000003 RMS(Int)=  0.00000000
 ClnCor:  largest displacement from symmetrization is 5.55D-16 for atom     3.
 Variable       Old X    -DE/DX   Delta X   Delta X   Delta X     New X
                                 (Linear)    (Quad)   (Total)
    R1        2.48688   0.00277   0.00000   0.00440   0.00440   2.49128
    R2        1.87132  -0.00322   0.00000  -0.00650  -0.00650   1.86482
    A1        1.82408   0.00905   0.00000   0.05636   0.05636   1.88044
         Item               Value     Threshold  Converged?
 Maximum Force            0.009049     0.000450     NO 
 RMS     Force            0.005771     0.000300     NO 
 Maximum Displacement     0.041060     0.001800     NO 
 RMS     Displacement     0.036892     0.001200     NO 
 Predicted change in Energy=-2.724381D-04
 GradGradGradGradGradGradGradGradGradGradGradGradGradGradGradGradGradGrad

                          Input orientation:                          
 ---------------------------------------------------------------------
 Center     Atomic      Atomic             Coordinates (Angstroms)
 Number     Number       Type             X           Y           Z
 ---------------------------------------------------------------------
      1          8           0        0.961912   -0.076827   -0.043257
      2          8           0        2.280110   -0.092609   -0.053049
      3          1           0        2.594028    0.702446    0.440065
 ---------------------------------------------------------------------
                    Distance matrix (angstroms):
                    1          2          3
     1  O    0.000000
     2  O    1.318329   0.000000
     3  H    1.872076   0.986822   0.000000
 Stoichiometry    HO2(2)
 Framework group  CS[SG(HO2)]
 Deg. of freedom     3
 Full point group                 CS      NOp   2
 Largest Abelian subgroup         CS      NOp   2
 Largest concise Abelian subgroup C1      NOp   1
                         Standard orientation:                         
 ---------------------------------------------------------------------
 Center     Atomic      Atomic             Coordinates (Angstroms)
 Number     Number       Type             X           Y           Z
 ---------------------------------------------------------------------
      1          8           0       -0.055288    0.715627   -0.000000
      2          8           0       -0.055288   -0.602701   -0.000000
      3          1           0        0.884603   -0.903407    0.000000
 ---------------------------------------------------------------------
 Rotational constants (GHZ):         625.7901471          34.0202570          32.2661502
 Standard basis: def2SVPP (5D, 7F)
 There are    24 symmetry adapted cartesian basis functions of A'  symmetry.
 There are     8 symmetry adapted cartesian basis functions of A"  symmetry.
 There are    22 symmetry adapted basis functions of A'  symmetry.
 There are     8 symmetry adapted basis functions of A"  symmetry.
    30 basis functions,    54 primitive gaussians,    32 cartesian basis functions
     9 alpha electrons        8 beta electrons
       nuclear repulsion energy        32.2408991244 Hartrees.
 NAtoms=    3 NActive=    3 NUniq=    3 SFac= 1.00D+00 NAtFMM=   60 NAOKFM=F Big=F
 Integral buffers will be    131072 words long.
 Raffenetti 2 integral format.
 Two-electron integral symmetry is turned on.
 Nuclear repulsion after empirical dispersion term =       32.2400324085 Hartrees.
 One-electron integrals computed using PRISM.
   2 Symmetry operations used in ECPInt.
 ECPInt:  NShTT=     105 NPrTT=     435 LenC2=     106 LenP2D=     405.
 LDataN:  DoStor=T MaxTD1= 4 Len=   56
 NBasis=    30 RedAO= T EigKep=  2.07D-02  NBF=    22     8
 NBsUse=    30 1.00D-06 EigRej= -1.00D+00 NBFU=    22     8
 Initial guess from the checkpoint file:  "/home/software/g16tmp/Gau-49108.chk"
 B after Tr=    -0.000000    0.000000    0.000000
         Rot=    0.999993    0.000000   -0.000000    0.003747 Ang=   0.43 deg.
 Initial guess orbital symmetries:
 Alpha Orbitals:
       Occupied  (A') (A') (A') (A') (A') (A") (A') (A") (A')
       Virtual   (A') (A') (A') (A') (A") (A') (A") (A') (A') (A')
                 (A') (A") (A') (A") (A') (A') (A") (A') (A") (A')
                 (A')
 Beta  Orbitals:
       Occupied  (A') (A') (A') (A') (A') (A') (A") (A')
       Virtual   (A") (A') (A') (A') (A') (A') (A") (A') (A') (A")
                 (A') (A') (A") (A') (A") (A') (A') (A") (A') (A')
                 (A") (A')
 Initial guess <Sx>= 0.0000 <Sy>= 0.0000 <Sz>= 0.5000 <S**2>= 0.7526 S= 0.5013
 ExpMin= 1.22D-01 ExpMax= 2.27D+03 ExpMxC= 3.41D+02 IAcc=3 IRadAn=         5 AccDes= 0.00D+00
 Harris functional with IExCor=  402 and IRadAn=       5 diagonalized for initial guess.
 HarFok:  IExCor=  402 AccDes= 0.00D+00 IRadAn=         5 IDoV= 1 UseB2=F ITyADJ=14
 ICtDFT=  3500011 ScaDFX=  1.000000  1.000000  1.000000  1.000000
 FoFCou: FMM=F IPFlag=           0 FMFlag=      100000 FMFlg1=           0
         NFxFlg=           0 DoJE=T BraDBF=F KetDBF=T FulRan=T
         wScrn=  0.000000 ICntrl=       500 IOpCl=  0 I1Cent=   200000004 NGrid=           0
         NMat0=    1 NMatS0=      1 NMatT0=    0 NMatD0=    1 NMtDS0=    0 NMtDT0=    0
 Petite list used in FoFCou.
 Keep R1 and R2 ints in memory in symmetry-blocked form, NReq=13937162.
 Requested convergence on RMS density matrix=1.00D-08 within 128 cycles.
 Requested convergence on MAX density matrix=1.00D-06.
 Requested convergence on             energy=1.00D-06.
 No special actions if energy rises.
 Integral accuracy reduced to 1.0D-05 until final iterations.
 Initial convergence to 1.0D-05 achieved.  Increase integral accuracy.
 SCF Done:  E(UB3LYP) =  -150.777971268     A.U. after   12 cycles
            NFock= 12  Conv=0.36D-08     -V/T= 2.0047
 <Sx>= 0.0000 <Sy>= 0.0000 <Sz>= 0.5000 <S**2>= 0.7526 S= 0.5013
 <L.S>=  0.00000000000    
 Annihilation of the first spin contaminant:
 S**2 before annihilation     0.7526,   after     0.7500
   2 Symmetry operations used in ECPInt.
 ECPInt:  NShTT=     105 NPrTT=     435 LenC2=     106 LenP2D=     405.
 LDataN:  DoStor=T MaxTD1= 5 Len=  102
 Calling FoFJK, ICntrl=      2127 FMM=F ISym2X=1 I1Cent= 0 IOpClX= 1 NMat=1 NMatS=1 NMatT=0.
 ***** Axes restored to original set *****
 -------------------------------------------------------------------
 Center     Atomic                   Forces (Hartrees/Bohr)
 Number     Number              X              Y              Z
 -------------------------------------------------------------------
      1        8           0.004114609    0.001942773    0.001204951
      2        8          -0.001227251   -0.002993859   -0.001856869
      3        1          -0.002887359    0.001051086    0.000651918
 -------------------------------------------------------------------
 Cartesian Forces:  Max     0.004114609 RMS     0.002259307

 GradGradGradGradGradGradGradGradGradGradGradGradGradGradGradGradGradGrad
 Berny optimization.
 Using GEDIIS/GDIIS optimizer.
 FormGI is forming the generalized inverse of G from B-inverse, IUseBI=4.
 Internal  Forces:  Max     0.005838716 RMS     0.004115757
 Search for a local minimum.
 Step number   2 out of a maximum of   20
 All quantities printed in internal units (Hartrees-Bohrs-Radians)
 Mixed Optimization -- RFO/linear search
 Update second derivatives using D2CorX and points    1    2
 DE= -9.36D-05 DEPred=-2.72D-04 R= 3.43D-01
 Trust test= 3.43D-01 RLast= 5.69D-02 DXMaxT set to 3.00D-01
 The second derivative matrix:
                          R1        R2        A1
           R1           0.66788
           R2          -0.01024   0.48885
           A1           0.06828  -0.00442   0.25830
 ITU=  0  0
 Use linear search instead of GDIIS.
     Eigenvalues ---    0.24718   0.48827   0.67958
 RFO step:  Lambda=-5.48937194D-06 EMin= 2.47183042D-01
 Quartic linear search produced a step of -0.39687.
 Iteration  1 RMS(Cart)=  0.01502413 RMS(Int)=  0.00010958
 Iteration  2 RMS(Cart)=  0.00009020 RMS(Int)=  0.00000000
 Iteration  3 RMS(Cart)=  0.00000000 RMS(Int)=  0.00000000
 ClnCor:  largest displacement from symmetrization is 9.22D-16 for atom     3.
 Variable       Old X    -DE/DX   Delta X   Delta X   Delta X     New X
                                 (Linear)    (Quad)   (Total)
    R1        2.49128  -0.00408  -0.00175  -0.00213  -0.00388   2.48740
    R2        1.86482   0.00025   0.00258  -0.00232   0.00026   1.86509
    A1        1.88044  -0.00584  -0.02237   0.00044  -0.02193   1.85851
         Item               Value     Threshold  Converged?
 Maximum Force            0.005839     0.000450     NO 
 RMS     Force            0.004116     0.000300     NO 
 Maximum Displacement     0.017107     0.001800     NO 
 RMS     Displacement     0.015064     0.001200     NO 
 Predicted change in Energy=-7.094777D-05
 GradGradGradGradGradGradGradGradGradGradGradGradGradGradGradGradGradGrad

                          Input orientation:                          
 ---------------------------------------------------------------------
 Center     Atomic      Atomic             Coordinates (Angstroms)
 Number     Number       Type             X           Y           Z
 ---------------------------------------------------------------------
      1          8           0        0.967568   -0.071625   -0.040031
      2          8           0        2.283507   -0.097008   -0.055777
      3          1           0        2.584975    0.701643    0.439567
 ---------------------------------------------------------------------
                    Distance matrix (angstroms):
                    1          2          3
     1  O    0.000000
     2  O    1.316277   0.000000
     3  H    1.855792   0.986961   0.000000
 Stoichiometry    HO2(2)
 Framework group  CS[SG(HO2)]
 Deg. of freedom     3
 Full point group                 CS      NOp   2
 Largest Abelian subgroup         CS      NOp   2
 Largest concise Abelian subgroup C1      NOp   1
                         Standard orientation:                         
 ---------------------------------------------------------------------
 Center     Atomic      Atomic             Coordinates (Angstroms)
 Number     Number       Type             X           Y           Z
 ---------------------------------------------------------------------
      1          8           0       -0.055670    0.713327    0.000000
      2          8           0       -0.055670   -0.602950   -0.000000
      3          1           0        0.890721   -0.883015    0.000000
 ---------------------------------------------------------------------
 Rotational constants (GHZ):         615.6148949          34.2155149          32.4139657
 Standard basis: def2SVPP (5D, 7F)
 There are    24 symmetry adapted cartesian basis functions of A'  symmetry.
 There are     8 symmetry adapted cartesian basis functions of A"  symmetry.
 There are    22 symmetry adapted basis functions of A'  symmetry.
 There are     8 symmetry adapted basis functions of A"  symmetry.
    30 basis functions,    54 primitive gaussians,    32 cartesian basis functions
     9 alpha electrons        8 beta electrons
       nuclear repulsion energy        32.3001767593 Hartrees.
 NAtoms=    3 NActive=    3 NUniq=    3 SFac= 1.00D+00 NAtFMM=   60 NAOKFM=F Big=F
 Integral buffers will be    131072 words long.
 Raffenetti 2 integral format.
 Two-electron integral symmetry is turned on.
 Nuclear repulsion after empirical dispersion term =       32.2993097008 Hartrees.
 One-electron integrals computed using PRISM.
   2 Symmetry operations used in ECPInt.
 ECPInt:  NShTT=     105 NPrTT=     435 LenC2=     106 LenP2D=     405.
 LDataN:  DoStor=T MaxTD1= 4 Len=   56
 NBasis=    30 RedAO= T EigKep=  2.04D-02  NBF=    22     8
 NBsUse=    30 1.00D-06 EigRej= -1.00D+00 NBFU=    22     8
 Initial guess from the checkpoint file:  "/home/software/g16tmp/Gau-49108.chk"
 B after Tr=     0.000000   -0.000000   -0.000000
         Rot=    0.999999   -0.000000    0.000000   -0.001451 Ang=  -0.17 deg.
 Initial guess orbital symmetries:
 Alpha Orbitals:
       Occupied  (A') (A') (A') (A') (A') (A") (A') (A") (A')
       Virtual   (A') (A') (A') (A') (A") (A') (A") (A') (A') (A')
                 (A') (A") (A') (A") (A') (A') (A") (A') (A") (A')
                 (A')
 Beta  Orbitals:
       Occupied  (A') (A') (A') (A') (A') (A') (A") (A')
       Virtual   (A") (A') (A') (A') (A') (A') (A") (A') (A') (A")
                 (A') (A') (A") (A') (A") (A') (A') (A") (A') (A')
                 (A") (A')
 Initial guess <Sx>= 0.0000 <Sy>= 0.0000 <Sz>= 0.5000 <S**2>= 0.7526 S= 0.5013
 Keep R1 and R2 ints in memory in symmetry-blocked form, NReq=13937162.
 Requested convergence on RMS density matrix=1.00D-08 within 128 cycles.
 Requested convergence on MAX density matrix=1.00D-06.
 Requested convergence on             energy=1.00D-06.
 No special actions if energy rises.
 SCF Done:  E(UB3LYP) =  -150.778044193     A.U. after    9 cycles
            NFock=  9  Conv=0.99D-08     -V/T= 2.0047
 <Sx>= 0.0000 <Sy>= 0.0000 <Sz>= 0.5000 <S**2>= 0.7526 S= 0.5013
 <L.S>=  0.00000000000    
 Annihilation of the first spin contaminant:
 S**2 before annihilation     0.7526,   after     0.7500
   2 Symmetry operations used in ECPInt.
 ECPInt:  NShTT=     105 NPrTT=     435 LenC2=     106 LenP2D=     405.
 LDataN:  DoStor=T MaxTD1= 5 Len=  102
 Calling FoFJK, ICntrl=      2127 FMM=F ISym2X=1 I1Cent= 0 IOpClX= 1 NMat=1 NMatS=1 NMatT=0.
 ***** Axes restored to original set *****
 -------------------------------------------------------------------
 Center     Atomic                   Forces (Hartrees/Bohr)
 Number     Number              X              Y              Z
 -------------------------------------------------------------------
      1        8           0.000461268   -0.000015718   -0.000009750
      2        8          -0.000441722    0.000098175    0.000060892
      3        1          -0.000019546   -0.000082457   -0.000051142
 -------------------------------------------------------------------
 Cartesian Forces:  Max     0.000461268 RMS     0.000218930

 GradGradGradGradGradGradGradGradGradGradGradGradGradGradGradGradGradGrad
 Berny optimization.
 Using GEDIIS/GDIIS optimizer.
 FormGI is forming the generalized inverse of G from B-inverse, IUseBI=4.
 Internal  Forces:  Max     0.000461618 RMS     0.000272744
 Search for a local minimum.
 Step number   3 out of a maximum of   20
 All quantities printed in internal units (Hartrees-Bohrs-Radians)
 Mixed Optimization -- En-DIIS/RFO-DIIS
 Update second derivatives using D2CorX and points    1    2    3
 DE= -7.29D-05 DEPred=-7.09D-05 R= 1.03D+00
 TightC=F SS=  1.41D+00  RLast= 2.23D-02 DXNew= 5.0454D-01 6.6810D-02
 Trust test= 1.03D+00 RLast= 2.23D-02 DXMaxT set to 3.00D-01
 The second derivative matrix:
                          R1        R2        A1
           R1           0.63823
           R2          -0.01596   0.48750
           A1           0.05208  -0.00742   0.25789
 ITU=  1  0  0
 Use linear search instead of GDIIS.
     Eigenvalues ---    0.25077   0.48585   0.64700
 RFO step:  Lambda=-3.59564076D-07 EMin= 2.50774447D-01
 Quartic linear search produced a step of  0.00912.
 Iteration  1 RMS(Cart)=  0.00033493 RMS(Int)=  0.00000003
 Iteration  2 RMS(Cart)=  0.00000003 RMS(Int)=  0.00000000
 ClnCor:  largest displacement from symmetrization is 1.98D-15 for atom     3.
 Variable       Old X    -DE/DX   Delta X   Delta X   Delta X     New X
                                 (Linear)    (Quad)   (Total)
    R1        2.48740  -0.00046  -0.00004  -0.00071  -0.00075   2.48666
    R2        1.86509  -0.00010   0.00000  -0.00023  -0.00022   1.86486
    A1        1.85851   0.00002  -0.00020   0.00043   0.00023   1.85874
         Item               Value     Threshold  Converged?
 Maximum Force            0.000462     0.000450     NO 
 RMS     Force            0.000273     0.000300     YES
 Maximum Displacement     0.000414     0.001800     YES
 RMS     Displacement     0.000335     0.001200     YES
 Predicted change in Energy=-1.856453D-07
 GradGradGradGradGradGradGradGradGradGradGradGradGradGradGradGradGradGrad

                          Input orientation:                          
 ---------------------------------------------------------------------
 Center     Atomic      Atomic             Coordinates (Angstroms)
 Number     Number       Type             X           Y           Z
 ---------------------------------------------------------------------
      1          8           0        0.967787   -0.071619   -0.040027
      2          8           0        2.283332   -0.096940   -0.055735
      3          1           0        2.584931    0.701570    0.439522
 ---------------------------------------------------------------------
                    Distance matrix (angstroms):
                    1          2          3
     1  O    0.000000
     2  O    1.315882   0.000000
     3  H    1.855517   0.986843   0.000000
 Stoichiometry    HO2(2)
 Framework group  CS[SG(HO2)]
 Deg. of freedom     3
 Full point group                 CS      NOp   2
 Largest Abelian subgroup         CS      NOp   2
 Largest concise Abelian subgroup C1      NOp   1
                         Standard orientation:                         
 ---------------------------------------------------------------------
 Center     Atomic      Atomic             Coordinates (Angstroms)
 Number     Number       Type             X           Y           Z
 ---------------------------------------------------------------------
      1          8           0       -0.055660    0.713128   -0.000000
      2          8           0       -0.055660   -0.602754    0.000000
      3          1           0        0.890555   -0.882999    0.000000
 ---------------------------------------------------------------------
 Rotational constants (GHZ):         615.8663693          34.2348558          32.4320206
 Standard basis: def2SVPP (5D, 7F)
 There are    24 symmetry adapted cartesian basis functions of A'  symmetry.
 There are     8 symmetry adapted cartesian basis functions of A"  symmetry.
 There are    22 symmetry adapted basis functions of A'  symmetry.
 There are     8 symmetry adapted basis functions of A"  symmetry.
    30 basis functions,    54 primitive gaussians,    32 cartesian basis functions
     9 alpha electrons        8 beta electrons
       nuclear repulsion energy        32.3087568787 Hartrees.
 NAtoms=    3 NActive=    3 NUniq=    3 SFac= 1.00D+00 NAtFMM=   60 NAOKFM=F Big=F
 Integral buffers will be    131072 words long.
 Raffenetti 2 integral format.
 Two-electron integral symmetry is turned on.
 Nuclear repulsion after empirical dispersion term =       32.3078898159 Hartrees.
 One-electron integrals computed using PRISM.
   2 Symmetry operations used in ECPInt.
 ECPInt:  NShTT=     105 NPrTT=     435 LenC2=     106 LenP2D=     405.
 LDataN:  DoStor=T MaxTD1= 4 Len=   56
 NBasis=    30 RedAO= T EigKep=  2.04D-02  NBF=    22     8
 NBsUse=    30 1.00D-06 EigRej= -1.00D+00 NBFU=    22     8
 Initial guess from the checkpoint file:  "/home/software/g16tmp/Gau-49108.chk"
 B after Tr=     0.000000    0.000000   -0.000000
         Rot=    1.000000   -0.000000    0.000000    0.000008 Ang=   0.00 deg.
 Initial guess orbital symmetries:
 Alpha Orbitals:
       Occupied  (A') (A') (A') (A') (A') (A") (A') (A") (A')
       Virtual   (A') (A') (A') (A') (A") (A') (A") (A') (A') (A')
                 (A') (A") (A') (A") (A') (A') (A") (A') (A") (A')
                 (A')
 Beta  Orbitals:
       Occupied  (A') (A') (A') (A') (A') (A') (A") (A')
       Virtual   (A") (A') (A') (A') (A') (A') (A") (A') (A') (A")
                 (A') (A') (A") (A') (A") (A') (A') (A") (A') (A')
                 (A") (A')
 Initial guess <Sx>= 0.0000 <Sy>= 0.0000 <Sz>= 0.5000 <S**2>= 0.7526 S= 0.5013
 Keep R1 and R2 ints in memory in symmetry-blocked form, NReq=13937162.
 Requested convergence on RMS density matrix=1.00D-08 within 128 cycles.
 Requested convergence on MAX density matrix=1.00D-06.
 Requested convergence on             energy=1.00D-06.
 No special actions if energy rises.
 SCF Done:  E(UB3LYP) =  -150.778044427     A.U. after    8 cycles
            NFock=  8  Conv=0.37D-08     -V/T= 2.0047
 <Sx>= 0.0000 <Sy>= 0.0000 <Sz>= 0.5000 <S**2>= 0.7526 S= 0.5013
 <L.S>=  0.00000000000    
 Annihilation of the first spin contaminant:
 S**2 before annihilation     0.7526,   after     0.7500
   2 Symmetry operations used in ECPInt.
 ECPInt:  NShTT=     105 NPrTT=     435 LenC2=     106 LenP2D=     405.
 LDataN:  DoStor=T MaxTD1= 5 Len=  102
 Calling FoFJK, ICntrl=      2127 FMM=F ISym2X=1 I1Cent= 0 IOpClX= 1 NMat=1 NMatS=1 NMatT=0.
 ***** Axes restored to original set *****
 -------------------------------------------------------------------
 Center     Atomic                   Forces (Hartrees/Bohr)
 Number     Number              X              Y              Z
 -------------------------------------------------------------------
      1        8           0.000127405   -0.000010643   -0.000006601
      2        8          -0.000145703   -0.000001181   -0.000000732
      3        1           0.000018298    0.000011824    0.000007334
 -------------------------------------------------------------------
 Cartesian Forces:  Max     0.000145703 RMS     0.000065105

 GradGradGradGradGradGradGradGradGradGradGradGradGradGradGradGradGradGrad
 Berny optimization.
 Using GEDIIS/GDIIS optimizer.
 FormGI is forming the generalized inverse of G from B-inverse, IUseBI=4.
 Internal  Forces:  Max     0.000127704 RMS     0.000075846
 Search for a local minimum.
 Step number   4 out of a maximum of   20
 All quantities printed in internal units (Hartrees-Bohrs-Radians)
 Mixed Optimization -- En-DIIS/RFO-DIIS
 Swapping is turned off.
 Update second derivatives using D2CorX and points    1    2    4
 DE= -2.34D-07 DEPred=-1.86D-07 R= 1.26D+00
 Trust test= 1.26D+00 RLast= 8.12D-04 DXMaxT set to 3.00D-01
 The second derivative matrix:
                          R1        R2        A1
           R1           0.60950
           R2          -0.02581   0.48422
           A1           0.05230  -0.00446   0.25901
 ITU=  0  1  0  0
     Eigenvalues ---    0.25137   0.47925   0.62211
 En-DIIS/RFO-DIIS/Sim-DIIS IScMMF=       -3 using points:     4    3
 RFO step:  Lambda=-3.20457159D-08.
 DidBck=F Rises=F RFO-DIIS coefs:    1.32215   -0.32215
 Iteration  1 RMS(Cart)=  0.00013471 RMS(Int)=  0.00000001
 Iteration  2 RMS(Cart)=  0.00000001 RMS(Int)=  0.00000000
 ClnCor:  largest displacement from symmetrization is 3.14D-15 for atom     3.
 Variable       Old X    -DE/DX   Delta X   Delta X   Delta X     New X
                                 (Linear)    (Quad)   (Total)
    R1        2.48666  -0.00013  -0.00024  -0.00004  -0.00028   2.48638
    R2        1.86486   0.00002  -0.00007   0.00012   0.00004   1.86491
    A1        1.85874   0.00002   0.00007   0.00011   0.00018   1.85892
         Item               Value     Threshold  Converged?
 Maximum Force            0.000128     0.000450     YES
 RMS     Force            0.000076     0.000300     YES
 Maximum Displacement     0.000180     0.001800     YES
 RMS     Displacement     0.000135     0.001200     YES
 Predicted change in Energy=-1.481721D-08
 Optimization completed.
    -- Stationary point found.
                           ----------------------------
                           !   Optimized Parameters   !
                           ! (Angstroms and Degrees)  !
 --------------------------                            --------------------------
 ! Name  Definition              Value          Derivative Info.                !
 --------------------------------------------------------------------------------
 ! R1    R(1,2)                  1.3159         -DE/DX =   -0.0001              !
 ! R2    R(2,3)                  0.9868         -DE/DX =    0.0                 !
 ! A1    A(1,2,3)              106.498          -DE/DX =    0.0                 !
 --------------------------------------------------------------------------------
 GradGradGradGradGradGradGradGradGradGradGradGradGradGradGradGradGradGrad

                          Input orientation:                          
 ---------------------------------------------------------------------
 Center     Atomic      Atomic             Coordinates (Angstroms)
 Number     Number       Type             X           Y           Z
 ---------------------------------------------------------------------
      1          8           0        0.967787   -0.071619   -0.040027
      2          8           0        2.283332   -0.096940   -0.055735
      3          1           0        2.584931    0.701570    0.439522
 ---------------------------------------------------------------------
                    Distance matrix (angstroms):
                    1          2          3
     1  O    0.000000
     2  O    1.315882   0.000000
     3  H    1.855517   0.986843   0.000000
 Stoichiometry    HO2(2)
 Framework group  CS[SG(HO2)]
 Deg. of freedom     3
 Full point group                 CS      NOp   2
 Largest Abelian subgroup         CS      NOp   2
 Largest concise Abelian subgroup C1      NOp   1
                         Standard orientation:                         
 ---------------------------------------------------------------------
 Center     Atomic      Atomic             Coordinates (Angstroms)
 Number     Number       Type             X           Y           Z
 ---------------------------------------------------------------------
      1          8           0       -0.055660    0.713128   -0.000000
      2          8           0       -0.055660   -0.602754    0.000000
      3          1           0        0.890555   -0.882999    0.000000
 ---------------------------------------------------------------------
 Rotational constants (GHZ):         615.8663693          34.2348558          32.4320206

 **********************************************************************

            Population analysis using the SCF Density.

 **********************************************************************

 Orbital symmetries:
 Alpha Orbitals:
       Occupied  (A') (A') (A') (A') (A') (A") (A') (A") (A')
       Virtual   (A') (A') (A') (A') (A") (A') (A") (A') (A') (A')
                 (A') (A") (A') (A") (A') (A') (A") (A') (A") (A')
                 (A')
 Beta  Orbitals:
       Occupied  (A') (A') (A') (A') (A') (A') (A") (A')
       Virtual   (A") (A') (A') (A') (A') (A') (A") (A') (A') (A")
                 (A') (A') (A") (A') (A") (A') (A') (A") (A') (A')
                 (A") (A')
 The electronic state is 2-A".
 Alpha  occ. eigenvalues --  -19.25140 -19.20879  -1.19155  -0.85386  -0.56270
 Alpha  occ. eigenvalues --   -0.49680  -0.47794  -0.29854  -0.29233
 Alpha virt. eigenvalues --    0.02078   0.13121   0.54848   0.81922   0.82896
 Alpha virt. eigenvalues --    0.84412   0.94383   0.96470   0.97470   1.08389
 Alpha virt. eigenvalues --    1.22541   2.15334   2.20874   2.42696   2.51376
 Alpha virt. eigenvalues --    2.58695   2.63165   2.88885   3.13105   3.13897
 Alpha virt. eigenvalues --    3.78379
  Beta  occ. eigenvalues --  -19.24266 -19.18819  -1.16488  -0.81452  -0.54613
  Beta  occ. eigenvalues --   -0.46202  -0.41737  -0.27321
  Beta virt. eigenvalues --   -0.11239   0.02427   0.15296   0.55113   0.83546
  Beta virt. eigenvalues --    0.85222   0.87326   0.97546   0.98160   1.00370
  Beta virt. eigenvalues --    1.09288   1.23910   2.19231   2.21507   2.46072
  Beta virt. eigenvalues --    2.56952   2.61704   2.68387   2.91287   3.14665
  Beta virt. eigenvalues --    3.17876   3.80318
          Condensed to atoms (all electrons):
               1          2          3
     1  O    8.070392   0.104505  -0.031465
     2  O    0.104505   7.838149   0.248107
     3  H   -0.031465   0.248107   0.449164
          Atomic-Atomic Spin Densities.
               1          2          3
     1  O    0.867497  -0.124145   0.001033
     2  O   -0.124145   0.393185  -0.000491
     3  H    0.001033  -0.000491  -0.013476
 Mulliken charges and spin densities:
               1          2
     1  O   -0.143432   0.744385
     2  O   -0.190762   0.268549
     3  H    0.334194  -0.012934
 Sum of Mulliken charges =  -0.00000   1.00000
 Mulliken charges and spin densities with hydrogens summed into heavy atoms:
               1          2
     1  O   -0.143432   0.744385
     2  O    0.143432   0.255615
 Electronic spatial extent (au):  <R**2>=             53.7922
 Charge=             -0.0000 electrons
 Dipole moment (field-independent basis, Debye):
    X=              1.8273    Y=             -1.4278    Z=              0.0000  Tot=              2.3189
 Quadrupole moment (field-independent basis, Debye-Ang):
   XX=             -9.6533   YY=            -10.8006   ZZ=            -10.6040
   XY=             -1.6729   XZ=             -0.0000   YZ=              0.0000
 Traceless Quadrupole moment (field-independent basis, Debye-Ang):
   XX=              0.6993   YY=             -0.4479   ZZ=             -0.2514
   XY=             -1.6729   XZ=             -0.0000   YZ=              0.0000
 Octapole moment (field-independent basis, Debye-Ang**2):
  XXX=              2.0067  YYY=             -1.6086  ZZZ=              0.0000  XYY=              1.7779
  XXY=             -1.7935  XXZ=              0.0000  XZZ=              0.2404  YZZ=              0.0881
  YYZ=              0.0000  XYZ=             -0.0000
 Hexadecapole moment (field-independent basis, Debye-Ang**3):
 XXXX=             -8.3347 YYYY=            -34.6435 ZZZZ=             -6.9290 XXXY=             -0.0935
 XXXZ=             -0.0000 YYYX=             -0.4296 YYYZ=              0.0000 ZZZX=             -0.0000
 ZZZY=              0.0000 XXYY=             -7.0495 XXZZ=             -2.7578 YYZZ=             -7.2711
 XXYZ=              0.0000 YYXZ=             -0.0000 ZZXY=              0.2926
 N-N= 3.230788981594D+01 E-N=-4.213767237323D+02  KE= 1.500760473859D+02
 Symmetry A'   KE= 1.426787241096D+02
 Symmetry A"   KE= 7.397323276364D+00
 Symmetry A'   SP=-4.810053620870D-15
 Symmetry A"   SP= 1.000000000000D+00
                          Isotropic Fermi Contact Couplings
        Atom                 a.u.       MegaHertz       Gauss      10(-4) cm-1
     1  O(17)              0.26564    -161.03174     -57.46013     -53.71441
     2  O(17)              0.12228     -74.12549     -26.44982     -24.72560
     3  H(1)              -0.00543     -24.27971      -8.66360      -8.09884
 --------------------------------------------------------
       Center         ----  Spin Dipole Couplings  ----
                      3XX-RR        3YY-RR        3ZZ-RR
 --------------------------------------------------------
     1   Atom       -1.543014     -1.551195      3.094209
     2   Atom       -0.677158     -0.716105      1.393263
     3   Atom        0.047202     -0.018144     -0.029058
 --------------------------------------------------------
                        XY            XZ            YZ
 --------------------------------------------------------
     1   Atom        0.006816     -0.000000     -0.000000
     2   Atom       -0.026346     -0.000000     -0.000000
     3   Atom       -0.041415      0.000000     -0.000000
 --------------------------------------------------------


 ---------------------------------------------------------------------------------
              Anisotropic Spin Dipole Couplings in Principal Axis System
 ---------------------------------------------------------------------------------

       Atom             a.u.   MegaHertz   Gauss  10(-4) cm-1        Axes

              Baa    -1.5551   112.523    40.151    37.533 -0.4927  0.8702 -0.0000
     1 O(17)  Bbb    -1.5392   111.372    39.740    37.150  0.8702  0.4927 -0.0000
              Bcc     3.0942  -223.895   -79.891   -74.683  0.0000  0.0000  1.0000
 
              Baa    -0.7294    52.778    18.833    17.605  0.4503  0.8929 -0.0000
     2 O(17)  Bbb    -0.6639    48.037    17.141    16.023  0.8929 -0.4503  0.0000
              Bcc     1.3933  -100.816   -35.973   -33.628  0.0000  0.0000  1.0000
 
              Baa    -0.0382   -20.394    -7.277    -6.803  0.4362  0.8998 -0.0000
     3 H(1)   Bbb    -0.0291   -15.504    -5.532    -5.172  0.0000  0.0000  1.0000
              Bcc     0.0673    35.898    12.809    11.974  0.8998 -0.4362  0.0000
 

 ---------------------------------------------------------------------------------

 Unable to Open any file for archive entry.
 1\1\GINC-NODE01\FOpt\UB3LYP\def2SVPP\H1O2(2)\XUHJ\19-Dec-2023\0\\#N op
 t freq B3LYP/def2SVPP symm=veryloose em=gd3bj scale=0.961 press=0.987\
 \[O]O_1\\0,2\O,0.9677871239,-0.0716194808,-0.0400271859\O,2.2833317278
 ,-0.0969403045,-0.0557348093\H,2.5849311483,0.7015697853,0.4395219952\
 \Version=ES64L-G16RevC.01\State=2-A"\HF=-150.7780444\S2=0.752598\S2-1=
 0.\S2A=0.750005\RMSD=3.728e-09\RMSF=6.511e-05\Dipole=0.5778708,0.59997
 ,0.3721163\Quadrupole=-0.276283,0.2825811,-0.0062981,1.0723005,0.66506
 99,0.2911782\PG=CS [SG(H1O2)]\\@
 The archive entry for this job was punched.


 THE WORLD IS MADE UP OF THE WILLS, THE WON'TS, AND THE CANT'S:
 THE WILLS DO EVERYTHING,
 THE WON'TS DO NOTHING,
 THE CAN'TS CAN'T DO ANYTHING.

                               -- FROM WALT DISNEY'S "BLACK HOLE"
 Job cpu time:       0 days  0 hours  1 minutes 17.0 seconds.
 Elapsed time:       0 days  0 hours  0 minutes  6.3 seconds.
 File lengths (MBytes):  RWF=      6 Int=      0 D2E=      0 Chk=      1 Scr=      1
 Normal termination of Gaussian 16 at Tue Dec 19 12:52:47 2023.
 Link1:  Proceeding to internal job step number  2.
 --------------------------------------------------------------------
 #N Geom=AllCheck Guess=TCheck SCRF=Check GenChk UB3LYP/def2SVPP Freq
 --------------------------------------------------------------------
 1/10=4,29=7,30=1,38=1,40=1,113=-987000,114=961000/1,3;
 2/12=2,17=2,18=2,40=1/2;
 3/5=43,7=202,11=2,14=-4,25=1,30=1,70=2,71=2,74=-5,116=2,124=41,140=1/1,2,3;
 4/5=101/1;
 5/5=2,38=6,98=1/2;
 8/6=4,10=90,11=11/1;
 11/6=1,8=1,9=11,15=111,16=1/1,2,10;
 10/6=1/2;
 6/7=2,8=2,9=2,10=2,28=1/1;
 7/8=1,10=1,25=1/1,2,3,16;
 1/10=4,30=1/3;
 99//99;
 Structure from the checkpoint file:  "/home/software/g16tmp/Gau-49108.chk"
 ------
 [O]O_1
 ------
 Charge =  0 Multiplicity = 2
 Redundant internal coordinates found in file.  (old form).
 O,0,0.9677871239,-0.0716194808,-0.0400271859
 O,0,2.2833317278,-0.0969403045,-0.0557348093
 H,0,2.5849311483,0.7015697853,0.4395219952
 Recover connectivity data from disk.

 GradGradGradGradGradGradGradGradGradGradGradGradGradGradGradGradGradGrad
 Berny optimization.
 Initialization pass.
                           ----------------------------
                           !    Initial Parameters    !
                           ! (Angstroms and Degrees)  !
 --------------------------                            --------------------------
 ! Name  Definition              Value          Derivative Info.                !
 --------------------------------------------------------------------------------
 ! R1    R(1,2)                  1.3159         calculate D2E/DX2 analytically  !
 ! R2    R(2,3)                  0.9868         calculate D2E/DX2 analytically  !
 ! A1    A(1,2,3)              106.498          calculate D2E/DX2 analytically  !
 --------------------------------------------------------------------------------
 Trust Radius=3.00D-01 FncErr=1.00D-07 GrdErr=1.00D-07 EigMax=2.50D+02 EigMin=1.00D-04
 Number of steps in this run=      2 maximum allowed number of steps=      2.
 GradGradGradGradGradGradGradGradGradGradGradGradGradGradGradGradGradGrad

                          Input orientation:                          
 ---------------------------------------------------------------------
 Center     Atomic      Atomic             Coordinates (Angstroms)
 Number     Number       Type             X           Y           Z
 ---------------------------------------------------------------------
      1          8           0        0.967787   -0.071619   -0.040027
      2          8           0        2.283332   -0.096940   -0.055735
      3          1           0        2.584931    0.701570    0.439522
 ---------------------------------------------------------------------
                    Distance matrix (angstroms):
                    1          2          3
     1  O    0.000000
     2  O    1.315882   0.000000
     3  H    1.855517   0.986843   0.000000
 Stoichiometry    HO2(2)
 Framework group  CS[SG(HO2)]
 Deg. of freedom     3
 Full point group                 CS      NOp   2
 Largest Abelian subgroup         CS      NOp   2
 Largest concise Abelian subgroup C1      NOp   1
                         Standard orientation:                         
 ---------------------------------------------------------------------
 Center     Atomic      Atomic             Coordinates (Angstroms)
 Number     Number       Type             X           Y           Z
 ---------------------------------------------------------------------
      1          8           0       -0.055660    0.713128    0.000000
      2          8           0       -0.055660   -0.602754    0.000000
      3          1           0        0.890555   -0.882999   -0.000000
 ---------------------------------------------------------------------
 Rotational constants (GHZ):         615.8663693          34.2348558          32.4320206
 Standard basis: def2SVPP (5D, 7F)
 There are    24 symmetry adapted cartesian basis functions of A'  symmetry.
 There are     8 symmetry adapted cartesian basis functions of A"  symmetry.
 There are    22 symmetry adapted basis functions of A'  symmetry.
 There are     8 symmetry adapted basis functions of A"  symmetry.
    30 basis functions,    54 primitive gaussians,    32 cartesian basis functions
     9 alpha electrons        8 beta electrons
       nuclear repulsion energy        32.3087568787 Hartrees.
 NAtoms=    3 NActive=    3 NUniq=    3 SFac= 1.00D+00 NAtFMM=   60 NAOKFM=F Big=F
 Integral buffers will be    131072 words long.
 Raffenetti 2 integral format.
 Two-electron integral symmetry is turned on.
 Nuclear repulsion after empirical dispersion term =       32.3078898159 Hartrees.
 One-electron integrals computed using PRISM.
   2 Symmetry operations used in ECPInt.
 ECPInt:  NShTT=     105 NPrTT=     435 LenC2=     106 LenP2D=     405.
 LDataN:  DoStor=T MaxTD1= 4 Len=   56
 NBasis=    30 RedAO= T EigKep=  2.04D-02  NBF=    22     8
 NBsUse=    30 1.00D-06 EigRej= -1.00D+00 NBFU=    22     8
 Initial guess from the checkpoint file:  "/home/software/g16tmp/Gau-49108.chk"
 B after Tr=    -0.000000   -0.000000    0.000000
         Rot=    1.000000    0.000000   -0.000000   -0.000000 Ang=   0.00 deg.
 Initial guess orbital symmetries:
 Alpha Orbitals:
       Occupied  (A') (A') (A') (A') (A') (A") (A') (A") (A')
       Virtual   (A') (A') (A') (A') (A") (A') (A") (A') (A') (A')
                 (A') (A") (A') (A") (A') (A') (A") (A') (A") (A')
                 (A')
 Beta  Orbitals:
       Occupied  (A') (A') (A') (A') (A') (A') (A") (A')
       Virtual   (A") (A') (A') (A') (A') (A') (A") (A') (A') (A")
                 (A') (A') (A") (A') (A") (A') (A') (A") (A') (A')
                 (A") (A')
 Initial guess <Sx>= 0.0000 <Sy>= 0.0000 <Sz>= 0.5000 <S**2>= 0.7526 S= 0.5013
 Keep R1 and R2 ints in memory in symmetry-blocked form, NReq=13937162.
 Requested convergence on RMS density matrix=1.00D-08 within 128 cycles.
 Requested convergence on MAX density matrix=1.00D-06.
 Requested convergence on             energy=1.00D-06.
 No special actions if energy rises.
 SCF Done:  E(UB3LYP) =  -150.778044427     A.U. after    1 cycles
            NFock=  1  Conv=0.15D-08     -V/T= 2.0047
 <Sx>= 0.0000 <Sy>= 0.0000 <Sz>= 0.5000 <S**2>= 0.7526 S= 0.5013
 <L.S>=  0.00000000000    
 Annihilation of the first spin contaminant:
 S**2 before annihilation     0.7526,   after     0.7500
 DoSCS=F DFT=T ScalE2(SS,OS)=  1.000000  1.000000
 Range of M.O.s used for correlation:     1    30
 NBasis=    30 NAE=     9 NBE=     8 NFC=     0 NFV=     0
 NROrb=     30 NOA=     9 NOB=     8 NVA=    21 NVB=    22
   2 Symmetry operations used in ECPInt.
 ECPInt:  NShTT=     105 NPrTT=     435 LenC2=     106 LenP2D=     405.
 LDataN:  DoStor=T MaxTD1= 5 Len=  102
 Symmetrizing basis deriv contribution to polar:
 IMax=3 JMax=2 DiffMx= 0.00D+00
 G2DrvN: will do     4 centers at a time, making    1 passes.
 Calling FoFCou, ICntrl=  3107 FMM=F I1Cent=   0 AccDes= 0.00D+00.
 End of G2Drv F.D. properties file   721 does not exist.
 End of G2Drv F.D. properties file   722 does not exist.
 End of G2Drv F.D. properties file   788 does not exist.
          IDoAtm=111
          Differentiating once with respect to electric field.
                with respect to dipole field.
          Differentiating once with respect to nuclear coordinates.
 Keep R1 and R2 ints in memory in symmetry-blocked form, NReq=13883918.
          There are    12 degrees of freedom in the 1st order CPHF.  IDoFFX=6 NUNeed=     3.
      9 vectors produced by pass  0 Test12= 3.04D-15 8.33D-09 XBig12= 2.26D+01 3.67D+00.
 AX will form     9 AO Fock derivatives at one time.
      9 vectors produced by pass  1 Test12= 3.04D-15 8.33D-09 XBig12= 5.85D+00 7.20D-01.
      9 vectors produced by pass  2 Test12= 3.04D-15 8.33D-09 XBig12= 6.07D-01 3.30D-01.
      9 vectors produced by pass  3 Test12= 3.04D-15 8.33D-09 XBig12= 1.01D-02 2.48D-02.
      9 vectors produced by pass  4 Test12= 3.04D-15 8.33D-09 XBig12= 1.24D-04 3.73D-03.
      9 vectors produced by pass  5 Test12= 3.04D-15 8.33D-09 XBig12= 2.92D-07 1.43D-04.
      8 vectors produced by pass  6 Test12= 3.04D-15 8.33D-09 XBig12= 1.19D-09 1.03D-05.
      3 vectors produced by pass  7 Test12= 3.04D-15 8.33D-09 XBig12= 3.24D-12 4.01D-07.
      1 vectors produced by pass  8 Test12= 3.04D-15 8.33D-09 XBig12= 1.52D-14 3.43D-08.
 InvSVY:  IOpt=1 It=  1 EMax= 8.88D-16
 Solved reduced A of dimension    66 with     9 vectors.
 Isotropic polarizability for W=    0.000000        8.00 Bohr**3.
 End of Minotr F.D. properties file   721 does not exist.
 End of Minotr F.D. properties file   722 does not exist.
 End of Minotr F.D. properties file   788 does not exist.

 **********************************************************************

            Population analysis using the SCF Density.

 **********************************************************************

 Orbital symmetries:
 Alpha Orbitals:
       Occupied  (A') (A') (A') (A') (A') (A") (A') (A") (A')
       Virtual   (A') (A') (A') (A') (A") (A') (A") (A') (A') (A')
                 (A') (A") (A') (A") (A') (A') (A") (A') (A") (A')
                 (A')
 Beta  Orbitals:
       Occupied  (A') (A') (A') (A') (A') (A') (A") (A')
       Virtual   (A") (A') (A') (A') (A') (A') (A") (A') (A') (A")
                 (A') (A') (A") (A') (A") (A') (A') (A") (A') (A')
                 (A") (A')
 The electronic state is 2-A".
 Alpha  occ. eigenvalues --  -19.25140 -19.20879  -1.19155  -0.85386  -0.56270
 Alpha  occ. eigenvalues --   -0.49680  -0.47794  -0.29854  -0.29233
 Alpha virt. eigenvalues --    0.02078   0.13121   0.54848   0.81922   0.82896
 Alpha virt. eigenvalues --    0.84412   0.94383   0.96470   0.97470   1.08389
 Alpha virt. eigenvalues --    1.22541   2.15334   2.20874   2.42696   2.51376
 Alpha virt. eigenvalues --    2.58695   2.63165   2.88885   3.13105   3.13897
 Alpha virt. eigenvalues --    3.78379
  Beta  occ. eigenvalues --  -19.24266 -19.18819  -1.16488  -0.81452  -0.54613
  Beta  occ. eigenvalues --   -0.46202  -0.41737  -0.27321
  Beta virt. eigenvalues --   -0.11239   0.02427   0.15296   0.55113   0.83546
  Beta virt. eigenvalues --    0.85222   0.87326   0.97546   0.98160   1.00370
  Beta virt. eigenvalues --    1.09288   1.23910   2.19231   2.21507   2.46072
  Beta virt. eigenvalues --    2.56952   2.61704   2.68387   2.91287   3.14665
  Beta virt. eigenvalues --    3.17876   3.80318
          Condensed to atoms (all electrons):
               1          2          3
     1  O    8.070392   0.104505  -0.031465
     2  O    0.104505   7.838149   0.248107
     3  H   -0.031465   0.248107   0.449164
          Atomic-Atomic Spin Densities.
               1          2          3
     1  O    0.867497  -0.124145   0.001033
     2  O   -0.124145   0.393185  -0.000491
     3  H    0.001033  -0.000491  -0.013476
 Mulliken charges and spin densities:
               1          2
     1  O   -0.143432   0.744385
     2  O   -0.190762   0.268549
     3  H    0.334194  -0.012934
 Sum of Mulliken charges =  -0.00000   1.00000
 Mulliken charges and spin densities with hydrogens summed into heavy atoms:
               1          2
     1  O   -0.143432   0.744385
     2  O    0.143432   0.255615
 APT charges:
               1
     1  O   -0.021534
     2  O   -0.224434
     3  H    0.245968
 Sum of APT charges =   0.00000
 APT charges with hydrogens summed into heavy atoms:
               1
     1  O   -0.021534
     2  O    0.021534
 Electronic spatial extent (au):  <R**2>=             53.7922
 Charge=              0.0000 electrons
 Dipole moment (field-independent basis, Debye):
    X=              1.8273    Y=             -1.4278    Z=              0.0000  Tot=              2.3189
 Quadrupole moment (field-independent basis, Debye-Ang):
   XX=             -9.6533   YY=            -10.8006   ZZ=            -10.6040
   XY=             -1.6729   XZ=             -0.0000   YZ=             -0.0000
 Traceless Quadrupole moment (field-independent basis, Debye-Ang):
   XX=              0.6993   YY=             -0.4479   ZZ=             -0.2514
   XY=             -1.6729   XZ=             -0.0000   YZ=             -0.0000
 Octapole moment (field-independent basis, Debye-Ang**2):
  XXX=              2.0067  YYY=             -1.6086  ZZZ=              0.0000  XYY=              1.7779
  XXY=             -1.7935  XXZ=              0.0000  XZZ=              0.2404  YZZ=              0.0881
  YYZ=              0.0000  XYZ=              0.0000
 Hexadecapole moment (field-independent basis, Debye-Ang**3):
 XXXX=             -8.3347 YYYY=            -34.6435 ZZZZ=             -6.9290 XXXY=             -0.0935
 XXXZ=             -0.0000 YYYX=             -0.4296 YYYZ=             -0.0000 ZZZX=             -0.0000
 ZZZY=             -0.0000 XXYY=             -7.0495 XXZZ=             -2.7578 YYZZ=             -7.2711
 XXYZ=             -0.0000 YYXZ=             -0.0000 ZZXY=              0.2926
 N-N= 3.230788981594D+01 E-N=-4.213767237150D+02  KE= 1.500760473817D+02
 Symmetry A'   KE= 1.426787241080D+02
 Symmetry A"   KE= 7.397323273741D+00
 Symmetry A'   SP=-7.071900099483D-15
 Symmetry A"   SP= 1.000000000000D+00
  Exact polarizability:       6.484      -1.910      13.432       0.000       0.000       4.071
 Approx polarizability:       7.981      -2.142      21.442       0.000       0.000       4.763
                          Isotropic Fermi Contact Couplings
        Atom                 a.u.       MegaHertz       Gauss      10(-4) cm-1
     1  O(17)              0.26564    -161.03176     -57.46014     -53.71441
     2  O(17)              0.12228     -74.12551     -26.44982     -24.72561
     3  H(1)              -0.00543     -24.27975      -8.66362      -8.09885
 --------------------------------------------------------
       Center         ----  Spin Dipole Couplings  ----
                      3XX-RR        3YY-RR        3ZZ-RR
 --------------------------------------------------------
     1   Atom       -1.543014     -1.551195      3.094209
     2   Atom       -0.677158     -0.716105      1.393263
     3   Atom        0.047202     -0.018144     -0.029058
 --------------------------------------------------------
                        XY            XZ            YZ
 --------------------------------------------------------
     1   Atom        0.006815      0.000000      0.000000
     2   Atom       -0.026346      0.000000      0.000000
     3   Atom       -0.041415     -0.000000     -0.000000
 --------------------------------------------------------


 ---------------------------------------------------------------------------------
              Anisotropic Spin Dipole Couplings in Principal Axis System
 ---------------------------------------------------------------------------------

       Atom             a.u.   MegaHertz   Gauss  10(-4) cm-1        Axes

              Baa    -1.5551   112.523    40.151    37.533 -0.4927  0.8702 -0.0000
     1 O(17)  Bbb    -1.5392   111.372    39.740    37.150  0.8702  0.4927 -0.0000
              Bcc     3.0942  -223.895   -79.891   -74.683  0.0000  0.0000  1.0000
 
              Baa    -0.7294    52.778    18.833    17.605  0.4503  0.8929 -0.0000
     2 O(17)  Bbb    -0.6639    48.037    17.141    16.023  0.8929 -0.4503  0.0000
              Bcc     1.3933  -100.816   -35.973   -33.628  0.0000  0.0000  1.0000
 
              Baa    -0.0382   -20.394    -7.277    -6.803  0.4362  0.8998 -0.0000
     3 H(1)   Bbb    -0.0291   -15.504    -5.532    -5.172  0.0000  0.0000  1.0000
              Bcc     0.0673    35.898    12.809    11.974  0.8998 -0.4362 -0.0000
 

 ---------------------------------------------------------------------------------

   2 Symmetry operations used in ECPInt.
 ECPInt:  NShTT=     105 NPrTT=     435 LenC2=     106 LenP2D=     405.
 LDataN:  DoStor=T MaxTD1= 6 Len=  172
 Calling FoFJK, ICntrl=    100127 FMM=F ISym2X=1 I1Cent= 0 IOpClX= 1 NMat=1 NMatS=1 NMatT=0.
 Full mass-weighted force constant matrix:
 Low frequencies ---  -31.0522   -0.0016   -0.0010   -0.0009   12.3612   13.3913
 Low frequencies --- 1191.0540 1474.6796 3418.6592
 Diagonal vibrational polarizability:
        0.0544911       0.8624966       0.0000000
 Harmonic frequencies (cm**-1), IR intensities (KM/Mole), Raman scattering
 activities (A**4/AMU), depolarization ratios for plane and unpolarized
 incident light, reduced masses (AMU), force constants (mDyne/A),
 and normal coordinates:
                      1                      2                      3
                     A'                     A'                     A'
 Frequencies --   1191.0540              1474.6796              3418.6592
 Red. masses --     12.0209                 1.1476                 1.0692
 Frc consts  --     10.0473                 1.4704                 7.3624
 IR Inten    --     26.2872                31.7067                11.2711
  Atom  AN      X      Y      Z        X      Y      Z        X      Y      Z
     1   8    -0.02  -0.59  -0.00     0.05  -0.06   0.00     0.00   0.00   0.00
     2   8     0.04   0.62   0.00    -0.06  -0.00  -0.00    -0.06   0.01  -0.00
     3   1    -0.19  -0.48  -0.00     0.19   0.98   0.00     0.97  -0.25   0.00

 -------------------
 - Thermochemistry -
 -------------------
 Temperature   298.150 Kelvin.  Pressure   0.98700 Atm.
 Thermochemistry will use frequencies scaled by 0.9610.
 Atom     1 has atomic number  8 and mass  15.99491
 Atom     2 has atomic number  8 and mass  15.99491
 Atom     3 has atomic number  1 and mass   1.00783
 Molecular mass:    32.99765 amu.
 Principal axes and moments of inertia in atomic units:
                           1         2         3
     Eigenvalues --     2.93041  52.71648  55.64689
           X           -0.06233   0.99806   0.00000
           Y            0.99806   0.06233   0.00000
           Z           -0.00000  -0.00000   1.00000
 This molecule is an asymmetric top.
 Rotational symmetry number  1.
 Rotational temperatures (Kelvin)     29.55693     1.64301     1.55649
 Rotational constants (GHZ):         615.86637    34.23486    32.43202
 Zero-point vibrational energy      34973.4 (Joules/Mol)
                                    8.35885 (Kcal/Mol)
 Vibrational temperatures:   1646.83  2038.99  4726.86
          (Kelvin)
 
 Zero-point correction=                           0.013321 (Hartree/Particle)
 Thermal correction to Energy=                    0.016181
 Thermal correction to Enthalpy=                  0.017125
 Thermal correction to Gibbs Free Energy=        -0.008859
 Sum of electronic and zero-point Energies=           -150.764724
 Sum of electronic and thermal Energies=              -150.761863
 Sum of electronic and thermal Enthalpies=            -150.760919
 Sum of electronic and thermal Free Energies=         -150.786904
 
                     E (Thermal)             CV                S
                      KCal/Mol        Cal/Mol-Kelvin    Cal/Mol-Kelvin
 Total                   10.154              6.305             54.689
 Electronic               0.000              0.000              1.377
 Translational            0.889              2.981             36.439
 Rotational               0.889              2.981             16.804
 Vibrational              8.376              0.344              0.069
                       Q            Log10(Q)             Ln(Q)
 Total Bot       0.118855D+05          4.075017          9.383073
 Total V=0       0.159257D+11         10.202098         23.491198
 Vib (Bot)       0.750105D-06         -6.124878        -14.103053
 Vib (V=0)       0.100508D+01          0.002203          0.005072
 Electronic      0.200000D+01          0.301030          0.693147
 Translational   0.754851D+07          6.877861         15.836861
 Rotational      0.104955D+04          3.021004          6.956118
 ***** Axes restored to original set *****
 -------------------------------------------------------------------
 Center     Atomic                   Forces (Hartrees/Bohr)
 Number     Number              X              Y              Z
 -------------------------------------------------------------------
      1        8           0.000127415   -0.000010643   -0.000006601
      2        8          -0.000145709   -0.000001178   -0.000000730
      3        1           0.000018295    0.000011820    0.000007331
 -------------------------------------------------------------------
 Cartesian Forces:  Max     0.000145709 RMS     0.000065109
 FormGI is forming the generalized inverse of G from B-inverse, IUseBI=4.

 GradGradGradGradGradGradGradGradGradGradGradGradGradGradGradGradGradGrad
 Berny optimization.
 Internal  Forces:  Max     0.000127714 RMS     0.000075851
 Search for a local minimum.
 Step number   1 out of a maximum of    2
 All quantities printed in internal units (Hartrees-Bohrs-Radians)
 Second derivative matrix not updated -- analytic derivatives used.
 The second derivative matrix:
                          R1        R2        A1
           R1           0.46581
           R2           0.02738   0.41853
           A1           0.08728  -0.01599   0.25487
 ITU=  0
     Eigenvalues ---    0.22043   0.41647   0.50231
 Angle between quadratic step and forces=  22.38 degrees.
 Linear search not attempted -- first point.
 Iteration  1 RMS(Cart)=  0.00015689 RMS(Int)=  0.00000001
 Iteration  2 RMS(Cart)=  0.00000001 RMS(Int)=  0.00000000
 ClnCor:  largest displacement from symmetrization is 5.55D-16 for atom     3.
 Variable       Old X    -DE/DX   Delta X   Delta X   Delta X     New X
                                 (Linear)    (Quad)   (Total)
    R1        2.48666  -0.00013   0.00000  -0.00032  -0.00032   2.48634
    R2        1.86486   0.00002   0.00000   0.00007   0.00007   1.86494
    A1        1.85874   0.00002   0.00000   0.00021   0.00021   1.85895
         Item               Value     Threshold  Converged?
 Maximum Force            0.000128     0.000450     YES
 RMS     Force            0.000076     0.000300     YES
 Maximum Displacement     0.000210     0.001800     YES
 RMS     Displacement     0.000157     0.001200     YES
 Predicted change in Energy=-2.352474D-08
 Optimization completed.
    -- Stationary point found.
                           ----------------------------
                           !   Optimized Parameters   !
                           ! (Angstroms and Degrees)  !
 --------------------------                            --------------------------
 ! Name  Definition              Value          Derivative Info.                !
 --------------------------------------------------------------------------------
 ! R1    R(1,2)                  1.3159         -DE/DX =   -0.0001              !
 ! R2    R(2,3)                  0.9868         -DE/DX =    0.0                 !
 ! A1    A(1,2,3)              106.498          -DE/DX =    0.0                 !
 --------------------------------------------------------------------------------
 GradGradGradGradGradGradGradGradGradGradGradGradGradGradGradGradGradGrad


 ----------------------------------------------------------------------

 Electric dipole moment (input orientation):
 (Debye = 10**-18 statcoulomb cm , SI units = C m)
                  (au)            (Debye)         (10**-30 SI)
   Tot        0.912343D+00      0.231894D+01      0.773516D+01
   x          0.577871D+00      0.146880D+01      0.489939D+01
   y          0.599970D+00      0.152497D+01      0.508676D+01
   z          0.372116D+00      0.945825D+00      0.315493D+01

 Dipole polarizability, Alpha (input orientation).
 (esu units = cm**3 , SI units = C**2 m**2 J**-1)
 Alpha(0;0):
               (au)            (10**-24 esu)      (10**-40 SI)
   iso        0.799562D+01      0.118483D+01      0.131830D+01
   aniso      0.904510D+01      0.134035D+01      0.149134D+01
   xx         0.135152D+02      0.200274D+01      0.222835D+01
   yx         0.148778D+01      0.220467D+00      0.245303D+00
   yy         0.575356D+01      0.852589D+00      0.948633D+00
   zx         0.922743D+00      0.136736D+00      0.152140D+00
   zy         0.104367D+01      0.154656D+00      0.172078D+00
   zz         0.471814D+01      0.699156D+00      0.777916D+00

 ----------------------------------------------------------------------

 Dipole orientation:
     8          1.39565522         -0.58510511          1.03852737
     8          3.20621690         -1.33424300          2.56957930
     1          2.57451740         -1.07287105          4.30461739

 Electric dipole moment (dipole orientation):
 (Debye = 10**-18 statcoulomb cm , SI units = C m)
                  (au)            (Debye)         (10**-30 SI)
   Tot        0.912343D+00      0.231894D+01      0.773516D+01
   x          0.000000D+00      0.000000D+00      0.000000D+00
   y          0.000000D+00      0.000000D+00      0.000000D+00
   z          0.912343D+00      0.231894D+01      0.773516D+01

 Dipole polarizability, Alpha (dipole orientation).
 (esu units = cm**3 , SI units = C**2 m**2 J**-1)
 Alpha(0;0):
               (au)            (10**-24 esu)      (10**-40 SI)
   iso        0.799562D+01      0.118483D+01      0.131830D+01
   aniso      0.904510D+01      0.134035D+01      0.149134D+01
   xx         0.823239D+01      0.121991D+01      0.135734D+01
   yx        -0.172189D+01     -0.255157D+00     -0.283901D+00
   yy         0.478328D+01      0.708808D+00      0.788656D+00
   zx         0.354178D+01      0.524838D+00      0.583961D+00
   zy        -0.146545D+01     -0.217157D+00     -0.241620D+00
   zz         0.109712D+02      0.162576D+01      0.180891D+01

 ----------------------------------------------------------------------
 Unable to Open any file for archive entry.
 1\1\GINC-NODE01\Freq\UB3LYP\def2SVPP\H1O2(2)\XUHJ\19-Dec-2023\0\\#N Ge
 om=AllCheck Guess=TCheck SCRF=Check GenChk UB3LYP/def2SVPP Freq\\[O]O_
 1\\0,2\O,0.9677871239,-0.0716194808,-0.0400271859\O,2.2833317278,-0.09
 69403045,-0.0557348093\H,2.5849311483,0.7015697853,0.4395219952\\Versi
 on=ES64L-G16RevC.01\State=2-A"\HF=-150.7780444\S2=0.752598\S2-1=0.\S2A
 =0.750005\RMSD=1.465e-09\RMSF=6.511e-05\ZeroPoint=0.0133207\Thermal=0.
 0161811\ETot=-150.7618634\HTot=-150.7609192\GTot=-150.7869038\Dipole=0
 .5778709,0.59997,0.3721163\DipoleDeriv=0.2618216,-0.0714568,-0.0443204
 ,0.0989506,-0.1734064,-0.0205524,0.0613709,-0.020552,-0.153017,-0.4807
 03,0.0923692,0.0572904,-0.0793483,-0.0227518,0.1482682,-0.0492135,0.14
 82679,-0.1698465,0.2188814,-0.0209124,-0.01297,-0.0196023,0.1961583,-0
 .1277159,-0.0121575,-0.1277159,0.3228635\Polar=13.5151688,1.4877847,5.
 7535553,0.9227429,1.0436691,4.7181383\Quadrupole=-0.2762831,0.2825811,
 -0.0062981,1.0723005,0.6650699,0.2911782\PG=CS [SG(H1O2)]\NImag=0\\0.4
 6718499,0.02163487,0.02883272,0.01341748,0.01784846,0.01112540,-0.4131
 2846,0.02013710,0.01249051,0.45960797,-0.01208297,-0.04557087,-0.02822
 890,0.04977032,0.34486596,-0.00749325,-0.02822897,-0.01756536,0.030867
 86,0.21388032,0.13267803,-0.05405654,-0.04177198,-0.02590798,-0.046479
 51,-0.03768735,-0.02337461,0.10053605,-0.00955191,0.01673815,0.0103804
 4,-0.06990742,-0.29929509,-0.18565135,0.07945933,0.28255694,-0.0059242
 3,0.01038051,0.00643996,-0.04335836,-0.18565142,-0.11511267,0.04928259
 ,0.17527091,0.10867271\\-0.00012741,0.00001064,0.00000660,0.00014571,0
 .00000118,0.00000073,-0.00001829,-0.00001182,-0.00000733\\\@
 The archive entry for this job was punched.


 Children are likely to live up to what you believe of them.
 -- Lady Bird Johnson
 Job cpu time:       0 days  0 hours  0 minutes 35.2 seconds.
 Elapsed time:       0 days  0 hours  0 minutes  2.7 seconds.
 File lengths (MBytes):  RWF=      6 Int=      0 D2E=      0 Chk=      1 Scr=      1
 Normal termination of Gaussian 16 at Tue Dec 19 12:52:50 2023.
