%nprocshared=8
%mem=10400MB
#N opt freq B3LYP/def2SVPP symm=veryloose em=gd3bj scale=0.961 press=0.987

c1ccc2cc3cc4c(ccc5cc6ccccc6cc54)cc3cc2c1_2

0 1
C          6.95580        0.61030        0.28910
C          6.46590        1.86800        0.62670
C          5.08870        2.08950        0.67490
C          4.18370        1.05460        0.38560
C          2.79470        1.26010        0.42940
C          1.88900        0.22410        0.13980
C          0.49580        0.42660        0.18270
C         -0.44460       -0.59700       -0.10380
C          0.08670       -1.86450       -0.44370
C         -0.77370       -2.92460       -0.73940
C         -2.15430       -2.75420       -0.70520
C         -2.71590       -1.51870       -0.37420
C         -4.11500       -1.38220       -0.34930
C         -4.73090       -0.16640       -0.02420
C         -6.12960       -0.03150        0.00030
C         -6.72320        1.18840        0.32680
C         -5.92640        2.28680        0.63230
C         -4.53610        2.16520        0.61140
C         -3.92420        0.94260        0.28440
C         -2.52360        0.80020        0.25790
C         -1.87620       -0.42000       -0.06820
C          1.47650       -2.07140       -0.48780
C          2.38500       -1.04360       -0.20050
C          3.77430       -1.25380       -0.24550
C          4.68050       -0.22050        0.04330
C          6.06920       -0.42790       -0.00090
H          8.02780        0.43560        0.25090
H          7.15440        2.67800        0.85290
H          4.72500        3.07950        0.94080
H          2.41190        2.24420        0.69360
H          0.14570        1.42000        0.44970
H         -0.37730       -3.90330       -1.00210
H         -2.78910       -3.60560       -0.94220
H         -4.73970       -2.24140       -0.58840
H         -6.76800       -0.87990       -0.23590
H         -7.80600        1.27920        0.34200
H         -6.38480        3.23870        0.88710
H         -3.93010        3.03550        0.85330
H         -1.93040        1.67730        0.50150
H          1.86080       -3.05560       -0.75200
H          4.15650       -2.23810       -0.50980
H          6.47130       -1.40410       -0.26280

