%nprocshared=8
%mem=10400MB
#N opt freq B3LYP/def2SVPP symm=veryloose em=gd3bj scale=0.961 press=0.987

c1ccc2cc3cc4cc5c(ccc6ccccc65)cc4cc3cc2c1_2

0 1
C          7.17230        0.62880       -0.27370
C          6.94720        1.25160        0.94990
C          5.64660        1.37150        1.44190
C          4.55410        0.86940        0.71540
C          3.23920        0.98220        1.19670
C          2.14690        0.47970        0.46930
C          0.83110        0.59190        0.94970
C         -0.26280        0.08960        0.22300
C         -1.58270        0.20040        0.70180
C         -2.70680       -0.29590       -0.00760
C         -2.44430       -0.92410       -1.24900
C         -3.49910       -1.43900       -2.00750
C         -4.81370       -1.34440       -1.56050
C         -5.11240       -0.73190       -0.34140
C         -6.45040       -0.65260        0.08150
C         -6.78790       -0.04980        1.29000
C         -5.78870        0.48120        2.09060
C         -4.45380        0.40830        1.68040
C         -4.06850       -0.19720        0.45690
C         -1.12840       -1.03680       -1.73050
C         -0.03400       -0.53810       -1.01050
C          1.28100       -0.65200       -1.49420
C          2.37480       -0.15060       -0.76900
C          3.68970       -0.26400       -1.25180
C          4.78240        0.23780       -0.52560
C          6.09710        0.12490       -1.00730
H          8.18420        0.53430       -0.65870
H          7.78290        1.64470        1.52290
H          5.49090        1.86160        2.40040
H          3.06350        1.46950        2.15400
H          0.65490        1.07920        1.90710
H         -1.72620        0.69190        1.66030
H         -3.30910       -1.92380       -2.96300
H         -5.60600       -1.75790       -2.18100
H         -7.24760       -1.06420       -0.53440
H         -7.82710        0.00330        1.60250
H         -6.04060        0.95420        3.03620
H         -3.71230        0.84030        2.34600
H         -0.95120       -1.52420       -2.68820
H          1.45560       -1.13950       -2.45170
H          3.86600       -0.75120       -2.20900
H          6.29340       -0.35870       -1.96160

