%nprocshared=16
%mem=1280MB
#N opt freq B3LYP/def2SVPP symm=veryloose em=gd3bj scale=0.961 press=0.987

C1CCC1_1

0 1
C          0.33967        1.02251       -0.13410
C         -1.00091        0.34097        0.13576
C         -0.32569       -0.98459       -0.21272
C          1.00758       -0.32486        0.13605
H          0.62935        1.89661        0.48680
H          0.41275        1.24248       -1.22547
H         -1.88935        0.65844       -0.45023
H         -1.19528        0.36237        1.23420
H         -0.37277       -1.12712       -1.31829
H         -0.62923       -1.90000        0.33809
H          1.90988       -0.60103       -0.44967
H          1.17595       -0.42371        1.23455

