%nprocshared=8
%mem=3600MB
#N opt freq B3LYP/def2SVPP symm=veryloose em=gd3bj scale=0.961 press=0.987

c1ccc2c(c1)CCC2_1

0 1
C         -2.12883        0.70797       -0.06033
C         -2.13319       -0.69603       -0.06521
C         -0.93528       -1.41197       -0.00371
C          0.25126       -0.70126        0.04606
C          0.25543        0.69818        0.05344
C         -0.92743        1.41652        0.00857
C          1.65267        1.22374        0.15891
C          2.46091       -0.00497       -0.28273
C          1.64611       -1.23620        0.13953
H         -3.07142        1.24804       -0.10596
H         -3.07876       -1.22997       -0.11387
H         -0.94032       -2.49700        0.00253
H         -0.92543        2.50134        0.02279
H          1.87705        1.49231        1.19671
H          1.83182        2.07879       -0.49829
H          3.47469       -0.01083        0.12894
H          2.55631        0.00382       -1.37802
H          1.87173       -1.52497        1.17125
H          1.81864       -2.07987       -0.53417

