%nprocshared=8
%mem=10400MB
#N opt freq B3LYP/def2SVPP symm=veryloose em=gd3bj scale=0.961 press=0.987

c1ccc2cc3cc4cc5cc6ccccc6cc5cc4cc3cc2c1_2

0 1
C          7.28090        0.19630       -1.10970
C          7.33650       -0.78220       -0.12210
C          6.15980       -1.23810        0.47400
C          4.91170       -0.72060        0.08930
C          3.71840       -1.16890        0.67940
C          2.47030       -0.65080        0.29410
C          1.27660       -1.09920        0.88440
C          0.02810       -0.58170        0.49970
C         -1.16540       -1.03030        1.09020
C         -2.41400       -0.51300        0.70570
C         -3.60720       -0.96230        1.29670
C         -4.85530       -0.44510        0.91230
C         -6.04850       -0.89370        1.50270
C         -7.28090       -0.36980        1.10960
C         -7.33650        0.60870        0.12200
C         -6.15980        1.06470       -0.47410
C         -4.91170        0.54720       -0.08930
C         -3.71840        0.99560       -0.67940
C         -2.47030        0.47750       -0.29410
C         -1.27660        0.92590       -0.88430
C         -0.02810        0.40840       -0.49970
C          1.16550        0.85700       -1.09010
C          2.41400        0.33970       -0.70560
C          3.60720        0.78890       -1.29670
C          4.85530        0.27170       -0.91230
C          6.04850        0.72030       -1.50270
H          8.19600        0.55290       -1.57520
H          8.29510       -1.19160        0.18560
H          6.22380       -2.00350        1.24420
H          3.76240       -1.93440        1.45200
H          1.32020       -1.86470        1.65710
H         -1.12190       -1.79590        1.86290
H         -3.56410       -1.72770        2.06940
H         -6.02560       -1.65800        2.27630
H         -8.19600       -0.72640        1.57510
H         -8.29510        1.01810       -0.18570
H         -6.22380        1.83010       -1.24430
H         -3.76240        1.76110       -1.45200
H         -1.32020        1.69140       -1.65700
H          1.12200        1.62250       -1.86280
H          3.56410        1.55440       -2.06930
H          6.02560        1.48450       -2.27640

