%nprocshared=16
%mem=17600MB
#N opt freq B3LYP/def2SVPP symm=veryloose em=gd3bj scale=0.961 press=0.987 

c1ccc2cc3c4ccccc4c4ccccc4c3cc2c1_1

0 1
 C                  0.00000000   -0.70048119   -5.07186310
 C                  0.00000000    0.70048119   -5.07186310
 C                  0.00000000    1.40229699   -3.85764043
 C                  0.00000000    0.70030040   -2.64323461
 C                  0.00000000    1.40179958   -1.42961454
 C                  0.00000000    0.70024457   -0.21736903
 C                  0.00000000    1.39925827    0.99783818
 C                  0.00000000    2.79879925    1.00889868
 C                  0.00000000    3.49088108    2.22882954
 C                  0.00000000    2.81153071    3.40624743
 C                  0.00000000    1.40857907    3.41554936
 C                  0.00000000    0.69961182    2.20835294
 C                  0.00000000   -0.69961182    2.20835294
 C                  0.00000000   -1.40857907    3.41554936
 C                  0.00000000   -2.81153071    3.40624743
 C                  0.00000000   -3.49088108    2.22882954
 C                  0.00000000   -2.79879925    1.00889868
 C                  0.00000000   -1.39925827    0.99783818
 C                  0.00000000   -0.70024457   -0.21736903
 C                  0.00000000   -1.40179958   -1.42961454
 C                  0.00000000   -0.70030040   -2.64323461
 C                  0.00000000   -1.40229699   -3.85764043
 H                  0.00000000   -1.23600159   -5.99813011
 H                  0.00000000    1.23600159   -5.99813011
 H                  0.00000000    2.47096112   -3.85741847
 H                  0.00000000    2.47171917   -1.43005663
 H                  0.00000000    3.34090591    0.08705350
 H                  0.00000000    4.56158435    2.23413288
 H                  0.00000000    3.34917096    4.33107804
 H                  0.00000000    0.87950211    4.34596688
 H                  0.00000000   -0.87950211    4.34596688
 H                  0.00000000   -3.34917096    4.33107804
 H                  0.00000000   -4.56158435    2.23413288
 H                  0.00000000   -3.34090591    0.08705350
 H                  0.00000000   -2.47171917   -1.43005663
 H                  0.00000000   -2.47096112   -3.85741847

