%nprocshared=16
%mem=1600MB
#N opt(tight,maxcyc=30) freq B3LYP/def2SVPP symm=veryloose em=gd3bj scale=0.961 press=0.987 int=superfine

C1CCCC1_1

0 1
C                 -1.01884600    0.73692600    0.25532800
C                  0.38380300    1.22749700   -0.14651600
C                  1.30701300   -0.01430800    0.00437500
C                  0.35585000   -1.23794600    0.13805500
C                 -1.03810400   -0.71163500   -0.25124900
H                 -1.83082000    1.35983500   -0.15829200
H                 -1.12549700    0.74577400    1.35697500
H                  0.72402100    2.08880600    0.45291600
H                  0.36544800    1.55880700   -1.20040500
H                  1.95881000    0.07434400    0.88996500
H                  1.97663800   -0.11539500   -0.86638800
H                  0.33464900   -1.58741700    1.18586600
H                  0.67452500   -2.09609600   -0.47745000
H                 -1.86140500   -1.31510600    0.16867900
H                 -1.15466500   -0.71675500   -1.35182900

