%nprocshared=16
%mem=19200MB
#N opt freq B3LYP/def2SVPP symm=veryloose em=gd3bj scale=0.961 press=0.987 

c1ccc2c(c1)cc1ccc3c4ccccc4cc4ccc2c1c43_1

0 1
 C                  5.73126280   -0.17255067    0.00000000
 C                  5.34559166    1.12999270    0.00000000
 C                  3.98258804    1.46749463    0.00000000
 C                  3.01379741    0.45679549    0.00000000
 C                  3.41193474   -0.88384977    0.00000000
 C                  4.77456018   -1.19969017    0.00000000
 C                  2.44821558   -1.90456221    0.00000000
 C                  1.08594399   -1.57657033    0.00000000
 C                  0.11093398   -2.58644475    0.00000000
 C                 -1.24843453   -2.24217106    0.00000000
 C                 -1.62098144   -0.89112979    0.00000000
 C                 -3.08263865   -0.46132363    0.00000000
 C                 -4.12161489   -1.39010300    0.00000000
 C                 -5.44782136   -0.93490384    0.00000000
 C                 -5.71575415    0.39925722    0.00000000
 C                 -4.71075198    1.31525133    0.00000000
 C                 -3.37043166    0.89979934    0.00000000
 C                 -2.36419950    1.82483834    0.00000000
 C                 -1.04245560    1.46023019    0.00000000
 C                 -0.09067139    2.43478529    0.00000000
 C                  1.23528355    2.12087414    0.00000000
 C                  1.65004400    0.78225673    0.00000000
 C                  0.69472972   -0.23149754    0.00000000
 C                 -0.65516278    0.10867258    0.00000000
 H                  6.77372422   -0.41776681    0.00000000
 H                  6.08372104    1.90379856    0.00000000
 H                  3.68613047    2.49382816    0.00000000
 H                  5.08786114   -2.22178848    0.00000000
 H                  2.75385415   -2.93011717    0.00000000
 H                  0.40504550   -3.61518359    0.00000000
 H                 -1.99718460   -3.00597447    0.00000000
 H                 -3.91036141   -2.44012123    0.00000000
 H                 -6.25217207   -1.64167091    0.00000000
 H                 -6.73332667    0.73102617    0.00000000
 H                 -4.94327154    2.36054391    0.00000000
 H                 -2.61629020    2.86394451    0.00000000
 H                 -0.38782834    3.46218141    0.00000000
 H                  1.96629194    2.90459248    0.00000000

