%nprocshared=8
%mem=11200MB
#N opt freq B3LYP/def2SVPP symm=veryloose em=gd3bj scale=0.961 press=0.987

c1cc2cc3cccc4c5cccc6cc7cccc8c(c1)c2c(c34)c(c78)c65_2

0 1
C         -3.58050       -2.85600       -0.67160
C         -2.36260       -3.51430       -0.65000
C         -1.17980       -2.80000       -0.43960
C          0.03790       -3.48110       -0.42120
C          1.24080       -2.80500       -0.21420
C          2.43920       -3.52420       -0.20290
C          3.64280       -2.87090        0.00100
C          3.65300       -1.49140        0.19500
C          2.46670       -0.71400        0.19300
C          2.45120        0.70390        0.39000
C          3.62080        1.47640        0.60740
C          3.58050        2.85600        0.79670
C          2.36260        3.51430        0.77510
C          1.17980        2.80000        0.56460
C         -0.03790        3.48110        0.54620
C         -1.24080        2.80500        0.33930
C         -2.43920        3.52420        0.32800
C         -3.64280        2.87090        0.12410
C         -3.65300        1.49130       -0.06990
C         -2.46670        0.71400       -0.06790
C         -2.45120       -0.70390       -0.26490
C         -3.62070       -1.47640       -0.48230
C         -1.21130       -1.39470       -0.24580
C          0.00760       -0.69790       -0.03440
C          1.24170       -1.39970       -0.01740
C         -0.00760        0.69790        0.15950
C         -1.24170        1.39970        0.14250
C          1.21130        1.39470        0.37090
H         -4.50010       -3.41130       -0.83530
H         -2.34480       -4.59150       -0.79910
H          0.04960       -4.55960       -0.57100
H          2.44480       -4.60140       -0.35320
H          4.57450       -3.43000        0.00970
H          4.62510       -1.03280        0.35000
H          4.60290        1.01380        0.63440
H          4.50010        3.41130        0.96030
H          2.34480        4.59150        0.92420
H         -0.04960        4.55960        0.69610
H         -2.44480        4.60140        0.47820
H         -4.57450        3.43000        0.11530
H         -4.62510        1.03280       -0.22490
H         -4.60290       -1.01380       -0.50930

