%nprocshared=8
%mem=10400MB
#N opt freq B3LYP/def2SVPP symm=veryloose em=gd3bj scale=0.961 press=0.987

c1ccc2cc3cc4c5ccccc5c5ccccc5c4cc3cc2c1_2

0 1
C          6.45990       -1.00430        0.31690
C          6.52760        0.38520        0.28540
C          5.35480        1.13850        0.21360
C          4.09890        0.51020        0.17250
C          2.90770        1.25080        0.10030
C          1.65080        0.61860        0.05920
C          0.45120        1.34600       -0.01310
C         -0.84340        0.74990       -0.05680
C         -2.04940        1.52630       -0.13060
C         -2.04480        2.95130       -0.16590
C         -3.20480        3.72120       -0.23740
C         -4.42700        3.09050       -0.27700
C         -4.47380        1.69790       -0.24440
C         -3.31180        0.87590       -0.17150
C         -3.38160       -0.55680       -0.13890
C         -4.61810       -1.26450       -0.17720
C         -4.70690       -2.65510       -0.14660
C         -3.55170       -3.39920       -0.07590
C         -2.32220       -2.74320       -0.03670
C         -2.18830       -1.32430       -0.06590
C         -0.91240       -0.66630       -0.02460
C          0.31830       -1.38270        0.04880
C          1.58300       -0.77280        0.09080
C          2.77260       -1.52160        0.16320
C          4.03030       -0.89770        0.20450
C          5.21930       -1.64250        0.27670
H          7.37190       -1.59280        0.37280
H          7.49260        0.88430        0.31660
H          5.42800        2.22340        0.18990
H          2.95870        2.33780        0.07550
H          0.55310        2.42700       -0.03540
H         -1.11600        3.51280       -0.13790
H         -3.14200        4.80540       -0.26160
H         -5.34520        3.66830       -0.33280
H         -5.46850        1.26420       -0.27860
H         -5.56600       -0.73820       -0.23310
H         -5.67700       -3.14290       -0.17830
H         -3.59460       -4.48430       -0.05080
H         -1.45240       -3.39040        0.01880
H          0.31460       -2.46840        0.07570
H          2.71770       -2.60830        0.18770
H          5.18670       -2.72940        0.30230

