%nprocshared=16
%mem=4480MB
#N opt freq B3LYP/def2SVPP symm=veryloose em=gd3bj scale=0.961 press=0.987

C1=c2ccc3c4c(ccc(c24)=C1)=CC=3_1

0 1
C          1.17215        0.86617       -0.13560
C          1.36555        2.17107       -0.42882
C          0.58076        3.37679       -0.70028
C          1.22761        4.55753       -0.96443
C          2.69509        4.58620       -0.96879
C          3.40872        3.38579       -0.69938
C          4.82850        3.46797       -0.71634
C          5.61627        2.26088       -0.44599
C          4.96887        1.08123       -0.18309
C          3.50289        1.05597       -0.17739
C          2.78852        2.25589       -0.44704
C          2.50222        0.17575        0.02041
C          5.02875        4.77056       -1.00698
C          3.69878        5.46764       -1.16459
H          0.22964        0.35462       -0.02117
H         -0.50097        3.31377       -0.68749
H          0.68563        5.47295       -1.17065
H          6.69672        2.32744       -0.46116
H          5.50929        0.16519        0.01980
H          2.60258       -0.87183        0.25662
H          5.97676        5.27118       -1.11804
H          3.60926        6.51689       -1.39957

