%nprocshared=16
%mem=5760MB
#N opt freq B3LYP/def2SVPP symm=veryloose em=gd3bj scale=0.961 press=0.987

c1ccc2c(c1)c1ccccc1c1ccccc21_1

0 1
C          3.27490        1.87423        0.08574
C          3.73429        0.58278       -0.01252
C          2.81610       -0.46561       -0.08015
C          1.40595       -0.26761       -0.05649
C          0.93371        1.07034       -0.01035
C          1.90029        2.11089        0.08024
C         -0.47360        1.33238       -0.03461
C         -1.00116        2.64487       -0.18894
C         -2.36681        2.92225       -0.17492
C         -3.25884        1.89380        0.02690
C         -2.77904        0.58953        0.15279
C         -1.39586        0.25918        0.07775
C         -0.91970       -1.09256        0.07766
C         -1.79389       -2.21264        0.16947
C         -1.35598       -3.53301        0.07250
C         -0.01674       -3.78379       -0.12502
C          0.87512       -2.71433       -0.17987
C          0.47025       -1.35436       -0.05812
H          3.97062        2.70527        0.17424
H          4.80126        0.37562       -0.01563
H          3.24311       -1.46247       -0.12545
H          1.59532        3.14830        0.18910
H         -0.34544        3.49236       -0.36633
H         -2.71997        3.93845       -0.32072
H         -4.32599        2.08843        0.06477
H         -3.53420       -0.17819        0.29142
H         -2.86252       -2.08160        0.31188
H         -2.06744       -4.35128        0.13660
H          0.34369       -4.80315       -0.23217
H          1.91650       -2.97671       -0.33838

