%nprocshared=8
%mem=8800MB
#N opt freq B3LYP/def2SVPP symm=veryloose em=gd3bj scale=0.961 press=0.987

c1ccc2cc3cc4cc5ccccc5cc4cc3cc2c1_2

0 1
C          6.11260        0.65680       -0.20510
C          6.10370       -0.48680        0.58740
C          4.89060       -1.07630        0.94650
C          3.67030       -0.52870        0.51690
C          2.44100       -1.11000        0.86950
C          1.22070       -0.56170        0.43950
C         -0.00890       -1.14310        0.79220
C         -1.22970       -0.59580        0.36280
C         -2.45880       -1.17820        0.71620
C         -3.67930       -0.63100        0.28680
C         -4.90840       -1.21260        0.63980
C         -6.11260       -0.65670        0.20510
C         -6.10370        0.48680       -0.58740
C         -4.89060        1.07630       -0.94650
C         -3.67030        0.52870       -0.51690
C         -2.44100        1.11000       -0.86950
C         -1.22070        0.56170       -0.43950
C          0.00890        1.14310       -0.79220
C          1.22970        0.59580       -0.36280
C          2.45880        1.17810       -0.71620
C          3.67930        0.63100       -0.28680
C          4.90840        1.21260       -0.63980
H          7.05600        1.11750       -0.48590
H          7.04010       -0.92140        0.92710
H          4.90430       -1.96980        1.56650
H          2.43450       -2.00460        1.48950
H         -0.01590       -2.03790        1.41230
H         -2.46620       -2.07280        1.33620
H         -4.93600       -2.10670        1.25860
H         -7.05600       -1.11740        0.48590
H         -7.04010        0.92140       -0.92710
H         -4.90420        1.96980       -1.56650
H         -2.43450        2.00460       -1.48950
H          0.01590        2.03780       -1.41230
H          2.46620        2.07280       -1.33620
H          4.93600        2.10670       -1.25860

