%nprocshared=8
%mem=7200MB
#N opt freq B3LYP/def2SVPP symm=veryloose em=gd3bj scale=0.961 press=0.987

c1ccc2c(c1)ccc1ccc3ccccc3c12_2

0 1
C          3.74390        1.84880       -0.01790
C          2.55210        2.46590       -0.35080
C          1.35590        1.73900       -0.31070
C          1.28070        0.37930        0.09190
C          2.53930       -0.23890        0.32910
C          3.73730        0.49730        0.30400
C          2.61120       -1.60880        0.55480
C          1.46710       -2.38950        0.49560
C          0.20890       -1.81370        0.30690
C         -0.88320       -2.68030        0.22550
C         -2.17310       -2.19560        0.07220
C         -2.41660       -0.82720        0.09420
C         -3.75020       -0.38520        0.03170
C         -4.06750        0.96190        0.15290
C         -3.05200        1.87430        0.37200
C         -1.72190        1.43880        0.41840
C         -1.33450        0.08750        0.21750
C          0.04660       -0.40420        0.20210
H          4.67790        2.40230       -0.04560
H          2.54330        3.50750       -0.66120
H          0.47510        2.25700       -0.67530
H          4.68800        0.01110        0.51480
H          3.56800       -2.09760        0.72460
H          1.57360       -3.46660        0.61240
H         -0.74150       -3.75870        0.26900
H         -2.99160       -2.90760       -0.00820
H         -4.56270       -1.09920       -0.08990
H         -5.10290        1.28780        0.11510
H         -3.28400        2.92470        0.52680
H         -0.98730        2.19000        0.68850

