 Entering Gaussian System, Link 0=g16
 Initial command:
 /home/software/g16/l1.exe "/home/software/g16tmp/Gau-151011.inp" -scrdir="/home/software/g16tmp/"
 Default is to use a total of   8 processors:
                                8 via shared-memory
                                1 via Linda
 Entering Link 1 = /home/software/g16/l1.exe PID=    151012.
  
 Copyright (c) 1988-2019, Gaussian, Inc.  All Rights Reserved.
  
 This is part of the Gaussian(R) 16 program.  It is based on
 the Gaussian(R) 09 system (copyright 2009, Gaussian, Inc.),
 the Gaussian(R) 03 system (copyright 2003, Gaussian, Inc.),
 the Gaussian(R) 98 system (copyright 1998, Gaussian, Inc.),
 the Gaussian(R) 94 system (copyright 1995, Gaussian, Inc.),
 the Gaussian 92(TM) system (copyright 1992, Gaussian, Inc.),
 the Gaussian 90(TM) system (copyright 1990, Gaussian, Inc.),
 the Gaussian 88(TM) system (copyright 1988, Gaussian, Inc.),
 the Gaussian 86(TM) system (copyright 1986, Carnegie Mellon
 University), and the Gaussian 82(TM) system (copyright 1983,
 Carnegie Mellon University). Gaussian is a federally registered
 trademark of Gaussian, Inc.
  
 This software contains proprietary and confidential information,
 including trade secrets, belonging to Gaussian, Inc.
  
 This software is provided under written license and may be
 used, copied, transmitted, or stored only in accord with that
 written license.
  
 The following legend is applicable only to US Government
 contracts under FAR:
  
                    RESTRICTED RIGHTS LEGEND
  
 Use, reproduction and disclosure by the US Government is
 subject to restrictions as set forth in subparagraphs (a)
 and (c) of the Commercial Computer Software - Restricted
 Rights clause in FAR 52.227-19.
  
 Gaussian, Inc.
 340 Quinnipiac St., Bldg. 40, Wallingford CT 06492
  
  
 ---------------------------------------------------------------
 Warning -- This program may not be used in any manner that
 competes with the business of Gaussian, Inc. or will provide
 assistance to any competitor of Gaussian, Inc.  The licensee
 of this program is prohibited from giving any competitor of
 Gaussian, Inc. access to this program.  By using this program,
 the user acknowledges that Gaussian, Inc. is engaged in the
 business of creating and licensing software in the field of
 computational chemistry and represents and warrants to the
 licensee that it is not a competitor of Gaussian, Inc. and that
 it will not use this program in any manner prohibited above.
 ---------------------------------------------------------------
  

 Cite this work as:
 Gaussian 16, Revision C.01,
 M. J. Frisch, G. W. Trucks, H. B. Schlegel, G. E. Scuseria, 
 M. A. Robb, J. R. Cheeseman, G. Scalmani, V. Barone, 
 G. A. Petersson, H. Nakatsuji, X. Li, M. Caricato, A. V. Marenich, 
 J. Bloino, B. G. Janesko, R. Gomperts, B. Mennucci, H. P. Hratchian, 
 J. V. Ortiz, A. F. Izmaylov, J. L. Sonnenberg, D. Williams-Young, 
 F. Ding, F. Lipparini, F. Egidi, J. Goings, B. Peng, A. Petrone, 
 T. Henderson, D. Ranasinghe, V. G. Zakrzewski, J. Gao, N. Rega, 
 G. Zheng, W. Liang, M. Hada, M. Ehara, K. Toyota, R. Fukuda, 
 J. Hasegawa, M. Ishida, T. Nakajima, Y. Honda, O. Kitao, H. Nakai, 
 T. Vreven, K. Throssell, J. A. Montgomery, Jr., J. E. Peralta, 
 F. Ogliaro, M. J. Bearpark, J. J. Heyd, E. N. Brothers, K. N. Kudin, 
 V. N. Staroverov, T. A. Keith, R. Kobayashi, J. Normand, 
 K. Raghavachari, A. P. Rendell, J. C. Burant, S. S. Iyengar, 
 J. Tomasi, M. Cossi, J. M. Millam, M. Klene, C. Adamo, R. Cammi, 
 J. W. Ochterski, R. L. Martin, K. Morokuma, O. Farkas, 
 J. B. Foresman, and D. J. Fox, Gaussian, Inc., Wallingford CT, 2019.
 
 ******************************************
 Gaussian 16:  ES64L-G16RevC.01  3-Jul-2019
                19-Dec-2023 
 ******************************************
 %nprocshared=16
 Will use up to   16 processors via shared memory.
 %mem=320MB
 ----------------------------------------------------------------------
 #N opt freq B3LYP/def2SVPP symm=veryloose em=gd3bj scale=0.961 press=0
 .987
 ----------------------------------------------------------------------
 1/18=20,19=15,26=3,38=1,113=-987000,114=961000/1,3;
 2/9=110,12=2,17=2,18=2,40=1/2;
 3/5=43,7=202,11=2,25=1,30=1,71=1,74=-5,124=41/1,2,3;
 4//1;
 5/5=2,38=5/2;
 6/7=2,8=2,9=2,10=2,28=1/1;
 7//1,2,3,16;
 1/18=20,19=15,26=3/3(2);
 2/9=110/2;
 99//99;
 2/9=110/2;
 3/5=43,7=202,11=2,25=1,30=1,71=1,74=-5,124=41/1,2,3;
 4/5=5,16=3,69=1/1;
 5/5=2,38=5/2;
 7//1,2,3,16;
 1/18=20,19=15,26=3/3(-5);
 2/9=110/2;
 6/7=2,8=2,9=2,10=2,19=2,28=1/1;
 99/9=1/99;
 ------
 [OH]_1
 ------
 Symbolic Z-matrix:
 Charge =  0 Multiplicity = 2
 O                     0.91827   0.03689  -0.05927 
 H                     1.90853   0.03689  -0.05927 
 

 GradGradGradGradGradGradGradGradGradGradGradGradGradGradGradGradGradGrad
 Berny optimization.
 Initialization pass.
                           ----------------------------
                           !    Initial Parameters    !
                           ! (Angstroms and Degrees)  !
 --------------------------                            --------------------------
 ! Name  Definition              Value          Derivative Info.                !
 --------------------------------------------------------------------------------
 ! R1    R(1,2)                  0.9903         estimate D2E/DX2                !
 --------------------------------------------------------------------------------
 Trust Radius=3.00D-01 FncErr=1.00D-07 GrdErr=1.00D-06 EigMax=2.50D+02 EigMin=1.00D-04
 Number of steps in this run=     20 maximum allowed number of steps=    100.
 GradGradGradGradGradGradGradGradGradGradGradGradGradGradGradGradGradGrad

                          Input orientation:                          
 ---------------------------------------------------------------------
 Center     Atomic      Atomic             Coordinates (Angstroms)
 Number     Number       Type             X           Y           Z
 ---------------------------------------------------------------------
      1          8           0        0.918270    0.036890   -0.059270
      2          1           0        1.908530    0.036890   -0.059270
 ---------------------------------------------------------------------
 Stoichiometry    HO(2)
 Framework group  C*V[C*(HO)]
 Deg. of freedom     1
 Full point group                 C*V     NOp   4
 Largest Abelian subgroup         C2V     NOp   4
 Largest concise Abelian subgroup C1      NOp   1
                         Standard orientation:                         
 ---------------------------------------------------------------------
 Center     Atomic      Atomic             Coordinates (Angstroms)
 Number     Number       Type             X           Y           Z
 ---------------------------------------------------------------------
      1          8           0        0.000000    0.000000    0.110029
      2          1           0        0.000000    0.000000   -0.880231
 ---------------------------------------------------------------------
 Rotational constants (GHZ):           0.0000000         543.5888773         543.5888773
 Standard basis: def2SVPP (5D, 7F)
 There are    10 symmetry adapted cartesian basis functions of A1  symmetry.
 There are     1 symmetry adapted cartesian basis functions of A2  symmetry.
 There are     3 symmetry adapted cartesian basis functions of B1  symmetry.
 There are     3 symmetry adapted cartesian basis functions of B2  symmetry.
 There are     9 symmetry adapted basis functions of A1  symmetry.
 There are     1 symmetry adapted basis functions of A2  symmetry.
 There are     3 symmetry adapted basis functions of B1  symmetry.
 There are     3 symmetry adapted basis functions of B2  symmetry.
    16 basis functions,    29 primitive gaussians,    17 cartesian basis functions
     5 alpha electrons        4 beta electrons
       nuclear repulsion energy         4.2750567400 Hartrees.
 NAtoms=    2 NActive=    2 NUniq=    2 SFac= 1.00D+00 NAtFMM=   60 NAOKFM=F Big=F
 Integral buffers will be    131072 words long.
 Raffenetti 2 integral format.
 Two-electron integral symmetry is turned on.
 Nuclear repulsion after empirical dispersion term =        4.2748108903 Hartrees.
 One-electron integrals computed using PRISM.
 PrsmSu:  requested number of processors reduced to:  12 ShMem   1 Linda.
   4 Symmetry operations used in ECPInt.
 ECPInt:  NShTT=      36 NPrTT=     152 LenC2=      37 LenP2D=     152.
 LDataN:  DoStor=T MaxTD1= 4 Len=   56
 NBasis=    16 RedAO= T EigKep=  8.19D-02  NBF=     9     1     3     3
 NBsUse=    16 1.00D-06 EigRej= -1.00D+00 NBFU=     9     1     3     3
 ExpMin= 1.22D-01 ExpMax= 2.27D+03 ExpMxC= 3.41D+02 IAcc=3 IRadAn=         5 AccDes= 0.00D+00
 Harris functional with IExCor=  402 and IRadAn=       5 diagonalized for initial guess.
 HarFok:  IExCor=  402 AccDes= 0.00D+00 IRadAn=         5 IDoV= 1 UseB2=F ITyADJ=14
 ICtDFT=  3500011 ScaDFX=  1.000000  1.000000  1.000000  1.000000
 FoFCou: FMM=F IPFlag=           0 FMFlag=      100000 FMFlg1=           0
         NFxFlg=           0 DoJE=T BraDBF=F KetDBF=T FulRan=T
         wScrn=  0.000000 ICntrl=       500 IOpCl=  0 I1Cent=   200000004 NGrid=           0
         NMat0=    1 NMatS0=      1 NMatT0=    0 NMatD0=    1 NMtDS0=    0 NMtDT0=    0
 Petite list used in FoFCou.
 Initial guess orbital symmetries:
 Alpha Orbitals:
       Occupied  (SG) (SG) (SG) (PI) (PI)
       Virtual   (SG) (SG) (SG) (PI) (PI) (SG) (PI) (PI) (DLTA)
                 (DLTA) (SG)
 Beta  Orbitals:
       Occupied  (SG) (SG) (SG) (PI)
       Virtual   (PI) (SG) (SG) (SG) (PI) (PI) (SG) (PI) (PI) (DLTA)
                 (DLTA) (SG)
 Initial guess <Sx>= 0.0000 <Sy>= 0.0000 <Sz>= 0.5000 <S**2>= 0.7500 S= 0.5000
 Keep R1 and R2 ints in memory in symmetry-blocked form, NReq=13815781.
 Requested convergence on RMS density matrix=1.00D-08 within 128 cycles.
 Requested convergence on MAX density matrix=1.00D-06.
 Requested convergence on             energy=1.00D-06.
 No special actions if energy rises.
 Integral accuracy reduced to 1.0D-05 until final iterations.
 Initial convergence to 1.0D-05 achieved.  Increase integral accuracy.
 SCF Done:  E(UB3LYP) =  -75.6588306269     A.U. after   10 cycles
            NFock= 10  Conv=0.75D-08     -V/T= 2.0049
 <Sx>= 0.0000 <Sy>= 0.0000 <Sz>= 0.5000 <S**2>= 0.7519 S= 0.5010
 <L.S>=  0.00000000000    
 Annihilation of the first spin contaminant:
 S**2 before annihilation     0.7519,   after     0.7500

 **********************************************************************

            Population analysis using the SCF Density.

 **********************************************************************

 Orbital symmetries:
 Alpha Orbitals:
       Occupied  (SG) (SG) (SG) (PI) (PI)
       Virtual   (SG) (SG) (PI) (SG) (PI) (SG) (PI) (?A) (?A) (PI)
                 (?A)
 Beta  Orbitals:
       Occupied  (SG) (SG) (SG) (PI)
       Virtual   (PI) (SG) (SG) (SG) (PI) (PI) (SG) (PI) (PI) (?A)
                 (?A) (?A)
 Unable to determine electronic state:  partially filled degenerate orbitals.
 Alpha  occ. eigenvalues --  -19.19047  -0.98860  -0.46304  -0.40420  -0.32856
 Alpha virt. eigenvalues --    0.04436   0.56002   0.84434   0.87924   0.89371
 Alpha virt. eigenvalues --    1.07856   2.51189   2.56218   2.56391   2.57069
 Alpha virt. eigenvalues --    2.95136
  Beta  occ. eigenvalues --  -19.16497  -0.91917  -0.43662  -0.30153
  Beta virt. eigenvalues --   -0.15181   0.05236   0.56733   0.90510   0.91003
  Beta virt. eigenvalues --    0.94608   1.10469   2.58459   2.59732   2.64556
  Beta virt. eigenvalues --    2.65644   2.98650
          Condensed to atoms (all electrons):
               1          2
     1  O    8.084095   0.225295
     2  H    0.225295   0.465314
          Atomic-Atomic Spin Densities.
               1          2
     1  O    1.037609  -0.002775
     2  H   -0.002775  -0.032059
 Mulliken charges and spin densities:
               1          2
     1  O   -0.309390   1.034834
     2  H    0.309390  -0.034834
 Sum of Mulliken charges =   0.00000   1.00000
 Mulliken charges and spin densities with hydrogens summed into heavy atoms:
               1          2
     1  O    0.000000   1.000000
 Electronic spatial extent (au):  <R**2>=             15.0918
 Charge=              0.0000 electrons
 Dipole moment (field-independent basis, Debye):
    X=              0.0000    Y=              0.0000    Z=             -1.7879  Tot=              1.7879
 Quadrupole moment (field-independent basis, Debye-Ang):
   XX=             -5.2384   YY=             -6.3696   ZZ=             -4.5043
   XY=              0.0000   XZ=              0.0000   YZ=              0.0000
 Traceless Quadrupole moment (field-independent basis, Debye-Ang):
   XX=              0.1324   YY=             -0.9988   ZZ=              0.8665
   XY=              0.0000   XZ=              0.0000   YZ=              0.0000
 Octapole moment (field-independent basis, Debye-Ang**2):
  XXX=              0.0000  YYY=              0.0000  ZZZ=             -1.7048  XYY=              0.0000
  XXY=              0.0000  XXZ=             -0.1740  XZZ=              0.0000  YZZ=              0.0000
  YYZ=             -0.2911  XYZ=              0.0000
 Hexadecapole moment (field-independent basis, Debye-Ang**3):
 XXXX=             -3.2157 YYYY=             -4.4580 ZZZZ=             -5.1998 XXXY=              0.0000
 XXXZ=              0.0000 YYYX=              0.0000 YYYZ=              0.0000 ZZZX=              0.0000
 ZZZY=              0.0000 XXYY=             -1.2789 XXZZ=             -1.6005 YYZZ=             -1.8196
 XXYZ=              0.0000 YYXZ=              0.0000 ZZXY=              0.0000
 N-N= 4.274810890290D+00 E-N=-1.877897973332D+02  KE= 7.528657594299D+01
 Symmetry A1   KE= 6.794222298130D+01
 Symmetry A2   KE= 3.284922629483D-35
 Symmetry B1   KE= 2.530384931186D+00
 Symmetry B2   KE= 4.813968030508D+00
 Symmetry A1   SP=-5.503410227536D-16
 Symmetry A2   SP= 5.336137177144D-36
 Symmetry B1   SP= 1.000000000000D+00
 Symmetry B2   SP=-7.990570011218D-16
                          Isotropic Fermi Contact Couplings
        Atom                 a.u.       MegaHertz       Gauss      10(-4) cm-1
     1  O(17)              0.30414    -184.36654     -65.78657     -61.49806
     2  H(1)              -0.01354     -60.52675     -21.59745     -20.18955
 --------------------------------------------------------
       Center         ----  Spin Dipole Couplings  ----
                      3XX-RR        3YY-RR        3ZZ-RR
 --------------------------------------------------------
     1   Atom        3.687643     -1.876310     -1.811333
     2   Atom       -0.046978     -0.122714      0.169693
 --------------------------------------------------------
                        XY            XZ            YZ
 --------------------------------------------------------
     1   Atom        0.000000      0.000000      0.000000
     2   Atom        0.000000      0.000000      0.000000
 --------------------------------------------------------


 ---------------------------------------------------------------------------------
              Anisotropic Spin Dipole Couplings in Principal Axis System
 ---------------------------------------------------------------------------------

       Atom             a.u.   MegaHertz   Gauss  10(-4) cm-1        Axes

              Baa    -1.8763   135.768    48.446    45.287 -0.0000  1.0000  0.0000
     1 O(17)  Bbb    -1.8113   131.067    46.768    43.719  0.0000  0.0000  1.0000
              Bcc     3.6876  -266.835   -95.213   -89.007  1.0000  0.0000  0.0000
 
              Baa    -0.1227   -65.475   -23.363   -21.840 -0.0000  1.0000  0.0000
     2 H(1)   Bbb    -0.0470   -25.065    -8.944    -8.361  1.0000  0.0000  0.0000
              Bcc     0.1697    90.540    32.307    30.201  0.0000  0.0000  1.0000
 

 ---------------------------------------------------------------------------------

 PrsmSu:  requested number of processors reduced to:  12 ShMem   1 Linda.
   4 Symmetry operations used in ECPInt.
 ECPInt:  NShTT=      36 NPrTT=     152 LenC2=      37 LenP2D=     152.
 LDataN:  DoStor=T MaxTD1= 5 Len=  102
 Calling FoFJK, ICntrl=      2127 FMM=F ISym2X=1 I1Cent= 0 IOpClX= 1 NMat=1 NMatS=1 NMatT=0.
 ***** Axes restored to original set *****
 -------------------------------------------------------------------
 Center     Atomic                   Forces (Hartrees/Bohr)
 Number     Number              X              Y              Z
 -------------------------------------------------------------------
      1        8           0.003826600   -0.000000000   -0.000000000
      2        1          -0.003826600   -0.000000000   -0.000000000
 -------------------------------------------------------------------
 Cartesian Forces:  Max     0.003826600 RMS     0.002209289

 GradGradGradGradGradGradGradGradGradGradGradGradGradGradGradGradGradGrad
 Berny optimization.
 FormGI is forming the generalized inverse of G from B-inverse, IUseBI=4.
 Internal  Forces:  Max     0.003826600 RMS     0.003826600
 Search for a local minimum.
 Step number   1 out of a maximum of   20
 All quantities printed in internal units (Hartrees-Bohrs-Radians)
 Mixed Optimization -- RFO/linear search
 Second derivative matrix not updated -- first step.
 The second derivative matrix:
                          R1
           R1           0.49443
 ITU=  0
     Eigenvalues ---    0.49443
 RFO step:  Lambda=-2.96141343D-05 EMin= 4.94425844D-01
 Linear search not attempted -- first point.
 Iteration  1 RMS(Cart)=  0.00547231 RMS(Int)=  0.00000000
 Iteration  2 RMS(Cart)=  0.00000000 RMS(Int)=  0.00000000
 ClnCor:  largest displacement from symmetrization is 0.00D+00 for atom     0.
 Variable       Old X    -DE/DX   Delta X   Delta X   Delta X     New X
                                 (Linear)    (Quad)   (Total)
    R1        1.87132  -0.00383   0.00000  -0.00774  -0.00774   1.86358
         Item               Value     Threshold  Converged?
 Maximum Force            0.003827     0.000450     NO 
 RMS     Force            0.003827     0.000300     NO 
 Maximum Displacement     0.003870     0.001800     NO 
 RMS     Displacement     0.005472     0.001200     NO 
 Predicted change in Energy=-1.480795D-05
 GradGradGradGradGradGradGradGradGradGradGradGradGradGradGradGradGradGrad

                          Input orientation:                          
 ---------------------------------------------------------------------
 Center     Atomic      Atomic             Coordinates (Angstroms)
 Number     Number       Type             X           Y           Z
 ---------------------------------------------------------------------
      1          8           0        0.920318    0.036890   -0.059270
      2          1           0        1.906482    0.036890   -0.059270
 ---------------------------------------------------------------------
 Stoichiometry    HO(2)
 Framework group  C*V[C*(HO)]
 Deg. of freedom     1
 Full point group                 C*V     NOp   4
 Largest Abelian subgroup         C2V     NOp   4
 Largest concise Abelian subgroup C1      NOp   1
                         Standard orientation:                         
 ---------------------------------------------------------------------
 Center     Atomic      Atomic             Coordinates (Angstroms)
 Number     Number       Type             X           Y           Z
 ---------------------------------------------------------------------
      1          8           0        0.000000    0.000000    0.109574
      2          1           0        0.000000    0.000000   -0.876591
 ---------------------------------------------------------------------
 Rotational constants (GHZ):           0.0000000         548.1130482         548.1130482
 Standard basis: def2SVPP (5D, 7F)
 There are    10 symmetry adapted cartesian basis functions of A1  symmetry.
 There are     1 symmetry adapted cartesian basis functions of A2  symmetry.
 There are     3 symmetry adapted cartesian basis functions of B1  symmetry.
 There are     3 symmetry adapted cartesian basis functions of B2  symmetry.
 There are     9 symmetry adapted basis functions of A1  symmetry.
 There are     1 symmetry adapted basis functions of A2  symmetry.
 There are     3 symmetry adapted basis functions of B1  symmetry.
 There are     3 symmetry adapted basis functions of B2  symmetry.
    16 basis functions,    29 primitive gaussians,    17 cartesian basis functions
     5 alpha electrons        4 beta electrons
       nuclear repulsion energy         4.2928100568 Hartrees.
 NAtoms=    2 NActive=    2 NUniq=    2 SFac= 1.00D+00 NAtFMM=   60 NAOKFM=F Big=F
 Integral buffers will be    131072 words long.
 Raffenetti 2 integral format.
 Two-electron integral symmetry is turned on.
 Nuclear repulsion after empirical dispersion term =        4.2925642275 Hartrees.
 One-electron integrals computed using PRISM.
 PrsmSu:  requested number of processors reduced to:  12 ShMem   1 Linda.
   4 Symmetry operations used in ECPInt.
 ECPInt:  NShTT=      36 NPrTT=     152 LenC2=      37 LenP2D=     152.
 LDataN:  DoStor=T MaxTD1= 4 Len=   56
 NBasis=    16 RedAO= T EigKep=  8.13D-02  NBF=     9     1     3     3
 NBsUse=    16 1.00D-06 EigRej= -1.00D+00 NBFU=     9     1     3     3
 Initial guess from the checkpoint file:  "/home/software/g16tmp/Gau-151012.chk"
 B after Tr=     0.000000    0.000000   -0.000000
         Rot=    1.000000    0.000000    0.000000    0.000000 Ang=   0.00 deg.
 Initial guess orbital symmetries:
 Alpha Orbitals:
       Occupied  (SG) (SG) (SG) (PI) (PI)
       Virtual   (SG) (SG) (PI) (SG) (PI) (SG) (PI) (?A) (?A) (PI)
                 (?A)
 Beta  Orbitals:
       Occupied  (SG) (SG) (SG) (PI)
       Virtual   (PI) (SG) (SG) (SG) (PI) (PI) (SG) (PI) (PI) (?A)
                 (?A) (?A)
 Initial guess <Sx>= 0.0000 <Sy>= 0.0000 <Sz>= 0.5000 <S**2>= 0.7519 S= 0.5010
 Keep R1 and R2 ints in memory in symmetry-blocked form, NReq=13815781.
 Requested convergence on RMS density matrix=1.00D-08 within 128 cycles.
 Requested convergence on MAX density matrix=1.00D-06.
 Requested convergence on             energy=1.00D-06.
 No special actions if energy rises.
 SCF Done:  E(UB3LYP) =  -75.6588470048     A.U. after    8 cycles
            NFock=  8  Conv=0.80D-09     -V/T= 2.0049
 <Sx>= 0.0000 <Sy>= 0.0000 <Sz>= 0.5000 <S**2>= 0.7519 S= 0.5010
 <L.S>=  0.00000000000    
 Annihilation of the first spin contaminant:
 S**2 before annihilation     0.7519,   after     0.7500
 PrsmSu:  requested number of processors reduced to:  12 ShMem   1 Linda.
   4 Symmetry operations used in ECPInt.
 ECPInt:  NShTT=      36 NPrTT=     152 LenC2=      37 LenP2D=     152.
 LDataN:  DoStor=T MaxTD1= 5 Len=  102
 Calling FoFJK, ICntrl=      2127 FMM=F ISym2X=1 I1Cent= 0 IOpClX= 1 NMat=1 NMatS=1 NMatT=0.
 ***** Axes restored to original set *****
 -------------------------------------------------------------------
 Center     Atomic                   Forces (Hartrees/Bohr)
 Number     Number              X              Y              Z
 -------------------------------------------------------------------
      1        8           0.000389487   -0.000000000   -0.000000000
      2        1          -0.000389487   -0.000000000   -0.000000000
 -------------------------------------------------------------------
 Cartesian Forces:  Max     0.000389487 RMS     0.000224870

 GradGradGradGradGradGradGradGradGradGradGradGradGradGradGradGradGradGrad
 Berny optimization.
 Using GEDIIS/GDIIS optimizer.
 Internal  Forces:  Max     0.000389487 RMS     0.000389487
 Search for a local minimum.
 Step number   2 out of a maximum of   20
 All quantities printed in internal units (Hartrees-Bohrs-Radians)
 Mixed Optimization -- En-DIIS/RFO-DIIS
 Update second derivatives using D2CorX and points    1    2
 DE= -1.64D-05 DEPred=-1.48D-05 R= 1.11D+00
 TightC=F SS=  1.41D+00  RLast= 7.74D-03 DXNew= 5.0454D-01 2.3217D-02
 Trust test= 1.11D+00 RLast= 7.74D-03 DXMaxT set to 3.00D-01
 The second derivative matrix:
                          R1
           R1           0.44413
 ITU=  1  0
 Use linear search instead of GDIIS.
     Eigenvalues ---    0.44413
 RFO step:  Lambda= 0.00000000D+00 EMin= 4.44127816D-01
 Quartic linear search produced a step of  0.11153.
 Iteration  1 RMS(Cart)=  0.00061033 RMS(Int)=  0.00000000
 Iteration  2 RMS(Cart)=  0.00000000 RMS(Int)=  0.00000000
 ClnCor:  largest displacement from symmetrization is 0.00D+00 for atom     0.
 Variable       Old X    -DE/DX   Delta X   Delta X   Delta X     New X
                                 (Linear)    (Quad)   (Total)
    R1        1.86358  -0.00039  -0.00086   0.00000  -0.00086   1.86272
         Item               Value     Threshold  Converged?
 Maximum Force            0.000389     0.000450     YES
 RMS     Force            0.000389     0.000300     NO 
 Maximum Displacement     0.000432     0.001800     YES
 RMS     Displacement     0.000610     0.001200     YES
 Predicted change in Energy=-1.707414D-07
 GradGradGradGradGradGradGradGradGradGradGradGradGradGradGradGradGradGrad

                          Input orientation:                          
 ---------------------------------------------------------------------
 Center     Atomic      Atomic             Coordinates (Angstroms)
 Number     Number       Type             X           Y           Z
 ---------------------------------------------------------------------
      1          8           0        0.920546    0.036890   -0.059270
      2          1           0        1.906254    0.036890   -0.059270
 ---------------------------------------------------------------------
 Stoichiometry    HO(2)
 Framework group  C*V[C*(HO)]
 Deg. of freedom     1
 Full point group                 C*V     NOp   4
 Largest Abelian subgroup         C2V     NOp   4
 Largest concise Abelian subgroup C1      NOp   1
                         Standard orientation:                         
 ---------------------------------------------------------------------
 Center     Atomic      Atomic             Coordinates (Angstroms)
 Number     Number       Type             X           Y           Z
 ---------------------------------------------------------------------
      1          8           0        0.000000    0.000000    0.109523
      2          1           0        0.000000    0.000000   -0.876185
 ---------------------------------------------------------------------
 Rotational constants (GHZ):           0.0000000         548.6211276         548.6211276
 Standard basis: def2SVPP (5D, 7F)
 There are    10 symmetry adapted cartesian basis functions of A1  symmetry.
 There are     1 symmetry adapted cartesian basis functions of A2  symmetry.
 There are     3 symmetry adapted cartesian basis functions of B1  symmetry.
 There are     3 symmetry adapted cartesian basis functions of B2  symmetry.
 There are     9 symmetry adapted basis functions of A1  symmetry.
 There are     1 symmetry adapted basis functions of A2  symmetry.
 There are     3 symmetry adapted basis functions of B1  symmetry.
 There are     3 symmetry adapted basis functions of B2  symmetry.
    16 basis functions,    29 primitive gaussians,    17 cartesian basis functions
     5 alpha electrons        4 beta electrons
       nuclear repulsion energy         4.2947992295 Hartrees.
 NAtoms=    2 NActive=    2 NUniq=    2 SFac= 1.00D+00 NAtFMM=   60 NAOKFM=F Big=F
 Integral buffers will be    131072 words long.
 Raffenetti 2 integral format.
 Two-electron integral symmetry is turned on.
 Nuclear repulsion after empirical dispersion term =        4.2945534024 Hartrees.
 One-electron integrals computed using PRISM.
 PrsmSu:  requested number of processors reduced to:  12 ShMem   1 Linda.
   4 Symmetry operations used in ECPInt.
 ECPInt:  NShTT=      36 NPrTT=     152 LenC2=      37 LenP2D=     152.
 LDataN:  DoStor=T MaxTD1= 4 Len=   56
 NBasis=    16 RedAO= T EigKep=  8.13D-02  NBF=     9     1     3     3
 NBsUse=    16 1.00D-06 EigRej= -1.00D+00 NBFU=     9     1     3     3
 Initial guess from the checkpoint file:  "/home/software/g16tmp/Gau-151012.chk"
 B after Tr=     0.000000    0.000000    0.000000
         Rot=    1.000000    0.000000    0.000000    0.000000 Ang=   0.00 deg.
 Initial guess orbital symmetries:
 Alpha Orbitals:
       Occupied  (SG) (SG) (SG) (PI) (PI)
       Virtual   (SG) (SG) (PI) (SG) (PI) (SG) (PI) (?A) (?A) (PI)
                 (?A)
 Beta  Orbitals:
       Occupied  (SG) (SG) (SG) (PI)
       Virtual   (PI) (SG) (SG) (SG) (PI) (PI) (SG) (PI) (PI) (?A)
                 (?A) (?A)
 Initial guess <Sx>= 0.0000 <Sy>= 0.0000 <Sz>= 0.5000 <S**2>= 0.7519 S= 0.5010
 Keep R1 and R2 ints in memory in symmetry-blocked form, NReq=13815781.
 Requested convergence on RMS density matrix=1.00D-08 within 128 cycles.
 Requested convergence on MAX density matrix=1.00D-06.
 Requested convergence on             energy=1.00D-06.
 No special actions if energy rises.
 SCF Done:  E(UB3LYP) =  -75.6588471730     A.U. after    7 cycles
            NFock=  7  Conv=0.12D-08     -V/T= 2.0048
 <Sx>= 0.0000 <Sy>= 0.0000 <Sz>= 0.5000 <S**2>= 0.7519 S= 0.5010
 <L.S>=  0.00000000000    
 Annihilation of the first spin contaminant:
 S**2 before annihilation     0.7519,   after     0.7500
 PrsmSu:  requested number of processors reduced to:  12 ShMem   1 Linda.
   4 Symmetry operations used in ECPInt.
 ECPInt:  NShTT=      36 NPrTT=     152 LenC2=      37 LenP2D=     152.
 LDataN:  DoStor=T MaxTD1= 5 Len=  102
 Calling FoFJK, ICntrl=      2127 FMM=F ISym2X=1 I1Cent= 0 IOpClX= 1 NMat=1 NMatS=1 NMatT=0.
 ***** Axes restored to original set *****
 -------------------------------------------------------------------
 Center     Atomic                   Forces (Hartrees/Bohr)
 Number     Number              X              Y              Z
 -------------------------------------------------------------------
      1        8          -0.000000017   -0.000000000   -0.000000000
      2        1           0.000000017   -0.000000000   -0.000000000
 -------------------------------------------------------------------
 Cartesian Forces:  Max     0.000000017 RMS     0.000000010

 GradGradGradGradGradGradGradGradGradGradGradGradGradGradGradGradGradGrad
 Berny optimization.
 Using GEDIIS/GDIIS optimizer.
 Internal  Forces:  Max     0.000000017 RMS     0.000000017
 Search for a local minimum.
 Step number   3 out of a maximum of   20
 All quantities printed in internal units (Hartrees-Bohrs-Radians)
 Mixed Optimization -- En-DIIS/RFO-DIIS
 Swapping is turned off.
 Update second derivatives using D2CorX and points    3
 DE= -1.68D-07 DEPred=-1.71D-07 R= 9.85D-01
 Trust test= 9.85D-01 RLast= 8.63D-04 DXMaxT set to 3.00D-01
 The second derivative matrix:
                          R1
           R1           0.44413
 ITU=  0  1
     Eigenvalues ---    0.44413
 En-DIIS/RFO-DIIS/Sim-DIIS IScMMF=       -3 using points:     3    2
 RFO step:  Lambda=-6.66133815D-16.
 DidBck=F Rises=F RFO-DIIS coefs:    0.99996    0.00004
 Iteration  1 RMS(Cart)=  0.00000003 RMS(Int)=  0.00000000
 ClnCor:  largest displacement from symmetrization is 0.00D+00 for atom     0.
 Variable       Old X    -DE/DX   Delta X   Delta X   Delta X     New X
                                 (Linear)    (Quad)   (Total)
    R1        1.86272   0.00000   0.00000   0.00000   0.00000   1.86272
         Item               Value     Threshold  Converged?
 Maximum Force            0.000000     0.000450     YES
 RMS     Force            0.000000     0.000300     YES
 Maximum Displacement     0.000000     0.001800     YES
 RMS     Displacement     0.000000     0.001200     YES
 Predicted change in Energy=-3.288092D-16
 Optimization completed.
    -- Stationary point found.
                           ----------------------------
                           !   Optimized Parameters   !
                           ! (Angstroms and Degrees)  !
 --------------------------                            --------------------------
 ! Name  Definition              Value          Derivative Info.                !
 --------------------------------------------------------------------------------
 ! R1    R(1,2)                  0.9857         -DE/DX =    0.0                 !
 --------------------------------------------------------------------------------
 GradGradGradGradGradGradGradGradGradGradGradGradGradGradGradGradGradGrad

                          Input orientation:                          
 ---------------------------------------------------------------------
 Center     Atomic      Atomic             Coordinates (Angstroms)
 Number     Number       Type             X           Y           Z
 ---------------------------------------------------------------------
      1          8           0        0.920546    0.036890   -0.059270
      2          1           0        1.906254    0.036890   -0.059270
 ---------------------------------------------------------------------
 Stoichiometry    HO(2)
 Framework group  C*V[C*(HO)]
 Deg. of freedom     1
 Full point group                 C*V     NOp   4
 Largest Abelian subgroup         C2V     NOp   4
 Largest concise Abelian subgroup C1      NOp   1
                         Standard orientation:                         
 ---------------------------------------------------------------------
 Center     Atomic      Atomic             Coordinates (Angstroms)
 Number     Number       Type             X           Y           Z
 ---------------------------------------------------------------------
      1          8           0        0.000000    0.000000    0.109523
      2          1           0        0.000000    0.000000   -0.876185
 ---------------------------------------------------------------------
 Rotational constants (GHZ):           0.0000000         548.6211276         548.6211276

 **********************************************************************

            Population analysis using the SCF Density.

 **********************************************************************

 Orbital symmetries:
 Alpha Orbitals:
       Occupied  (SG) (SG) (SG) (PI) (PI)
       Virtual   (SG) (SG) (PI) (SG) (PI) (SG) (PI) (?A) (?A) (PI)
                 (?A)
 Beta  Orbitals:
       Occupied  (SG) (SG) (SG) (PI)
       Virtual   (PI) (SG) (SG) (SG) (PI) (PI) (SG) (PI) (PI) (?A)
                 (?A) (?A)
 Unable to determine electronic state:  partially filled degenerate orbitals.
 Alpha  occ. eigenvalues --  -19.19008  -0.98983  -0.46366  -0.40437  -0.32873
 Alpha virt. eigenvalues --    0.04545   0.56396   0.84431   0.87952   0.89367
 Alpha virt. eigenvalues --    1.07819   2.51127   2.56204   2.56372   2.57007
 Alpha virt. eigenvalues --    2.95670
  Beta  occ. eigenvalues --  -19.16460  -0.92053  -0.43715  -0.30171
  Beta virt. eigenvalues --   -0.15200   0.05340   0.57147   0.90526   0.91000
  Beta virt. eigenvalues --    0.94604   1.10438   2.58394   2.59663   2.64538
  Beta virt. eigenvalues --    2.65626   2.99182
          Condensed to atoms (all electrons):
               1          2
     1  O    8.082886   0.226014
     2  H    0.226014   0.465086
          Atomic-Atomic Spin Densities.
               1          2
     1  O    1.037407  -0.002844
     2  H   -0.002844  -0.031719
 Mulliken charges and spin densities:
               1          2
     1  O   -0.308900   1.034563
     2  H    0.308900  -0.034563
 Sum of Mulliken charges =  -0.00000   1.00000
 Mulliken charges and spin densities with hydrogens summed into heavy atoms:
               1          2
     1  O   -0.000000   1.000000
 Electronic spatial extent (au):  <R**2>=             15.0622
 Charge=             -0.0000 electrons
 Dipole moment (field-independent basis, Debye):
    X=              0.0000    Y=              0.0000    Z=             -1.7869  Tot=              1.7869
 Quadrupole moment (field-independent basis, Debye-Ang):
   XX=             -5.2342   YY=             -6.3655   ZZ=             -4.5111
   XY=              0.0000   XZ=              0.0000   YZ=              0.0000
 Traceless Quadrupole moment (field-independent basis, Debye-Ang):
   XX=              0.1361   YY=             -0.9952   ZZ=              0.8591
   XY=              0.0000   XZ=              0.0000   YZ=              0.0000
 Octapole moment (field-independent basis, Debye-Ang**2):
  XXX=              0.0000  YYY=              0.0000  ZZZ=             -1.6967  XYY=              0.0000
  XXY=              0.0000  XXZ=             -0.1776  XZZ=              0.0000  YZZ=              0.0000
  YYZ=             -0.2941  XYZ=              0.0000
 Hexadecapole moment (field-independent basis, Debye-Ang**3):
 XXXX=             -3.2109 YYYY=             -4.4533 ZZZZ=             -5.1808 XXXY=              0.0000
 XXXZ=              0.0000 YYYX=              0.0000 YYYZ=              0.0000 ZZZX=              0.0000
 ZZZY=              0.0000 XXYY=             -1.2773 XXZZ=             -1.5927 YYZZ=             -1.8118
 XXYZ=              0.0000 YYXZ=              0.0000 ZZXY=              0.0000
 N-N= 4.294553402440D+00 E-N=-1.878321258542D+02  KE= 7.529397745288D+01
 Symmetry A1   KE= 6.795042091801D+01
 Symmetry A2   KE= 3.282801991878D-35
 Symmetry B1   KE= 2.530094966403D+00
 Symmetry B2   KE= 4.813461568467D+00
 Symmetry A1   SP=-2.402917274880D-15
 Symmetry A2   SP= 5.333961506258D-36
 Symmetry B1   SP= 1.000000000000D+00
 Symmetry B2   SP= 3.835907286254D-16
                          Isotropic Fermi Contact Couplings
        Atom                 a.u.       MegaHertz       Gauss      10(-4) cm-1
     1  O(17)              0.30426    -184.43830     -65.81217     -61.52199
     2  H(1)              -0.01346     -60.16677     -21.46900     -20.06947
 --------------------------------------------------------
       Center         ----  Spin Dipole Couplings  ----
                      3XX-RR        3YY-RR        3ZZ-RR
 --------------------------------------------------------
     1   Atom        3.687883     -1.875262     -1.812621
     2   Atom       -0.046897     -0.124038      0.170935
 --------------------------------------------------------
                        XY            XZ            YZ
 --------------------------------------------------------
     1   Atom        0.000000      0.000000      0.000000
     2   Atom        0.000000      0.000000      0.000000
 --------------------------------------------------------


 ---------------------------------------------------------------------------------
              Anisotropic Spin Dipole Couplings in Principal Axis System
 ---------------------------------------------------------------------------------

       Atom             a.u.   MegaHertz   Gauss  10(-4) cm-1        Axes

              Baa    -1.8753   135.693    48.419    45.262 -0.0000  1.0000  0.0000
     1 O(17)  Bbb    -1.8126   131.160    46.801    43.750  0.0000  0.0000  1.0000
              Bcc     3.6879  -266.853   -95.220   -89.012  1.0000  0.0000  0.0000
 
              Baa    -0.1240   -66.181   -23.615   -22.076 -0.0000  1.0000  0.0000
     2 H(1)   Bbb    -0.0469   -25.022    -8.928    -8.346  1.0000  0.0000  0.0000
              Bcc     0.1709    91.203    32.543    30.422  0.0000  0.0000  1.0000
 

 ---------------------------------------------------------------------------------

 Unable to Open any file for archive entry.
 1\1\GINC-NODE01\FOpt\UB3LYP\def2SVPP\H1O1(2)\XUHJ\19-Dec-2023\0\\#N op
 t freq B3LYP/def2SVPP symm=veryloose em=gd3bj scale=0.961 press=0.987\
 \[OH]_1\\0,2\O,0.9205460316,0.03689,-0.05927\H,1.9062539684,0.03689,-0
 .05927\\Version=ES64L-G16RevC.01\HF=-75.6588472\S2=0.751902\S2-1=0.\S2
 A=0.750002\RMSD=1.156e-09\RMSF=9.868e-09\Dipole=0.7030203,0.,0.\Quadru
 pole=0.6387411,-0.739932,0.1011908,0.,0.,0.\PG=C*V [C*(H1O1)]\\@
 The archive entry for this job was punched.


 BOOKS ARE LIGHTHOUSES ERECTED IN THE GREAT SEA OF TIME.
     -- E.P.WHIPPLE
 Job cpu time:       0 days  0 hours  0 minutes 51.1 seconds.
 Elapsed time:       0 days  0 hours  0 minutes  4.3 seconds.
 File lengths (MBytes):  RWF=      6 Int=      0 D2E=      0 Chk=      1 Scr=      1
 Normal termination of Gaussian 16 at Tue Dec 19 13:02:00 2023.
 Link1:  Proceeding to internal job step number  2.
 --------------------------------------------------------------------
 #N Geom=AllCheck Guess=TCheck SCRF=Check GenChk UB3LYP/def2SVPP Freq
 --------------------------------------------------------------------
 1/10=4,29=7,30=1,38=1,40=1,113=-987000,114=961000/1,3;
 2/12=2,17=2,18=2,40=1/2;
 3/5=43,7=202,11=2,14=-4,25=1,30=1,70=2,71=2,74=-5,116=2,124=41,140=1/1,2,3;
 4/5=101/1;
 5/5=2,38=6,98=1/2;
 8/6=4,10=90,11=11/1;
 11/6=1,8=1,9=11,15=111,16=1/1,2,10;
 10/6=1/2;
 6/7=2,8=2,9=2,10=2,28=1/1;
 7/8=1,10=1,25=1/1,2,3,16;
 1/10=4,30=1/3;
 99//99;
 Structure from the checkpoint file:  "/home/software/g16tmp/Gau-151012.chk"
 ------
 [OH]_1
 ------
 Charge =  0 Multiplicity = 2
 Redundant internal coordinates found in file.  (old form).
 O,0,0.9205460316,0.03689,-0.05927
 H,0,1.9062539684,0.03689,-0.05927
 Recover connectivity data from disk.

 GradGradGradGradGradGradGradGradGradGradGradGradGradGradGradGradGradGrad
 Berny optimization.
 Initialization pass.
                           ----------------------------
                           !    Initial Parameters    !
                           ! (Angstroms and Degrees)  !
 --------------------------                            --------------------------
 ! Name  Definition              Value          Derivative Info.                !
 --------------------------------------------------------------------------------
 ! R1    R(1,2)                  0.9857         calculate D2E/DX2 analytically  !
 --------------------------------------------------------------------------------
 Trust Radius=3.00D-01 FncErr=1.00D-07 GrdErr=1.00D-07 EigMax=2.50D+02 EigMin=1.00D-04
 Number of steps in this run=      2 maximum allowed number of steps=      2.
 GradGradGradGradGradGradGradGradGradGradGradGradGradGradGradGradGradGrad

                          Input orientation:                          
 ---------------------------------------------------------------------
 Center     Atomic      Atomic             Coordinates (Angstroms)
 Number     Number       Type             X           Y           Z
 ---------------------------------------------------------------------
      1          8           0        0.920546    0.036890   -0.059270
      2          1           0        1.906254    0.036890   -0.059270
 ---------------------------------------------------------------------
 Stoichiometry    HO(2)
 Framework group  C*V[C*(HO)]
 Deg. of freedom     1
 Full point group                 C*V     NOp   4
 Largest Abelian subgroup         C2V     NOp   4
 Largest concise Abelian subgroup C1      NOp   1
                         Standard orientation:                         
 ---------------------------------------------------------------------
 Center     Atomic      Atomic             Coordinates (Angstroms)
 Number     Number       Type             X           Y           Z
 ---------------------------------------------------------------------
      1          8           0        0.000000    0.000000    0.109523
      2          1           0        0.000000    0.000000   -0.876185
 ---------------------------------------------------------------------
 Rotational constants (GHZ):           0.0000000         548.6211276         548.6211276
 Standard basis: def2SVPP (5D, 7F)
 There are    10 symmetry adapted cartesian basis functions of A1  symmetry.
 There are     1 symmetry adapted cartesian basis functions of A2  symmetry.
 There are     3 symmetry adapted cartesian basis functions of B1  symmetry.
 There are     3 symmetry adapted cartesian basis functions of B2  symmetry.
 There are     9 symmetry adapted basis functions of A1  symmetry.
 There are     1 symmetry adapted basis functions of A2  symmetry.
 There are     3 symmetry adapted basis functions of B1  symmetry.
 There are     3 symmetry adapted basis functions of B2  symmetry.
    16 basis functions,    29 primitive gaussians,    17 cartesian basis functions
     5 alpha electrons        4 beta electrons
       nuclear repulsion energy         4.2947992295 Hartrees.
 NAtoms=    2 NActive=    2 NUniq=    2 SFac= 1.00D+00 NAtFMM=   60 NAOKFM=F Big=F
 Integral buffers will be    131072 words long.
 Raffenetti 2 integral format.
 Two-electron integral symmetry is turned on.
 Nuclear repulsion after empirical dispersion term =        4.2945534024 Hartrees.
 One-electron integrals computed using PRISM.
 PrsmSu:  requested number of processors reduced to:  12 ShMem   1 Linda.
   4 Symmetry operations used in ECPInt.
 ECPInt:  NShTT=      36 NPrTT=     152 LenC2=      37 LenP2D=     152.
 LDataN:  DoStor=T MaxTD1= 4 Len=   56
 NBasis=    16 RedAO= T EigKep=  8.13D-02  NBF=     9     1     3     3
 NBsUse=    16 1.00D-06 EigRej= -1.00D+00 NBFU=     9     1     3     3
 Initial guess from the checkpoint file:  "/home/software/g16tmp/Gau-151012.chk"
 B after Tr=     0.000000    0.000000    0.000000
         Rot=    1.000000    0.000000    0.000000    0.000000 Ang=   0.00 deg.
 Initial guess orbital symmetries:
 Alpha Orbitals:
       Occupied  (SG) (SG) (SG) (PI) (PI)
       Virtual   (SG) (SG) (PI) (SG) (PI) (SG) (PI) (?A) (?A) (PI)
                 (?A)
 Beta  Orbitals:
       Occupied  (SG) (SG) (SG) (PI)
       Virtual   (PI) (SG) (SG) (SG) (PI) (PI) (SG) (PI) (PI) (?A)
                 (?A) (?A)
 Initial guess <Sx>= 0.0000 <Sy>= 0.0000 <Sz>= 0.5000 <S**2>= 0.7519 S= 0.5010
 Keep R1 and R2 ints in memory in symmetry-blocked form, NReq=13815781.
 Requested convergence on RMS density matrix=1.00D-08 within 128 cycles.
 Requested convergence on MAX density matrix=1.00D-06.
 Requested convergence on             energy=1.00D-06.
 No special actions if energy rises.
 Skip diagonalization as Alpha Fock matrix is already diagonal.
 Skip diagonalization as Beta Fock matrix is already diagonal.
 SCF Done:  E(UB3LYP) =  -75.6588471730     A.U. after    1 cycles
            NFock=  1  Conv=0.00D+00     -V/T= 2.0048
 <Sx>= 0.0000 <Sy>= 0.0000 <Sz>= 0.5000 <S**2>= 0.7519 S= 0.5010
 <L.S>=  0.00000000000    
 Annihilation of the first spin contaminant:
 S**2 before annihilation     0.7519,   after     0.7500
 DoSCS=F DFT=T ScalE2(SS,OS)=  1.000000  1.000000
 Range of M.O.s used for correlation:     1    16
 NBasis=    16 NAE=     5 NBE=     4 NFC=     0 NFV=     0
 NROrb=     16 NOA=     5 NOB=     4 NVA=    11 NVB=    12
 PrsmSu:  requested number of processors reduced to:  12 ShMem   1 Linda.
   4 Symmetry operations used in ECPInt.
 ECPInt:  NShTT=      36 NPrTT=     152 LenC2=      37 LenP2D=     152.
 LDataN:  DoStor=T MaxTD1= 5 Len=  102
 Symmetrizing basis deriv contribution to polar:
 IMax=3 JMax=2 DiffMx= 0.00D+00
 G2DrvN: will do     3 centers at a time, making    1 passes.
 Calling FoFCou, ICntrl=  3107 FMM=F I1Cent=   0 AccDes= 0.00D+00.
 End of G2Drv F.D. properties file   721 does not exist.
 End of G2Drv F.D. properties file   722 does not exist.
 End of G2Drv F.D. properties file   788 does not exist.
          IDoAtm=11
          Differentiating once with respect to electric field.
                with respect to dipole field.
          Differentiating once with respect to nuclear coordinates.
 Keep R1 and R2 ints in memory in symmetry-blocked form, NReq=13761676.
          There are     9 degrees of freedom in the 1st order CPHF.  IDoFFX=6 NUNeed=     3.
      6 vectors produced by pass  0 Test12= 1.14D-15 1.11D-08 XBig12= 5.79D+00 1.58D+00.
 AX will form     6 AO Fock derivatives at one time.
      6 vectors produced by pass  1 Test12= 1.14D-15 1.11D-08 XBig12= 5.16D-01 2.87D-01.
      6 vectors produced by pass  2 Test12= 1.14D-15 1.11D-08 XBig12= 6.07D-03 2.96D-02.
      6 vectors produced by pass  3 Test12= 1.14D-15 1.11D-08 XBig12= 3.08D-05 2.88D-03.
      6 vectors produced by pass  4 Test12= 1.14D-15 1.11D-08 XBig12= 9.12D-08 1.30D-04.
      5 vectors produced by pass  5 Test12= 1.14D-15 1.11D-08 XBig12= 5.86D-10 1.11D-05.
      4 vectors produced by pass  6 Test12= 1.14D-15 1.11D-08 XBig12= 2.04D-12 8.39D-07.
      1 vectors produced by pass  7 Test12= 1.14D-15 1.11D-08 XBig12= 5.38D-15 3.28D-08.
 InvSVY:  IOpt=1 It=  1 EMax= 4.44D-16
 Solved reduced A of dimension    40 with     6 vectors.
 Isotropic polarizability for W=    0.000000        3.51 Bohr**3.
 End of Minotr F.D. properties file   721 does not exist.
 End of Minotr F.D. properties file   722 does not exist.
 End of Minotr F.D. properties file   788 does not exist.

 **********************************************************************

            Population analysis using the SCF Density.

 **********************************************************************

 Orbital symmetries:
 Alpha Orbitals:
       Occupied  (SG) (SG) (SG) (PI) (PI)
       Virtual   (SG) (SG) (PI) (SG) (PI) (SG) (PI) (?A) (?A) (PI)
                 (?A)
 Beta  Orbitals:
       Occupied  (SG) (SG) (SG) (PI)
       Virtual   (PI) (SG) (SG) (SG) (PI) (PI) (SG) (PI) (PI) (?A)
                 (?A) (?A)
 Unable to determine electronic state:  partially filled degenerate orbitals.
 Alpha  occ. eigenvalues --  -19.19008  -0.98983  -0.46366  -0.40437  -0.32873
 Alpha virt. eigenvalues --    0.04545   0.56396   0.84431   0.87952   0.89367
 Alpha virt. eigenvalues --    1.07819   2.51127   2.56204   2.56372   2.57007
 Alpha virt. eigenvalues --    2.95670
  Beta  occ. eigenvalues --  -19.16460  -0.92053  -0.43715  -0.30171
  Beta virt. eigenvalues --   -0.15200   0.05340   0.57147   0.90526   0.91000
  Beta virt. eigenvalues --    0.94604   1.10438   2.58394   2.59663   2.64538
  Beta virt. eigenvalues --    2.65626   2.99182
          Condensed to atoms (all electrons):
               1          2
     1  O    8.082886   0.226014
     2  H    0.226014   0.465086
          Atomic-Atomic Spin Densities.
               1          2
     1  O    1.037407  -0.002844
     2  H   -0.002844  -0.031719
 Mulliken charges and spin densities:
               1          2
     1  O   -0.308900   1.034563
     2  H    0.308900  -0.034563
 Sum of Mulliken charges =  -0.00000   1.00000
 Mulliken charges and spin densities with hydrogens summed into heavy atoms:
               1          2
     1  O   -0.000000   1.000000
 APT charges:
               1
     1  O   -0.267133
     2  H    0.267133
 Sum of APT charges =  -0.00000
 APT charges with hydrogens summed into heavy atoms:
               1
     1  O   -0.000000
 Electronic spatial extent (au):  <R**2>=             15.0622
 Charge=             -0.0000 electrons
 Dipole moment (field-independent basis, Debye):
    X=              0.0000    Y=              0.0000    Z=             -1.7869  Tot=              1.7869
 Quadrupole moment (field-independent basis, Debye-Ang):
   XX=             -5.2342   YY=             -6.3655   ZZ=             -4.5111
   XY=              0.0000   XZ=              0.0000   YZ=              0.0000
 Traceless Quadrupole moment (field-independent basis, Debye-Ang):
   XX=              0.1361   YY=             -0.9952   ZZ=              0.8591
   XY=              0.0000   XZ=              0.0000   YZ=              0.0000
 Octapole moment (field-independent basis, Debye-Ang**2):
  XXX=              0.0000  YYY=              0.0000  ZZZ=             -1.6967  XYY=              0.0000
  XXY=              0.0000  XXZ=             -0.1776  XZZ=              0.0000  YZZ=              0.0000
  YYZ=             -0.2941  XYZ=              0.0000
 Hexadecapole moment (field-independent basis, Debye-Ang**3):
 XXXX=             -3.2109 YYYY=             -4.4533 ZZZZ=             -5.1808 XXXY=              0.0000
 XXXZ=              0.0000 YYYX=              0.0000 YYYZ=              0.0000 ZZZX=              0.0000
 ZZZY=              0.0000 XXYY=             -1.2773 XXZZ=             -1.5927 YYZZ=             -1.8118
 XXYZ=              0.0000 YYXZ=              0.0000 ZZXY=              0.0000
 N-N= 4.294553402440D+00 E-N=-1.878321258542D+02  KE= 7.529397745288D+01
 Symmetry A1   KE= 6.795042091801D+01
 Symmetry A2   KE= 3.282801991878D-35
 Symmetry B1   KE= 2.530094966403D+00
 Symmetry B2   KE= 4.813461568467D+00
 Symmetry A1   SP= 3.787118188492D-16
 Symmetry A2   SP= 5.333961506257D-36
 Symmetry B1   SP= 1.000000000000D+00
 Symmetry B2   SP= 2.151057110211D-16
  Exact polarizability:       2.553       0.000       2.057       0.000       0.000       5.918
 Approx polarizability:       2.726      -0.000       2.058      -0.000      -0.000       7.257
                          Isotropic Fermi Contact Couplings
        Atom                 a.u.       MegaHertz       Gauss      10(-4) cm-1
     1  O(17)              0.30426    -184.43830     -65.81217     -61.52199
     2  H(1)              -0.01346     -60.16677     -21.46900     -20.06947
 --------------------------------------------------------
       Center         ----  Spin Dipole Couplings  ----
                      3XX-RR        3YY-RR        3ZZ-RR
 --------------------------------------------------------
     1   Atom        3.687883     -1.875262     -1.812621
     2   Atom       -0.046897     -0.124038      0.170935
 --------------------------------------------------------
                        XY            XZ            YZ
 --------------------------------------------------------
     1   Atom        0.000000      0.000000      0.000000
     2   Atom        0.000000      0.000000      0.000000
 --------------------------------------------------------


 ---------------------------------------------------------------------------------
              Anisotropic Spin Dipole Couplings in Principal Axis System
 ---------------------------------------------------------------------------------

       Atom             a.u.   MegaHertz   Gauss  10(-4) cm-1        Axes

              Baa    -1.8753   135.693    48.419    45.262 -0.0000  1.0000  0.0000
     1 O(17)  Bbb    -1.8126   131.160    46.801    43.750  0.0000  0.0000  1.0000
              Bcc     3.6879  -266.853   -95.220   -89.012  1.0000  0.0000  0.0000
 
              Baa    -0.1240   -66.181   -23.615   -22.076 -0.0000  1.0000  0.0000
     2 H(1)   Bbb    -0.0469   -25.022    -8.928    -8.346  1.0000  0.0000  0.0000
              Bcc     0.1709    91.203    32.543    30.422  0.0000  0.0000  1.0000
 

 ---------------------------------------------------------------------------------

 PrsmSu:  requested number of processors reduced to:  12 ShMem   1 Linda.
 PrsmSu:  requested number of processors reduced to:  12 ShMem   1 Linda.
   4 Symmetry operations used in ECPInt.
 ECPInt:  NShTT=      36 NPrTT=     152 LenC2=      37 LenP2D=     152.
 LDataN:  DoStor=T MaxTD1= 6 Len=  172
 Calling FoFJK, ICntrl=    100127 FMM=F ISym2X=1 I1Cent= 0 IOpClX= 1 NMat=1 NMatS=1 NMatT=0.
 CoulSu:  requested number of processors reduced to:  12 ShMem   1 Linda.
 Full mass-weighted force constant matrix:
 Low frequencies ---   -6.6135   -0.0020    0.0010    0.0018   22.2816 3549.3096
 Diagonal vibrational polarizability:
        0.0000000       0.0000000       0.0047824
 Harmonic frequencies (cm**-1), IR intensities (KM/Mole), Raman scattering
 activities (A**4/AMU), depolarization ratios for plane and unpolarized
 incident light, reduced masses (AMU), force constants (mDyne/A),
 and normal coordinates:
                      1
                     SG
 Frequencies --   3549.3096
 Red. masses --      1.0671
 Frc consts  --      7.9203
 IR Inten    --      2.2387
  Atom  AN      X      Y      Z
     1   8    -0.00  -0.00  -0.06
     2   1    -0.00  -0.00   1.00

 -------------------
 - Thermochemistry -
 -------------------
 Temperature   298.150 Kelvin.  Pressure   0.98700 Atm.
 Thermochemistry will use frequencies scaled by 0.9610.
 Atom     1 has atomic number  8 and mass  15.99491
 Atom     2 has atomic number  1 and mass   1.00783
 Molecular mass:    17.00274 amu.
 Principal axes and moments of inertia in atomic units:
                           1         2         3
     Eigenvalues --     0.00000   3.28959   3.28959
           X            0.00000  -0.00000   1.00000
           Y            0.00000   1.00000   0.00000
           Z            1.00000   0.00000   0.00000
 This molecule is a prolate symmetric top.
 Rotational symmetry number  1.
 Rotational temperature (Kelvin)     26.32966
 Rotational constant (GHZ):         548.621128
 Zero-point vibrational energy      20401.6 (Joules/Mol)
                                    4.87611 (Kcal/Mol)
 Vibrational temperatures:   4907.50
          (Kelvin)
 
 Zero-point correction=                           0.007771 (Hartree/Particle)
 Thermal correction to Energy=                    0.010131
 Thermal correction to Enthalpy=                  0.011075
 Thermal correction to Gibbs Free Energy=        -0.009189
 Sum of electronic and zero-point Energies=            -75.651077
 Sum of electronic and thermal Energies=               -75.648716
 Sum of electronic and thermal Enthalpies=             -75.647772
 Sum of electronic and thermal Free Energies=          -75.668036
 
                     E (Thermal)             CV                S
                      KCal/Mol        Cal/Mol-Kelvin    Cal/Mol-Kelvin
 Total                    6.357              4.968             42.650
 Electronic               0.000              0.000              1.377
 Translational            0.889              2.981             34.463
 Rotational               0.592              1.987              6.810
 Vibrational              4.876              0.000              0.000
                       Q            Log10(Q)             Ln(Q)
 Total Bot       0.168548D+05          4.226723          9.732390
 Total V=0       0.632317D+08          7.800935         17.962316
 Vib (Bot)       0.266556D-03         -3.574212         -8.229926
 Vib (V=0)       0.100000D+01          0.000000          0.000000
 Electronic      0.200000D+01          0.301030          0.693147
 Translational   0.279200D+07          6.445915         14.842268
 Rotational      0.113237D+02          1.053990          2.426901
 ***** Axes restored to original set *****
 -------------------------------------------------------------------
 Center     Atomic                   Forces (Hartrees/Bohr)
 Number     Number              X              Y              Z
 -------------------------------------------------------------------
      1        8          -0.000000017   -0.000000000   -0.000000000
      2        1           0.000000017   -0.000000000   -0.000000000
 -------------------------------------------------------------------
 Cartesian Forces:  Max     0.000000017 RMS     0.000000010
 FormGI is forming the generalized inverse of G from B-inverse, IUseBI=4.

 GradGradGradGradGradGradGradGradGradGradGradGradGradGradGradGradGradGrad
 Berny optimization.
 Internal  Forces:  Max     0.000000017 RMS     0.000000017
 Search for a local minimum.
 Step number   1 out of a maximum of    2
 All quantities printed in internal units (Hartrees-Bohrs-Radians)
 Second derivative matrix not updated -- analytic derivatives used.
 The second derivative matrix:
                          R1
           R1           0.45199
 ITU=  0
     Eigenvalues ---    0.45199
 Angle between quadratic step and forces=  90.00 degrees.
 Linear search not attempted -- first point.
 Iteration  1 RMS(Cart)=  0.00000003 RMS(Int)=  0.00000000
 ClnCor:  largest displacement from symmetrization is 0.00D+00 for atom     0.
 Variable       Old X    -DE/DX   Delta X   Delta X   Delta X     New X
                                 (Linear)    (Quad)   (Total)
    R1        1.86272   0.00000   0.00000   0.00000   0.00000   1.86272
         Item               Value     Threshold  Converged?
 Maximum Force            0.000000     0.000450     YES
 RMS     Force            0.000000     0.000300     YES
 Maximum Displacement     0.000000     0.001800     YES
 RMS     Displacement     0.000000     0.001200     YES
 Predicted change in Energy=-3.144067D-16
 Optimization completed.
    -- Stationary point found.
                           ----------------------------
                           !   Optimized Parameters   !
                           ! (Angstroms and Degrees)  !
 --------------------------                            --------------------------
 ! Name  Definition              Value          Derivative Info.                !
 --------------------------------------------------------------------------------
 ! R1    R(1,2)                  0.9857         -DE/DX =    0.0                 !
 --------------------------------------------------------------------------------
 GradGradGradGradGradGradGradGradGradGradGradGradGradGradGradGradGradGrad


 ----------------------------------------------------------------------

 Electric dipole moment (input orientation):
 (Debye = 10**-18 statcoulomb cm , SI units = C m)
                  (au)            (Debye)         (10**-30 SI)
   Tot        0.703020D+00      0.178690D+01      0.596045D+01
   x          0.703020D+00      0.178690D+01      0.596045D+01
   y          0.000000D+00      0.000000D+00      0.000000D+00
   z          0.000000D+00      0.000000D+00      0.000000D+00

 Dipole polarizability, Alpha (input orientation).
 (esu units = cm**3 , SI units = C**2 m**2 J**-1)
 Alpha(0;0):
               (au)            (10**-24 esu)      (10**-40 SI)
   iso        0.350915D+01      0.520002D+00      0.578580D+00
   aniso      0.363811D+01      0.539112D+00      0.599843D+00
   xx         0.591763D+01      0.876903D+00      0.975686D+00
   yx         0.000000D+00      0.000000D+00      0.000000D+00
   yy         0.205725D+01      0.304853D+00      0.339194D+00
   zx         0.000000D+00      0.000000D+00      0.000000D+00
   zy         0.000000D+00      0.000000D+00      0.000000D+00
   zz         0.255256D+01      0.378250D+00      0.420860D+00

 ----------------------------------------------------------------------

 Dipole orientation:
     8          0.11200407          0.06971200          1.73957988
     1          0.11200407          0.06971200          3.60229792

 Electric dipole moment (dipole orientation):
 (Debye = 10**-18 statcoulomb cm , SI units = C m)
                  (au)            (Debye)         (10**-30 SI)
   Tot        0.703020D+00      0.178690D+01      0.596045D+01
   x          0.000000D+00      0.000000D+00      0.000000D+00
   y          0.000000D+00      0.000000D+00      0.000000D+00
   z          0.703020D+00      0.178690D+01      0.596045D+01

 Dipole polarizability, Alpha (dipole orientation).
 (esu units = cm**3 , SI units = C**2 m**2 J**-1)
 Alpha(0;0):
               (au)            (10**-24 esu)      (10**-40 SI)
   iso        0.350915D+01      0.520002D+00      0.578580D+00
   aniso      0.363811D+01      0.539112D+00      0.599843D+00
   xx         0.255256D+01      0.378250D+00      0.420860D+00
   yx         0.000000D+00      0.000000D+00      0.000000D+00
   yy         0.205725D+01      0.304853D+00      0.339194D+00
   zx         0.000000D+00      0.000000D+00      0.000000D+00
   zy         0.000000D+00      0.000000D+00      0.000000D+00
   zz         0.591763D+01      0.876903D+00      0.975686D+00

 ----------------------------------------------------------------------
 Unable to Open any file for archive entry.
 1\1\GINC-NODE01\Freq\UB3LYP\def2SVPP\H1O1(2)\XUHJ\19-Dec-2023\0\\#N Ge
 om=AllCheck Guess=TCheck SCRF=Check GenChk UB3LYP/def2SVPP Freq\\[OH]_
 1\\0,2\O,0.9205460316,0.03689,-0.05927\H,1.9062539684,0.03689,-0.05927
 \\Version=ES64L-G16RevC.01\HF=-75.6588472\S2=0.751902\S2-1=0.\S2A=0.75
 0002\RMSD=0.000e+00\RMSF=9.733e-09\ZeroPoint=0.0077706\Thermal=0.01013
 1\ETot=-75.6487161\HTot=-75.647772\GTot=-75.6680363\Dipole=0.7030203,0
 .,0.\DipoleDeriv=-0.0466605,0.,0.,0.,-0.3774029,0.,0.,0.,-0.377337,0.0
 466605,0.,0.,0.,0.3774029,0.,0.,0.,0.377337\Polar=5.9176319,0.,2.05724
 81,0.,0.,2.5525563\Quadrupole=0.6387411,-0.739932,0.1011908,0.,0.,0.\P
 G=C*V [C*(H1O1)]\NImag=0\\0.45198850,0.,-0.00000157,0.,0.,0.00001781,-
 0.45198850,0.,0.,0.45198850,0.,0.00000157,0.,0.,-0.00000157,0.,0.,-0.0
 0001781,0.,0.,0.00001781\\0.00000002,0.,0.,-0.00000002,0.,0.\\\@
 The archive entry for this job was punched.


 THE HURRIEDER I GO, THE BEHINDER I GET.
 Job cpu time:       0 days  0 hours  0 minutes 27.7 seconds.
 Elapsed time:       0 days  0 hours  0 minutes  2.3 seconds.
 File lengths (MBytes):  RWF=      6 Int=      0 D2E=      0 Chk=      1 Scr=      1
 Normal termination of Gaussian 16 at Tue Dec 19 13:02:03 2023.
