%nprocshared=16
%mem=2560MB
#N opt freq B3LYP/def2SVPP symm=veryloose em=gd3bj scale=0.961 press=0.987

C#Cc1ccccc1_1

0 1
C         -3.18353       -0.02153       -0.01426
C         -1.97797       -0.01308       -0.00906
C         -0.53847       -0.00261       -0.00226
C          0.17338       -1.21032        0.00179
C          1.57224       -1.19821        0.00884
C          2.26228        0.01810        0.01184
C          1.55433        1.22405        0.00770
C          0.15547        1.21546        0.00065
H         -4.24176       -0.02876       -0.01851
H         -0.35182       -2.15793       -0.00041
H          2.12111       -2.13107        0.01205
H          3.34458        0.02612        0.01739
H          2.08930        2.16495        0.01002
H         -0.38371        2.15519       -0.00244

