%nprocshared=16
%mem=320MB
#N opt freq B3LYP/def2SVPP symm=veryloose em=gd3bj scale=0.961 press=0.987

[H][H]_1

0 1
H          1.23309       -0.04172        0.02597
H          1.94109       -0.04172        0.02597

