%nprocshared=16
%mem=1920MB
#N opt freq B3LYP/def2SVPP symm=veryloose em=gd3bj scale=0.961 press=0.987

c1ccccc1_1

0 1
C          1.38716       -0.22223        0.00530
C          0.50824       -1.31064       -0.00876
C         -0.87386       -1.09366       -0.01369
C         -1.37705        0.21173       -0.00448
C         -0.49813        1.30013        0.00963
C          0.88397        1.08316        0.01448
H          2.45640       -0.39010        0.00908
H          0.89753       -2.32053       -0.01583
H         -1.55381       -1.93568       -0.02463
H         -2.44629        0.37959       -0.00826
H         -0.88742        2.31002        0.01679
H          1.56392        1.92518        0.02533

