%nprocshared=8
%mem=640MB
#N opt freq B3LYP/def2SVPP symm=veryloose em=gd3bj scale=0.961 press=0.987

C[CH]CC_1

0 2
C          0.91623        0.26733        0.16208
C          2.39973        0.15573        0.22912
C          3.00876       -0.87376        1.12734
C          4.52799       -0.87209        1.05598
H          0.62419        0.91148       -0.67243
H          0.52848        0.70563        1.08618
H          0.45530       -0.71305        0.01241
H          2.99694        0.99057       -0.12502
H          2.63659       -1.86574        0.85384
H          2.70089       -0.67414        2.15961
H          4.87825       -1.15005        0.05606
H          4.93950       -1.59130        1.77131
H          4.93667        0.11483        1.29862

