 Entering Gaussian System, Link 0=g16
 Initial command:
 /opt/g16/l1.exe "/tmp/scratch/Gau-3761562.inp" -scrdir="/tmp/scratch/"
 Entering Link 1 = /opt/g16/l1.exe PID=   3761564.
  
 Copyright (c) 1988-2019, Gaussian, Inc.  All Rights Reserved.
  
 This is part of the Gaussian(R) 16 program.  It is based on
 the Gaussian(R) 09 system (copyright 2009, Gaussian, Inc.),
 the Gaussian(R) 03 system (copyright 2003, Gaussian, Inc.),
 the Gaussian(R) 98 system (copyright 1998, Gaussian, Inc.),
 the Gaussian(R) 94 system (copyright 1995, Gaussian, Inc.),
 the Gaussian 92(TM) system (copyright 1992, Gaussian, Inc.),
 the Gaussian 90(TM) system (copyright 1990, Gaussian, Inc.),
 the Gaussian 88(TM) system (copyright 1988, Gaussian, Inc.),
 the Gaussian 86(TM) system (copyright 1986, Carnegie Mellon
 University), and the Gaussian 82(TM) system (copyright 1983,
 Carnegie Mellon University). Gaussian is a federally registered
 trademark of Gaussian, Inc.
  
 This software contains proprietary and confidential information,
 including trade secrets, belonging to Gaussian, Inc.
  
 This software is provided under written license and may be
 used, copied, transmitted, or stored only in accord with that
 written license.
  
 The following legend is applicable only to US Government
 contracts under FAR:
  
                    RESTRICTED RIGHTS LEGEND
  
 Use, reproduction and disclosure by the US Government is
 subject to restrictions as set forth in subparagraphs (a)
 and (c) of the Commercial Computer Software - Restricted
 Rights clause in FAR 52.227-19.
  
 Gaussian, Inc.
 340 Quinnipiac St., Bldg. 40, Wallingford CT 06492
  
  
 ---------------------------------------------------------------
 Warning -- This program may not be used in any manner that
 competes with the business of Gaussian, Inc. or will provide
 assistance to any competitor of Gaussian, Inc.  The licensee
 of this program is prohibited from giving any competitor of
 Gaussian, Inc. access to this program.  By using this program,
 the user acknowledges that Gaussian, Inc. is engaged in the
 business of creating and licensing software in the field of
 computational chemistry and represents and warrants to the
 licensee that it is not a competitor of Gaussian, Inc. and that
 it will not use this program in any manner prohibited above.
 ---------------------------------------------------------------
  

 Cite this work as:
 Gaussian 16, Revision C.01,
 M. J. Frisch, G. W. Trucks, H. B. Schlegel, G. E. Scuseria, 
 M. A. Robb, J. R. Cheeseman, G. Scalmani, V. Barone, 
 G. A. Petersson, H. Nakatsuji, X. Li, M. Caricato, A. V. Marenich, 
 J. Bloino, B. G. Janesko, R. Gomperts, B. Mennucci, H. P. Hratchian, 
 J. V. Ortiz, A. F. Izmaylov, J. L. Sonnenberg, D. Williams-Young, 
 F. Ding, F. Lipparini, F. Egidi, J. Goings, B. Peng, A. Petrone, 
 T. Henderson, D. Ranasinghe, V. G. Zakrzewski, J. Gao, N. Rega, 
 G. Zheng, W. Liang, M. Hada, M. Ehara, K. Toyota, R. Fukuda, 
 J. Hasegawa, M. Ishida, T. Nakajima, Y. Honda, O. Kitao, H. Nakai, 
 T. Vreven, K. Throssell, J. A. Montgomery, Jr., J. E. Peralta, 
 F. Ogliaro, M. J. Bearpark, J. J. Heyd, E. N. Brothers, K. N. Kudin, 
 V. N. Staroverov, T. A. Keith, R. Kobayashi, J. Normand, 
 K. Raghavachari, A. P. Rendell, J. C. Burant, S. S. Iyengar, 
 J. Tomasi, M. Cossi, J. M. Millam, M. Klene, C. Adamo, R. Cammi, 
 J. W. Ochterski, R. L. Martin, K. Morokuma, O. Farkas, 
 J. B. Foresman, and D. J. Fox, Gaussian, Inc., Wallingford CT, 2019.
 
 ******************************************
 Gaussian 16:  ES64L-G16RevC.01  3-Jul-2019
                28-Aug-2024 
 ******************************************
 %nprocshared=8
 Will use up to    8 processors via shared memory.
 %mem=640MB
 ----------------------------------------------------------------------
 #N opt freq B3LYP/def2SVPP symm=veryloose em=gd3bj scale=0.961 press=0
 .987
 ----------------------------------------------------------------------
 1/18=20,19=15,26=3,38=1,113=-987000,114=961000/1,3;
 2/9=110,12=2,17=2,18=2,40=1/2;
 3/5=43,7=202,11=2,25=1,30=1,71=1,74=-5,124=41/1,2,3;
 4//1;
 5/5=2,38=5/2;
 6/7=2,8=2,9=2,10=2,28=1/1;
 7//1,2,3,16;
 1/18=20,19=15,26=3/3(2);
 2/9=110/2;
 99//99;
 2/9=110/2;
 3/5=43,7=202,11=2,25=1,30=1,71=1,74=-5,124=41/1,2,3;
 4/5=5,16=3,69=1/1;
 5/5=2,38=5/2;
 7//1,2,3,16;
 1/18=20,19=15,26=3/3(-5);
 2/9=110/2;
 6/7=2,8=2,9=2,10=2,19=2,28=1/1;
 99/9=1/99;
 ---------
 C[CH]CC_1
 ---------
 Symbolic Z-matrix:
 Charge =  0 Multiplicity = 2
 C                     0.91623   0.26733   0.16208 
 C                     2.39973   0.15573   0.22912 
 C                     3.00876  -0.87376   1.12734 
 C                     4.52799  -0.87209   1.05598 
 H                     0.62419   0.91148  -0.67243 
 H                     0.52848   0.70563   1.08618 
 H                     0.4553   -0.71305   0.01241 
 H                     2.99694   0.99057  -0.12502 
 H                     2.63659  -1.86574   0.85384 
 H                     2.70089  -0.67414   2.15961 
 H                     4.87825  -1.15005   0.05606 
 H                     4.9395   -1.5913    1.77131 
 H                     4.93667   0.11483   1.29862 
 

 GradGradGradGradGradGradGradGradGradGradGradGradGradGradGradGradGradGrad
 Berny optimization.
 Initialization pass.
                           ----------------------------
                           !    Initial Parameters    !
                           ! (Angstroms and Degrees)  !
 --------------------------                            --------------------------
 ! Name  Definition              Value          Derivative Info.                !
 --------------------------------------------------------------------------------
 ! R1    R(1,2)                  1.4892         estimate D2E/DX2                !
 ! R2    R(1,5)                  1.0939         estimate D2E/DX2                !
 ! R3    R(1,6)                  1.0938         estimate D2E/DX2                !
 ! R4    R(1,7)                  1.0936         estimate D2E/DX2                !
 ! R5    R(2,3)                  1.4958         estimate D2E/DX2                !
 ! R6    R(2,8)                  1.0858         estimate D2E/DX2                !
 ! R7    R(3,4)                  1.5209         estimate D2E/DX2                !
 ! R8    R(3,9)                  1.0942         estimate D2E/DX2                !
 ! R9    R(3,10)                 1.0955         estimate D2E/DX2                !
 ! R10   R(4,11)                 1.0953         estimate D2E/DX2                !
 ! R11   R(4,12)                 1.0947         estimate D2E/DX2                !
 ! R12   R(4,13)                 1.0954         estimate D2E/DX2                !
 ! A1    A(2,1,5)              110.1464         estimate D2E/DX2                !
 ! A2    A(2,1,6)              110.19           estimate D2E/DX2                !
 ! A3    A(2,1,7)              111.029          estimate D2E/DX2                !
 ! A4    A(5,1,6)              108.2951         estimate D2E/DX2                !
 ! A5    A(5,1,7)              108.1169         estimate D2E/DX2                !
 ! A6    A(6,1,7)              108.9917         estimate D2E/DX2                !
 ! A7    A(1,2,3)              118.9598         estimate D2E/DX2                !
 ! A8    A(1,2,8)              118.3982         estimate D2E/DX2                !
 ! A9    A(3,2,8)              120.0699         estimate D2E/DX2                !
 ! A10   A(2,3,4)              112.1955         estimate D2E/DX2                !
 ! A11   A(2,3,9)              109.594          estimate D2E/DX2                !
 ! A12   A(2,3,10)             109.0246         estimate D2E/DX2                !
 ! A13   A(4,3,9)              109.2089         estimate D2E/DX2                !
 ! A14   A(4,3,10)             108.9486         estimate D2E/DX2                !
 ! A15   A(9,3,10)             107.7651         estimate D2E/DX2                !
 ! A16   A(3,4,11)             111.2213         estimate D2E/DX2                !
 ! A17   A(3,4,12)             110.1284         estimate D2E/DX2                !
 ! A18   A(3,4,13)             111.3013         estimate D2E/DX2                !
 ! A19   A(11,4,12)            108.0352         estimate D2E/DX2                !
 ! A20   A(11,4,13)            108.1521         estimate D2E/DX2                !
 ! A21   A(12,4,13)            107.8753         estimate D2E/DX2                !
 ! D1    D(5,1,2,3)           -168.6226         estimate D2E/DX2                !
 ! D2    D(5,1,2,8)             29.5363         estimate D2E/DX2                !
 ! D3    D(6,1,2,3)             71.96           estimate D2E/DX2                !
 ! D4    D(6,1,2,8)            -89.8811         estimate D2E/DX2                !
 ! D5    D(7,1,2,3)            -48.8938         estimate D2E/DX2                !
 ! D6    D(7,1,2,8)            149.265          estimate D2E/DX2                !
 ! D7    D(1,2,3,4)            178.8614         estimate D2E/DX2                !
 ! D8    D(1,2,3,9)             57.3665         estimate D2E/DX2                !
 ! D9    D(1,2,3,10)           -60.3646         estimate D2E/DX2                !
 ! D10   D(8,2,3,4)            -19.6072         estimate D2E/DX2                !
 ! D11   D(8,2,3,9)           -141.102          estimate D2E/DX2                !
 ! D12   D(8,2,3,10)           101.1668         estimate D2E/DX2                !
 ! D13   D(2,3,4,11)           -63.8746         estimate D2E/DX2                !
 ! D14   D(2,3,4,12)           176.3867         estimate D2E/DX2                !
 ! D15   D(2,3,4,13)            56.7967         estimate D2E/DX2                !
 ! D16   D(9,3,4,11)            57.8406         estimate D2E/DX2                !
 ! D17   D(9,3,4,12)           -61.8981         estimate D2E/DX2                !
 ! D18   D(9,3,4,13)           178.512          estimate D2E/DX2                !
 ! D19   D(10,3,4,11)          175.3075         estimate D2E/DX2                !
 ! D20   D(10,3,4,12)           55.5688         estimate D2E/DX2                !
 ! D21   D(10,3,4,13)          -64.0212         estimate D2E/DX2                !
 --------------------------------------------------------------------------------
 Trust Radius=3.00D-01 FncErr=1.00D-07 GrdErr=1.00D-06 EigMax=2.50D+02 EigMin=1.00D-04
 Number of steps in this run=     64 maximum allowed number of steps=    100.
 GradGradGradGradGradGradGradGradGradGradGradGradGradGradGradGradGradGrad

                          Input orientation:                          
 ---------------------------------------------------------------------
 Center     Atomic      Atomic             Coordinates (Angstroms)
 Number     Number       Type             X           Y           Z
 ---------------------------------------------------------------------
      1          6           0        0.916230    0.267330    0.162080
      2          6           0        2.399730    0.155730    0.229120
      3          6           0        3.008760   -0.873760    1.127340
      4          6           0        4.527990   -0.872090    1.055980
      5          1           0        0.624190    0.911480   -0.672430
      6          1           0        0.528480    0.705630    1.086180
      7          1           0        0.455300   -0.713050    0.012410
      8          1           0        2.996940    0.990570   -0.125020
      9          1           0        2.636590   -1.865740    0.853840
     10          1           0        2.700890   -0.674140    2.159610
     11          1           0        4.878250   -1.150050    0.056060
     12          1           0        4.939500   -1.591300    1.771310
     13          1           0        4.936670    0.114830    1.298620
 ---------------------------------------------------------------------
                    Distance matrix (angstroms):
                    1          2          3          4          5
     1  C    0.000000
     2  C    1.489202   0.000000
     3  C    2.571477   1.495850   0.000000
     4  C    3.891291   2.503917   1.520906   0.000000
     5  H    1.093903   2.129904   3.480291   4.626897   0.000000
     6  H    1.093809   2.130380   2.940741   4.299557   1.773202
     7  H    1.093619   2.140689   2.790888   4.207272   1.771053
     8  H    2.221454   1.085833   2.245946   2.684842   2.436361
     9  H    2.826333   2.129018   1.094229   2.146065   3.753959
    10  H    2.839279   2.122775   1.095543   2.143707   3.853223
    11  H    4.209253   2.806790   2.172319   1.095346   4.783057
    12  H    4.714958   3.446867   2.158082   1.094669   5.554968
    13  H    4.180779   2.753465   2.173358   1.095402   4.808032
                    6          7          8          9         10
     6  H    0.000000
     7  H    1.780727   0.000000
     8  H    2.764325   3.062865   0.000000
     9  H    3.333175   2.606669   3.040810   0.000000
    10  H    2.788437   3.107194   2.842260   1.768921   0.000000
    11  H    4.839958   4.444700   2.855586   2.484694   3.064688
    12  H    5.020198   4.896233   3.746420   2.494086   2.450170
    13  H    4.452675   4.735230   2.560512   3.067712   2.522398
                   11         12         13
    11  H    0.000000
    12  H    1.772156   0.000000
    13  H    1.774060   1.770402   0.000000
 Stoichiometry    C4H9(2)
 Framework group  C1[X(C4H9)]
 Deg. of freedom    33
 Full point group                 C1      NOp   1
 Largest Abelian subgroup         C1      NOp   1
 Largest concise Abelian subgroup C1      NOp   1
                         Standard orientation:                         
 ---------------------------------------------------------------------
 Center     Atomic      Atomic             Coordinates (Angstroms)
 Number     Number       Type             X           Y           Z
 ---------------------------------------------------------------------
      1          6           0        1.968715    0.054414   -0.014216
      2          6           0        0.570851   -0.458672   -0.035188
      3          6           0       -0.560200    0.517733    0.034984
      4          6           0       -1.916172   -0.168468   -0.025202
      5          1           0        2.667830   -0.746169   -0.272925
      6          1           0        2.221252    0.421265    0.984815
      7          1           0        2.099595    0.866323   -0.735102
      8          1           0        0.401356   -1.505338    0.198895
      9          1           0       -0.480806    1.231222   -0.790829
     10          1           0       -0.487927    1.081238    0.971708
     11          1           0       -2.061418   -0.676053   -0.984912
     12          1           0       -2.716904    0.568524    0.093004
     13          1           0       -2.022146   -0.911049    0.773076
 ---------------------------------------------------------------------
 Rotational constants (GHZ):          26.5068258           3.7117472           3.4724169
 Standard basis: def2SVPP (5D, 7F)
 There are    78 symmetry adapted cartesian basis functions of A   symmetry.
 There are    74 symmetry adapted basis functions of A   symmetry.
    74 basis functions,   136 primitive gaussians,    78 cartesian basis functions
    17 alpha electrons       16 beta electrons
       nuclear repulsion energy       122.6191513102 Hartrees.
 NAtoms=   13 NActive=   13 NUniq=   13 SFac= 1.00D+00 NAtFMM=   60 NAOKFM=F Big=F
 Integral buffers will be    131072 words long.
 Raffenetti 2 integral format.
 Two-electron integral symmetry is turned on.
 Nuclear repulsion after empirical dispersion term =      122.6057022172 Hartrees.
 One-electron integrals computed using PRISM.
   1 Symmetry operations used in ECPInt.
 ECPInt:  NShTT=     903 NPrTT=    3649 LenC2=     903 LenP2D=    3139.
 LDataN:  DoStor=T MaxTD1= 4 Len=   56
 NBasis=    74 RedAO= T EigKep=  2.34D-03  NBF=    74
 NBsUse=    74 1.00D-06 EigRej= -1.00D+00 NBFU=    74
 ExpMin= 1.22D-01 ExpMax= 1.24D+03 ExpMxC= 1.86D+02 IAcc=3 IRadAn=         5 AccDes= 0.00D+00
 Harris functional with IExCor=  402 and IRadAn=       5 diagonalized for initial guess.
 HarFok:  IExCor=  402 AccDes= 0.00D+00 IRadAn=         5 IDoV= 1 UseB2=F ITyADJ=14
 ICtDFT=  3500011 ScaDFX=  1.000000  1.000000  1.000000  1.000000
 FoFCou: FMM=F IPFlag=           0 FMFlag=      100000 FMFlg1=           0
         NFxFlg=           0 DoJE=T BraDBF=F KetDBF=T FulRan=T
         wScrn=  0.000000 ICntrl=       500 IOpCl=  0 I1Cent=   200000004 NGrid=           0
         NMat0=    1 NMatS0=      1 NMatT0=    0 NMatD0=    1 NMtDS0=    0 NMtDT0=    0
 Petite list used in FoFCou.
 Initial guess <Sx>= 0.0000 <Sy>= 0.0000 <Sz>= 0.5000 <S**2>= 0.7500 S= 0.5000
 Requested convergence on RMS density matrix=1.00D-08 within 128 cycles.
 Requested convergence on MAX density matrix=1.00D-06.
 Requested convergence on             energy=1.00D-06.
 No special actions if energy rises.
 Integral accuracy reduced to 1.0D-05 until final iterations.
 Initial convergence to 1.0D-05 achieved.  Increase integral accuracy.
 SCF Done:  E(UB3LYP) =  -157.667995314     A.U. after   14 cycles
            NFock= 14  Conv=0.26D-08     -V/T= 2.0107
 <Sx>= 0.0000 <Sy>= 0.0000 <Sz>= 0.5000 <S**2>= 0.7538 S= 0.5019
 <L.S>=  0.00000000000    
 Annihilation of the first spin contaminant:
 S**2 before annihilation     0.7538,   after     0.7500

 **********************************************************************

            Population analysis using the SCF Density.

 **********************************************************************

 Orbital symmetries:
 Alpha Orbitals:
       Occupied  (A) (A) (A) (A) (A) (A) (A) (A) (A) (A) (A) (A)
                 (A) (A) (A) (A) (A)
       Virtual   (A) (A) (A) (A) (A) (A) (A) (A) (A) (A) (A) (A)
                 (A) (A) (A) (A) (A) (A) (A) (A) (A) (A) (A) (A)
                 (A) (A) (A) (A) (A) (A) (A) (A) (A) (A) (A) (A)
                 (A) (A) (A) (A) (A) (A) (A) (A) (A) (A) (A) (A)
                 (A) (A) (A) (A) (A) (A) (A) (A) (A)
 Beta  Orbitals:
       Occupied  (A) (A) (A) (A) (A) (A) (A) (A) (A) (A) (A) (A)
                 (A) (A) (A) (A)
       Virtual   (A) (A) (A) (A) (A) (A) (A) (A) (A) (A) (A) (A)
                 (A) (A) (A) (A) (A) (A) (A) (A) (A) (A) (A) (A)
                 (A) (A) (A) (A) (A) (A) (A) (A) (A) (A) (A) (A)
                 (A) (A) (A) (A) (A) (A) (A) (A) (A) (A) (A) (A)
                 (A) (A) (A) (A) (A) (A) (A) (A) (A) (A)
 The electronic state is 2-A.
 Alpha  occ. eigenvalues --  -10.17910 -10.17544 -10.16900 -10.16576  -0.78992
 Alpha  occ. eigenvalues --   -0.72185  -0.62439  -0.56119  -0.45859  -0.43746
 Alpha  occ. eigenvalues --   -0.42695  -0.41206  -0.37381  -0.35126  -0.34492
 Alpha  occ. eigenvalues --   -0.33418  -0.18622
 Alpha virt. eigenvalues --    0.06479   0.08163   0.09233   0.11536   0.13151
 Alpha virt. eigenvalues --    0.14787   0.15303   0.15727   0.16892   0.23441
 Alpha virt. eigenvalues --    0.25133   0.26395   0.39986   0.42222   0.43181
 Alpha virt. eigenvalues --    0.46550   0.48799   0.50323   0.55106   0.57496
 Alpha virt. eigenvalues --    0.63943   0.64804   0.66859   0.68818   0.69910
 Alpha virt. eigenvalues --    0.70592   0.71098   0.71614   0.72151   0.72698
 Alpha virt. eigenvalues --    0.73865   0.74850   0.75902   0.80588   0.91259
 Alpha virt. eigenvalues --    1.00932   1.06229   1.40457   1.46966   1.57717
 Alpha virt. eigenvalues --    1.74719   1.82821   1.85325   1.88396   1.92675
 Alpha virt. eigenvalues --    1.98326   2.03360   2.07060   2.12735   2.16592
 Alpha virt. eigenvalues --    2.22295   2.28986   2.35806   2.37265   2.50250
 Alpha virt. eigenvalues --    2.70627   2.72132
  Beta  occ. eigenvalues --  -10.17637 -10.16993 -10.16566 -10.16480  -0.77800
  Beta  occ. eigenvalues --   -0.71643  -0.61947  -0.54396  -0.44884  -0.43323
  Beta  occ. eigenvalues --   -0.42260  -0.40290  -0.37132  -0.34687  -0.34131
  Beta  occ. eigenvalues --   -0.32965
  Beta virt. eigenvalues --   -0.03635   0.06596   0.08223   0.09555   0.11728
  Beta virt. eigenvalues --    0.13397   0.14885   0.15647   0.16152   0.17259
  Beta virt. eigenvalues --    0.23626   0.26269   0.26991   0.40262   0.42510
  Beta virt. eigenvalues --    0.43495   0.48212   0.49891   0.51445   0.57581
  Beta virt. eigenvalues --    0.60282   0.64622   0.66543   0.67292   0.68946
  Beta virt. eigenvalues --    0.70126   0.71029   0.71370   0.71795   0.72338
  Beta virt. eigenvalues --    0.73052   0.74004   0.75574   0.76296   0.80958
  Beta virt. eigenvalues --    0.92005   1.01242   1.06589   1.42046   1.49717
  Beta virt. eigenvalues --    1.57867   1.75002   1.83835   1.87782   1.89731
  Beta virt. eigenvalues --    1.94502   1.98908   2.04383   2.08668   2.13971
  Beta virt. eigenvalues --    2.16935   2.22536   2.29917   2.37885   2.38424
  Beta virt. eigenvalues --    2.51718   2.71367   2.72603
          Condensed to atoms (all electrons):
               1          2          3          4          5          6
     1  C    4.771928   0.408008  -0.049194   0.007242   0.370764   0.364759
     2  C    0.408008   5.214112   0.405042  -0.048839  -0.016120  -0.028878
     3  C   -0.049194   0.405042   4.717263   0.447523   0.008196  -0.005582
     4  C    0.007242  -0.048839   0.447523   4.760194  -0.000410  -0.000023
     5  H    0.370764  -0.016120   0.008196  -0.000410   0.601626  -0.024271
     6  H    0.364759  -0.028878  -0.005582  -0.000023  -0.024271   0.622060
     7  H    0.376161  -0.027212  -0.008610   0.000374  -0.023063  -0.030100
     8  H   -0.045980   0.392935  -0.054971  -0.003815  -0.008145   0.000565
     9  H   -0.005646  -0.032679   0.358505  -0.019980  -0.000130  -0.001602
    10  H   -0.002773  -0.036776   0.352889  -0.024054  -0.000289   0.007461
    11  H    0.000257  -0.000992  -0.023467   0.380578  -0.000005   0.000053
    12  H   -0.000486   0.007500  -0.016293   0.367990   0.000013   0.000021
    13  H    0.000413  -0.007624  -0.022988   0.381485  -0.000007  -0.000081
               7          8          9         10         11         12
     1  C    0.376161  -0.045980  -0.005646  -0.002773   0.000257  -0.000486
     2  C   -0.027212   0.392935  -0.032679  -0.036776  -0.000992   0.007500
     3  C   -0.008610  -0.054971   0.358505   0.352889  -0.023467  -0.016293
     4  C    0.000374  -0.003815  -0.019980  -0.024054   0.380578   0.367990
     5  H   -0.023063  -0.008145  -0.000130  -0.000289  -0.000005   0.000013
     6  H   -0.030100   0.000565  -0.001602   0.007461   0.000053   0.000021
     7  H    0.606067   0.007094   0.008784  -0.001751  -0.000098  -0.000002
     8  H    0.007094   0.618567   0.007187   0.001420  -0.000179   0.000181
     9  H    0.008784   0.007187   0.650572  -0.038432  -0.010399  -0.004920
    10  H   -0.001751   0.001420  -0.038432   0.669116   0.008900  -0.005790
    11  H   -0.000098  -0.000179  -0.010399   0.008900   0.608080  -0.024800
    12  H   -0.000002   0.000181  -0.004920  -0.005790  -0.024800   0.615934
    13  H    0.000049   0.006133   0.008165  -0.008342  -0.027806  -0.025505
              13
     1  C    0.000413
     2  C   -0.007624
     3  C   -0.022988
     4  C    0.381485
     5  H   -0.000007
     6  H   -0.000081
     7  H    0.000049
     8  H    0.006133
     9  H    0.008165
    10  H   -0.008342
    11  H   -0.027806
    12  H   -0.025505
    13  H    0.609404
          Atomic-Atomic Spin Densities.
               1          2          3          4          5          6
     1  C   -0.074658  -0.036820  -0.002040   0.000336   0.006116   0.008610
     2  C   -0.036820   1.237701  -0.033292  -0.012778  -0.005933  -0.034863
     3  C   -0.002040  -0.033292  -0.067543   0.006473   0.000204  -0.000793
     4  C    0.000336  -0.012778   0.006473   0.010707   0.000007  -0.000070
     5  H    0.006116  -0.005933   0.000204   0.000007   0.009037  -0.007487
     6  H    0.008610  -0.034863  -0.000793  -0.000070  -0.007487   0.108886
     7  H    0.008517  -0.017044   0.001906   0.000148   0.003701  -0.017931
     8  H    0.000525  -0.003343   0.000785   0.000827   0.001292  -0.001790
     9  H    0.001509  -0.023538   0.008861   0.006146   0.000245  -0.002381
    10  H    0.000472  -0.032589   0.002954  -0.002441  -0.000289   0.007634
    11  H   -0.000087   0.006217  -0.001197  -0.004497  -0.000017   0.000073
    12  H   -0.000012   0.000430   0.000261  -0.001052  -0.000001   0.000012
    13  H    0.000039   0.000772   0.001105  -0.000080   0.000011  -0.000112
               7          8          9         10         11         12
     1  C    0.008517   0.000525   0.001509   0.000472  -0.000087  -0.000012
     2  C   -0.017044  -0.003343  -0.023538  -0.032589   0.006217   0.000430
     3  C    0.001906   0.000785   0.008861   0.002954  -0.001197   0.000261
     4  C    0.000148   0.000827   0.006146  -0.002441  -0.004497  -0.001052
     5  H    0.003701   0.001292   0.000245  -0.000289  -0.000017  -0.000001
     6  H   -0.017931  -0.001790  -0.002381   0.007634   0.000073   0.000012
     7  H    0.041502   0.000455   0.004222  -0.002914  -0.000100  -0.000009
     8  H    0.000455  -0.049117   0.000710  -0.001604  -0.000490  -0.000116
     9  H    0.004222   0.000710   0.056354  -0.021162  -0.003058  -0.000619
    10  H   -0.002914  -0.001604  -0.021162   0.103732   0.001921   0.001229
    11  H   -0.000100  -0.000490  -0.003058   0.001921   0.004176   0.001101
    12  H   -0.000009  -0.000116  -0.000619   0.001229   0.001101  -0.002183
    13  H    0.000037   0.000641   0.000922  -0.002896  -0.001880  -0.000087
              13
     1  C    0.000039
     2  C    0.000772
     3  C    0.001105
     4  C   -0.000080
     5  H    0.000011
     6  H   -0.000112
     7  H    0.000037
     8  H    0.000641
     9  H    0.000922
    10  H   -0.002896
    11  H   -0.001880
    12  H   -0.000087
    13  H    0.001372
 Mulliken charges and spin densities:
               1          2
     1  C   -0.195452  -0.087492
     2  C   -0.228475   1.044920
     3  C   -0.108314  -0.082316
     4  C   -0.248266   0.003724
     5  H    0.091840   0.006887
     6  H    0.095616   0.059788
     7  H    0.092307   0.022489
     8  H    0.079008  -0.051225
     9  H    0.080575   0.028212
    10  H    0.078422   0.054050
    11  H    0.089878   0.002163
    12  H    0.086156  -0.001045
    13  H    0.086704  -0.000155
 Sum of Mulliken charges =  -0.00000   1.00000
 Mulliken charges and spin densities with hydrogens summed into heavy atoms:
               1          2
     1  C    0.084311   0.001672
     2  C   -0.149466   0.993695
     3  C    0.050683  -0.000054
     4  C    0.014472   0.004686
 Electronic spatial extent (au):  <R**2>=            411.3422
 Charge=             -0.0000 electrons
 Dipole moment (field-independent basis, Debye):
    X=              0.0782    Y=              0.1526    Z=              0.2134  Tot=              0.2738
 Quadrupole moment (field-independent basis, Debye-Ang):
   XX=            -28.1400   YY=            -27.4083   ZZ=            -27.8321
   XY=             -0.2647   XZ=              0.0776   YZ=             -0.3441
 Traceless Quadrupole moment (field-independent basis, Debye-Ang):
   XX=             -0.3466   YY=              0.3852   ZZ=             -0.0386
   XY=             -0.2647   XZ=              0.0776   YZ=             -0.3441
 Octapole moment (field-independent basis, Debye-Ang**2):
  XXX=              1.0670  YYY=             -0.6904  ZZZ=              0.4781  XYY=              0.2717
  XXY=              0.0705  XXZ=             -0.0239  XZZ=             -0.2937  YZZ=              0.8224
  YYZ=              0.1176  XYZ=             -0.0625
 Hexadecapole moment (field-independent basis, Debye-Ang**3):
 XXXX=           -450.3394 YYYY=            -81.8726 ZZZZ=            -50.5983 XXXY=             -5.7662
 XXXZ=             -0.9291 YYYX=             -1.1387 YYYZ=             -1.3520 ZZZX=              1.0771
 ZZZY=             -0.2531 XXYY=            -85.5123 XXZZ=            -81.1896 YYZZ=            -21.7906
 XXYZ=              0.2815 YYXZ=             -0.6086 ZZXY=              1.3650
 N-N= 1.226057022172D+02 E-N=-6.088319507364D+02  KE= 1.559962124510D+02
                          Isotropic Fermi Contact Couplings
        Atom                 a.u.       MegaHertz       Gauss      10(-4) cm-1
     1  C(13)             -0.03929     -44.17260     -15.76188     -14.73439
     2  C(13)              0.21009     236.17785      84.27413      78.78045
     3  C(13)             -0.03816     -42.90457     -15.30942     -14.31142
     4  C(13)              0.00439       4.93478       1.76085       1.64607
     5  H(1)               0.00331      14.80946       5.28438       4.93990
     6  H(1)               0.02511     112.24308      40.05112      37.44026
     7  H(1)               0.01003      44.83812      15.99936      14.95639
     8  H(1)              -0.01268     -56.66354     -20.21896     -18.90092
     9  H(1)               0.01294      57.83247      20.63606      19.29083
    10  H(1)               0.02187      97.74861      34.87913      32.60543
    11  H(1)              -0.00030      -1.33311      -0.47569      -0.44468
    12  H(1)              -0.00050      -2.21938      -0.79193      -0.74031
    13  H(1)              -0.00030      -1.35198      -0.48242      -0.45097
 --------------------------------------------------------
       Center         ----  Spin Dipole Couplings  ----
                      3XX-RR        3YY-RR        3ZZ-RR
 --------------------------------------------------------
     1   Atom        0.012497     -0.009784     -0.002714
     2   Atom       -0.540472     -0.514488      1.054959
     3   Atom        0.003016     -0.001223     -0.001793
     4   Atom        0.013276     -0.007603     -0.005672
     5   Atom        0.017968     -0.009973     -0.007996
     6   Atom        0.008060     -0.005416     -0.002643
     7   Atom        0.005600      0.002030     -0.007630
     8   Atom       -0.065023      0.065638     -0.000615
     9   Atom       -0.002188      0.009956     -0.007768
    10   Atom       -0.000676      0.004788     -0.004112
    11   Atom        0.010411     -0.005639     -0.004772
    12   Atom        0.005666     -0.002801     -0.002865
    13   Atom        0.008866     -0.004991     -0.003875
 --------------------------------------------------------
                        XY            XZ            YZ
 --------------------------------------------------------
     1   Atom        0.011672      0.003828      0.003395
     2   Atom        0.009359      0.067905      0.201400
     3   Atom       -0.014736     -0.004073      0.003879
     4   Atom       -0.001021     -0.003201     -0.000579
     5   Atom       -0.002761     -0.000793      0.000062
     6   Atom        0.008861      0.007434      0.004869
     7   Atom        0.012875     -0.004507     -0.003593
     8   Atom        0.021761     -0.001628     -0.019845
     9   Atom       -0.011842      0.003556     -0.005631
    10   Atom       -0.010291     -0.003820      0.008198
    11   Atom        0.001228      0.004007      0.000868
    12   Atom       -0.002209     -0.000373      0.000322
    13   Atom        0.002865     -0.004167     -0.000681
 --------------------------------------------------------


 ---------------------------------------------------------------------------------
              Anisotropic Spin Dipole Couplings in Principal Axis System
 ---------------------------------------------------------------------------------

       Atom             a.u.   MegaHertz   Gauss  10(-4) cm-1        Axes

              Baa    -0.0150    -2.013    -0.718    -0.672 -0.3706  0.9185 -0.1383
     1 C(13)  Bbb    -0.0036    -0.483    -0.172    -0.161 -0.2591  0.0408  0.9650
              Bcc     0.0186     2.496     0.891     0.833  0.8919  0.3934  0.2228
 
              Baa    -0.5435   -72.937   -26.026   -24.329  0.9768 -0.2139 -0.0145
     2 C(13)  Bbb    -0.5398   -72.430   -25.845   -24.160  0.2102  0.9688 -0.1313
              Bcc     1.0833   145.367    51.870    48.489  0.0422  0.1252  0.9912
 
              Baa    -0.0140    -1.878    -0.670    -0.627  0.6513  0.7585 -0.0237
     3 C(13)  Bbb    -0.0034    -0.460    -0.164    -0.154  0.2278 -0.1656  0.9595
              Bcc     0.0174     2.339     0.834     0.780  0.7239 -0.6303 -0.2806
 
              Baa    -0.0080    -1.067    -0.381    -0.356  0.1009  0.9212  0.3757
     4 C(13)  Bbb    -0.0059    -0.790    -0.282    -0.264  0.1318 -0.3867  0.9127
              Bcc     0.0138     1.857     0.663     0.620  0.9861 -0.0426 -0.1605
 
              Baa    -0.0102    -5.465    -1.950    -1.823  0.0976  0.9952  0.0070
     5 H(1)   Bbb    -0.0080    -4.279    -1.527    -1.427  0.0294 -0.0099  0.9995
              Bcc     0.0183     9.744     3.477     3.250  0.9948 -0.0973 -0.0303
 
              Baa    -0.0101    -5.384    -1.921    -1.796 -0.3378  0.9060 -0.2550
     6 H(1)   Bbb    -0.0064    -3.432    -1.225    -1.145 -0.4862  0.0640  0.8715
              Bcc     0.0165     8.817     3.146     2.941  0.8059  0.4184  0.4189
 
              Baa    -0.0093    -4.977    -1.776    -1.660  0.6472 -0.5755  0.4999
     7 H(1)   Bbb    -0.0088    -4.681    -1.670    -1.561 -0.1940  0.5099  0.8381
              Bcc     0.0181     9.658     3.446     3.222  0.7372  0.6394 -0.2184
 
              Baa    -0.0686   -36.596   -13.058   -12.207  0.9863 -0.1635 -0.0241
     8 H(1)   Bbb    -0.0058    -3.110    -1.110    -1.038  0.0648  0.2486  0.9664
              Bcc     0.0744    39.706    14.168    13.245  0.1520  0.9547 -0.2558
 
              Baa    -0.0095    -5.082    -1.813    -1.695 -0.6796 -0.2100  0.7029
     9 H(1)   Bbb    -0.0093    -4.980    -1.777    -1.661  0.5306  0.5209  0.6687
              Bcc     0.0189    10.062     3.590     3.356 -0.5066  0.8274 -0.2426
 
              Baa    -0.0101    -5.389    -1.923    -1.798  0.4728  0.6527 -0.5920
    10 H(1)   Bbb    -0.0064    -3.420    -1.220    -1.141  0.7002  0.1295  0.7021
              Bcc     0.0165     8.809     3.143     2.938 -0.5349  0.7464  0.3958
 
              Baa    -0.0063    -3.364    -1.200    -1.122 -0.1170 -0.7012  0.7033
    11 H(1)   Bbb    -0.0052    -2.782    -0.993    -0.928 -0.2271  0.7083  0.6684
              Bcc     0.0115     6.145     2.193     2.050  0.9668  0.0815  0.2421
 
              Baa    -0.0034    -1.832    -0.654    -0.611  0.2038  0.9033 -0.3776
    12 H(1)   Bbb    -0.0028    -1.491    -0.532    -0.497  0.1338  0.3563  0.9247
              Bcc     0.0062     3.323     1.186     1.109  0.9698 -0.2390 -0.0483
 
              Baa    -0.0056    -2.987    -1.066    -0.996 -0.2587  0.9310 -0.2577
    13 H(1)   Bbb    -0.0051    -2.701    -0.964    -0.901  0.2120  0.3150  0.9251
              Bcc     0.0107     5.688     2.030     1.897  0.9424  0.1847 -0.2788
 

 ---------------------------------------------------------------------------------

   1 Symmetry operations used in ECPInt.
 ECPInt:  NShTT=     903 NPrTT=    3649 LenC2=     903 LenP2D=    3139.
 LDataN:  DoStor=T MaxTD1= 5 Len=  102
 Calling FoFJK, ICntrl=      2127 FMM=F ISym2X=0 I1Cent= 0 IOpClX= 1 NMat=1 NMatS=1 NMatT=0.
 ***** Axes restored to original set *****
 -------------------------------------------------------------------
 Center     Atomic                   Forces (Hartrees/Bohr)
 Number     Number              X              Y              Z
 -------------------------------------------------------------------
      1        6           0.013501435    0.002382056   -0.010133672
      2        6          -0.007737484   -0.008523667    0.004505389
      3        6           0.009774707    0.014400705   -0.014482086
      4        6          -0.000545250   -0.004353698    0.003604503
      5        1          -0.005459627    0.004671597   -0.003958589
      6        1          -0.008457678    0.003370728    0.009531212
      7        1          -0.005975839   -0.007334156    0.001487044
      8        1           0.006191335    0.004868081   -0.001824150
      9        1          -0.005872730   -0.008756894    0.001033075
     10        1          -0.005003051   -0.001473129    0.011084676
     11        1           0.002118834   -0.000784116   -0.005646963
     12        1           0.005034416   -0.004117770    0.003617862
     13        1           0.002430932    0.005650262    0.001181698
 -------------------------------------------------------------------
 Cartesian Forces:  Max     0.014482086 RMS     0.006756590

 GradGradGradGradGradGradGradGradGradGradGradGradGradGradGradGradGradGrad
 Berny optimization.
 FormGI is forming the generalized inverse of G from B-inverse, IUseBI=4.
 Internal  Forces:  Max     0.012401440 RMS     0.004463449
 Search for a local minimum.
 Step number   1 out of a maximum of   64
 All quantities printed in internal units (Hartrees-Bohrs-Radians)
 Mixed Optimization -- RFO/linear search
 Second derivative matrix not updated -- first step.
 ITU=  0
     Eigenvalues ---    0.00489   0.00821   0.00909   0.01017   0.04294
     Eigenvalues ---    0.05557   0.05566   0.05695   0.07362   0.07487
     Eigenvalues ---    0.09338   0.12809   0.15259   0.16000   0.16000
     Eigenvalues ---    0.16000   0.16000   0.16000   0.16000   0.21980
     Eigenvalues ---    0.22111   0.30279   0.32817   0.33537   0.34180
     Eigenvalues ---    0.34196   0.34202   0.34279   0.34328   0.34365
     Eigenvalues ---    0.34376   0.34398   0.35299
 RFO step:  Lambda=-4.30581362D-03 EMin= 4.89402223D-03
 Linear search not attempted -- first point.
 Iteration  1 RMS(Cart)=  0.03741311 RMS(Int)=  0.00048845
 Iteration  2 RMS(Cart)=  0.00053542 RMS(Int)=  0.00019323
 Iteration  3 RMS(Cart)=  0.00000019 RMS(Int)=  0.00019323
 Variable       Old X    -DE/DX   Delta X   Delta X   Delta X     New X
                                 (Linear)    (Quad)   (Total)
    R1        2.81418   0.00674   0.00000   0.01983   0.01983   2.83402
    R2        2.06718   0.00723   0.00000   0.02077   0.02077   2.08795
    R3        2.06700   0.01240   0.00000   0.03563   0.03563   2.10263
    R4        2.06664   0.00889   0.00000   0.02552   0.02552   2.09216
    R5        2.82675   0.00308   0.00000   0.00926   0.00926   2.83601
    R6        2.05193   0.00774   0.00000   0.02167   0.02167   2.07360
    R7        2.87410   0.00890   0.00000   0.02897   0.02897   2.90306
    R8        2.06779   0.00968   0.00000   0.02784   0.02784   2.09564
    R9        2.07028   0.01158   0.00000   0.03346   0.03346   2.10374
   R10        2.06990   0.00603   0.00000   0.01742   0.01742   2.08732
   R11        2.06862   0.00696   0.00000   0.02006   0.02006   2.08868
   R12        2.07001   0.00626   0.00000   0.01808   0.01808   2.08809
    A1        1.92242   0.00474   0.00000   0.03424   0.03381   1.95623
    A2        1.92318   0.00418   0.00000   0.02171   0.02147   1.94465
    A3        1.93782   0.00129   0.00000   0.00615   0.00598   1.94380
    A4        1.89011  -0.00390   0.00000  -0.02040  -0.02086   1.86924
    A5        1.88700  -0.00180   0.00000  -0.00380  -0.00414   1.88286
    A6        1.90226  -0.00485   0.00000  -0.03979  -0.03975   1.86251
    A7        2.07624   0.00609   0.00000   0.02923   0.02900   2.10524
    A8        2.06644  -0.00057   0.00000   0.00562   0.00547   2.07191
    A9        2.09561  -0.00521   0.00000  -0.02406  -0.02439   2.07122
   A10        1.95818   0.00538   0.00000   0.03382   0.03344   1.99162
   A11        1.91278  -0.00220   0.00000  -0.00947  -0.00975   1.90303
   A12        1.90284  -0.00084   0.00000   0.00533   0.00488   1.90772
   A13        1.90606   0.00000   0.00000   0.00582   0.00577   1.91183
   A14        1.90151  -0.00074   0.00000   0.00406   0.00370   1.90522
   A15        1.88086  -0.00188   0.00000  -0.04268  -0.04270   1.83816
   A16        1.94118  -0.00045   0.00000  -0.00465  -0.00472   1.93645
   A17        1.92210   0.00399   0.00000   0.02835   0.02831   1.95041
   A18        1.94257  -0.00063   0.00000  -0.00599  -0.00605   1.93652
   A19        1.88557  -0.00138   0.00000  -0.00430  -0.00435   1.88122
   A20        1.88761  -0.00033   0.00000  -0.00950  -0.00958   1.87803
   A21        1.88278  -0.00134   0.00000  -0.00450  -0.00453   1.87824
    D1       -2.94302  -0.00020   0.00000   0.01505   0.01530  -2.92772
    D2        0.51551  -0.00033   0.00000  -0.01743  -0.01757   0.49793
    D3        1.25594  -0.00098   0.00000   0.00510   0.00510   1.26104
    D4       -1.56872  -0.00111   0.00000  -0.02738  -0.02777  -1.59649
    D5       -0.85336   0.00148   0.00000   0.03659   0.03693  -0.81643
    D6        2.60517   0.00135   0.00000   0.00411   0.00406   2.60923
    D7        3.12172  -0.00065   0.00000  -0.03540  -0.03535   3.08638
    D8        1.00124  -0.00272   0.00000  -0.05877  -0.05852   0.94271
    D9       -1.05356   0.00130   0.00000  -0.00487  -0.00464  -1.05820
   D10       -0.34221   0.00038   0.00000   0.00334   0.00304  -0.33917
   D11       -2.46269  -0.00168   0.00000  -0.02003  -0.02014  -2.48283
   D12        1.76569   0.00234   0.00000   0.03387   0.03374   1.79944
   D13       -1.11482   0.00114   0.00000   0.03431   0.03430  -1.08052
   D14        3.07853   0.00052   0.00000   0.02407   0.02406   3.10259
   D15        0.99129  -0.00002   0.00000   0.01495   0.01496   1.00625
   D16        1.00951   0.00192   0.00000   0.04875   0.04883   1.05834
   D17       -1.08033   0.00130   0.00000   0.03851   0.03860  -1.04173
   D18        3.11562   0.00076   0.00000   0.02939   0.02949  -3.13807
   D19        3.05969  -0.00076   0.00000   0.00309   0.00299   3.06268
   D20        0.96986  -0.00137   0.00000  -0.00715  -0.00725   0.96261
   D21       -1.11738  -0.00192   0.00000  -0.01627  -0.01635  -1.13373
         Item               Value     Threshold  Converged?
 Maximum Force            0.012401     0.000450     NO 
 RMS     Force            0.004463     0.000300     NO 
 Maximum Displacement     0.130639     0.001800     NO 
 RMS     Displacement     0.037142     0.001200     NO 
 Predicted change in Energy=-2.227516D-03
 GradGradGradGradGradGradGradGradGradGradGradGradGradGradGradGradGradGrad

                          Input orientation:                          
 ---------------------------------------------------------------------
 Center     Atomic      Atomic             Coordinates (Angstroms)
 Number     Number       Type             X           Y           Z
 ---------------------------------------------------------------------
      1          6           0        0.897156    0.277093    0.142267
      2          6           0        2.389680    0.168942    0.241095
      3          6           0        3.024329   -0.857835    1.132835
      4          6           0        4.558631   -0.888224    1.062047
      5          1           0        0.582018    0.917502   -0.701155
      6          1           0        0.459349    0.714809    1.066793
      7          1           0        0.428634   -0.716960    0.007831
      8          1           0        3.003820    1.002576   -0.122160
      9          1           0        2.621293   -1.858563    0.876118
     10          1           0        2.710646   -0.675574    2.185313
     11          1           0        4.902010   -1.147361    0.044699
     12          1           0        4.986325   -1.629287    1.761729
     13          1           0        4.985630    0.098322    1.317688
 ---------------------------------------------------------------------
                    Distance matrix (angstroms):
                    1          2          3          4          5
     1  C    0.000000
     2  C    1.499697   0.000000
     3  C    2.606560   1.500750   0.000000
     4  C    3.950995   2.548708   1.536234   0.000000
     5  H    1.104896   2.171594   3.532736   4.709881   0.000000
     6  H    1.112663   2.169314   3.009434   4.401573   1.783752
     7  H    1.107126   2.164471   2.832511   4.265862   1.788198
     8  H    2.243720   1.097301   2.244229   2.719358   2.491505
     9  H    2.841164   2.137212   1.108963   2.174719   3.788531
    10  H    2.893158   2.143878   1.113251   2.173016   3.924366
    11  H    4.251758   2.843067   2.189418   1.104563   4.845853
    12  H    4.793563   3.505499   2.200017   1.105284   5.652420
    13  H    4.257839   2.811227   2.189773   1.104967   4.913103
                    6          7          8          9         10
     6  H    0.000000
     7  H    1.781097   0.000000
     8  H    2.823252   3.099240   0.000000
     9  H    3.366393   2.620102   3.054342   0.000000
    10  H    2.872732   3.154477   2.868201   1.766759   0.000000
    11  H    4.924388   4.494185   2.872838   2.529572   3.099499
    12  H    5.145020   4.968003   3.795533   2.535794   2.503539
    13  H    4.574956   4.811094   2.611209   3.100721   2.554847
                   11         12         13
    11  H    0.000000
    12  H    1.785372   0.000000
    13  H    1.783037   1.783761   0.000000
 Stoichiometry    C4H9(2)
 Framework group  C1[X(C4H9)]
 Deg. of freedom    33
 Full point group                 C1      NOp   1
 Largest Abelian subgroup         C1      NOp   1
 Largest concise Abelian subgroup C1      NOp   1
                         Standard orientation:                         
 ---------------------------------------------------------------------
 Center     Atomic      Atomic             Coordinates (Angstroms)
 Number     Number       Type             X           Y           Z
 ---------------------------------------------------------------------
      1          6           0        1.995836    0.047477   -0.024953
      2          6           0        0.582510   -0.454059   -0.016967
      3          6           0       -0.569111    0.506367    0.043040
      4          6           0       -1.949517   -0.163418   -0.033651
      5          1           0        2.717138   -0.747216   -0.287596
      6          1           0        2.292596    0.442167    0.972129
      7          1           0        2.125654    0.876563   -0.747097
      8          1           0        0.399443   -1.510759    0.215287
      9          1           0       -0.468404    1.243672   -0.779175
     10          1           0       -0.503414    1.101582    0.981513
     11          1           0       -2.076923   -0.696931   -0.992396
     12          1           0       -2.768057    0.574160    0.053651
     13          1           0       -2.076341   -0.901436    0.778874
 ---------------------------------------------------------------------
 Rotational constants (GHZ):          26.5600250           3.5947201           3.3722429
 Standard basis: def2SVPP (5D, 7F)
 There are    78 symmetry adapted cartesian basis functions of A   symmetry.
 There are    74 symmetry adapted basis functions of A   symmetry.
    74 basis functions,   136 primitive gaussians,    78 cartesian basis functions
    17 alpha electrons       16 beta electrons
       nuclear repulsion energy       121.2517044982 Hartrees.
 NAtoms=   13 NActive=   13 NUniq=   13 SFac= 1.00D+00 NAtFMM=   60 NAOKFM=F Big=F
 Integral buffers will be    131072 words long.
 Raffenetti 2 integral format.
 Two-electron integral symmetry is turned on.
 Nuclear repulsion after empirical dispersion term =      121.2384231099 Hartrees.
 One-electron integrals computed using PRISM.
   1 Symmetry operations used in ECPInt.
 ECPInt:  NShTT=     903 NPrTT=    3649 LenC2=     903 LenP2D=    3135.
 LDataN:  DoStor=T MaxTD1= 4 Len=   56
 NBasis=    74 RedAO= T EigKep=  2.56D-03  NBF=    74
 NBsUse=    74 1.00D-06 EigRej= -1.00D+00 NBFU=    74
 Initial guess from the checkpoint file:  "/tmp/scratch/Gau-3761564.chk"
 B after Tr=     0.000000    0.000000    0.000000
         Rot=    0.999996    0.002963    0.000230    0.000325 Ang=   0.34 deg.
 Initial guess <Sx>= 0.0000 <Sy>= 0.0000 <Sz>= 0.5000 <S**2>= 0.7539 S= 0.5019
 ExpMin= 1.22D-01 ExpMax= 1.24D+03 ExpMxC= 1.86D+02 IAcc=3 IRadAn=         5 AccDes= 0.00D+00
 Harris functional with IExCor=  402 and IRadAn=       5 diagonalized for initial guess.
 HarFok:  IExCor=  402 AccDes= 0.00D+00 IRadAn=         5 IDoV= 1 UseB2=F ITyADJ=14
 ICtDFT=  3500011 ScaDFX=  1.000000  1.000000  1.000000  1.000000
 FoFCou: FMM=F IPFlag=           0 FMFlag=      100000 FMFlg1=           0
         NFxFlg=           0 DoJE=T BraDBF=F KetDBF=T FulRan=T
         wScrn=  0.000000 ICntrl=       500 IOpCl=  0 I1Cent=   200000004 NGrid=           0
         NMat0=    1 NMatS0=      1 NMatT0=    0 NMatD0=    1 NMtDS0=    0 NMtDT0=    0
 Petite list used in FoFCou.
 Requested convergence on RMS density matrix=1.00D-08 within 128 cycles.
 Requested convergence on MAX density matrix=1.00D-06.
 Requested convergence on             energy=1.00D-06.
 No special actions if energy rises.
 Integral accuracy reduced to 1.0D-05 until final iterations.
 Initial convergence to 1.0D-05 achieved.  Increase integral accuracy.
 SCF Done:  E(UB3LYP) =  -157.670171902     A.U. after   11 cycles
            NFock= 11  Conv=0.87D-08     -V/T= 2.0121
 <Sx>= 0.0000 <Sy>= 0.0000 <Sz>= 0.5000 <S**2>= 0.7540 S= 0.5020
 <L.S>=  0.00000000000    
 Annihilation of the first spin contaminant:
 S**2 before annihilation     0.7540,   after     0.7500
   1 Symmetry operations used in ECPInt.
 ECPInt:  NShTT=     903 NPrTT=    3649 LenC2=     903 LenP2D=    3135.
 LDataN:  DoStor=T MaxTD1= 5 Len=  102
 Calling FoFJK, ICntrl=      2127 FMM=F ISym2X=0 I1Cent= 0 IOpClX= 1 NMat=1 NMatS=1 NMatT=0.
 ***** Axes restored to original set *****
 -------------------------------------------------------------------
 Center     Atomic                   Forces (Hartrees/Bohr)
 Number     Number              X              Y              Z
 -------------------------------------------------------------------
      1        6           0.005947226   -0.000061032   -0.001708631
      2        6          -0.002884197   -0.001372502    0.001793107
      3        6           0.002481545    0.003361523   -0.004059165
      4        6          -0.002020306   -0.000109524    0.000154360
      5        1           0.000207014    0.000046215    0.000473193
      6        1          -0.001279457   -0.000105934    0.000588213
      7        1          -0.000696456   -0.000397851    0.000766399
      8        1           0.000330690   -0.000084323   -0.000025062
      9        1          -0.000788767   -0.001055430    0.001380795
     10        1          -0.000391901   -0.000944091    0.001150266
     11        1          -0.000040489    0.000259582   -0.000294969
     12        1          -0.000879133    0.000185325   -0.000288942
     13        1           0.000014231    0.000278043    0.000070437
 -------------------------------------------------------------------
 Cartesian Forces:  Max     0.005947226 RMS     0.001605386

 GradGradGradGradGradGradGradGradGradGradGradGradGradGradGradGradGradGrad
 Berny optimization.
 Using GEDIIS/GDIIS optimizer.
 FormGI is forming the generalized inverse of G from B-inverse, IUseBI=4.
 Internal  Forces:  Max     0.004203644 RMS     0.000972495
 Search for a local minimum.
 Step number   2 out of a maximum of   64
 All quantities printed in internal units (Hartrees-Bohrs-Radians)
 Mixed Optimization -- En-DIIS/RFO-DIIS
 Update second derivatives using D2CorX and points    1    2
 DE= -2.18D-03 DEPred=-2.23D-03 R= 9.77D-01
 TightC=F SS=  1.41D+00  RLast= 1.80D-01 DXNew= 5.0454D-01 5.3939D-01
 Trust test= 9.77D-01 RLast= 1.80D-01 DXMaxT set to 5.05D-01
 ITU=  1  0
 Use linear search instead of GDIIS.
     Eigenvalues ---    0.00489   0.00818   0.00909   0.00977   0.04014
     Eigenvalues ---    0.05236   0.05518   0.05623   0.07114   0.07220
     Eigenvalues ---    0.09745   0.13046   0.15178   0.15613   0.16000
     Eigenvalues ---    0.16000   0.16000   0.16000   0.16306   0.21782
     Eigenvalues ---    0.22391   0.30781   0.31228   0.33091   0.34183
     Eigenvalues ---    0.34199   0.34228   0.34268   0.34340   0.34357
     Eigenvalues ---    0.34392   0.35216   0.39230
 RFO step:  Lambda=-2.65178174D-04 EMin= 4.88767615D-03
 Quartic linear search produced a step of  0.02613.
 Iteration  1 RMS(Cart)=  0.01792377 RMS(Int)=  0.00016427
 Iteration  2 RMS(Cart)=  0.00019785 RMS(Int)=  0.00003260
 Iteration  3 RMS(Cart)=  0.00000002 RMS(Int)=  0.00003260
 Variable       Old X    -DE/DX   Delta X   Delta X   Delta X     New X
                                 (Linear)    (Quad)   (Total)
    R1        2.83402  -0.00420   0.00052  -0.01234  -0.01182   2.82220
    R2        2.08795  -0.00039   0.00054  -0.00064  -0.00010   2.08785
    R3        2.10263   0.00095   0.00093   0.00375   0.00468   2.10730
    R4        2.09216   0.00056   0.00067   0.00232   0.00298   2.09515
    R5        2.83601  -0.00316   0.00024  -0.00963  -0.00939   2.82662
    R6        2.07360   0.00013   0.00057   0.00093   0.00150   2.07509
    R7        2.90306  -0.00292   0.00076  -0.00913  -0.00838   2.89469
    R8        2.09564   0.00092   0.00073   0.00346   0.00419   2.09982
    R9        2.10374   0.00104   0.00087   0.00398   0.00486   2.10860
   R10        2.08732   0.00020   0.00046   0.00104   0.00149   2.08882
   R11        2.08868  -0.00065   0.00052  -0.00142  -0.00090   2.08779
   R12        2.08809   0.00027   0.00047   0.00127   0.00174   2.08983
    A1        1.95623  -0.00030   0.00088  -0.00001   0.00085   1.95708
    A2        1.94465   0.00115   0.00056   0.00699   0.00754   1.95220
    A3        1.94380   0.00042   0.00016   0.00272   0.00287   1.94667
    A4        1.86924  -0.00041  -0.00055  -0.00291  -0.00347   1.86577
    A5        1.88286   0.00021  -0.00011   0.00291   0.00278   1.88564
    A6        1.86251  -0.00116  -0.00104  -0.01048  -0.01152   1.85100
    A7        2.10524   0.00056   0.00076   0.00474   0.00538   2.11062
    A8        2.07191   0.00008   0.00014   0.00351   0.00354   2.07545
    A9        2.07122  -0.00057  -0.00064  -0.00163  -0.00241   2.06882
   A10        1.99162  -0.00138   0.00087  -0.00311  -0.00225   1.98937
   A11        1.90303   0.00071  -0.00025   0.00617   0.00590   1.90893
   A12        1.90772   0.00086   0.00013   0.00687   0.00699   1.91471
   A13        1.91183   0.00054   0.00015   0.00321   0.00335   1.91518
   A14        1.90522   0.00027   0.00010   0.00029   0.00038   1.90559
   A15        1.83816  -0.00098  -0.00112  -0.01438  -0.01550   1.82266
   A16        1.93645   0.00002  -0.00012   0.00015   0.00003   1.93648
   A17        1.95041  -0.00092   0.00074  -0.00530  -0.00456   1.94585
   A18        1.93652   0.00003  -0.00016   0.00005  -0.00011   1.93641
   A19        1.88122   0.00048  -0.00011   0.00295   0.00283   1.88405
   A20        1.87803  -0.00001  -0.00025  -0.00005  -0.00031   1.87772
   A21        1.87824   0.00045  -0.00012   0.00252   0.00240   1.88064
    D1       -2.92772   0.00003   0.00040   0.01451   0.01494  -2.91278
    D2        0.49793  -0.00017  -0.00046  -0.01159  -0.01208   0.48585
    D3        1.26104  -0.00003   0.00013   0.01338   0.01354   1.27457
    D4       -1.59649  -0.00024  -0.00073  -0.01272  -0.01348  -1.60998
    D5       -0.81643   0.00039   0.00097   0.02016   0.02117  -0.79526
    D6        2.60923   0.00018   0.00011  -0.00594  -0.00585   2.60337
    D7        3.08638  -0.00022  -0.00092  -0.03010  -0.03101   3.05537
    D8        0.94271  -0.00049  -0.00153  -0.03676  -0.03827   0.90445
    D9       -1.05820  -0.00018  -0.00012  -0.02672  -0.02681  -1.08502
   D10       -0.33917   0.00009   0.00008  -0.00320  -0.00314  -0.34231
   D11       -2.48283  -0.00019  -0.00053  -0.00985  -0.01040  -2.49323
   D12        1.79944   0.00013   0.00088   0.00019   0.00105   1.80049
   D13       -1.08052   0.00008   0.00090   0.01895   0.01984  -1.06068
   D14        3.10259   0.00008   0.00063   0.01868   0.01930   3.12190
   D15        1.00625   0.00011   0.00039   0.01901   0.01940   1.02565
   D16        1.05834   0.00044   0.00128   0.02722   0.02850   1.08684
   D17       -1.04173   0.00044   0.00101   0.02695   0.02796  -1.01377
   D18       -3.13807   0.00047   0.00077   0.02729   0.02806  -3.11001
   D19        3.06268  -0.00028   0.00008   0.01197   0.01204   3.07473
   D20        0.96261  -0.00028  -0.00019   0.01170   0.01151   0.97412
   D21       -1.13373  -0.00024  -0.00043   0.01203   0.01160  -1.12212
         Item               Value     Threshold  Converged?
 Maximum Force            0.004204     0.000450     NO 
 RMS     Force            0.000972     0.000300     NO 
 Maximum Displacement     0.046027     0.001800     NO 
 RMS     Displacement     0.017941     0.001200     NO 
 Predicted change in Energy=-1.337601D-04
 GradGradGradGradGradGradGradGradGradGradGradGradGradGradGradGradGradGrad

                          Input orientation:                          
 ---------------------------------------------------------------------
 Center     Atomic      Atomic             Coordinates (Angstroms)
 Number     Number       Type             X           Y           Z
 ---------------------------------------------------------------------
      1          6           0        0.905066    0.273230    0.137010
      2          6           0        2.390505    0.175850    0.256832
      3          6           0        3.024837   -0.849712    1.141822
      4          6           0        4.553669   -0.887652    1.054353
      5          1           0        0.596767    0.908089   -0.713040
      6          1           0        0.442555    0.710477    1.052668
      7          1           0        0.441010   -0.725119    0.005938
      8          1           0        3.008358    1.005907   -0.110688
      9          1           0        2.610273   -1.852011    0.900474
     10          1           0        2.722514   -0.671432    2.201008
     11          1           0        4.884958   -1.130859    0.028241
     12          1           0        4.979508   -1.644018    1.737853
     13          1           0        4.989499    0.092692    1.322627
 ---------------------------------------------------------------------
                    Distance matrix (angstroms):
                    1          2          3          4          5
     1  C    0.000000
     2  C    1.493442   0.000000
     3  C    2.600784   1.495781   0.000000
     4  C    3.937190   2.538967   1.531802   0.000000
     5  H    1.104843   2.166638   3.525039   4.690995   0.000000
     6  H    1.115138   2.171104   3.018331   4.410814   1.783411
     7  H    1.108705   2.162226   2.825229   4.247299   1.791245
     8  H    2.240983   1.098093   2.238833   2.707558   2.487603
     9  H    2.829710   2.138877   1.111178   2.174961   3.778331
    10  H    2.907850   2.146610   1.115822   2.171335   3.937685
    11  H    4.221710   2.825250   2.186128   1.105353   4.805766
    12  H    4.779081   3.494035   2.192467   1.104808   5.632810
    13  H    4.256862   2.810267   2.186484   1.105890   4.909675
                    6          7          8          9         10
     6  H    0.000000
     7  H    1.776677   0.000000
     8  H    2.832670   3.098601   0.000000
     9  H    3.359838   2.603033   3.057551   0.000000
    10  H    2.902856   3.166461   2.870385   1.760044   0.000000
    11  H    4.916799   4.462487   2.847226   2.540678   3.099702
    12  H    5.157234   4.943872   3.784790   2.521456   2.500891
    13  H    4.596655   4.805334   2.610225   3.101742   2.548462
                   11         12         13
    11  H    0.000000
    12  H    1.787469   0.000000
    13  H    1.784220   1.785686   0.000000
 Stoichiometry    C4H9(2)
 Framework group  C1[X(C4H9)]
 Deg. of freedom    33
 Full point group                 C1      NOp   1
 Largest Abelian subgroup         C1      NOp   1
 Largest concise Abelian subgroup C1      NOp   1
                         Standard orientation:                         
 ---------------------------------------------------------------------
 Center     Atomic      Atomic             Coordinates (Angstroms)
 Number     Number       Type             X           Y           Z
 ---------------------------------------------------------------------
      1          6           0        1.989268    0.044305   -0.033329
      2          6           0        0.580353   -0.449947   -0.000997
      3          6           0       -0.568802    0.506161    0.050580
      4          6           0       -1.942311   -0.165639   -0.042024
      5          1           0        2.704396   -0.754050   -0.301471
      6          1           0        2.310185    0.448376    0.955241
      7          1           0        2.113029    0.873840   -0.758437
      8          1           0        0.393765   -1.507259    0.229399
      9          1           0       -0.461912    1.255202   -0.763194
     10          1           0       -0.516870    1.106512    0.989696
     11          1           0       -2.050775   -0.713668   -0.995809
     12          1           0       -2.759985    0.574733    0.020107
     13          1           0       -2.082878   -0.892968    0.779088
 ---------------------------------------------------------------------
 Rotational constants (GHZ):          26.5300972           3.6162116           3.3913156
 Standard basis: def2SVPP (5D, 7F)
 There are    78 symmetry adapted cartesian basis functions of A   symmetry.
 There are    74 symmetry adapted basis functions of A   symmetry.
    74 basis functions,   136 primitive gaussians,    78 cartesian basis functions
    17 alpha electrons       16 beta electrons
       nuclear repulsion energy       121.4653751927 Hartrees.
 NAtoms=   13 NActive=   13 NUniq=   13 SFac= 1.00D+00 NAtFMM=   60 NAOKFM=F Big=F
 Integral buffers will be    131072 words long.
 Raffenetti 2 integral format.
 Two-electron integral symmetry is turned on.
 Nuclear repulsion after empirical dispersion term =      121.4520770449 Hartrees.
 One-electron integrals computed using PRISM.
   1 Symmetry operations used in ECPInt.
 ECPInt:  NShTT=     903 NPrTT=    3649 LenC2=     903 LenP2D=    3134.
 LDataN:  DoStor=T MaxTD1= 4 Len=   56
 NBasis=    74 RedAO= T EigKep=  2.52D-03  NBF=    74
 NBsUse=    74 1.00D-06 EigRej= -1.00D+00 NBFU=    74
 Initial guess from the checkpoint file:  "/tmp/scratch/Gau-3761564.chk"
 B after Tr=    -0.000000   -0.000000   -0.000000
         Rot=    0.999998    0.001930    0.000228   -0.000020 Ang=   0.22 deg.
 Initial guess <Sx>= 0.0000 <Sy>= 0.0000 <Sz>= 0.5000 <S**2>= 0.7540 S= 0.5020
 ExpMin= 1.22D-01 ExpMax= 1.24D+03 ExpMxC= 1.86D+02 IAcc=3 IRadAn=         5 AccDes= 0.00D+00
 Harris functional with IExCor=  402 and IRadAn=       5 diagonalized for initial guess.
 HarFok:  IExCor=  402 AccDes= 0.00D+00 IRadAn=         5 IDoV= 1 UseB2=F ITyADJ=14
 ICtDFT=  3500011 ScaDFX=  1.000000  1.000000  1.000000  1.000000
 FoFCou: FMM=F IPFlag=           0 FMFlag=      100000 FMFlg1=           0
         NFxFlg=           0 DoJE=T BraDBF=F KetDBF=T FulRan=T
         wScrn=  0.000000 ICntrl=       500 IOpCl=  0 I1Cent=   200000004 NGrid=           0
         NMat0=    1 NMatS0=      1 NMatT0=    0 NMatD0=    1 NMtDS0=    0 NMtDT0=    0
 Petite list used in FoFCou.
 Requested convergence on RMS density matrix=1.00D-08 within 128 cycles.
 Requested convergence on MAX density matrix=1.00D-06.
 Requested convergence on             energy=1.00D-06.
 No special actions if energy rises.
 Integral accuracy reduced to 1.0D-05 until final iterations.
 Initial convergence to 1.0D-05 achieved.  Increase integral accuracy.
 SCF Done:  E(UB3LYP) =  -157.670339083     A.U. after   10 cycles
            NFock= 10  Conv=0.90D-08     -V/T= 2.0120
 <Sx>= 0.0000 <Sy>= 0.0000 <Sz>= 0.5000 <S**2>= 0.7540 S= 0.5020
 <L.S>=  0.00000000000    
 Annihilation of the first spin contaminant:
 S**2 before annihilation     0.7540,   after     0.7500
   1 Symmetry operations used in ECPInt.
 ECPInt:  NShTT=     903 NPrTT=    3649 LenC2=     903 LenP2D=    3134.
 LDataN:  DoStor=T MaxTD1= 5 Len=  102
 Calling FoFJK, ICntrl=      2127 FMM=F ISym2X=0 I1Cent= 0 IOpClX= 1 NMat=1 NMatS=1 NMatT=0.
 ***** Axes restored to original set *****
 -------------------------------------------------------------------
 Center     Atomic                   Forces (Hartrees/Bohr)
 Number     Number              X              Y              Z
 -------------------------------------------------------------------
      1        6           0.001352067    0.000006857   -0.000478433
      2        6          -0.000962159   -0.000228766    0.000539340
      3        6           0.000306077    0.000591135   -0.001048540
      4        6          -0.000115935   -0.000068003    0.000102077
      5        1           0.000027540   -0.000116081    0.000322979
      6        1          -0.000181211   -0.000123941   -0.000229405
      7        1          -0.000022856    0.000250483    0.000177676
      8        1          -0.000195098   -0.000350780    0.000202379
      9        1          -0.000078159    0.000133692    0.000444658
     10        1           0.000142743   -0.000159386    0.000006222
     11        1          -0.000064099    0.000169123    0.000256850
     12        1          -0.000129990    0.000198879   -0.000248340
     13        1          -0.000078919   -0.000303210   -0.000047463
 -------------------------------------------------------------------
 Cartesian Forces:  Max     0.001352067 RMS     0.000392169

 GradGradGradGradGradGradGradGradGradGradGradGradGradGradGradGradGradGrad
 Berny optimization.
 Using GEDIIS/GDIIS optimizer.
 FormGI is forming the generalized inverse of G from B-inverse, IUseBI=4.
 Internal  Forces:  Max     0.001151542 RMS     0.000265389
 Search for a local minimum.
 Step number   3 out of a maximum of   64
 All quantities printed in internal units (Hartrees-Bohrs-Radians)
 Mixed Optimization -- En-DIIS/RFO-DIIS
 Swapping is turned off.
 Update second derivatives using D2CorX and points    1    2    3
 DE= -1.67D-04 DEPred=-1.34D-04 R= 1.25D+00
 TightC=F SS=  1.41D+00  RLast= 9.71D-02 DXNew= 8.4853D-01 2.9141D-01
 Trust test= 1.25D+00 RLast= 9.71D-02 DXMaxT set to 5.05D-01
 ITU=  1  1  0
     Eigenvalues ---    0.00456   0.00742   0.00909   0.00931   0.03985
     Eigenvalues ---    0.05021   0.05545   0.05630   0.07060   0.07184
     Eigenvalues ---    0.09750   0.12994   0.14733   0.15616   0.16000
     Eigenvalues ---    0.16000   0.16000   0.16009   0.16391   0.21147
     Eigenvalues ---    0.22598   0.30932   0.32840   0.33096   0.34199
     Eigenvalues ---    0.34210   0.34258   0.34326   0.34355   0.34371
     Eigenvalues ---    0.34507   0.35404   0.37367
 En-DIIS/RFO-DIIS/Sim-DIIS IScMMF=       -3 using points:     3    2
 RFO step:  Lambda=-4.20911120D-05.
 DidBck=F Rises=F RFO-DIIS coefs:    1.65215   -0.65215
 Iteration  1 RMS(Cart)=  0.01300043 RMS(Int)=  0.00008194
 Iteration  2 RMS(Cart)=  0.00010235 RMS(Int)=  0.00002985
 Iteration  3 RMS(Cart)=  0.00000000 RMS(Int)=  0.00002985
 Variable       Old X    -DE/DX   Delta X   Delta X   Delta X     New X
                                 (Linear)    (Quad)   (Total)
    R1        2.82220  -0.00115  -0.00771   0.00262  -0.00509   2.81711
    R2        2.08785  -0.00032  -0.00006  -0.00081  -0.00088   2.08697
    R3        2.10730  -0.00016   0.00305  -0.00268   0.00037   2.10768
    R4        2.09515  -0.00024   0.00195  -0.00217  -0.00023   2.09492
    R5        2.82662  -0.00071  -0.00612   0.00272  -0.00341   2.82321
    R6        2.07509  -0.00044   0.00098  -0.00214  -0.00116   2.07393
    R7        2.89469  -0.00039  -0.00546   0.00365  -0.00181   2.89288
    R8        2.09982  -0.00019   0.00273  -0.00264   0.00009   2.09991
    R9        2.10860  -0.00006   0.00317  -0.00242   0.00075   2.10935
   R10        2.08882  -0.00029   0.00097  -0.00169  -0.00072   2.08810
   R11        2.08779  -0.00034  -0.00059  -0.00043  -0.00102   2.08677
   R12        2.08983  -0.00031   0.00114  -0.00189  -0.00075   2.08908
    A1        1.95708   0.00002   0.00055   0.00052   0.00106   1.95814
    A2        1.95220   0.00032   0.00492  -0.00156   0.00336   1.95556
    A3        1.94667   0.00010   0.00187  -0.00064   0.00122   1.94789
    A4        1.86577  -0.00020  -0.00227  -0.00013  -0.00240   1.86337
    A5        1.88564  -0.00001   0.00181  -0.00133   0.00047   1.88611
    A6        1.85100  -0.00027  -0.00751   0.00330  -0.00421   1.84679
    A7        2.11062   0.00064   0.00351   0.00200   0.00539   2.11601
    A8        2.07545  -0.00021   0.00231  -0.00179   0.00041   2.07585
    A9        2.06882  -0.00040  -0.00157  -0.00052  -0.00222   2.06659
   A10        1.98937  -0.00006  -0.00147   0.00230   0.00083   1.99019
   A11        1.90893   0.00006   0.00385  -0.00206   0.00178   1.91072
   A12        1.91471   0.00016   0.00456  -0.00209   0.00247   1.91718
   A13        1.91518   0.00008   0.00219  -0.00093   0.00125   1.91643
   A14        1.90559  -0.00010   0.00025  -0.00168  -0.00144   1.90415
   A15        1.82266  -0.00015  -0.01011   0.00466  -0.00545   1.81722
   A16        1.93648   0.00002   0.00002   0.00005   0.00006   1.93655
   A17        1.94585  -0.00000  -0.00297   0.00325   0.00027   1.94613
   A18        1.93641   0.00005  -0.00007   0.00033   0.00025   1.93667
   A19        1.88405   0.00000   0.00185  -0.00157   0.00028   1.88432
   A20        1.87772  -0.00006  -0.00020  -0.00067  -0.00087   1.87685
   A21        1.88064  -0.00002   0.00156  -0.00160  -0.00004   1.88060
    D1       -2.91278   0.00002   0.00974  -0.00143   0.00834  -2.90444
    D2        0.48585  -0.00007  -0.00788   0.00007  -0.00783   0.47802
    D3        1.27457   0.00004   0.00883  -0.00053   0.00832   1.28289
    D4       -1.60998  -0.00006  -0.00879   0.00097  -0.00785  -1.61783
    D5       -0.79526   0.00010   0.01380  -0.00325   0.01059  -0.78467
    D6        2.60337   0.00000  -0.00382  -0.00174  -0.00558   2.59779
    D7        3.05537  -0.00011  -0.02022  -0.00446  -0.02467   3.03070
    D8        0.90445  -0.00021  -0.02495  -0.00331  -0.02825   0.87619
    D9       -1.08502  -0.00015  -0.01749  -0.00661  -0.02408  -1.10909
   D10       -0.34231   0.00001  -0.00205  -0.00614  -0.00821  -0.35052
   D11       -2.49323  -0.00010  -0.00678  -0.00499  -0.01180  -2.50503
   D12        1.80049  -0.00003   0.00069  -0.00829  -0.00762   1.79287
   D13       -1.06068   0.00005   0.01294   0.00017   0.01311  -1.04757
   D14        3.12190   0.00004   0.01259  -0.00006   0.01253   3.13443
   D15        1.02565   0.00003   0.01265  -0.00043   0.01222   1.03788
   D16        1.08684   0.00015   0.01858  -0.00158   0.01700   1.10384
   D17       -1.01377   0.00014   0.01823  -0.00181   0.01642  -0.99735
   D18       -3.11001   0.00013   0.01830  -0.00219   0.01611  -3.09390
   D19        3.07473  -0.00004   0.00785   0.00255   0.01040   3.08513
   D20        0.97412  -0.00006   0.00750   0.00232   0.00982   0.98394
   D21       -1.12212  -0.00006   0.00757   0.00195   0.00952  -1.11261
         Item               Value     Threshold  Converged?
 Maximum Force            0.001152     0.000450     NO 
 RMS     Force            0.000265     0.000300     YES
 Maximum Displacement     0.033365     0.001800     NO 
 RMS     Displacement     0.012998     0.001200     NO 
 Predicted change in Energy=-2.115728D-05
 GradGradGradGradGradGradGradGradGradGradGradGradGradGradGradGradGradGrad

                          Input orientation:                          
 ---------------------------------------------------------------------
 Center     Atomic      Atomic             Coordinates (Angstroms)
 Number     Number       Type             X           Y           Z
 ---------------------------------------------------------------------
      1          6           0        0.907149    0.270580    0.132241
      2          6           0        2.388971    0.181249    0.268491
      3          6           0        3.025626   -0.843716    1.149452
      4          6           0        4.552535   -0.889563    1.049792
      5          1           0        0.604047    0.903243   -0.720707
      6          1           0        0.428628    0.705178    1.041150
      7          1           0        0.448490   -0.729756   -0.001622
      8          1           0        3.006947    1.010573   -0.098639
      9          1           0        2.603015   -1.845072    0.918130
     10          1           0        2.734176   -0.663979    2.211852
     11          1           0        4.874438   -1.123727    0.019011
     12          1           0        4.979277   -1.654728    1.721971
     13          1           0        4.996222    0.085157    1.323976
 ---------------------------------------------------------------------
                    Distance matrix (angstroms):
                    1          2          3          4          5
     1  C    0.000000
     2  C    1.490751   0.000000
     3  C    2.600830   1.493979   0.000000
     4  C    3.934039   2.537337   1.530844   0.000000
     5  H    1.104379   2.164657   3.523266   4.683948   0.000000
     6  H    1.115336   2.171278   3.025756   4.421525   1.781612
     7  H    1.108585   2.160638   2.824817   4.239598   1.791080
     8  H    2.238313   1.097478   2.235278   2.705227   2.484434
     9  H    2.823042   2.138650   1.111226   2.175077   3.772916
    10  H    2.921679   2.147144   1.116218   2.169723   3.948865
    11  H    4.206696   2.818288   2.185043   1.104973   4.784561
    12  H    4.776638   3.491862   2.191409   1.104269   5.626058
    13  H    4.263230   2.814435   2.185523   1.105492   4.913369
                    6          7          8          9         10
     6  H    0.000000
     7  H    1.773923   0.000000
     8  H    2.835510   3.095781   0.000000
     9  H    3.353636   2.594582   3.058053   0.000000
    10  H    2.925865   3.182476   2.866513   1.756673   0.000000
    11  H    4.914763   4.443496   2.838415   2.547178   3.098491
    12  H    5.171178   4.935016   3.782662   2.515752   2.502408
    13  H    4.618153   4.806575   2.614851   3.101279   2.542908
                   11         12         13
    11  H    0.000000
    12  H    1.786904   0.000000
    13  H    1.783022   1.784904   0.000000
 Stoichiometry    C4H9(2)
 Framework group  C1[X(C4H9)]
 Deg. of freedom    33
 Full point group                 C1      NOp   1
 Largest Abelian subgroup         C1      NOp   1
 Largest concise Abelian subgroup C1      NOp   1
                         Standard orientation:                         
 ---------------------------------------------------------------------
 Center     Atomic      Atomic             Coordinates (Angstroms)
 Number     Number       Type             X           Y           Z
 ---------------------------------------------------------------------
      1          6           0        1.987862    0.042676   -0.039866
      2          6           0        0.580581   -0.446541    0.010789
      3          6           0       -0.569555    0.505828    0.057212
      4          6           0       -1.940584   -0.166842   -0.049004
      5          1           0        2.698534   -0.758425   -0.309745
      6          1           0        2.323758    0.453653    0.941075
      7          1           0        2.106987    0.868281   -0.770035
      8          1           0        0.393586   -1.502721    0.243112
      9          1           0       -0.457520    1.261653   -0.749634
     10          1           0       -0.528273    1.104270    0.998543
     11          1           0       -2.035877   -0.721872   -0.999702
     12          1           0       -2.759107    0.572967   -0.003028
     13          1           0       -2.091914   -0.888535    0.774629
 ---------------------------------------------------------------------
 Rotational constants (GHZ):          26.5481482           3.6194555           3.3955400
 Standard basis: def2SVPP (5D, 7F)
 There are    78 symmetry adapted cartesian basis functions of A   symmetry.
 There are    74 symmetry adapted basis functions of A   symmetry.
    74 basis functions,   136 primitive gaussians,    78 cartesian basis functions
    17 alpha electrons       16 beta electrons
       nuclear repulsion energy       121.5367079755 Hartrees.
 NAtoms=   13 NActive=   13 NUniq=   13 SFac= 1.00D+00 NAtFMM=   60 NAOKFM=F Big=F
 Integral buffers will be    131072 words long.
 Raffenetti 2 integral format.
 Two-electron integral symmetry is turned on.
 Nuclear repulsion after empirical dispersion term =      121.5234091849 Hartrees.
 One-electron integrals computed using PRISM.
   1 Symmetry operations used in ECPInt.
 ECPInt:  NShTT=     903 NPrTT=    3649 LenC2=     903 LenP2D=    3132.
 LDataN:  DoStor=T MaxTD1= 4 Len=   56
 NBasis=    74 RedAO= T EigKep=  2.51D-03  NBF=    74
 NBsUse=    74 1.00D-06 EigRej= -1.00D+00 NBFU=    74
 Initial guess from the checkpoint file:  "/tmp/scratch/Gau-3761564.chk"
 B after Tr=    -0.000000    0.000000   -0.000000
         Rot=    0.999999    0.001054    0.000199   -0.000091 Ang=   0.12 deg.
 Initial guess <Sx>= 0.0000 <Sy>= 0.0000 <Sz>= 0.5000 <S**2>= 0.7540 S= 0.5020
 ExpMin= 1.22D-01 ExpMax= 1.24D+03 ExpMxC= 1.86D+02 IAcc=3 IRadAn=         5 AccDes= 0.00D+00
 Harris functional with IExCor=  402 and IRadAn=       5 diagonalized for initial guess.
 HarFok:  IExCor=  402 AccDes= 0.00D+00 IRadAn=         5 IDoV= 1 UseB2=F ITyADJ=14
 ICtDFT=  3500011 ScaDFX=  1.000000  1.000000  1.000000  1.000000
 FoFCou: FMM=F IPFlag=           0 FMFlag=      100000 FMFlg1=           0
         NFxFlg=           0 DoJE=T BraDBF=F KetDBF=T FulRan=T
         wScrn=  0.000000 ICntrl=       500 IOpCl=  0 I1Cent=   200000004 NGrid=           0
         NMat0=    1 NMatS0=      1 NMatT0=    0 NMatD0=    1 NMtDS0=    0 NMtDT0=    0
 Petite list used in FoFCou.
 Requested convergence on RMS density matrix=1.00D-08 within 128 cycles.
 Requested convergence on MAX density matrix=1.00D-06.
 Requested convergence on             energy=1.00D-06.
 No special actions if energy rises.
 Integral accuracy reduced to 1.0D-05 until final iterations.
 Initial convergence to 1.0D-05 achieved.  Increase integral accuracy.
 SCF Done:  E(UB3LYP) =  -157.670363209     A.U. after   10 cycles
            NFock= 10  Conv=0.40D-08     -V/T= 2.0120
 <Sx>= 0.0000 <Sy>= 0.0000 <Sz>= 0.5000 <S**2>= 0.7540 S= 0.5020
 <L.S>=  0.00000000000    
 Annihilation of the first spin contaminant:
 S**2 before annihilation     0.7540,   after     0.7500
   1 Symmetry operations used in ECPInt.
 ECPInt:  NShTT=     903 NPrTT=    3649 LenC2=     903 LenP2D=    3132.
 LDataN:  DoStor=T MaxTD1= 5 Len=  102
 Calling FoFJK, ICntrl=      2127 FMM=F ISym2X=0 I1Cent= 0 IOpClX= 1 NMat=1 NMatS=1 NMatT=0.
 ***** Axes restored to original set *****
 -------------------------------------------------------------------
 Center     Atomic                   Forces (Hartrees/Bohr)
 Number     Number              X              Y              Z
 -------------------------------------------------------------------
      1        6          -0.000284887   -0.000071921    0.000064312
      2        6           0.000124718   -0.000005561   -0.000056464
      3        6          -0.000288579   -0.000371247    0.000193080
      4        6           0.000125361    0.000060788   -0.000092299
      5        1           0.000027668   -0.000003525    0.000000631
      6        1           0.000067094    0.000006504   -0.000114556
      7        1           0.000036751    0.000068555   -0.000055267
      8        1          -0.000042741    0.000057228    0.000101368
      9        1           0.000051441    0.000170111   -0.000003764
     10        1           0.000184141    0.000131510   -0.000073414
     11        1           0.000008936    0.000001811    0.000031751
     12        1          -0.000009557    0.000001745   -0.000004790
     13        1          -0.000000347   -0.000045998    0.000009413
 -------------------------------------------------------------------
 Cartesian Forces:  Max     0.000371247 RMS     0.000116584

 GradGradGradGradGradGradGradGradGradGradGradGradGradGradGradGradGradGrad
 Berny optimization.
 Using GEDIIS/GDIIS optimizer.
 FormGI is forming the generalized inverse of G from B-inverse, IUseBI=4.
 Internal  Forces:  Max     0.000173492 RMS     0.000065582
 Search for a local minimum.
 Step number   4 out of a maximum of   64
 All quantities printed in internal units (Hartrees-Bohrs-Radians)
 Mixed Optimization -- En-DIIS/RFO-DIIS
 Swapping is turned off.
 Update second derivatives using D2CorX and points    1    2    3    4
 DE= -2.41D-05 DEPred=-2.12D-05 R= 1.14D+00
 TightC=F SS=  1.41D+00  RLast= 6.64D-02 DXNew= 8.4853D-01 1.9921D-01
 Trust test= 1.14D+00 RLast= 6.64D-02 DXMaxT set to 5.05D-01
 ITU=  1  1  1  0
     Eigenvalues ---    0.00400   0.00613   0.00909   0.00966   0.03962
     Eigenvalues ---    0.05459   0.05542   0.05639   0.07052   0.07252
     Eigenvalues ---    0.09735   0.12960   0.14938   0.15671   0.15999
     Eigenvalues ---    0.16000   0.16002   0.16004   0.16460   0.20788
     Eigenvalues ---    0.22771   0.31016   0.33070   0.33574   0.34198
     Eigenvalues ---    0.34218   0.34272   0.34281   0.34327   0.34357
     Eigenvalues ---    0.34411   0.35393   0.38770
 En-DIIS/RFO-DIIS/Sim-DIIS IScMMF=       -3 using points:     4    3    2
 RFO step:  Lambda=-6.09672221D-06.
 DidBck=T Rises=F RFO-DIIS coefs:    0.71120    0.66932   -0.38051
 Iteration  1 RMS(Cart)=  0.00361146 RMS(Int)=  0.00002254
 Iteration  2 RMS(Cart)=  0.00000712 RMS(Int)=  0.00002197
 Iteration  3 RMS(Cart)=  0.00000000 RMS(Int)=  0.00002197
 Variable       Old X    -DE/DX   Delta X   Delta X   Delta X     New X
                                 (Linear)    (Quad)   (Total)
    R1        2.81711   0.00016  -0.00303   0.00221  -0.00082   2.81630
    R2        2.08697  -0.00001   0.00022  -0.00039  -0.00017   2.08680
    R3        2.10768  -0.00012   0.00167  -0.00171  -0.00003   2.10765
    R4        2.09492  -0.00007   0.00120  -0.00129  -0.00008   2.09484
    R5        2.82321   0.00010  -0.00259   0.00201  -0.00058   2.82264
    R6        2.07393  -0.00001   0.00090  -0.00109  -0.00018   2.07375
    R7        2.89288   0.00013  -0.00266   0.00233  -0.00033   2.89254
    R8        2.09991  -0.00017   0.00157  -0.00169  -0.00012   2.09979
    R9        2.10935  -0.00010   0.00163  -0.00159   0.00005   2.10939
   R10        2.08810  -0.00003   0.00078  -0.00090  -0.00013   2.08797
   R11        2.08677  -0.00001  -0.00005  -0.00015  -0.00020   2.08656
   R12        2.08908  -0.00004   0.00088  -0.00102  -0.00014   2.08894
    A1        1.95814  -0.00006   0.00002  -0.00010  -0.00009   1.95805
    A2        1.95556   0.00000   0.00190  -0.00128   0.00062   1.95618
    A3        1.94789   0.00002   0.00074  -0.00045   0.00029   1.94818
    A4        1.86337   0.00000  -0.00063   0.00021  -0.00042   1.86295
    A5        1.88611  -0.00001   0.00092  -0.00086   0.00005   1.88617
    A6        1.84679   0.00005  -0.00317   0.00265  -0.00052   1.84627
    A7        2.11601   0.00017   0.00049   0.00066   0.00106   2.11707
    A8        2.07585  -0.00009   0.00123  -0.00118  -0.00003   2.07582
    A9        2.06659  -0.00008  -0.00027  -0.00007  -0.00044   2.06615
   A10        1.99019  -0.00005  -0.00109   0.00093  -0.00017   1.99003
   A11        1.91072   0.00000   0.00173  -0.00133   0.00040   1.91111
   A12        1.91718   0.00004   0.00195  -0.00147   0.00048   1.91766
   A13        1.91643   0.00001   0.00092  -0.00066   0.00025   1.91668
   A14        1.90415  -0.00006   0.00056  -0.00099  -0.00044   1.90372
   A15        1.81722   0.00007  -0.00432   0.00377  -0.00056   1.81666
   A16        1.93655   0.00003  -0.00001   0.00010   0.00009   1.93664
   A17        1.94613  -0.00002  -0.00181   0.00163  -0.00018   1.94594
   A18        1.93667   0.00002  -0.00011   0.00021   0.00010   1.93677
   A19        1.88432  -0.00001   0.00100  -0.00092   0.00007   1.88440
   A20        1.87685  -0.00001   0.00014  -0.00022  -0.00009   1.87676
   A21        1.88060  -0.00001   0.00092  -0.00092   0.00000   1.88061
    D1       -2.90444  -0.00000   0.00328  -0.00190   0.00139  -2.90305
    D2        0.47802  -0.00000  -0.00234   0.00097  -0.00139   0.47664
    D3        1.28289   0.00004   0.00275  -0.00120   0.00156   1.28446
    D4       -1.61783   0.00004  -0.00286   0.00167  -0.00122  -1.61905
    D5       -0.78467  -0.00004   0.00500  -0.00341   0.00161  -0.78307
    D6        2.59779  -0.00004  -0.00061  -0.00054  -0.00117   2.59662
    D7        3.03070  -0.00005  -0.00468  -0.00223  -0.00689   3.02381
    D8        0.87619  -0.00003  -0.00640  -0.00102  -0.00741   0.86879
    D9       -1.10909  -0.00013  -0.00325  -0.00398  -0.00722  -1.11631
   D10       -0.35052  -0.00005   0.00117  -0.00524  -0.00407  -0.35460
   D11       -2.50503  -0.00003  -0.00055  -0.00402  -0.00459  -2.50962
   D12        1.79287  -0.00013   0.00260  -0.00699  -0.00440   1.78847
   D13       -1.04757  -0.00001   0.00376  -0.00139   0.00237  -1.04520
   D14        3.13443  -0.00000   0.00373  -0.00139   0.00234   3.13676
   D15        1.03788   0.00001   0.00385  -0.00146   0.00239   1.04027
   D16        1.10384  -0.00003   0.00593  -0.00297   0.00297   1.10681
   D17       -0.99735  -0.00002   0.00590  -0.00297   0.00293  -0.99441
   D18       -3.09390  -0.00001   0.00602  -0.00304   0.00298  -3.09091
   D19        3.08513   0.00003   0.00158   0.00062   0.00220   3.08733
   D20        0.98394   0.00003   0.00154   0.00062   0.00216   0.98611
   D21       -1.11261   0.00004   0.00167   0.00055   0.00222  -1.11039
         Item               Value     Threshold  Converged?
 Maximum Force            0.000173     0.000450     YES
 RMS     Force            0.000066     0.000300     YES
 Maximum Displacement     0.009006     0.001800     NO 
 RMS     Displacement     0.003612     0.001200     NO 
 Predicted change in Energy=-1.748863D-06
 GradGradGradGradGradGradGradGradGradGradGradGradGradGradGradGradGradGrad

                          Input orientation:                          
 ---------------------------------------------------------------------
 Center     Atomic      Atomic             Coordinates (Angstroms)
 Number     Number       Type             X           Y           Z
 ---------------------------------------------------------------------
      1          6           0        0.907570    0.269690    0.130922
      2          6           0        2.388691    0.182726    0.271535
      3          6           0        3.025749   -0.842222    1.151707
      4          6           0        4.552173   -0.890197    1.048399
      5          1           0        0.606115    0.902456   -0.722416
      6          1           0        0.424996    0.702902    1.038327
      7          1           0        0.450675   -0.731145   -0.004862
      8          1           0        3.006395    1.012705   -0.094284
      9          1           0        2.601042   -1.843197    0.922896
     10          1           0        2.737575   -0.661380    2.214839
     11          1           0        4.871384   -1.123239    0.016597
     12          1           0        4.979118   -1.656983    1.718422
     13          1           0        4.998037    0.083324    1.323017
 ---------------------------------------------------------------------
                    Distance matrix (angstroms):
                    1          2          3          4          5
     1  C    0.000000
     2  C    1.490319   0.000000
     3  C    2.600967   1.493675   0.000000
     4  C    3.933222   2.536797   1.530668   0.000000
     5  H    1.104289   2.164145   3.522906   4.681962   0.000000
     6  H    1.115318   2.171324   3.027239   4.423987   1.781247
     7  H    1.108540   2.160431   2.825065   4.237564   1.791005
     8  H    2.237824   1.097382   2.234641   2.704846   2.483556
     9  H    2.821233   2.138628   1.111162   2.175057   3.771657
    10  H    2.925494   2.147246   1.116243   2.169264   3.951730
    11  H    4.202992   2.816790   2.184906   1.104907   4.779341
    12  H    4.775953   3.491179   2.191040   1.104162   5.624196
    13  H    4.264708   2.814992   2.185384   1.105420   4.913629
                    6          7          8          9         10
     6  H    0.000000
     7  H    1.773526   0.000000
     8  H    2.835914   3.095273   0.000000
     9  H    3.351286   2.592580   3.058618   0.000000
    10  H    2.931462   3.187766   2.864764   1.756260   0.000000
    11  H    4.914172   4.438115   2.837734   2.548366   3.098180
    12  H    5.174130   4.932919   3.782165   2.514515   2.502433
    13  H    4.623595   4.806778   2.615172   3.101155   2.541577
                   11         12         13
    11  H    0.000000
    12  H    1.786812   0.000000
    13  H    1.782854   1.784761   0.000000
 Stoichiometry    C4H9(2)
 Framework group  C1[X(C4H9)]
 Deg. of freedom    33
 Full point group                 C1      NOp   1
 Largest Abelian subgroup         C1      NOp   1
 Largest concise Abelian subgroup C1      NOp   1
                         Standard orientation:                         
 ---------------------------------------------------------------------
 Center     Atomic      Atomic             Coordinates (Angstroms)
 Number     Number       Type             X           Y           Z
 ---------------------------------------------------------------------
      1          6           0        1.987556    0.042370   -0.041710
      2          6           0        0.580550   -0.445788    0.013845
      3          6           0       -0.569778    0.505920    0.059244
      4          6           0       -1.940067   -0.167194   -0.051071
      5          1           0        2.696934   -0.759783   -0.311502
      6          1           0        2.326948    0.455521    0.937092
      7          1           0        2.105470    0.866261   -0.773941
      8          1           0        0.393688   -1.501505    0.247920
      9          1           0       -0.456334    1.263537   -0.745634
     10          1           0       -0.531407    1.102906    1.001652
     11          1           0       -2.032163   -0.722758   -1.001695
     12          1           0       -2.758772    0.572435   -0.008108
     13          1           0       -2.093934   -0.888464    0.772366
 ---------------------------------------------------------------------
 Rotational constants (GHZ):          26.5426309           3.6202743           3.3966664
 Standard basis: def2SVPP (5D, 7F)
 There are    78 symmetry adapted cartesian basis functions of A   symmetry.
 There are    74 symmetry adapted basis functions of A   symmetry.
    74 basis functions,   136 primitive gaussians,    78 cartesian basis functions
    17 alpha electrons       16 beta electrons
       nuclear repulsion energy       121.5505284188 Hartrees.
 NAtoms=   13 NActive=   13 NUniq=   13 SFac= 1.00D+00 NAtFMM=   60 NAOKFM=F Big=F
 Integral buffers will be    131072 words long.
 Raffenetti 2 integral format.
 Two-electron integral symmetry is turned on.
 Nuclear repulsion after empirical dispersion term =      121.5372294909 Hartrees.
 One-electron integrals computed using PRISM.
   1 Symmetry operations used in ECPInt.
 ECPInt:  NShTT=     903 NPrTT=    3649 LenC2=     903 LenP2D=    3132.
 LDataN:  DoStor=T MaxTD1= 4 Len=   56
 NBasis=    74 RedAO= T EigKep=  2.51D-03  NBF=    74
 NBsUse=    74 1.00D-06 EigRej= -1.00D+00 NBFU=    74
 Initial guess from the checkpoint file:  "/tmp/scratch/Gau-3761564.chk"
 B after Tr=     0.000000    0.000000    0.000000
         Rot=    1.000000    0.000155    0.000054   -0.000028 Ang=   0.02 deg.
 Initial guess <Sx>= 0.0000 <Sy>= 0.0000 <Sz>= 0.5000 <S**2>= 0.7540 S= 0.5020
 Requested convergence on RMS density matrix=1.00D-08 within 128 cycles.
 Requested convergence on MAX density matrix=1.00D-06.
 Requested convergence on             energy=1.00D-06.
 No special actions if energy rises.
 SCF Done:  E(UB3LYP) =  -157.670365126     A.U. after    8 cycles
            NFock=  8  Conv=0.48D-08     -V/T= 2.0120
 <Sx>= 0.0000 <Sy>= 0.0000 <Sz>= 0.5000 <S**2>= 0.7540 S= 0.5020
 <L.S>=  0.00000000000    
 Annihilation of the first spin contaminant:
 S**2 before annihilation     0.7540,   after     0.7500
   1 Symmetry operations used in ECPInt.
 ECPInt:  NShTT=     903 NPrTT=    3649 LenC2=     903 LenP2D=    3132.
 LDataN:  DoStor=T MaxTD1= 5 Len=  102
 Calling FoFJK, ICntrl=      2127 FMM=F ISym2X=0 I1Cent= 0 IOpClX= 1 NMat=1 NMatS=1 NMatT=0.
 ***** Axes restored to original set *****
 -------------------------------------------------------------------
 Center     Atomic                   Forces (Hartrees/Bohr)
 Number     Number              X              Y              Z
 -------------------------------------------------------------------
      1        6          -0.000523334   -0.000066044    0.000114772
      2        6           0.000272079    0.000015626   -0.000158729
      3        6          -0.000347399   -0.000463512    0.000358202
      4        6           0.000180468    0.000050246   -0.000105026
      5        1           0.000009826    0.000020833   -0.000058190
      6        1           0.000092522    0.000030117   -0.000069731
      7        1           0.000044160    0.000026234   -0.000083193
      8        1          -0.000015247    0.000123269    0.000091293
      9        1           0.000053460    0.000157460   -0.000075867
     10        1           0.000167135    0.000165799   -0.000063715
     11        1           0.000017684   -0.000024514   -0.000006309
     12        1           0.000036411   -0.000036564    0.000040682
     13        1           0.000012235    0.000001051    0.000015811
 -------------------------------------------------------------------
 Cartesian Forces:  Max     0.000523334 RMS     0.000164158

 GradGradGradGradGradGradGradGradGradGradGradGradGradGradGradGradGradGrad
 Berny optimization.
 Using GEDIIS/GDIIS optimizer.
 FormGI is forming the generalized inverse of G from B-inverse, IUseBI=4.
 Internal  Forces:  Max     0.000384183 RMS     0.000088151
 Search for a local minimum.
 Step number   5 out of a maximum of   64
 All quantities printed in internal units (Hartrees-Bohrs-Radians)
 Mixed Optimization -- En-DIIS/RFO-DIIS
 Swapping is turned off.
 Update second derivatives using D2CorX and points    1    2    3    4    5
 DE= -1.92D-06 DEPred=-1.75D-06 R= 1.10D+00
 TightC=F SS=  1.41D+00  RLast= 1.69D-02 DXNew= 8.4853D-01 5.0670D-02
 Trust test= 1.10D+00 RLast= 1.69D-02 DXMaxT set to 5.05D-01
 ITU=  1  1  1  1  0
     Eigenvalues ---    0.00285   0.00545   0.00909   0.01024   0.03962
     Eigenvalues ---    0.05424   0.05542   0.05633   0.07056   0.07169
     Eigenvalues ---    0.09707   0.12971   0.15190   0.15725   0.15990
     Eigenvalues ---    0.16000   0.16002   0.16012   0.16462   0.20904
     Eigenvalues ---    0.22818   0.30997   0.32432   0.33088   0.34199
     Eigenvalues ---    0.34199   0.34218   0.34304   0.34328   0.34357
     Eigenvalues ---    0.34427   0.35412   0.45668
 En-DIIS/RFO-DIIS/Sim-DIIS IScMMF=       -3 using points:     5    4    3    2
 RFO step:  Lambda=-7.10405800D-06.
 DIIS inversion failure, remove point   4.
 RFO-DIIS uses    3 points instead of    4
 DidBck=F Rises=F RFO-DIIS coefs:    2.85144   -2.00000    0.14856    0.00000
 Iteration  1 RMS(Cart)=  0.01004587 RMS(Int)=  0.00003625
 Iteration  2 RMS(Cart)=  0.00005068 RMS(Int)=  0.00000151
 Iteration  3 RMS(Cart)=  0.00000000 RMS(Int)=  0.00000151
 Variable       Old X    -DE/DX   Delta X   Delta X   Delta X     New X
                                 (Linear)    (Quad)   (Total)
    R1        2.81630   0.00038  -0.00076   0.00066  -0.00010   2.81620
    R2        2.08680   0.00005  -0.00018   0.00005  -0.00014   2.08667
    R3        2.10765  -0.00009  -0.00012  -0.00028  -0.00039   2.10725
    R4        2.09484  -0.00003  -0.00012  -0.00017  -0.00029   2.09454
    R5        2.82264   0.00025  -0.00056   0.00049  -0.00007   2.82256
    R6        2.07375   0.00005  -0.00016  -0.00000  -0.00016   2.07359
    R7        2.89254   0.00025  -0.00035   0.00065   0.00030   2.89285
    R8        2.09979  -0.00015  -0.00024  -0.00048  -0.00072   2.09907
    R9        2.10939  -0.00008  -0.00002  -0.00022  -0.00024   2.10915
   R10        2.08797   0.00002  -0.00013  -0.00007  -0.00019   2.08778
   R11        2.08656   0.00006  -0.00022   0.00008  -0.00014   2.08642
   R12        2.08894   0.00001  -0.00014  -0.00007  -0.00022   2.08872
    A1        1.95805  -0.00004  -0.00032  -0.00038  -0.00070   1.95735
    A2        1.95618  -0.00005   0.00065  -0.00006   0.00058   1.95676
    A3        1.94818  -0.00001   0.00036   0.00000   0.00036   1.94854
    A4        1.86295   0.00003  -0.00042  -0.00004  -0.00046   1.86249
    A5        1.88617  -0.00001   0.00003  -0.00017  -0.00014   1.88602
    A6        1.84627   0.00009  -0.00033   0.00070   0.00036   1.84664
    A7        2.11707   0.00010   0.00117   0.00059   0.00177   2.11884
    A8        2.07582  -0.00007  -0.00012  -0.00054  -0.00066   2.07516
    A9        2.06615  -0.00003  -0.00049  -0.00046  -0.00094   2.06521
   A10        1.99003  -0.00000  -0.00043  -0.00029  -0.00072   1.98931
   A11        1.91111  -0.00002   0.00047  -0.00017   0.00030   1.91142
   A12        1.91766  -0.00000   0.00052  -0.00010   0.00042   1.91808
   A13        1.91668  -0.00001   0.00028   0.00003   0.00031   1.91698
   A14        1.90372  -0.00005  -0.00059  -0.00063  -0.00122   1.90250
   A15        1.81666   0.00010  -0.00022   0.00130   0.00108   1.81773
   A16        1.93664   0.00002   0.00017   0.00011   0.00028   1.93692
   A17        1.94594   0.00001  -0.00038   0.00006  -0.00032   1.94562
   A18        1.93677   0.00001   0.00014   0.00002   0.00017   1.93693
   A19        1.88440  -0.00002   0.00010  -0.00009   0.00001   1.88441
   A20        1.87676  -0.00000  -0.00003   0.00005   0.00003   1.87679
   A21        1.88061  -0.00002   0.00001  -0.00017  -0.00016   1.88045
    D1       -2.90305  -0.00001   0.00134  -0.00119   0.00016  -2.90289
    D2        0.47664   0.00001  -0.00140   0.00087  -0.00053   0.47611
    D3        1.28446   0.00003   0.00166  -0.00083   0.00083   1.28529
    D4       -1.61905   0.00004  -0.00109   0.00123   0.00014  -1.61890
    D5       -0.78307  -0.00006   0.00141  -0.00167  -0.00027  -0.78334
    D6        2.59662  -0.00004  -0.00134   0.00038  -0.00096   2.59566
    D7        3.02381  -0.00004  -0.00910  -0.00880  -0.01789   3.00592
    D8        0.86879  -0.00001  -0.00951  -0.00849  -0.01801   0.85078
    D9       -1.11631  -0.00011  -0.00979  -0.00990  -0.01969  -1.13600
   D10       -0.35460  -0.00006  -0.00632  -0.01085  -0.01717  -0.37177
   D11       -2.50962  -0.00003  -0.00674  -0.01055  -0.01729  -2.52691
   D12        1.78847  -0.00014  -0.00701  -0.01196  -0.01897   1.76950
   D13       -1.04520  -0.00001   0.00244  -0.00024   0.00220  -1.04300
   D14        3.13676  -0.00001   0.00246  -0.00024   0.00222   3.13899
   D15        1.04027   0.00000   0.00261  -0.00008   0.00253   1.04279
   D16        1.10681  -0.00005   0.00297  -0.00065   0.00232   1.10912
   D17       -0.99441  -0.00005   0.00299  -0.00065   0.00233  -0.99208
   D18       -3.09091  -0.00004   0.00313  -0.00049   0.00264  -3.08827
   D19        3.08733   0.00003   0.00252   0.00057   0.00309   3.09042
   D20        0.98611   0.00004   0.00255   0.00057   0.00311   0.98922
   D21       -1.11039   0.00005   0.00269   0.00073   0.00342  -1.10697
         Item               Value     Threshold  Converged?
 Maximum Force            0.000384     0.000450     YES
 RMS     Force            0.000088     0.000300     YES
 Maximum Displacement     0.027932     0.001800     NO 
 RMS     Displacement     0.010046     0.001200     NO 
 Predicted change in Energy=-3.491409D-06
 GradGradGradGradGradGradGradGradGradGradGradGradGradGradGradGradGradGrad

                          Input orientation:                          
 ---------------------------------------------------------------------
 Center     Atomic      Atomic             Coordinates (Angstroms)
 Number     Number       Type             X           Y           Z
 ---------------------------------------------------------------------
      1          6           0        0.907783    0.267101    0.127193
      2          6           0        2.388170    0.186609    0.278441
      3          6           0        3.026002   -0.838570    1.157716
      4          6           0        4.551697   -0.892652    1.044728
      5          1           0        0.610379    0.902529   -0.725496
      6          1           0        0.415947    0.694185    1.032270
      7          1           0        0.456520   -0.734922   -0.017128
      8          1           0        3.003937    1.021332   -0.079503
      9          1           0        2.595883   -1.838115    0.934686
     10          1           0        2.746737   -0.652748    2.222232
     11          1           0        4.863683   -1.127520    0.011242
     12          1           0        4.979498   -1.660777    1.712543
     13          1           0        5.003283    0.078988    1.316175
 ---------------------------------------------------------------------
                    Distance matrix (angstroms):
                    1          2          3          4          5
     1  C    0.000000
     2  C    1.490269   0.000000
     3  C    2.602180   1.493635   0.000000
     4  C    3.932557   2.536306   1.530828   0.000000
     5  H    1.104217   2.163556   3.523230   4.678713   0.000000
     6  H    1.115109   2.171533   3.029433   4.429744   1.780716
     7  H    1.108384   2.160521   2.827232   4.233544   1.790726
     8  H    2.237286   1.097295   2.233928   2.706065   2.482044
     9  H    2.816675   2.138530   1.110781   2.175136   3.769557
    10  H    2.935484   2.147420   1.116116   2.168398   3.958789
    11  H    4.196135   2.815403   2.185168   1.104804   4.770165
    12  H    4.775867   3.490625   2.190890   1.104086   5.621723
    13  H    4.268746   2.815545   2.185558   1.105305   4.913680
                    6          7          8          9         10
     6  H    0.000000
     7  H    1.773479   0.000000
     8  H    2.835623   3.094778   0.000000
     9  H    3.342781   2.588409   3.061295   0.000000
    10  H    2.943267   3.204151   2.857740   1.756596   0.000000
    11  H    4.913599   4.424706   2.843317   2.549629   3.097635
    12  H    5.180213   4.930141   3.782588   2.513589   2.502224
    13  H    4.637103   4.807619   2.614061   3.101031   2.539366
                   11         12         13
    11  H    0.000000
    12  H    1.786673   0.000000
    13  H    1.782695   1.784504   0.000000
 Stoichiometry    C4H9(2)
 Framework group  C1[X(C4H9)]
 Deg. of freedom    33
 Full point group                 C1      NOp   1
 Largest Abelian subgroup         C1      NOp   1
 Largest concise Abelian subgroup C1      NOp   1
                         Standard orientation:                         
 ---------------------------------------------------------------------
 Center     Atomic      Atomic             Coordinates (Angstroms)
 Number     Number       Type             X           Y           Z
 ---------------------------------------------------------------------
      1          6           0        1.987526    0.042074   -0.046625
      2          6           0        0.580563   -0.444546    0.020897
      3          6           0       -0.570466    0.506303    0.065211
      4          6           0       -1.939409   -0.167886   -0.056854
      5          1           0        2.694142   -0.763186   -0.314108
      6          1           0        2.333577    0.462172    0.926634
      7          1           0        2.102271    0.859631   -0.786186
      8          1           0        0.395042   -1.498371    0.263981
      9          1           0       -0.453105    1.268543   -0.734195
     10          1           0       -0.539209    1.096728    1.011856
     11          1           0       -2.024795   -0.720008   -1.009987
     12          1           0       -2.758873    0.570942   -0.016620
     13          1           0       -2.098329   -0.892121    0.762856
 ---------------------------------------------------------------------
 Rotational constants (GHZ):          26.5087046           3.6198778           3.3975833
 Standard basis: def2SVPP (5D, 7F)
 There are    78 symmetry adapted cartesian basis functions of A   symmetry.
 There are    74 symmetry adapted basis functions of A   symmetry.
    74 basis functions,   136 primitive gaussians,    78 cartesian basis functions
    17 alpha electrons       16 beta electrons
       nuclear repulsion energy       121.5505081873 Hartrees.
 NAtoms=   13 NActive=   13 NUniq=   13 SFac= 1.00D+00 NAtFMM=   60 NAOKFM=F Big=F
 Integral buffers will be    131072 words long.
 Raffenetti 2 integral format.
 Two-electron integral symmetry is turned on.
 Nuclear repulsion after empirical dispersion term =      121.5372113382 Hartrees.
 One-electron integrals computed using PRISM.
   1 Symmetry operations used in ECPInt.
 ECPInt:  NShTT=     903 NPrTT=    3649 LenC2=     903 LenP2D=    3133.
 LDataN:  DoStor=T MaxTD1= 4 Len=   56
 NBasis=    74 RedAO= T EigKep=  2.52D-03  NBF=    74
 NBsUse=    74 1.00D-06 EigRej= -1.00D+00 NBFU=    74
 Initial guess from the checkpoint file:  "/tmp/scratch/Gau-3761564.chk"
 B after Tr=     0.000000    0.000000   -0.000000
         Rot=    1.000000   -0.000104    0.000130   -0.000088 Ang=  -0.02 deg.
 Initial guess <Sx>= 0.0000 <Sy>= 0.0000 <Sz>= 0.5000 <S**2>= 0.7540 S= 0.5020
 ExpMin= 1.22D-01 ExpMax= 1.24D+03 ExpMxC= 1.86D+02 IAcc=3 IRadAn=         5 AccDes= 0.00D+00
 Harris functional with IExCor=  402 and IRadAn=       5 diagonalized for initial guess.
 HarFok:  IExCor=  402 AccDes= 0.00D+00 IRadAn=         5 IDoV= 1 UseB2=F ITyADJ=14
 ICtDFT=  3500011 ScaDFX=  1.000000  1.000000  1.000000  1.000000
 FoFCou: FMM=F IPFlag=           0 FMFlag=      100000 FMFlg1=           0
         NFxFlg=           0 DoJE=T BraDBF=F KetDBF=T FulRan=T
         wScrn=  0.000000 ICntrl=       500 IOpCl=  0 I1Cent=   200000004 NGrid=           0
         NMat0=    1 NMatS0=      1 NMatT0=    0 NMatD0=    1 NMtDS0=    0 NMtDT0=    0
 Petite list used in FoFCou.
 Requested convergence on RMS density matrix=1.00D-08 within 128 cycles.
 Requested convergence on MAX density matrix=1.00D-06.
 Requested convergence on             energy=1.00D-06.
 No special actions if energy rises.
 Integral accuracy reduced to 1.0D-05 until final iterations.
 Initial convergence to 1.0D-05 achieved.  Increase integral accuracy.
 SCF Done:  E(UB3LYP) =  -157.670371656     A.U. after   10 cycles
            NFock= 10  Conv=0.24D-08     -V/T= 2.0120
 <Sx>= 0.0000 <Sy>= 0.0000 <Sz>= 0.5000 <S**2>= 0.7540 S= 0.5020
 <L.S>=  0.00000000000    
 Annihilation of the first spin contaminant:
 S**2 before annihilation     0.7540,   after     0.7500
   1 Symmetry operations used in ECPInt.
 ECPInt:  NShTT=     903 NPrTT=    3649 LenC2=     903 LenP2D=    3133.
 LDataN:  DoStor=T MaxTD1= 5 Len=  102
 Calling FoFJK, ICntrl=      2127 FMM=F ISym2X=0 I1Cent= 0 IOpClX= 1 NMat=1 NMatS=1 NMatT=0.
 ***** Axes restored to original set *****
 -------------------------------------------------------------------
 Center     Atomic                   Forces (Hartrees/Bohr)
 Number     Number              X              Y              Z
 -------------------------------------------------------------------
      1        6          -0.000463119   -0.000031758    0.000059741
      2        6           0.000278392   -0.000040515   -0.000233539
      3        6          -0.000211460   -0.000288516    0.000302358
      4        6           0.000137716   -0.000019241   -0.000080781
      5        1          -0.000018017    0.000048087   -0.000105651
      6        1           0.000050946    0.000049334    0.000058274
      7        1           0.000021334   -0.000061234   -0.000060503
      8        1           0.000034728    0.000194236    0.000086674
      9        1          -0.000008623    0.000051677   -0.000097799
     10        1           0.000068832    0.000128988    0.000030405
     11        1           0.000014745   -0.000044145   -0.000063562
     12        1           0.000071271   -0.000068299    0.000088042
     13        1           0.000023254    0.000081385    0.000016342
 -------------------------------------------------------------------
 Cartesian Forces:  Max     0.000463119 RMS     0.000137771

 GradGradGradGradGradGradGradGradGradGradGradGradGradGradGradGradGradGrad
 Berny optimization.
 Using GEDIIS/GDIIS optimizer.
 FormGI is forming the generalized inverse of G from B-inverse, IUseBI=4.
 Internal  Forces:  Max     0.000411203 RMS     0.000090450
 Search for a local minimum.
 Step number   6 out of a maximum of   64
 All quantities printed in internal units (Hartrees-Bohrs-Radians)
 Mixed Optimization -- En-DIIS/RFO-DIIS
 Swapping is turned off.
 Update second derivatives using D2CorX and points    1    2    3    4    5
                                                      6
 DE= -6.53D-06 DEPred=-3.49D-06 R= 1.87D+00
 TightC=F SS=  1.41D+00  RLast= 4.54D-02 DXNew= 8.4853D-01 1.3627D-01
 Trust test= 1.87D+00 RLast= 4.54D-02 DXMaxT set to 5.05D-01
 ITU=  1  1  1  1  1  0
     Eigenvalues ---    0.00104   0.00529   0.00908   0.01122   0.03985
     Eigenvalues ---    0.05015   0.05542   0.05640   0.07042   0.07174
     Eigenvalues ---    0.09803   0.13021   0.15077   0.15727   0.15996
     Eigenvalues ---    0.16000   0.16003   0.16122   0.16512   0.21841
     Eigenvalues ---    0.22887   0.31007   0.32198   0.33104   0.34188
     Eigenvalues ---    0.34206   0.34218   0.34320   0.34342   0.34357
     Eigenvalues ---    0.34452   0.35448   0.49502
 En-DIIS/RFO-DIIS/Sim-DIIS IScMMF=       -3 using points:     6    5    4    3    2
 RFO step:  Lambda=-1.55870300D-05.
 DIIS inversion failure, remove point   5.
 DIIS inversion failure, remove point   4.
 RFO-DIIS uses    3 points instead of    5
 DidBck=F Rises=F RFO-DIIS coefs:    1.76504   -2.00000    1.23496    0.00000    0.00000
 Iteration  1 RMS(Cart)=  0.02687209 RMS(Int)=  0.00026802
 Iteration  2 RMS(Cart)=  0.00035724 RMS(Int)=  0.00000183
 Iteration  3 RMS(Cart)=  0.00000004 RMS(Int)=  0.00000183
 Variable       Old X    -DE/DX   Delta X   Delta X   Delta X     New X
                                 (Linear)    (Quad)   (Total)
    R1        2.81620   0.00041   0.00093  -0.00033   0.00060   2.81680
    R2        2.08667   0.00011   0.00011  -0.00005   0.00006   2.08672
    R3        2.10725   0.00004  -0.00026  -0.00021  -0.00047   2.10678
    R4        2.09454   0.00005  -0.00012  -0.00026  -0.00038   2.09416
    R5        2.82256   0.00026   0.00065  -0.00027   0.00038   2.82294
    R6        2.07359   0.00014   0.00010   0.00002   0.00012   2.07371
    R7        2.89285   0.00025   0.00064   0.00062   0.00127   2.89411
    R8        2.09907  -0.00002  -0.00040  -0.00107  -0.00147   2.09760
    R9        2.10915   0.00003  -0.00024   0.00009  -0.00015   2.10900
   R10        2.08778   0.00007   0.00001  -0.00020  -0.00020   2.08758
   R11        2.08642   0.00013   0.00014  -0.00004   0.00010   2.08652
   R12        2.08872   0.00009   0.00000  -0.00013  -0.00013   2.08859
    A1        1.95735  -0.00000  -0.00042  -0.00085  -0.00128   1.95608
    A2        1.95676  -0.00009  -0.00032   0.00087   0.00056   1.95731
    A3        1.94854  -0.00004  -0.00008   0.00031   0.00022   1.94876
    A4        1.86249   0.00005   0.00017  -0.00062  -0.00045   1.86203
    A5        1.88602   0.00000  -0.00018   0.00005  -0.00013   1.88590
    A6        1.84664   0.00009   0.00092   0.00024   0.00116   1.84780
    A7        2.11884  -0.00005   0.00004   0.00274   0.00277   2.12161
    A8        2.07516   0.00001  -0.00046  -0.00142  -0.00189   2.07328
    A9        2.06521   0.00003  -0.00018  -0.00237  -0.00255   2.06266
   A10        1.98931   0.00004  -0.00035  -0.00108  -0.00143   1.98788
   A11        1.91142  -0.00004  -0.00026   0.00037   0.00011   1.91153
   A12        1.91808  -0.00004  -0.00027   0.00079   0.00052   1.91860
   A13        1.91698  -0.00002  -0.00007   0.00076   0.00069   1.91767
   A14        1.90250  -0.00002  -0.00040  -0.00210  -0.00250   1.90000
   A15        1.81773   0.00008   0.00151   0.00149   0.00300   1.82073
   A16        1.93692  -0.00001   0.00010   0.00024   0.00034   1.93726
   A17        1.94562   0.00003  -0.00002  -0.00033  -0.00035   1.94527
   A18        1.93693  -0.00002   0.00001  -0.00005  -0.00005   1.93689
   A19        1.88441  -0.00001  -0.00009   0.00029   0.00021   1.88461
   A20        1.87679   0.00002   0.00012   0.00004   0.00016   1.87695
   A21        1.88045  -0.00001  -0.00012  -0.00018  -0.00031   1.88014
    D1       -2.90289  -0.00002  -0.00160  -0.00277  -0.00438  -2.90727
    D2        0.47611   0.00003   0.00131   0.00268   0.00398   0.48009
    D3        1.28529  -0.00002  -0.00130  -0.00199  -0.00328   1.28200
    D4       -1.61890   0.00003   0.00161   0.00346   0.00508  -1.61383
    D5       -0.78334  -0.00005  -0.00219  -0.00309  -0.00529  -0.78862
    D6        2.59566   0.00000   0.00072   0.00235   0.00307   2.59873
    D7        3.00592  -0.00003  -0.00518  -0.03970  -0.04488   2.96103
    D8        0.85078  -0.00000  -0.00463  -0.04020  -0.04484   0.80594
    D9       -1.13600  -0.00005  -0.00615  -0.04262  -0.04877  -1.18477
   D10       -0.37177  -0.00008  -0.00811  -0.04500  -0.05311  -0.42488
   D11       -2.52691  -0.00005  -0.00756  -0.04550  -0.05306  -2.57997
   D12        1.76950  -0.00010  -0.00908  -0.04791  -0.05700   1.71250
   D13       -1.04300  -0.00001  -0.00124   0.00169   0.00045  -1.04255
   D14        3.13899  -0.00001  -0.00119   0.00137   0.00019   3.13917
   D15        1.04279  -0.00001  -0.00102   0.00186   0.00085   1.04364
   D16        1.10912  -0.00005  -0.00189   0.00197   0.00008   1.10920
   D17       -0.99208  -0.00005  -0.00183   0.00166  -0.00018  -0.99226
   D18       -3.08827  -0.00005  -0.00167   0.00215   0.00048  -3.08779
   D19        3.09042   0.00002  -0.00035   0.00300   0.00265   3.09307
   D20        0.98922   0.00002  -0.00029   0.00269   0.00239   0.99161
   D21       -1.10697   0.00002  -0.00012   0.00318   0.00305  -1.10392
         Item               Value     Threshold  Converged?
 Maximum Force            0.000411     0.000450     YES
 RMS     Force            0.000090     0.000300     YES
 Maximum Displacement     0.079819     0.001800     NO 
 RMS     Displacement     0.026866     0.001200     NO 
 Predicted change in Energy=-7.519854D-06
 GradGradGradGradGradGradGradGradGradGradGradGradGradGradGradGradGradGrad

                          Input orientation:                          
 ---------------------------------------------------------------------
 Center     Atomic      Atomic             Coordinates (Angstroms)
 Number     Number       Type             X           Y           Z
 ---------------------------------------------------------------------
      1          6           0        0.908765    0.260188    0.117219
      2          6           0        2.387492    0.196700    0.293832
      3          6           0        3.026686   -0.828807    1.172076
      4          6           0        4.550413   -0.899891    1.035355
      5          1           0        0.619449    0.905223   -0.731066
      6          1           0        0.394925    0.667477    1.018882
      7          1           0        0.473533   -0.744883   -0.051529
      8          1           0        2.996295    1.047541   -0.037264
      9          1           0        2.582280   -1.824430    0.963888
     10          1           0        2.769129   -0.629292    2.239498
     11          1           0        4.843809   -1.145749   -0.000904
     12          1           0        4.980409   -1.667408    1.702548
     13          1           0        5.016336    0.068771    1.292566
 ---------------------------------------------------------------------
                    Distance matrix (angstroms):
                    1          2          3          4          5
     1  C    0.000000
     2  C    1.490589   0.000000
     3  C    2.604654   1.493836   0.000000
     4  C    3.930693   2.535862   1.531498   0.000000
     5  H    1.104247   2.162960   3.524713   4.672382   0.000000
     6  H    1.114860   2.172015   3.031254   4.441283   1.780239
     7  H    1.108184   2.160808   2.832462   4.222119   1.790507
     8  H    2.236419   1.097359   2.232512   2.712616   2.480124
     9  H    2.804127   2.138196   1.110001   2.175644   3.765180
    10  H    2.959087   2.147912   1.116034   2.167061   3.974935
    11  H    4.180333   2.814700   2.185926   1.104700   4.752352
    12  H    4.775686   3.490358   2.191275   1.104140   5.617729
    13  H    4.276706   2.815076   2.186062   1.105236   4.911960
                    6          7          8          9         10
     6  H    0.000000
     7  H    1.773900   0.000000
     8  H    2.833200   3.094725   0.000000
     9  H    3.316195   2.577461   3.069517   0.000000
    10  H    2.967888   3.245292   2.836727   1.757967   0.000000
    11  H    4.911245   4.388915   2.867953   2.550676   3.096842
    12  H    5.190930   4.923390   3.786107   2.514219   2.501152
    13  H    4.668061   4.806837   2.609023   3.101107   2.536515
                   11         12         13
    11  H    0.000000
    12  H    1.786767   0.000000
    13  H    1.782664   1.784291   0.000000
 Stoichiometry    C4H9(2)
 Framework group  C1[X(C4H9)]
 Deg. of freedom    33
 Full point group                 C1      NOp   1
 Largest Abelian subgroup         C1      NOp   1
 Largest concise Abelian subgroup C1      NOp   1
                         Standard orientation:                         
 ---------------------------------------------------------------------
 Center     Atomic      Atomic             Coordinates (Angstroms)
 Number     Number       Type             X           Y           Z
 ---------------------------------------------------------------------
      1          6           0        1.987101    0.041894   -0.059229
      2          6           0        0.580773   -0.442654    0.037250
      3          6           0       -0.571940    0.506495    0.081033
      4          6           0       -1.937913   -0.168952   -0.071866
      5          1           0        2.689072   -0.770334   -0.317851
      6          1           0        2.346556    0.482412    0.899754
      7          1           0        2.092792    0.841971   -0.818687
      8          1           0        0.400238   -1.490148    0.309941
      9          1           0       -0.444293    1.281504   -0.703294
     10          1           0       -0.557511    1.078483    1.039236
     11          1           0       -2.008452   -0.705827   -1.034754
     12          1           0       -2.759479    0.567600   -0.031321
     13          1           0       -2.107049   -0.906354    0.733850
 ---------------------------------------------------------------------
 Rotational constants (GHZ):          26.3882439           3.6186700           3.4004503
 Standard basis: def2SVPP (5D, 7F)
 There are    78 symmetry adapted cartesian basis functions of A   symmetry.
 There are    74 symmetry adapted basis functions of A   symmetry.
    74 basis functions,   136 primitive gaussians,    78 cartesian basis functions
    17 alpha electrons       16 beta electrons
       nuclear repulsion energy       121.5338946504 Hartrees.
 NAtoms=   13 NActive=   13 NUniq=   13 SFac= 1.00D+00 NAtFMM=   60 NAOKFM=F Big=F
 Integral buffers will be    131072 words long.
 Raffenetti 2 integral format.
 Two-electron integral symmetry is turned on.
 Nuclear repulsion after empirical dispersion term =      121.5206028576 Hartrees.
 One-electron integrals computed using PRISM.
   1 Symmetry operations used in ECPInt.
 ECPInt:  NShTT=     903 NPrTT=    3649 LenC2=     903 LenP2D=    3133.
 LDataN:  DoStor=T MaxTD1= 4 Len=   56
 NBasis=    74 RedAO= T EigKep=  2.54D-03  NBF=    74
 NBsUse=    74 1.00D-06 EigRej= -1.00D+00 NBFU=    74
 Initial guess from the checkpoint file:  "/tmp/scratch/Gau-3761564.chk"
 B after Tr=     0.000000   -0.000000    0.000000
         Rot=    0.999999   -0.000932    0.000301   -0.000266 Ang=  -0.12 deg.
 Initial guess <Sx>= 0.0000 <Sy>= 0.0000 <Sz>= 0.5000 <S**2>= 0.7540 S= 0.5020
 ExpMin= 1.22D-01 ExpMax= 1.24D+03 ExpMxC= 1.86D+02 IAcc=3 IRadAn=         5 AccDes= 0.00D+00
 Harris functional with IExCor=  402 and IRadAn=       5 diagonalized for initial guess.
 HarFok:  IExCor=  402 AccDes= 0.00D+00 IRadAn=         5 IDoV= 1 UseB2=F ITyADJ=14
 ICtDFT=  3500011 ScaDFX=  1.000000  1.000000  1.000000  1.000000
 FoFCou: FMM=F IPFlag=           0 FMFlag=      100000 FMFlg1=           0
         NFxFlg=           0 DoJE=T BraDBF=F KetDBF=T FulRan=T
         wScrn=  0.000000 ICntrl=       500 IOpCl=  0 I1Cent=   200000004 NGrid=           0
         NMat0=    1 NMatS0=      1 NMatT0=    0 NMatD0=    1 NMtDS0=    0 NMtDT0=    0
 Petite list used in FoFCou.
 Requested convergence on RMS density matrix=1.00D-08 within 128 cycles.
 Requested convergence on MAX density matrix=1.00D-06.
 Requested convergence on             energy=1.00D-06.
 No special actions if energy rises.
 Integral accuracy reduced to 1.0D-05 until final iterations.
 Initial convergence to 1.0D-05 achieved.  Increase integral accuracy.
 SCF Done:  E(UB3LYP) =  -157.670383539     A.U. after   10 cycles
            NFock= 10  Conv=0.65D-08     -V/T= 2.0120
 <Sx>= 0.0000 <Sy>= 0.0000 <Sz>= 0.5000 <S**2>= 0.7540 S= 0.5020
 <L.S>=  0.00000000000    
 Annihilation of the first spin contaminant:
 S**2 before annihilation     0.7540,   after     0.7500
   1 Symmetry operations used in ECPInt.
 ECPInt:  NShTT=     903 NPrTT=    3649 LenC2=     903 LenP2D=    3133.
 LDataN:  DoStor=T MaxTD1= 5 Len=  102
 Calling FoFJK, ICntrl=      2127 FMM=F ISym2X=0 I1Cent= 0 IOpClX= 1 NMat=1 NMatS=1 NMatT=0.
 ***** Axes restored to original set *****
 -------------------------------------------------------------------
 Center     Atomic                   Forces (Hartrees/Bohr)
 Number     Number              X              Y              Z
 -------------------------------------------------------------------
      1        6          -0.000168125    0.000010732   -0.000070785
      2        6           0.000177310   -0.000074784   -0.000236137
      3        6           0.000082486    0.000048770    0.000070191
      4        6          -0.000004100   -0.000112695   -0.000011272
      5        1          -0.000044526    0.000043003   -0.000099786
      6        1          -0.000028818    0.000048050    0.000202745
      7        1          -0.000022718   -0.000136219    0.000003194
      8        1           0.000087272    0.000216165    0.000073600
      9        1          -0.000090437   -0.000112284   -0.000067622
     10        1          -0.000088176    0.000031693    0.000135251
     11        1           0.000004376   -0.000050304   -0.000100556
     12        1           0.000062066   -0.000057579    0.000103292
     13        1           0.000033388    0.000145452   -0.000002115
 -------------------------------------------------------------------
 Cartesian Forces:  Max     0.000236137 RMS     0.000100667

 GradGradGradGradGradGradGradGradGradGradGradGradGradGradGradGradGradGrad
 Berny optimization.
 Using GEDIIS/GDIIS optimizer.
 FormGI is forming the generalized inverse of G from B-inverse, IUseBI=4.
 Internal  Forces:  Max     0.000256322 RMS     0.000092410
 Search for a local minimum.
 Step number   7 out of a maximum of   64
 All quantities printed in internal units (Hartrees-Bohrs-Radians)
 Mixed Optimization -- En-DIIS/RFO-DIIS
 Swapping is turned off.
 Update second derivatives using D2CorX and points    1    2    3    4    5
                                                      6    7
 DE= -1.19D-05 DEPred=-7.52D-06 R= 1.58D+00
 TightC=F SS=  1.41D+00  RLast= 1.24D-01 DXNew= 8.4853D-01 3.7307D-01
 Trust test= 1.58D+00 RLast= 1.24D-01 DXMaxT set to 5.05D-01
 ITU=  1  1  1  1  1  1  0
     Eigenvalues ---    0.00069   0.00518   0.00906   0.01046   0.03993
     Eigenvalues ---    0.05021   0.05544   0.05643   0.07052   0.07289
     Eigenvalues ---    0.09865   0.13060   0.14766   0.15685   0.16000
     Eigenvalues ---    0.16002   0.16009   0.16126   0.16523   0.22164
     Eigenvalues ---    0.22970   0.31031   0.33057   0.33495   0.34188
     Eigenvalues ---    0.34214   0.34239   0.34322   0.34360   0.34397
     Eigenvalues ---    0.34611   0.35586   0.43849
 En-DIIS/RFO-DIIS/Sim-DIIS IScMMF=       -3 using points:     7    6    5    4    3    2
 RFO step:  Lambda=-6.76032936D-06.
 DIIS inversion failure, remove point   6.
 DIIS inversion failure, remove point   5.
 DIIS inversion failure, remove point   4.
 RFO-DIIS uses    3 points instead of    6
 DidBck=F Rises=F RFO-DIIS coefs:    1.34204   -2.00000    1.65796    0.00000    0.00000
                  RFO-DIIS coefs:    0.00000
 Iteration  1 RMS(Cart)=  0.01794912 RMS(Int)=  0.00013913
 Iteration  2 RMS(Cart)=  0.00016598 RMS(Int)=  0.00000917
 Iteration  3 RMS(Cart)=  0.00000001 RMS(Int)=  0.00000917
 Variable       Old X    -DE/DX   Delta X   Delta X   Delta X     New X
                                 (Linear)    (Quad)   (Total)
    R1        2.81680   0.00026   0.00037   0.00061   0.00097   2.81778
    R2        2.08672   0.00011   0.00024  -0.00003   0.00022   2.08694
    R3        2.10678   0.00019   0.00049  -0.00023   0.00026   2.10704
    R4        2.09416   0.00013   0.00036  -0.00030   0.00006   2.09422
    R5        2.82294   0.00015   0.00025   0.00033   0.00058   2.82353
    R6        2.07371   0.00019   0.00031   0.00024   0.00055   2.07426
    R7        2.89411   0.00010  -0.00007   0.00097   0.00091   2.89502
    R8        2.09760   0.00015   0.00069  -0.00116  -0.00047   2.09713
    R9        2.10900   0.00016   0.00034  -0.00003   0.00031   2.10931
   R10        2.08758   0.00011   0.00026  -0.00017   0.00009   2.08767
   R11        2.08652   0.00013   0.00027   0.00003   0.00031   2.08683
   R12        2.08859   0.00014   0.00032  -0.00005   0.00026   2.08886
    A1        1.95608   0.00007   0.00072  -0.00069   0.00002   1.95610
    A2        1.95731  -0.00011  -0.00078   0.00010  -0.00068   1.95663
    A3        1.94876  -0.00005  -0.00052   0.00019  -0.00032   1.94844
    A4        1.86203   0.00005   0.00061  -0.00028   0.00033   1.86237
    A5        1.88590   0.00001   0.00020  -0.00004   0.00016   1.88605
    A6        1.84780   0.00004  -0.00021   0.00077   0.00057   1.84837
    A7        2.12161  -0.00025  -0.00198   0.00168  -0.00034   2.12127
    A8        2.07328   0.00013   0.00044  -0.00150  -0.00110   2.07218
    A9        2.06266   0.00010   0.00069  -0.00241  -0.00176   2.06090
   A10        1.98788   0.00009   0.00071  -0.00093  -0.00022   1.98766
   A11        1.91153  -0.00004  -0.00047   0.00019  -0.00028   1.91125
   A12        1.91860  -0.00008  -0.00051   0.00004  -0.00047   1.91813
   A13        1.91767  -0.00003  -0.00027   0.00056   0.00028   1.91795
   A14        1.90000   0.00004   0.00117  -0.00196  -0.00078   1.89922
   A15        1.82073   0.00001  -0.00076   0.00239   0.00163   1.82236
   A16        1.93726  -0.00003  -0.00034   0.00030  -0.00005   1.93721
   A17        1.94527   0.00003   0.00042  -0.00040   0.00002   1.94529
   A18        1.93689  -0.00004  -0.00029   0.00001  -0.00028   1.93660
   A19        1.88461   0.00001   0.00006   0.00029   0.00034   1.88496
   A20        1.87695   0.00002   0.00001   0.00005   0.00007   1.87702
   A21        1.88014   0.00001   0.00016  -0.00024  -0.00009   1.88005
    D1       -2.90727  -0.00003  -0.00176  -0.00481  -0.00656  -2.91383
    D2        0.48009   0.00005   0.00224   0.00607   0.00832   0.48840
    D3        1.28200  -0.00007  -0.00250  -0.00403  -0.00653   1.27547
    D4       -1.61383   0.00001   0.00150   0.00685   0.00835  -1.60548
    D5       -0.78862  -0.00001  -0.00136  -0.00522  -0.00658  -0.79520
    D6        2.59873   0.00007   0.00264   0.00567   0.00830   2.60703
    D7        2.96103  -0.00000   0.01431  -0.04049  -0.02618   2.93486
    D8        0.80594  -0.00000   0.01452  -0.04069  -0.02617   0.77977
    D9       -1.18477   0.00005   0.01596  -0.04367  -0.02771  -1.21248
   D10       -0.42488  -0.00008   0.01031  -0.05119  -0.04088  -0.46576
   D11       -2.57997  -0.00008   0.01052  -0.05139  -0.04087  -2.62084
   D12        1.71250  -0.00002   0.01196  -0.05437  -0.04241   1.67009
   D13       -1.04255  -0.00002  -0.00350  -0.00251  -0.00601  -1.04856
   D14        3.13917  -0.00003  -0.00362  -0.00281  -0.00643   3.13274
   D15        1.04364  -0.00003  -0.00390  -0.00224  -0.00614   1.03750
   D16        1.10920  -0.00002  -0.00381  -0.00251  -0.00632   1.10288
   D17       -0.99226  -0.00003  -0.00393  -0.00281  -0.00674  -0.99900
   D18       -3.08779  -0.00004  -0.00421  -0.00224  -0.00645  -3.09425
   D19        3.09307  -0.00000  -0.00422  -0.00044  -0.00466   3.08841
   D20        0.99161  -0.00002  -0.00434  -0.00074  -0.00508   0.98653
   D21       -1.10392  -0.00002  -0.00462  -0.00017  -0.00479  -1.10871
         Item               Value     Threshold  Converged?
 Maximum Force            0.000256     0.000450     YES
 RMS     Force            0.000092     0.000300     YES
 Maximum Displacement     0.057387     0.001800     NO 
 RMS     Displacement     0.017951     0.001200     NO 
 Predicted change in Energy=-2.512941D-06
 GradGradGradGradGradGradGradGradGradGradGradGradGradGradGradGradGradGrad

                          Input orientation:                          
 ---------------------------------------------------------------------
 Center     Atomic      Atomic             Coordinates (Angstroms)
 Number     Number       Type             X           Y           Z
 ---------------------------------------------------------------------
      1          6           0        0.909941    0.255766    0.110818
      2          6           0        2.387956    0.203430    0.300881
      3          6           0        3.027179   -0.822433    1.179214
      4          6           0        4.549594   -0.905237    1.029712
      5          1           0        0.622730    0.908807   -0.732191
      6          1           0        0.384463    0.647213    1.012961
      7          1           0        0.485876   -0.751174   -0.074593
      8          1           0        2.990389    1.067831   -0.006897
      9          1           0        2.573649   -1.815463    0.979817
     10          1           0        2.781159   -0.614149    2.247856
     11          1           0        4.832031   -1.164563   -0.006361
     12          1           0        4.980618   -1.667959    1.701989
     13          1           0        5.023937    0.063370    1.271894
 ---------------------------------------------------------------------
                    Distance matrix (angstroms):
                    1          2          3          4          5
     1  C    0.000000
     2  C    1.491104   0.000000
     3  C    2.605126   1.494145   0.000000
     4  C    3.929296   2.536339   1.531978   0.000000
     5  H    1.104362   2.163519   3.525909   4.670687   0.000000
     6  H    1.114998   2.172093   3.028440   4.445076   1.780662
     7  H    1.108213   2.161055   2.834666   4.213909   1.790726
     8  H    2.236419   1.097653   2.231885   2.720050   2.481360
     9  H    2.795187   2.138075   1.109755   2.176088   3.762804
    10  H    2.970714   2.147966   1.116201   2.167019   3.982322
    11  H    4.172992   2.817678   2.186352   1.104748   4.748042
    12  H    4.775244   3.491003   2.191833   1.104302   5.617485
    13  H    4.279028   2.812628   2.186385   1.105375   4.909352
                    6          7          8          9         10
     6  H    0.000000
     7  H    1.774414   0.000000
     8  H    2.829820   3.096118   0.000000
     9  H    3.295210   2.569687   3.075818   0.000000
    10  H    2.976601   3.268160   2.820770   1.759016   0.000000
    11  H    4.909421   4.366304   2.893999   2.548824   3.096858
    12  H    5.192247   4.919293   3.790231   2.517298   2.499222
    13  H    4.683229   4.803177   2.603760   3.101489   2.538028
                   11         12         13
    11  H    0.000000
    12  H    1.787161   0.000000
    13  H    1.782859   1.784477   0.000000
 Stoichiometry    C4H9(2)
 Framework group  C1[X(C4H9)]
 Deg. of freedom    33
 Full point group                 C1      NOp   1
 Largest Abelian subgroup         C1      NOp   1
 Largest concise Abelian subgroup C1      NOp   1
                         Standard orientation:                         
 ---------------------------------------------------------------------
 Center     Atomic      Atomic             Coordinates (Angstroms)
 Number     Number       Type             X           Y           Z
 ---------------------------------------------------------------------
      1          6           0        1.986373    0.042472   -0.066918
      2          6           0        0.581043   -0.443156    0.045358
      3          6           0       -0.572391    0.505505    0.091220
      4          6           0       -1.937222   -0.168648   -0.081148
      5          1           0        2.688216   -0.772256   -0.318414
      6          1           0        2.350465    0.497075    0.883868
      7          1           0        2.085541    0.831821   -0.838429
      8          1           0        0.405062   -1.485237    0.341902
      9          1           0       -0.438213    1.289683   -0.682484
     10          1           0       -0.566398    1.064499    1.057344
     11          1           0       -2.001801   -0.688673   -1.053707
     12          1           0       -2.759918    0.566355   -0.031891
     13          1           0       -2.109769   -0.920308    0.710739
 ---------------------------------------------------------------------
 Rotational constants (GHZ):          26.2942526           3.6181432           3.4029153
 Standard basis: def2SVPP (5D, 7F)
 There are    78 symmetry adapted cartesian basis functions of A   symmetry.
 There are    74 symmetry adapted basis functions of A   symmetry.
    74 basis functions,   136 primitive gaussians,    78 cartesian basis functions
    17 alpha electrons       16 beta electrons
       nuclear repulsion energy       121.5153512703 Hartrees.
 NAtoms=   13 NActive=   13 NUniq=   13 SFac= 1.00D+00 NAtFMM=   60 NAOKFM=F Big=F
 Integral buffers will be    131072 words long.
 Raffenetti 2 integral format.
 Two-electron integral symmetry is turned on.
 Nuclear repulsion after empirical dispersion term =      121.5020616257 Hartrees.
 One-electron integrals computed using PRISM.
   1 Symmetry operations used in ECPInt.
 ECPInt:  NShTT=     903 NPrTT=    3649 LenC2=     903 LenP2D=    3133.
 LDataN:  DoStor=T MaxTD1= 4 Len=   56
 NBasis=    74 RedAO= T EigKep=  2.56D-03  NBF=    74
 NBsUse=    74 1.00D-06 EigRej= -1.00D+00 NBFU=    74
 Initial guess from the checkpoint file:  "/tmp/scratch/Gau-3761564.chk"
 B after Tr=    -0.000000    0.000000    0.000000
         Rot=    0.999999   -0.001591    0.000127   -0.000187 Ang=  -0.18 deg.
 Initial guess <Sx>= 0.0000 <Sy>= 0.0000 <Sz>= 0.5000 <S**2>= 0.7540 S= 0.5020
 ExpMin= 1.22D-01 ExpMax= 1.24D+03 ExpMxC= 1.86D+02 IAcc=3 IRadAn=         5 AccDes= 0.00D+00
 Harris functional with IExCor=  402 and IRadAn=       5 diagonalized for initial guess.
 HarFok:  IExCor=  402 AccDes= 0.00D+00 IRadAn=         5 IDoV= 1 UseB2=F ITyADJ=14
 ICtDFT=  3500011 ScaDFX=  1.000000  1.000000  1.000000  1.000000
 FoFCou: FMM=F IPFlag=           0 FMFlag=      100000 FMFlg1=           0
         NFxFlg=           0 DoJE=T BraDBF=F KetDBF=T FulRan=T
         wScrn=  0.000000 ICntrl=       500 IOpCl=  0 I1Cent=   200000004 NGrid=           0
         NMat0=    1 NMatS0=      1 NMatT0=    0 NMatD0=    1 NMtDS0=    0 NMtDT0=    0
 Petite list used in FoFCou.
 Requested convergence on RMS density matrix=1.00D-08 within 128 cycles.
 Requested convergence on MAX density matrix=1.00D-06.
 Requested convergence on             energy=1.00D-06.
 No special actions if energy rises.
 Integral accuracy reduced to 1.0D-05 until final iterations.
 Initial convergence to 1.0D-05 achieved.  Increase integral accuracy.
 SCF Done:  E(UB3LYP) =  -157.670389429     A.U. after   10 cycles
            NFock= 10  Conv=0.86D-08     -V/T= 2.0120
 <Sx>= 0.0000 <Sy>= 0.0000 <Sz>= 0.5000 <S**2>= 0.7540 S= 0.5020
 <L.S>=  0.00000000000    
 Annihilation of the first spin contaminant:
 S**2 before annihilation     0.7540,   after     0.7500
   1 Symmetry operations used in ECPInt.
 ECPInt:  NShTT=     903 NPrTT=    3649 LenC2=     903 LenP2D=    3133.
 LDataN:  DoStor=T MaxTD1= 5 Len=  102
 Calling FoFJK, ICntrl=      2127 FMM=F ISym2X=0 I1Cent= 0 IOpClX= 1 NMat=1 NMatS=1 NMatT=0.
 ***** Axes restored to original set *****
 -------------------------------------------------------------------
 Center     Atomic                   Forces (Hartrees/Bohr)
 Number     Number              X              Y              Z
 -------------------------------------------------------------------
      1        6           0.000071707   -0.000002071   -0.000064926
      2        6           0.000010823   -0.000036320   -0.000091051
      3        6           0.000149708    0.000115943   -0.000088159
      4        6          -0.000082422   -0.000068716    0.000023568
      5        1          -0.000022309    0.000011162   -0.000031232
      6        1          -0.000039064    0.000021829    0.000115440
      7        1          -0.000019900   -0.000066610    0.000029798
      8        1           0.000044991    0.000088606    0.000038420
      9        1          -0.000058481   -0.000085366   -0.000005440
     10        1          -0.000081694   -0.000019691    0.000090509
     11        1          -0.000000011   -0.000020206   -0.000047387
     12        1           0.000009108   -0.000011584    0.000043077
     13        1           0.000017545    0.000073024   -0.000012619
 -------------------------------------------------------------------
 Cartesian Forces:  Max     0.000149708 RMS     0.000061038

 GradGradGradGradGradGradGradGradGradGradGradGradGradGradGradGradGradGrad
 Berny optimization.
 Using GEDIIS/GDIIS optimizer.
 FormGI is forming the generalized inverse of G from B-inverse, IUseBI=4.
 Internal  Forces:  Max     0.000164683 RMS     0.000047399
 Search for a local minimum.
 Step number   8 out of a maximum of   64
 All quantities printed in internal units (Hartrees-Bohrs-Radians)
 Mixed Optimization -- En-DIIS/RFO-DIIS
 Swapping is turned off.
 Update second derivatives using D2CorX and points    1    2    3    4    5
                                                      6    7    8
 DE= -5.89D-06 DEPred=-2.51D-06 R= 2.34D+00
 TightC=F SS=  1.41D+00  RLast= 8.91D-02 DXNew= 8.4853D-01 2.6732D-01
 Trust test= 2.34D+00 RLast= 8.91D-02 DXMaxT set to 5.05D-01
 ITU=  1  1  1  1  1  1  1  0
     Eigenvalues ---    0.00069   0.00450   0.00867   0.00915   0.03991
     Eigenvalues ---    0.05266   0.05544   0.05642   0.07064   0.07311
     Eigenvalues ---    0.09761   0.12963   0.14656   0.15590   0.15999
     Eigenvalues ---    0.16002   0.16004   0.16064   0.16536   0.21086
     Eigenvalues ---    0.23063   0.31032   0.33092   0.34113   0.34186
     Eigenvalues ---    0.34220   0.34252   0.34321   0.34353   0.34407
     Eigenvalues ---    0.35004   0.36917   0.39262
 En-DIIS/RFO-DIIS/Sim-DIIS IScMMF=       -3 using points:     8    7    6    5    4    3    2
 RFO step:  Lambda=-1.55589547D-06.
 DIIS inversion failure, remove point   7.
 DIIS inversion failure, remove point   6.
 DIIS inversion failure, remove point   5.
 DIIS inversion failure, remove point   4.
 RFO-DIIS uses    3 points instead of    7
 DidBck=F Rises=F RFO-DIIS coefs:    1.69403   -1.08162    0.38759    0.00000    0.00000
                  RFO-DIIS coefs:    0.00000    0.00000
 Iteration  1 RMS(Cart)=  0.00318542 RMS(Int)=  0.00000846
 Iteration  2 RMS(Cart)=  0.00000805 RMS(Int)=  0.00000294
 Iteration  3 RMS(Cart)=  0.00000000 RMS(Int)=  0.00000294
 Variable       Old X    -DE/DX   Delta X   Delta X   Delta X     New X
                                 (Linear)    (Quad)   (Total)
    R1        2.81778   0.00000   0.00044  -0.00032   0.00012   2.81790
    R2        2.08694   0.00004   0.00013  -0.00004   0.00009   2.08703
    R3        2.10704   0.00012   0.00036   0.00003   0.00039   2.10743
    R4        2.09422   0.00006   0.00019  -0.00004   0.00015   2.09437
    R5        2.82353  -0.00001   0.00026  -0.00019   0.00007   2.82359
    R6        2.07426   0.00008   0.00034  -0.00005   0.00029   2.07455
    R7        2.89502  -0.00005   0.00014  -0.00028  -0.00014   2.89487
    R8        2.09713   0.00010   0.00025  -0.00000   0.00025   2.09738
    R9        2.10931   0.00010   0.00028   0.00005   0.00033   2.10965
   R10        2.08767   0.00005   0.00014  -0.00001   0.00013   2.08780
   R11        2.08683   0.00004   0.00017  -0.00006   0.00011   2.08694
   R12        2.08886   0.00007   0.00023  -0.00002   0.00022   2.08907
    A1        1.95610   0.00004   0.00051   0.00004   0.00055   1.95665
    A2        1.95663  -0.00004  -0.00069   0.00010  -0.00059   1.95605
    A3        1.94844  -0.00002  -0.00031   0.00006  -0.00025   1.94819
    A4        1.86237   0.00002   0.00041  -0.00013   0.00028   1.86264
    A5        1.88605   0.00001   0.00016   0.00006   0.00022   1.88627
    A6        1.84837  -0.00001  -0.00006  -0.00015  -0.00021   1.84816
    A7        2.12127  -0.00016  -0.00131  -0.00000  -0.00132   2.11995
    A8        2.07218   0.00009  -0.00003   0.00010   0.00006   2.07224
    A9        2.06090   0.00006  -0.00024  -0.00000  -0.00025   2.06065
   A10        1.98766   0.00005   0.00040   0.00009   0.00049   1.98815
   A11        1.91125  -0.00001  -0.00024   0.00013  -0.00011   1.91113
   A12        1.91813  -0.00004  -0.00053   0.00001  -0.00051   1.91762
   A13        1.91795  -0.00001  -0.00007   0.00003  -0.00004   1.91792
   A14        1.89922   0.00003   0.00042  -0.00001   0.00041   1.89963
   A15        1.82236  -0.00002  -0.00003  -0.00028  -0.00032   1.82205
   A16        1.93721  -0.00002  -0.00016   0.00005  -0.00012   1.93709
   A17        1.94529  -0.00000   0.00015  -0.00012   0.00003   1.94531
   A18        1.93660  -0.00001  -0.00018   0.00008  -0.00010   1.93650
   A19        1.88496   0.00002   0.00016   0.00003   0.00019   1.88515
   A20        1.87702   0.00001  -0.00002  -0.00007  -0.00008   1.87694
   A21        1.88005   0.00001   0.00006   0.00003   0.00009   1.88014
    D1       -2.91383  -0.00001  -0.00286   0.00109  -0.00177  -2.91560
    D2        0.48840   0.00003   0.00423   0.00064   0.00486   0.49327
    D3        1.27547  -0.00003  -0.00326   0.00116  -0.00210   1.27337
    D4       -1.60548   0.00000   0.00383   0.00070   0.00453  -1.60095
    D5       -0.79520   0.00001  -0.00251   0.00124  -0.00128  -0.79648
    D6        2.60703   0.00005   0.00457   0.00079   0.00536   2.61239
    D7        2.93486   0.00000  -0.00077  -0.00021  -0.00098   2.93387
    D8        0.77977  -0.00001  -0.00079  -0.00041  -0.00120   0.77857
    D9       -1.21248   0.00005  -0.00033  -0.00015  -0.00048  -1.21296
   D10       -0.46576  -0.00003  -0.00779   0.00026  -0.00753  -0.47328
   D11       -2.62084  -0.00004  -0.00780   0.00005  -0.00775  -2.62859
   D12        1.67009   0.00002  -0.00734   0.00032  -0.00703   1.66307
   D13       -1.04856  -0.00001  -0.00434  -0.00031  -0.00465  -1.05322
   D14        3.13274  -0.00002  -0.00453  -0.00030  -0.00484   3.12791
   D15        1.03750  -0.00002  -0.00459  -0.00031  -0.00490   1.03260
   D16        1.10288  -0.00000  -0.00442  -0.00006  -0.00448   1.09840
   D17       -0.99900  -0.00001  -0.00461  -0.00005  -0.00466  -1.00366
   D18       -3.09425  -0.00001  -0.00466  -0.00006  -0.00472  -3.09897
   D19        3.08841  -0.00001  -0.00426  -0.00038  -0.00464   3.08377
   D20        0.98653  -0.00002  -0.00445  -0.00037  -0.00483   0.98171
   D21       -1.10871  -0.00002  -0.00451  -0.00038  -0.00489  -1.11360
         Item               Value     Threshold  Converged?
 Maximum Force            0.000165     0.000450     YES
 RMS     Force            0.000047     0.000300     YES
 Maximum Displacement     0.011242     0.001800     NO 
 RMS     Displacement     0.003186     0.001200     NO 
 Predicted change in Energy=-5.458680D-07
 GradGradGradGradGradGradGradGradGradGradGradGradGradGradGradGradGradGrad

                          Input orientation:                          
 ---------------------------------------------------------------------
 Center     Atomic      Atomic             Coordinates (Angstroms)
 Number     Number       Type             X           Y           Z
 ---------------------------------------------------------------------
      1          6           0        0.910410    0.255348    0.110306
      2          6           0        2.388582    0.204424    0.300044
      3          6           0        3.027245   -0.821800    1.178423
      4          6           0        4.549542   -0.906102    1.029338
      5          1           0        0.621678    0.909630   -0.731281
      6          1           0        0.385049    0.644171    1.013907
      7          1           0        0.487693   -0.751977   -0.076549
      8          1           0        2.989570    1.072099   -0.001839
      9          1           0        2.572800   -1.814588    0.979178
     10          1           0        2.780658   -0.613105    2.247037
     11          1           0        4.831744   -1.170512   -0.005585
     12          1           0        4.980232   -1.665754    1.705394
     13          1           0        5.024318    0.063609    1.266727
 ---------------------------------------------------------------------
                    Distance matrix (angstroms):
                    1          2          3          4          5
     1  C    0.000000
     2  C    1.491169   0.000000
     3  C    2.604249   1.494180   0.000000
     4  C    3.928978   2.536708   1.531901   0.000000
     5  H    1.104409   2.164000   3.525843   4.671700   0.000000
     6  H    1.115205   2.171894   3.026110   4.443713   1.781050
     7  H    1.108291   2.160996   2.833576   4.212524   1.790968
     8  H    2.236641   1.097807   2.231880   2.722153   2.483021
     9  H    2.793405   2.138122   1.109886   2.176091   3.762168
    10  H    2.969454   2.147757   1.116376   2.167392   3.981243
    11  H    4.174131   2.820089   2.186250   1.104815   4.751661
    12  H    4.774766   3.491307   2.191829   1.104362   5.618450
    13  H    4.277653   2.810945   2.186332   1.105489   4.908261
                    6          7          8          9         10
     6  H    0.000000
     7  H    1.774502   0.000000
     8  H    2.828143   3.097131   0.000000
     9  H    3.291345   2.567366   3.077182   0.000000
    10  H    2.973264   3.267418   2.817978   1.759043   0.000000
    11  H    4.909739   4.364744   2.902227   2.547042   3.097090
    12  H    5.189376   4.918660   3.791203   2.518983   2.497914
    13  H    4.682285   4.801098   2.601252   3.101653   2.540269
                   11         12         13
    11  H    0.000000
    12  H    1.787389   0.000000
    13  H    1.782952   1.784676   0.000000
 Stoichiometry    C4H9(2)
 Framework group  C1[X(C4H9)]
 Deg. of freedom    33
 Full point group                 C1      NOp   1
 Largest Abelian subgroup         C1      NOp   1
 Largest concise Abelian subgroup C1      NOp   1
                         Standard orientation:                         
 ---------------------------------------------------------------------
 Center     Atomic      Atomic             Coordinates (Angstroms)
 Number     Number       Type             X           Y           Z
 ---------------------------------------------------------------------
      1          6           0        1.985968    0.042943   -0.067432
      2          6           0        0.581117   -0.444289    0.044743
      3          6           0       -0.572044    0.504680    0.092212
      4          6           0       -1.937318   -0.167971   -0.081822
      5          1           0        2.689286   -0.770694   -0.318548
      6          1           0        2.348736    0.498531    0.883631
      7          1           0        2.084011    0.832558   -0.838927
      8          1           0        0.406099   -1.485310    0.346114
      9          1           0       -0.437160    1.290546   -0.679842
     10          1           0       -0.565361    1.061896    1.059559
     11          1           0       -2.003717   -0.681928   -1.057556
     12          1           0       -2.759780    0.566938   -0.026313
     13          1           0       -2.108449   -0.924713    0.705681
 ---------------------------------------------------------------------
 Rotational constants (GHZ):          26.2871022           3.6186254           3.4036172
 Standard basis: def2SVPP (5D, 7F)
 There are    78 symmetry adapted cartesian basis functions of A   symmetry.
 There are    74 symmetry adapted basis functions of A   symmetry.
    74 basis functions,   136 primitive gaussians,    78 cartesian basis functions
    17 alpha electrons       16 beta electrons
       nuclear repulsion energy       121.5156019287 Hartrees.
 NAtoms=   13 NActive=   13 NUniq=   13 SFac= 1.00D+00 NAtFMM=   60 NAOKFM=F Big=F
 Integral buffers will be    131072 words long.
 Raffenetti 2 integral format.
 Two-electron integral symmetry is turned on.
 Nuclear repulsion after empirical dispersion term =      121.5023112477 Hartrees.
 One-electron integrals computed using PRISM.
   1 Symmetry operations used in ECPInt.
 ECPInt:  NShTT=     903 NPrTT=    3649 LenC2=     903 LenP2D=    3132.
 LDataN:  DoStor=T MaxTD1= 4 Len=   56
 NBasis=    74 RedAO= T EigKep=  2.56D-03  NBF=    74
 NBsUse=    74 1.00D-06 EigRej= -1.00D+00 NBFU=    74
 Initial guess from the checkpoint file:  "/tmp/scratch/Gau-3761564.chk"
 B after Tr=    -0.000000   -0.000000   -0.000000
         Rot=    1.000000   -0.000915   -0.000040   -0.000011 Ang=  -0.10 deg.
 Initial guess <Sx>= 0.0000 <Sy>= 0.0000 <Sz>= 0.5000 <S**2>= 0.7540 S= 0.5020
 Requested convergence on RMS density matrix=1.00D-08 within 128 cycles.
 Requested convergence on MAX density matrix=1.00D-06.
 Requested convergence on             energy=1.00D-06.
 No special actions if energy rises.
 SCF Done:  E(UB3LYP) =  -157.670390587     A.U. after    8 cycles
            NFock=  8  Conv=0.87D-08     -V/T= 2.0120
 <Sx>= 0.0000 <Sy>= 0.0000 <Sz>= 0.5000 <S**2>= 0.7540 S= 0.5020
 <L.S>=  0.00000000000    
 Annihilation of the first spin contaminant:
 S**2 before annihilation     0.7540,   after     0.7500
   1 Symmetry operations used in ECPInt.
 ECPInt:  NShTT=     903 NPrTT=    3649 LenC2=     903 LenP2D=    3132.
 LDataN:  DoStor=T MaxTD1= 5 Len=  102
 Calling FoFJK, ICntrl=      2127 FMM=F ISym2X=0 I1Cent= 0 IOpClX= 1 NMat=1 NMatS=1 NMatT=0.
 ***** Axes restored to original set *****
 -------------------------------------------------------------------
 Center     Atomic                   Forces (Hartrees/Bohr)
 Number     Number              X              Y              Z
 -------------------------------------------------------------------
      1        6           0.000027575   -0.000015838    0.000000143
      2        6          -0.000009490   -0.000010752   -0.000020847
      3        6           0.000040856    0.000011911   -0.000038109
      4        6          -0.000030105   -0.000005832    0.000007620
      5        1          -0.000002516   -0.000001013   -0.000002434
      6        1          -0.000006825    0.000011771    0.000003098
      7        1           0.000000873    0.000001394    0.000012036
      8        1          -0.000002768    0.000009808    0.000017788
      9        1          -0.000007987    0.000000441    0.000005213
     10        1          -0.000012106   -0.000009053    0.000019048
     11        1           0.000002090   -0.000001137   -0.000000917
     12        1          -0.000002539    0.000004929    0.000001046
     13        1           0.000002942    0.000003372   -0.000003684
 -------------------------------------------------------------------
 Cartesian Forces:  Max     0.000040856 RMS     0.000013815

 GradGradGradGradGradGradGradGradGradGradGradGradGradGradGradGradGradGrad
 Berny optimization.
 Using GEDIIS/GDIIS optimizer.
 FormGI is forming the generalized inverse of G from B-inverse, IUseBI=4.
 Internal  Forces:  Max     0.000027990 RMS     0.000007616
 Search for a local minimum.
 Step number   9 out of a maximum of   64
 All quantities printed in internal units (Hartrees-Bohrs-Radians)
 Mixed Optimization -- En-DIIS/RFO-DIIS
 Swapping is turned off.
 Update second derivatives using D2CorX and points    1    2    3    4    5
                                                      6    7    8    9
 DE= -1.16D-06 DEPred=-5.46D-07 R= 2.12D+00
 TightC=F SS=  1.41D+00  RLast= 2.14D-02 DXNew= 8.4853D-01 6.4118D-02
 Trust test= 2.12D+00 RLast= 2.14D-02 DXMaxT set to 5.05D-01
 ITU=  1  1  1  1  1  1  1  1  0
     Eigenvalues ---    0.00074   0.00355   0.00773   0.00940   0.03990
     Eigenvalues ---    0.05178   0.05544   0.05638   0.07042   0.07182
     Eigenvalues ---    0.09599   0.12906   0.14944   0.15565   0.15937
     Eigenvalues ---    0.16001   0.16006   0.16068   0.16556   0.20159
     Eigenvalues ---    0.23137   0.31048   0.33084   0.33275   0.34187
     Eigenvalues ---    0.34220   0.34238   0.34318   0.34324   0.34364
     Eigenvalues ---    0.34667   0.35962   0.41280
 En-DIIS/RFO-DIIS/Sim-DIIS IScMMF=       -3 using points:     9    8    7    6    5    4    3    2
 RFO step:  Lambda=-1.05790634D-07.
 DIIS inversion failure, remove point   8.
 DIIS inversion failure, remove point   7.
 DIIS inversion failure, remove point   6.
 DIIS inversion failure, remove point   5.
 DIIS inversion failure, remove point   4.
 RFO-DIIS uses    3 points instead of    8
 DidBck=F Rises=F RFO-DIIS coefs:    1.23587   -0.24524    0.00937    0.00000    0.00000
                  RFO-DIIS coefs:    0.00000    0.00000    0.00000
 Iteration  1 RMS(Cart)=  0.00056448 RMS(Int)=  0.00000043
 Iteration  2 RMS(Cart)=  0.00000029 RMS(Int)=  0.00000031
 Variable       Old X    -DE/DX   Delta X   Delta X   Delta X     New X
                                 (Linear)    (Quad)   (Total)
    R1        2.81790  -0.00002   0.00002  -0.00006  -0.00004   2.81786
    R2        2.08703   0.00000   0.00002  -0.00001   0.00001   2.08704
    R3        2.10743   0.00001   0.00009  -0.00003   0.00006   2.10749
    R4        2.09437  -0.00000   0.00003  -0.00004  -0.00001   2.09436
    R5        2.82359  -0.00001   0.00001  -0.00003  -0.00002   2.82357
    R6        2.07455   0.00000   0.00006  -0.00004   0.00003   2.07458
    R7        2.89487  -0.00003  -0.00004  -0.00006  -0.00010   2.89478
    R8        2.09738   0.00000   0.00006  -0.00005   0.00001   2.09739
    R9        2.10965   0.00002   0.00008   0.00001   0.00009   2.10973
   R10        2.08780   0.00000   0.00003  -0.00002   0.00001   2.08781
   R11        2.08694  -0.00000   0.00002  -0.00003  -0.00000   2.08694
   R12        2.08907   0.00000   0.00005  -0.00002   0.00002   2.08910
    A1        1.95665   0.00000   0.00013  -0.00005   0.00008   1.95673
    A2        1.95605   0.00000  -0.00013   0.00008  -0.00005   1.95600
    A3        1.94819  -0.00000  -0.00006   0.00003  -0.00002   1.94817
    A4        1.86264  -0.00001   0.00006  -0.00010  -0.00004   1.86260
    A5        1.88627   0.00000   0.00005   0.00000   0.00005   1.88632
    A6        1.84816  -0.00000  -0.00005   0.00003  -0.00003   1.84813
    A7        2.11995  -0.00002  -0.00031   0.00009  -0.00022   2.11972
    A8        2.07224   0.00001   0.00002  -0.00006  -0.00004   2.07220
    A9        2.06065   0.00001  -0.00004  -0.00002  -0.00006   2.06059
   A10        1.98815   0.00001   0.00012   0.00001   0.00012   1.98827
   A11        1.91113  -0.00000  -0.00002  -0.00002  -0.00005   1.91109
   A12        1.91762  -0.00000  -0.00012   0.00006  -0.00005   1.91757
   A13        1.91792   0.00000  -0.00001   0.00005   0.00004   1.91795
   A14        1.89963   0.00000   0.00011  -0.00005   0.00006   1.89969
   A15        1.82205  -0.00001  -0.00009  -0.00005  -0.00014   1.82190
   A16        1.93709   0.00000  -0.00003   0.00004   0.00001   1.93711
   A17        1.94531  -0.00000   0.00001  -0.00002  -0.00001   1.94530
   A18        1.93650   0.00000  -0.00002   0.00004   0.00002   1.93652
   A19        1.88515   0.00000   0.00004  -0.00002   0.00002   1.88517
   A20        1.87694  -0.00000  -0.00002  -0.00002  -0.00004   1.87690
   A21        1.88014  -0.00000   0.00002  -0.00003  -0.00000   1.88014
    D1       -2.91560   0.00000  -0.00036   0.00075   0.00040  -2.91521
    D2        0.49327   0.00001   0.00107   0.00072   0.00179   0.49506
    D3        1.27337   0.00000  -0.00043   0.00086   0.00043   1.27379
    D4       -1.60095   0.00001   0.00099   0.00083   0.00182  -1.59913
    D5       -0.79648   0.00001  -0.00024   0.00075   0.00051  -0.79597
    D6        2.61239   0.00001   0.00119   0.00071   0.00190   2.61429
    D7        2.93387   0.00000   0.00001   0.00002   0.00003   2.93391
    D8        0.77857  -0.00000  -0.00004  -0.00003  -0.00007   0.77850
    D9       -1.21296   0.00001   0.00015   0.00001   0.00016  -1.21280
   D10       -0.47328  -0.00000  -0.00139   0.00005  -0.00135  -0.47463
   D11       -2.62859  -0.00001  -0.00144  -0.00001  -0.00145  -2.63004
   D12        1.66307   0.00000  -0.00126   0.00003  -0.00122   1.66184
   D13       -1.05322  -0.00000  -0.00104   0.00014  -0.00090  -1.05411
   D14        3.12791  -0.00000  -0.00108   0.00015  -0.00093   3.12698
   D15        1.03260  -0.00000  -0.00110   0.00017  -0.00092   1.03167
   D16        1.09840   0.00000  -0.00100   0.00015  -0.00084   1.09756
   D17       -1.00366  -0.00000  -0.00104   0.00016  -0.00087  -1.00453
   D18       -3.09897   0.00000  -0.00105   0.00018  -0.00087  -3.09983
   D19        3.08377  -0.00000  -0.00105   0.00009  -0.00096   3.08281
   D20        0.98171  -0.00001  -0.00109   0.00010  -0.00099   0.98072
   D21       -1.11360  -0.00000  -0.00111   0.00012  -0.00099  -1.11459
         Item               Value     Threshold  Converged?
 Maximum Force            0.000028     0.000450     YES
 RMS     Force            0.000008     0.000300     YES
 Maximum Displacement     0.002089     0.001800     NO 
 RMS     Displacement     0.000564     0.001200     YES
 Predicted change in Energy=-5.287019D-08
 GradGradGradGradGradGradGradGradGradGradGradGradGradGradGradGradGradGrad

                          Input orientation:                          
 ---------------------------------------------------------------------
 Center     Atomic      Atomic             Coordinates (Angstroms)
 Number     Number       Type             X           Y           Z
 ---------------------------------------------------------------------
      1          6           0        0.910509    0.255294    0.110278
      2          6           0        2.388684    0.204570    0.299876
      3          6           0        3.027275   -0.821795    1.178125
      4          6           0        4.549536   -0.906214    1.029275
      5          1           0        0.621539    0.909316   -0.731438
      6          1           0        0.385237    0.644344    1.013872
      7          1           0        0.487882   -0.752141   -0.076158
      8          1           0        2.989349    1.072929   -0.000733
      9          1           0        2.572732   -1.814513    0.978720
     10          1           0        2.780463   -0.613293    2.246775
     11          1           0        4.831865   -1.171392   -0.005423
     12          1           0        4.980139   -1.665347    1.705964
     13          1           0        5.024311    0.063682    1.265970
 ---------------------------------------------------------------------
                    Distance matrix (angstroms):
                    1          2          3          4          5
     1  C    0.000000
     2  C    1.491148   0.000000
     3  C    2.604058   1.494170   0.000000
     4  C    3.928889   2.536758   1.531849   0.000000
     5  H    1.104415   2.164042   3.525725   4.671768   0.000000
     6  H    1.115237   2.171864   3.026038   4.443630   1.781055
     7  H    1.108286   2.160959   2.833124   4.212214   1.791004
     8  H    2.236610   1.097821   2.231843   2.722518   2.483389
     9  H    2.793077   2.138083   1.109893   2.176079   3.761786
    10  H    2.969140   2.147745   1.116423   2.167424   3.981086
    11  H    4.174429   2.820570   2.186219   1.104821   4.752188
    12  H    4.774617   3.491319   2.191774   1.104360   5.618470
    13  H    4.277348   2.810643   2.186307   1.105502   4.908068
                    6          7          8          9         10
     6  H    0.000000
     7  H    1.774506   0.000000
     8  H    2.827456   3.097402   0.000000
     9  H    3.291253   2.566710   3.077372   0.000000
    10  H    2.973013   3.266684   2.817494   1.758989   0.000000
    11  H    4.910027   4.364741   2.903768   2.546729   3.097115
    12  H    5.189103   4.918361   3.791334   2.519274   2.497572
    13  H    4.682065   4.800631   2.600805   3.101672   2.540694
                   11         12         13
    11  H    0.000000
    12  H    1.787406   0.000000
    13  H    1.782942   1.784682   0.000000
 Stoichiometry    C4H9(2)
 Framework group  C1[X(C4H9)]
 Deg. of freedom    33
 Full point group                 C1      NOp   1
 Largest Abelian subgroup         C1      NOp   1
 Largest concise Abelian subgroup C1      NOp   1
                         Standard orientation:                         
 ---------------------------------------------------------------------
 Center     Atomic      Atomic             Coordinates (Angstroms)
 Number     Number       Type             X           Y           Z
 ---------------------------------------------------------------------
      1          6           0        1.985874    0.043037   -0.067476
      2          6           0        0.581133   -0.444487    0.044525
      3          6           0       -0.571982    0.504505    0.092324
      4          6           0       -1.937325   -0.167843   -0.081883
      5          1           0        2.689353   -0.770253   -0.319289
      6          1           0        2.348671    0.497952    0.883936
      7          1           0        2.083649    0.833313   -0.838321
      8          1           0        0.406317   -1.485293    0.346806
      9          1           0       -0.436982    1.290661   -0.679424
     10          1           0       -0.565139    1.061490    1.059857
     11          1           0       -2.004187   -0.680696   -1.058172
     12          1           0       -2.759711    0.567054   -0.025155
     13          1           0       -2.108170   -0.925500    0.704820
 ---------------------------------------------------------------------
 Rotational constants (GHZ):          26.2876262           3.6187653           3.4037835
 Standard basis: def2SVPP (5D, 7F)
 There are    78 symmetry adapted cartesian basis functions of A   symmetry.
 There are    74 symmetry adapted basis functions of A   symmetry.
    74 basis functions,   136 primitive gaussians,    78 cartesian basis functions
    17 alpha electrons       16 beta electrons
       nuclear repulsion energy       121.5170628684 Hartrees.
 NAtoms=   13 NActive=   13 NUniq=   13 SFac= 1.00D+00 NAtFMM=   60 NAOKFM=F Big=F
 Integral buffers will be    131072 words long.
 Raffenetti 2 integral format.
 Two-electron integral symmetry is turned on.
 Nuclear repulsion after empirical dispersion term =      121.5037719441 Hartrees.
 One-electron integrals computed using PRISM.
   1 Symmetry operations used in ECPInt.
 ECPInt:  NShTT=     903 NPrTT=    3649 LenC2=     903 LenP2D=    3132.
 LDataN:  DoStor=T MaxTD1= 4 Len=   56
 NBasis=    74 RedAO= T EigKep=  2.56D-03  NBF=    74
 NBsUse=    74 1.00D-06 EigRej= -1.00D+00 NBFU=    74
 Initial guess from the checkpoint file:  "/tmp/scratch/Gau-3761564.chk"
 B after Tr=     0.000000    0.000000   -0.000000
         Rot=    1.000000   -0.000242   -0.000013   -0.000000 Ang=  -0.03 deg.
 Initial guess <Sx>= 0.0000 <Sy>= 0.0000 <Sz>= 0.5000 <S**2>= 0.7540 S= 0.5020
 Requested convergence on RMS density matrix=1.00D-08 within 128 cycles.
 Requested convergence on MAX density matrix=1.00D-06.
 Requested convergence on             energy=1.00D-06.
 No special actions if energy rises.
 SCF Done:  E(UB3LYP) =  -157.670390660     A.U. after    7 cycles
            NFock=  7  Conv=0.60D-08     -V/T= 2.0120
 <Sx>= 0.0000 <Sy>= 0.0000 <Sz>= 0.5000 <S**2>= 0.7540 S= 0.5020
 <L.S>=  0.00000000000    
 Annihilation of the first spin contaminant:
 S**2 before annihilation     0.7540,   after     0.7500
   1 Symmetry operations used in ECPInt.
 ECPInt:  NShTT=     903 NPrTT=    3649 LenC2=     903 LenP2D=    3132.
 LDataN:  DoStor=T MaxTD1= 5 Len=  102
 Calling FoFJK, ICntrl=      2127 FMM=F ISym2X=0 I1Cent= 0 IOpClX= 1 NMat=1 NMatS=1 NMatT=0.
 ***** Axes restored to original set *****
 -------------------------------------------------------------------
 Center     Atomic                   Forces (Hartrees/Bohr)
 Number     Number              X              Y              Z
 -------------------------------------------------------------------
      1        6           0.000003686   -0.000011296    0.000005999
      2        6          -0.000005314   -0.000006309   -0.000000999
      3        6           0.000006394   -0.000005082   -0.000010196
      4        6          -0.000006269    0.000002897    0.000000640
      5        1          -0.000000529   -0.000001979   -0.000003246
      6        1           0.000000354    0.000010102   -0.000009061
      7        1           0.000002825    0.000006441    0.000006191
      8        1          -0.000004828    0.000003481    0.000009482
      9        1           0.000001662    0.000003800    0.000001810
     10        1           0.000001293   -0.000001339   -0.000000969
     11        1           0.000001441    0.000001069    0.000002439
     12        1          -0.000000473    0.000001454   -0.000002061
     13        1          -0.000000243   -0.000003239   -0.000000030
 -------------------------------------------------------------------
 Cartesian Forces:  Max     0.000011296 RMS     0.000004879

 GradGradGradGradGradGradGradGradGradGradGradGradGradGradGradGradGradGrad
 Berny optimization.
 Using GEDIIS/GDIIS optimizer.
 FormGI is forming the generalized inverse of G from B-inverse, IUseBI=4.
 Internal  Forces:  Max     0.000011630 RMS     0.000003886
 Search for a local minimum.
 Step number  10 out of a maximum of   64
 All quantities printed in internal units (Hartrees-Bohrs-Radians)
 Mixed Optimization -- En-DIIS/RFO-DIIS
 Swapping is turned off.
 Update second derivatives using D2CorX and points    1    2    3    4    5
                                                      6    7    8    9   10
 DE= -7.24D-08 DEPred=-5.29D-08 R= 1.37D+00
 Trust test= 1.37D+00 RLast= 4.89D-03 DXMaxT set to 5.05D-01
 ITU=  0  1  1  1  1  1  1  1  1  0
     Eigenvalues ---    0.00073   0.00261   0.00596   0.00972   0.03990
     Eigenvalues ---    0.05013   0.05543   0.05641   0.07030   0.07246
     Eigenvalues ---    0.09725   0.12939   0.14751   0.15591   0.15960
     Eigenvalues ---    0.15989   0.16004   0.16062   0.16569   0.21392
     Eigenvalues ---    0.23111   0.31019   0.33101   0.33363   0.34178
     Eigenvalues ---    0.34202   0.34235   0.34316   0.34321   0.34372
     Eigenvalues ---    0.34775   0.36028   0.39044
 En-DIIS/RFO-DIIS/Sim-DIIS IScMMF=       -3 using points:    10    9    8    7    6    5    4    3    2
 RFO step:  Lambda=-6.80791647D-08.
 DIIS inversion failure, remove point   9.
 DIIS inversion failure, remove point   8.
 DIIS inversion failure, remove point   7.
 DIIS inversion failure, remove point   6.
 DIIS inversion failure, remove point   5.
 DIIS inversion failure, remove point   4.
 DIIS inversion failure, remove point   3.
 RFO-DIIS uses    2 points instead of    9
 DidBck=F Rises=F RFO-DIIS coefs:    1.76533   -0.76533    0.00000    0.00000    0.00000
                  RFO-DIIS coefs:    0.00000    0.00000    0.00000    0.00000
 Iteration  1 RMS(Cart)=  0.00063501 RMS(Int)=  0.00000030
 Iteration  2 RMS(Cart)=  0.00000032 RMS(Int)=  0.00000007
 Variable       Old X    -DE/DX   Delta X   Delta X   Delta X     New X
                                 (Linear)    (Quad)   (Total)
    R1        2.81786  -0.00001  -0.00003  -0.00002  -0.00005   2.81782
    R2        2.08704   0.00000   0.00001   0.00001   0.00002   2.08706
    R3        2.10749  -0.00000   0.00005  -0.00001   0.00003   2.10752
    R4        2.09436  -0.00001  -0.00001  -0.00002  -0.00003   2.09433
    R5        2.82357  -0.00000  -0.00002  -0.00001  -0.00002   2.82355
    R6        2.07458  -0.00000   0.00002  -0.00001   0.00001   2.07460
    R7        2.89478  -0.00001  -0.00007  -0.00001  -0.00008   2.89469
    R8        2.09739  -0.00000   0.00001  -0.00000   0.00001   2.09740
    R9        2.10973  -0.00000   0.00007  -0.00002   0.00005   2.10978
   R10        2.08781  -0.00000   0.00001  -0.00000   0.00000   2.08781
   R11        2.08694  -0.00000  -0.00000  -0.00000  -0.00001   2.08693
   R12        2.08910  -0.00000   0.00002  -0.00001   0.00001   2.08910
    A1        1.95673  -0.00000   0.00006  -0.00003   0.00003   1.95676
    A2        1.95600   0.00000  -0.00004   0.00003  -0.00000   1.95599
    A3        1.94817   0.00000  -0.00002   0.00002   0.00000   1.94818
    A4        1.86260  -0.00000  -0.00003  -0.00005  -0.00008   1.86252
    A5        1.88632   0.00000   0.00004  -0.00000   0.00004   1.88636
    A6        1.84813   0.00000  -0.00002   0.00003   0.00001   1.84815
    A7        2.11972   0.00001  -0.00017   0.00009  -0.00008   2.11965
    A8        2.07220  -0.00001  -0.00003  -0.00004  -0.00007   2.07214
    A9        2.06059  -0.00000  -0.00005   0.00002  -0.00003   2.06056
   A10        1.98827  -0.00000   0.00010  -0.00002   0.00008   1.98835
   A11        1.91109  -0.00000  -0.00004   0.00002  -0.00002   1.91107
   A12        1.91757   0.00000  -0.00004   0.00002  -0.00002   1.91755
   A13        1.91795   0.00000   0.00003  -0.00000   0.00003   1.91798
   A14        1.89969  -0.00000   0.00004  -0.00001   0.00003   1.89972
   A15        1.82190  -0.00000  -0.00011  -0.00000  -0.00011   1.82179
   A16        1.93711   0.00000   0.00001   0.00001   0.00003   1.93713
   A17        1.94530  -0.00000  -0.00001   0.00000  -0.00001   1.94530
   A18        1.93652   0.00000   0.00001   0.00000   0.00001   1.93653
   A19        1.88517  -0.00000   0.00002  -0.00001   0.00000   1.88518
   A20        1.87690  -0.00000  -0.00003   0.00000  -0.00003   1.87687
   A21        1.88014  -0.00000  -0.00000  -0.00000  -0.00001   1.88013
    D1       -2.91521   0.00001   0.00030   0.00093   0.00123  -2.91398
    D2        0.49506   0.00001   0.00137   0.00062   0.00199   0.49704
    D3        1.27379   0.00001   0.00033   0.00099   0.00132   1.27511
    D4       -1.59913   0.00001   0.00139   0.00068   0.00208  -1.59705
    D5       -0.79597   0.00001   0.00039   0.00091   0.00130  -0.79467
    D6        2.61429   0.00000   0.00145   0.00060   0.00206   2.61635
    D7        2.93391   0.00000   0.00003   0.00034   0.00037   2.93428
    D8        0.77850   0.00000  -0.00005   0.00035   0.00029   0.77880
    D9       -1.21280   0.00000   0.00012   0.00033   0.00045  -1.21235
   D10       -0.47463   0.00000  -0.00103   0.00064  -0.00039  -0.47502
   D11       -2.63004   0.00000  -0.00111   0.00064  -0.00046  -2.63050
   D12        1.66184  -0.00000  -0.00094   0.00063  -0.00031   1.66153
   D13       -1.05411   0.00000  -0.00069   0.00026  -0.00043  -1.05454
   D14        3.12698   0.00000  -0.00071   0.00027  -0.00044   3.12654
   D15        1.03167   0.00000  -0.00071   0.00027  -0.00044   1.03124
   D16        1.09756   0.00000  -0.00064   0.00027  -0.00038   1.09719
   D17       -1.00453   0.00000  -0.00067   0.00027  -0.00039  -1.00492
   D18       -3.09983   0.00000  -0.00067   0.00028  -0.00039  -3.10022
   D19        3.08281  -0.00000  -0.00073   0.00026  -0.00048   3.08233
   D20        0.98072  -0.00000  -0.00076   0.00026  -0.00049   0.98022
   D21       -1.11459   0.00000  -0.00075   0.00027  -0.00049  -1.11508
         Item               Value     Threshold  Converged?
 Maximum Force            0.000012     0.000450     YES
 RMS     Force            0.000004     0.000300     YES
 Maximum Displacement     0.002403     0.001800     NO 
 RMS     Displacement     0.000635     0.001200     YES
 Predicted change in Energy=-3.403993D-08
 GradGradGradGradGradGradGradGradGradGradGradGradGradGradGradGradGradGrad

                          Input orientation:                          
 ---------------------------------------------------------------------
 Center     Atomic      Atomic             Coordinates (Angstroms)
 Number     Number       Type             X           Y           Z
 ---------------------------------------------------------------------
      1          6           0        0.910543    0.255336    0.110361
      2          6           0        2.388715    0.204579    0.299778
      3          6           0        3.027296   -0.821979    1.177788
      4          6           0        4.549557   -0.906194    1.029278
      5          1           0        0.621510    0.908524   -0.731991
      6          1           0        0.385475    0.645498    1.013615
      7          1           0        0.487723   -0.752222   -0.074887
      8          1           0        2.989212    1.073316   -0.000100
      9          1           0        2.572876   -1.814681    0.977997
     10          1           0        2.780165   -0.613907    2.246475
     11          1           0        4.832174   -1.171426   -0.005330
     12          1           0        4.980115   -1.665194    1.706141
     13          1           0        5.024159    0.063791    1.265975
 ---------------------------------------------------------------------
                    Distance matrix (angstroms):
                    1          2          3          4          5
     1  C    0.000000
     2  C    1.491124   0.000000
     3  C    2.603968   1.494158   0.000000
     4  C    3.928865   2.536774   1.531805   0.000000
     5  H    1.104424   2.164048   3.525579   4.671705   0.000000
     6  H    1.115253   2.171853   3.026492   4.443824   1.781021
     7  H    1.108272   2.160929   2.832576   4.212051   1.791023
     8  H    2.236551   1.097829   2.231819   2.722638   2.483714
     9  H    2.793047   2.138061   1.109897   2.176062   3.761348
    10  H    2.968847   2.147738   1.116449   2.167429   3.981062
    11  H    4.174713   2.820810   2.186200   1.104823   4.752254
    12  H    4.774554   3.491312   2.191728   1.104357   5.618359
    13  H    4.277145   2.810501   2.186281   1.105506   4.908030
                    6          7          8          9         10
     6  H    0.000000
     7  H    1.774517   0.000000
     8  H    2.826675   3.097682   0.000000
     9  H    3.292183   2.566173   3.077424   0.000000
    10  H    2.973312   3.265447   2.817361   1.758938   0.000000
    11  H    4.910457   4.365183   2.904377   2.546594   3.097127
    12  H    5.189374   4.918044   3.791357   2.519393   2.497388
    13  H    4.681821   4.800316   2.600595   3.101673   2.540897
                   11         12         13
    11  H    0.000000
    12  H    1.787407   0.000000
    13  H    1.782929   1.784677   0.000000
 Stoichiometry    C4H9(2)
 Framework group  C1[X(C4H9)]
 Deg. of freedom    33
 Full point group                 C1      NOp   1
 Largest Abelian subgroup         C1      NOp   1
 Largest concise Abelian subgroup C1      NOp   1
                         Standard orientation:                         
 ---------------------------------------------------------------------
 Center     Atomic      Atomic             Coordinates (Angstroms)
 Number     Number       Type             X           Y           Z
 ---------------------------------------------------------------------
      1          6           0        1.985838    0.043083   -0.067408
      2          6           0        0.581139   -0.444562    0.044272
      3          6           0       -0.571958    0.504422    0.092259
      4          6           0       -1.937337   -0.167789   -0.081801
      5          1           0        2.689251   -0.769833   -0.320648
      6          1           0        2.348959    0.496486    0.884621
      7          1           0        2.083398    0.834551   -0.837036
      8          1           0        0.406413   -1.485293    0.346887
      9          1           0       -0.436993    1.290655   -0.679424
     10          1           0       -0.564929    1.061420    1.059814
     11          1           0       -2.004551   -0.680224   -1.058289
     12          1           0       -2.759678    0.567108   -0.024474
     13          1           0       -2.107963   -0.925799    0.704617
 ---------------------------------------------------------------------
 Rotational constants (GHZ):          26.2896403           3.6188238           3.4038286
 Standard basis: def2SVPP (5D, 7F)
 There are    78 symmetry adapted cartesian basis functions of A   symmetry.
 There are    74 symmetry adapted basis functions of A   symmetry.
    74 basis functions,   136 primitive gaussians,    78 cartesian basis functions
    17 alpha electrons       16 beta electrons
       nuclear repulsion energy       121.5181792418 Hartrees.
 NAtoms=   13 NActive=   13 NUniq=   13 SFac= 1.00D+00 NAtFMM=   60 NAOKFM=F Big=F
 Integral buffers will be    131072 words long.
 Raffenetti 2 integral format.
 Two-electron integral symmetry is turned on.
 Nuclear repulsion after empirical dispersion term =      121.5048882113 Hartrees.
 One-electron integrals computed using PRISM.
   1 Symmetry operations used in ECPInt.
 ECPInt:  NShTT=     903 NPrTT=    3649 LenC2=     903 LenP2D=    3132.
 LDataN:  DoStor=T MaxTD1= 4 Len=   56
 NBasis=    74 RedAO= T EigKep=  2.56D-03  NBF=    74
 NBsUse=    74 1.00D-06 EigRej= -1.00D+00 NBFU=    74
 Initial guess from the checkpoint file:  "/tmp/scratch/Gau-3761564.chk"
 B after Tr=    -0.000000   -0.000000   -0.000000
         Rot=    1.000000   -0.000209   -0.000015    0.000002 Ang=  -0.02 deg.
 Initial guess <Sx>= 0.0000 <Sy>= 0.0000 <Sz>= 0.5000 <S**2>= 0.7540 S= 0.5020
 Requested convergence on RMS density matrix=1.00D-08 within 128 cycles.
 Requested convergence on MAX density matrix=1.00D-06.
 Requested convergence on             energy=1.00D-06.
 No special actions if energy rises.
 SCF Done:  E(UB3LYP) =  -157.670390713     A.U. after    7 cycles
            NFock=  7  Conv=0.38D-08     -V/T= 2.0120
 <Sx>= 0.0000 <Sy>= 0.0000 <Sz>= 0.5000 <S**2>= 0.7540 S= 0.5020
 <L.S>=  0.00000000000    
 Annihilation of the first spin contaminant:
 S**2 before annihilation     0.7540,   after     0.7500
   1 Symmetry operations used in ECPInt.
 ECPInt:  NShTT=     903 NPrTT=    3649 LenC2=     903 LenP2D=    3132.
 LDataN:  DoStor=T MaxTD1= 5 Len=  102
 Calling FoFJK, ICntrl=      2127 FMM=F ISym2X=0 I1Cent= 0 IOpClX= 1 NMat=1 NMatS=1 NMatT=0.
 ***** Axes restored to original set *****
 -------------------------------------------------------------------
 Center     Atomic                   Forces (Hartrees/Bohr)
 Number     Number              X              Y              Z
 -------------------------------------------------------------------
      1        6          -0.000016152   -0.000006177    0.000007693
      2        6           0.000001957   -0.000002924    0.000006454
      3        6          -0.000018700   -0.000016458    0.000010938
      4        6           0.000013777    0.000007174   -0.000003540
      5        1           0.000000651   -0.000002266   -0.000004348
      6        1           0.000004302    0.000008411   -0.000012909
      7        1           0.000003838    0.000007049    0.000001927
      8        1          -0.000004861    0.000000693    0.000004850
      9        1           0.000006657    0.000005332   -0.000002027
     10        1           0.000009157    0.000004077   -0.000011563
     11        1          -0.000000146    0.000001809    0.000003020
     12        1           0.000001146   -0.000001332   -0.000002780
     13        1          -0.000001624   -0.000005387    0.000002285
 -------------------------------------------------------------------
 Cartesian Forces:  Max     0.000018700 RMS     0.000007465

 GradGradGradGradGradGradGradGradGradGradGradGradGradGradGradGradGradGrad
 Berny optimization.
 Using GEDIIS/GDIIS optimizer.
 FormGI is forming the generalized inverse of G from B-inverse, IUseBI=4.
 Internal  Forces:  Max     0.000024711 RMS     0.000006240
 Search for a local minimum.
 Step number  11 out of a maximum of   64
 All quantities printed in internal units (Hartrees-Bohrs-Radians)
 Mixed Optimization -- En-DIIS/RFO-DIIS
 Swapping is turned off.
 Update second derivatives using D2CorX and points    1    2    3    4    5
                                                      6    7    8    9   10
                                                     11
 DE= -5.36D-08 DEPred=-3.40D-08 R= 1.57D+00
 Trust test= 1.57D+00 RLast= 4.49D-03 DXMaxT set to 5.05D-01
 ITU=  0  0  1  1  1  1  1  1  1  1  0
     Eigenvalues ---    0.00074   0.00118   0.00503   0.00907   0.03985
     Eigenvalues ---    0.05413   0.05548   0.05642   0.07044   0.07257
     Eigenvalues ---    0.09877   0.12885   0.14689   0.15511   0.15963
     Eigenvalues ---    0.15990   0.16006   0.16079   0.16589   0.21635
     Eigenvalues ---    0.23204   0.31058   0.33100   0.34091   0.34186
     Eigenvalues ---    0.34222   0.34286   0.34317   0.34323   0.34438
     Eigenvalues ---    0.35106   0.36941   0.40947
 En-DIIS/RFO-DIIS/Sim-DIIS IScMMF=       -3 using points:    11   10    9    8    7    6    5    4    3    2
 RFO step:  Lambda=-1.18760987D-07.
 DIIS inversion failure, remove point  10.
 DIIS inversion failure, remove point   9.
 DIIS inversion failure, remove point   8.
 DIIS inversion failure, remove point   7.
 DIIS inversion failure, remove point   6.
 DIIS inversion failure, remove point   5.
 DIIS inversion failure, remove point   4.
 RFO-DIIS uses    3 points instead of   10
 DidBck=F Rises=F RFO-DIIS coefs:    2.42380   -2.00000    0.57620    0.00000    0.00000
                  RFO-DIIS coefs:    0.00000    0.00000    0.00000    0.00000    0.00000
 Iteration  1 RMS(Cart)=  0.00174854 RMS(Int)=  0.00000246
 Iteration  2 RMS(Cart)=  0.00000256 RMS(Int)=  0.00000003
 Iteration  3 RMS(Cart)=  0.00000000 RMS(Int)=  0.00000003
 Variable       Old X    -DE/DX   Delta X   Delta X   Delta X     New X
                                 (Linear)    (Quad)   (Total)
    R1        2.81782   0.00001  -0.00004  -0.00002  -0.00006   2.81775
    R2        2.08706   0.00000   0.00002   0.00003   0.00004   2.08710
    R3        2.10752  -0.00001   0.00001   0.00001   0.00002   2.10755
    R4        2.09433  -0.00001  -0.00003  -0.00005  -0.00008   2.09425
    R5        2.82355   0.00001  -0.00002  -0.00001  -0.00003   2.82352
    R6        2.07460  -0.00000   0.00001   0.00001   0.00001   2.07461
    R7        2.89469   0.00001  -0.00006  -0.00003  -0.00010   2.89460
    R8        2.09740  -0.00001   0.00001  -0.00001  -0.00000   2.09740
    R9        2.10978  -0.00001   0.00002   0.00002   0.00004   2.10982
   R10        2.08781  -0.00000  -0.00000  -0.00000  -0.00000   2.08781
   R11        2.08693  -0.00000  -0.00001  -0.00001  -0.00001   2.08692
   R12        2.08910  -0.00001  -0.00000  -0.00000  -0.00000   2.08910
    A1        1.95676  -0.00000  -0.00000  -0.00002  -0.00003   1.95673
    A2        1.95599   0.00000   0.00002   0.00003   0.00005   1.95605
    A3        1.94818   0.00000   0.00002   0.00001   0.00002   1.94820
    A4        1.86252  -0.00000  -0.00009  -0.00012  -0.00021   1.86231
    A5        1.88636  -0.00000   0.00002   0.00003   0.00005   1.88641
    A6        1.84815   0.00000   0.00004   0.00008   0.00011   1.84826
    A7        2.11965   0.00002   0.00002   0.00005   0.00006   2.11971
    A8        2.07214  -0.00002  -0.00007  -0.00012  -0.00020   2.07194
    A9        2.06056  -0.00001  -0.00001  -0.00005  -0.00005   2.06051
   A10        1.98835  -0.00001   0.00004   0.00002   0.00006   1.98840
   A11        1.91107   0.00000   0.00000  -0.00002  -0.00002   1.91105
   A12        1.91755   0.00000   0.00000   0.00002   0.00002   1.91757
   A13        1.91798   0.00000   0.00001   0.00002   0.00003   1.91801
   A14        1.89972  -0.00000   0.00001  -0.00001   0.00001   1.89973
   A15        1.82179   0.00000  -0.00008  -0.00004  -0.00011   1.82168
   A16        1.93713   0.00000   0.00003   0.00001   0.00003   1.93717
   A17        1.94530   0.00000  -0.00000  -0.00000  -0.00001   1.94529
   A18        1.93653   0.00000   0.00001   0.00002   0.00003   1.93656
   A19        1.88518  -0.00000  -0.00001  -0.00000  -0.00001   1.88516
   A20        1.87687   0.00000  -0.00002  -0.00001  -0.00003   1.87684
   A21        1.88013  -0.00000  -0.00001  -0.00001  -0.00002   1.88011
    D1       -2.91398   0.00001   0.00152   0.00216   0.00368  -2.91029
    D2        0.49704   0.00000   0.00180   0.00269   0.00449   0.50154
    D3        1.27511   0.00001   0.00163   0.00230   0.00394   1.27905
    D4       -1.59705   0.00001   0.00191   0.00284   0.00475  -1.59230
    D5       -0.79467   0.00000   0.00156   0.00219   0.00375  -0.79092
    D6        2.61635   0.00000   0.00184   0.00272   0.00456   2.62091
    D7        2.93428   0.00000   0.00050   0.00032   0.00082   2.93510
    D8        0.77880   0.00000   0.00046   0.00029   0.00075   0.77955
    D9       -1.21235  -0.00000   0.00055   0.00034   0.00089  -1.21147
   D10       -0.47502   0.00000   0.00022  -0.00023  -0.00001  -0.47503
   D11       -2.63050   0.00000   0.00017  -0.00025  -0.00008  -2.63058
   D12        1.66153  -0.00000   0.00026  -0.00020   0.00006   1.66159
   D13       -1.05454   0.00000  -0.00009  -0.00007  -0.00016  -1.05470
   D14        3.12654   0.00000  -0.00010  -0.00007  -0.00016   3.12637
   D15        1.03124   0.00000  -0.00009  -0.00007  -0.00016   1.03108
   D16        1.09719  -0.00000  -0.00005  -0.00007  -0.00012   1.09707
   D17       -1.00492   0.00000  -0.00006  -0.00006  -0.00012  -1.00504
   D18       -3.10022   0.00000  -0.00005  -0.00006  -0.00012  -3.10034
   D19        3.08233   0.00000  -0.00013  -0.00010  -0.00023   3.08210
   D20        0.98022   0.00000  -0.00013  -0.00010  -0.00024   0.97999
   D21       -1.11508   0.00000  -0.00013  -0.00010  -0.00023  -1.11531
         Item               Value     Threshold  Converged?
 Maximum Force            0.000025     0.000450     YES
 RMS     Force            0.000006     0.000300     YES
 Maximum Displacement     0.006734     0.001800     NO 
 RMS     Displacement     0.001749     0.001200     NO 
 Predicted change in Energy=-5.497795D-08
 GradGradGradGradGradGradGradGradGradGradGradGradGradGradGradGradGradGrad

                          Input orientation:                          
 ---------------------------------------------------------------------
 Center     Atomic      Atomic             Coordinates (Angstroms)
 Number     Number       Type             X           Y           Z
 ---------------------------------------------------------------------
      1          6           0        0.910519    0.255493    0.110589
      2          6           0        2.388675    0.204486    0.299808
      3          6           0        3.027327   -0.822538    1.177191
      4          6           0        4.549637   -0.906036    1.029299
      5          1           0        0.621679    0.906217   -0.733764
      6          1           0        0.385854    0.649033    1.012626
      7          1           0        0.487066   -0.752360   -0.071323
      8          1           0        2.988970    1.073724    0.000954
      9          1           0        2.573351   -1.815241    0.976402
     10          1           0        2.779621   -0.615541    2.245975
     11          1           0        4.832854   -1.170438   -0.005357
     12          1           0        4.980194   -1.665323    1.705829
     13          1           0        5.023773    0.063962    1.266871
 ---------------------------------------------------------------------
                    Distance matrix (angstroms):
                    1          2          3          4          5
     1  C    0.000000
     2  C    1.491090   0.000000
     3  C    2.603972   1.494141   0.000000
     4  C    3.928913   2.536764   1.531755   0.000000
     5  H    1.104447   2.164018   3.525265   4.671350   0.000000
     6  H    1.115265   2.171871   3.028198   4.444728   1.780908
     7  H    1.108230   2.160881   2.831367   4.211825   1.791041
     8  H    2.236398   1.097835   2.231774   2.722614   2.484338
     9  H    2.793310   2.138032   1.109896   2.176042   3.760322
    10  H    2.968521   2.147755   1.116470   2.167405   3.981370
    11  H    4.175097   2.820913   2.186180   1.104822   4.751534
    12  H    4.774576   3.491282   2.191674   1.104350   5.617925
    13  H    4.276976   2.810462   2.186257   1.105506   4.908194
                    6          7          8          9         10
     6  H    0.000000
     7  H    1.774568   0.000000
     8  H    2.824898   3.098278   0.000000
     9  H    3.295315   2.565157   3.077394   0.000000
    10  H    2.974966   3.262576   2.817368   1.758876   0.000000
    11  H    4.911474   4.366350   2.904516   2.546562   3.097123
    12  H    5.190832   4.917313   3.791299   2.519411   2.497263
    13  H    4.681585   4.799881   2.600497   3.101668   2.540981
                   11         12         13
    11  H    0.000000
    12  H    1.787393   0.000000
    13  H    1.782907   1.784660   0.000000
 Stoichiometry    C4H9(2)
 Framework group  C1[X(C4H9)]
 Deg. of freedom    33
 Full point group                 C1      NOp   1
 Largest Abelian subgroup         C1      NOp   1
 Largest concise Abelian subgroup C1      NOp   1
                         Standard orientation:                         
 ---------------------------------------------------------------------
 Center     Atomic      Atomic             Coordinates (Angstroms)
 Number     Number       Type             X           Y           Z
 ---------------------------------------------------------------------
      1          6           0        1.985856    0.043105   -0.067225
      2          6           0        0.581139   -0.444525    0.043846
      3          6           0       -0.571978    0.504399    0.092027
      4          6           0       -1.937366   -0.167799   -0.081571
      5          1           0        2.688761   -0.769055   -0.324370
      6          1           0        2.350170    0.492384    0.886316
      7          1           0        2.082945    0.837613   -0.833713
      8          1           0        0.406488   -1.485220    0.346654
      9          1           0       -0.437203    1.290577   -0.679743
     10          1           0       -0.564696    1.061586    1.059496
     11          1           0       -2.004949   -0.680221   -1.058039
     12          1           0       -2.759683    0.567089   -0.023935
     13          1           0       -2.107742   -0.925834    0.704875
 ---------------------------------------------------------------------
 Rotational constants (GHZ):          26.2940499           3.6187765           3.4037474
 Standard basis: def2SVPP (5D, 7F)
 There are    78 symmetry adapted cartesian basis functions of A   symmetry.
 There are    74 symmetry adapted basis functions of A   symmetry.
    74 basis functions,   136 primitive gaussians,    78 cartesian basis functions
    17 alpha electrons       16 beta electrons
       nuclear repulsion energy       121.5191304045 Hartrees.
 NAtoms=   13 NActive=   13 NUniq=   13 SFac= 1.00D+00 NAtFMM=   60 NAOKFM=F Big=F
 Integral buffers will be    131072 words long.
 Raffenetti 2 integral format.
 Two-electron integral symmetry is turned on.
 Nuclear repulsion after empirical dispersion term =      121.5058394337 Hartrees.
 One-electron integrals computed using PRISM.
   1 Symmetry operations used in ECPInt.
 ECPInt:  NShTT=     903 NPrTT=    3649 LenC2=     903 LenP2D=    3132.
 LDataN:  DoStor=T MaxTD1= 4 Len=   56
 NBasis=    74 RedAO= T EigKep=  2.56D-03  NBF=    74
 NBsUse=    74 1.00D-06 EigRej= -1.00D+00 NBFU=    74
 Initial guess from the checkpoint file:  "/tmp/scratch/Gau-3761564.chk"
 B after Tr=    -0.000000   -0.000000    0.000000
         Rot=    1.000000   -0.000386   -0.000029    0.000005 Ang=  -0.04 deg.
 Initial guess <Sx>= 0.0000 <Sy>= 0.0000 <Sz>= 0.5000 <S**2>= 0.7540 S= 0.5020
 Requested convergence on RMS density matrix=1.00D-08 within 128 cycles.
 Requested convergence on MAX density matrix=1.00D-06.
 Requested convergence on             energy=1.00D-06.
 No special actions if energy rises.
 SCF Done:  E(UB3LYP) =  -157.670390813     A.U. after    7 cycles
            NFock=  7  Conv=0.46D-08     -V/T= 2.0120
 <Sx>= 0.0000 <Sy>= 0.0000 <Sz>= 0.5000 <S**2>= 0.7540 S= 0.5020
 <L.S>=  0.00000000000    
 Annihilation of the first spin contaminant:
 S**2 before annihilation     0.7540,   after     0.7500
   1 Symmetry operations used in ECPInt.
 ECPInt:  NShTT=     903 NPrTT=    3649 LenC2=     903 LenP2D=    3132.
 LDataN:  DoStor=T MaxTD1= 5 Len=  102
 Calling FoFJK, ICntrl=      2127 FMM=F ISym2X=0 I1Cent= 0 IOpClX= 1 NMat=1 NMatS=1 NMatT=0.
 ***** Axes restored to original set *****
 -------------------------------------------------------------------
 Center     Atomic                   Forces (Hartrees/Bohr)
 Number     Number              X              Y              Z
 -------------------------------------------------------------------
      1        6          -0.000037891    0.000002317    0.000006026
      2        6           0.000012940    0.000001484    0.000009715
      3        6          -0.000043825   -0.000024470    0.000034874
      4        6           0.000036011    0.000008247   -0.000007929
      5        1           0.000001232   -0.000001395   -0.000006213
      6        1           0.000007366    0.000004522   -0.000010171
      7        1           0.000003528    0.000003011   -0.000003474
      8        1          -0.000001545    0.000000998   -0.000001048
      9        1           0.000009865    0.000003047   -0.000007074
     10        1           0.000014381    0.000010016   -0.000018938
     11        1          -0.000002394    0.000001480    0.000000836
     12        1           0.000003264   -0.000005313   -0.000001042
     13        1          -0.000002931   -0.000003943    0.000004439
 -------------------------------------------------------------------
 Cartesian Forces:  Max     0.000043825 RMS     0.000014392

 GradGradGradGradGradGradGradGradGradGradGradGradGradGradGradGradGradGrad
 Berny optimization.
 Using GEDIIS/GDIIS optimizer.
 FormGI is forming the generalized inverse of G from B-inverse, IUseBI=4.
 Internal  Forces:  Max     0.000034007 RMS     0.000009314
 Search for a local minimum.
 Step number  12 out of a maximum of   64
 All quantities printed in internal units (Hartrees-Bohrs-Radians)
 Mixed Optimization -- En-DIIS/RFO-DIIS
 Swapping is turned off.
 Update second derivatives using D2CorX and points    1    2    3    4    5
                                                      6    7    8    9   10
                                                     11   12
 DE= -9.92D-08 DEPred=-5.50D-08 R= 1.80D+00
 Trust test= 1.80D+00 RLast= 1.04D-02 DXMaxT set to 5.05D-01
 ITU=  0  0  0  1  1  1  1  1  1  1  1  0
     Eigenvalues ---    0.00070   0.00078   0.00429   0.00843   0.03986
     Eigenvalues ---    0.05538   0.05638   0.05669   0.07055   0.07130
     Eigenvalues ---    0.09783   0.12885   0.14892   0.15464   0.15937
     Eigenvalues ---    0.15990   0.16006   0.16151   0.16610   0.20600
     Eigenvalues ---    0.23356   0.31083   0.33102   0.33788   0.34186
     Eigenvalues ---    0.34228   0.34294   0.34318   0.34328   0.34433
     Eigenvalues ---    0.34698   0.35980   0.46324
 En-DIIS/RFO-DIIS/Sim-DIIS IScMMF=       -3 using points:    12   11   10    9    8    7    6    5    4    3
 RFO step:  Lambda=-8.31289493D-08.
 DIIS inversion failure, remove point  10.
 DIIS inversion failure, remove point   9.
 DIIS inversion failure, remove point   8.
 DIIS inversion failure, remove point   7.
 DIIS inversion failure, remove point   6.
 DIIS inversion failure, remove point   5.
 DIIS inversion failure, remove point   4.
 RFO-DIIS uses    3 points instead of   10
 DidBck=F Rises=F RFO-DIIS coefs:    2.15329   -2.00000    0.84671    0.00000    0.00000
                  RFO-DIIS coefs:    0.00000    0.00000    0.00000    0.00000    0.00000
 Iteration  1 RMS(Cart)=  0.00159879 RMS(Int)=  0.00000211
 Iteration  2 RMS(Cart)=  0.00000219 RMS(Int)=  0.00000003
 Iteration  3 RMS(Cart)=  0.00000000 RMS(Int)=  0.00000003
 Variable       Old X    -DE/DX   Delta X   Delta X   Delta X     New X
                                 (Linear)    (Quad)   (Total)
    R1        2.81775   0.00003  -0.00003   0.00004   0.00000   2.81776
    R2        2.08710   0.00000   0.00003   0.00001   0.00004   2.08714
    R3        2.10755  -0.00001  -0.00000  -0.00002  -0.00002   2.10753
    R4        2.09425  -0.00000  -0.00007  -0.00001  -0.00008   2.09417
    R5        2.82352   0.00002  -0.00002   0.00002   0.00001   2.82352
    R6        2.07461   0.00000   0.00000   0.00000   0.00001   2.07461
    R7        2.89460   0.00003  -0.00004   0.00007   0.00003   2.89463
    R8        2.09740  -0.00001  -0.00001  -0.00002  -0.00003   2.09737
    R9        2.10982  -0.00002   0.00000  -0.00003  -0.00003   2.10980
   R10        2.08781  -0.00000  -0.00001  -0.00000  -0.00001   2.08780
   R11        2.08692   0.00000  -0.00001   0.00001  -0.00000   2.08692
   R12        2.08910  -0.00000  -0.00001  -0.00001  -0.00002   2.08909
    A1        1.95673  -0.00000  -0.00005  -0.00004  -0.00009   1.95664
    A2        1.95605  -0.00000   0.00007   0.00001   0.00008   1.95613
    A3        1.94820  -0.00000   0.00002  -0.00000   0.00002   1.94821
    A4        1.86231   0.00000  -0.00018  -0.00000  -0.00018   1.86213
    A5        1.88641  -0.00000   0.00003  -0.00001   0.00002   1.88643
    A6        1.84826   0.00001   0.00012   0.00005   0.00016   1.84842
    A7        2.11971   0.00003   0.00014   0.00011   0.00025   2.11996
    A8        2.07194  -0.00002  -0.00017  -0.00004  -0.00021   2.07172
    A9        2.06051  -0.00001  -0.00004  -0.00003  -0.00006   2.06044
   A10        1.98840  -0.00001   0.00000  -0.00007  -0.00007   1.98834
   A11        1.91105   0.00000  -0.00001   0.00002   0.00001   1.91106
   A12        1.91757   0.00000   0.00004   0.00002   0.00007   1.91763
   A13        1.91801  -0.00000   0.00002  -0.00002   0.00000   1.91801
   A14        1.89973  -0.00000  -0.00002  -0.00004  -0.00006   1.89966
   A15        1.82168   0.00001  -0.00004   0.00010   0.00006   1.82174
   A16        1.93717  -0.00000   0.00002  -0.00002   0.00000   1.93717
   A17        1.94529   0.00000  -0.00000   0.00000  -0.00000   1.94529
   A18        1.93656  -0.00000   0.00002  -0.00002   0.00001   1.93657
   A19        1.88516  -0.00000  -0.00002   0.00001  -0.00001   1.88515
   A20        1.87684   0.00000  -0.00001   0.00002   0.00001   1.87685
   A21        1.88011  -0.00000  -0.00001   0.00001  -0.00001   1.88011
    D1       -2.91029   0.00001   0.00321   0.00038   0.00358  -2.90671
    D2        0.50154   0.00000   0.00350   0.00021   0.00371   0.50525
    D3        1.27905   0.00001   0.00342   0.00040   0.00382   1.28287
    D4       -1.59230   0.00000   0.00372   0.00023   0.00395  -1.58835
    D5       -0.79092   0.00000   0.00322   0.00034   0.00355  -0.78737
    D6        2.62091  -0.00000   0.00351   0.00017   0.00368   2.62459
    D7        2.93510  -0.00000   0.00064  -0.00050   0.00013   2.93523
    D8        0.77955   0.00000   0.00062  -0.00045   0.00017   0.77972
    D9       -1.21147  -0.00001   0.00064  -0.00059   0.00006  -1.21141
   D10       -0.47503   0.00000   0.00032  -0.00034  -0.00002  -0.47505
   D11       -2.63058   0.00001   0.00030  -0.00028   0.00002  -2.63056
   D12        1.66159  -0.00000   0.00033  -0.00042  -0.00009   1.66150
   D13       -1.05470   0.00000   0.00018   0.00031   0.00048  -1.05422
   D14        3.12637   0.00000   0.00019   0.00031   0.00050   3.12687
   D15        1.03108   0.00000   0.00019   0.00031   0.00050   1.03158
   D16        1.09707  -0.00000   0.00018   0.00027   0.00045   1.09752
   D17       -1.00504  -0.00000   0.00019   0.00027   0.00046  -1.00458
   D18       -3.10034  -0.00000   0.00020   0.00027   0.00047  -3.09987
   D19        3.08210   0.00000   0.00014   0.00035   0.00049   3.08259
   D20        0.97999   0.00001   0.00015   0.00036   0.00050   0.98049
   D21       -1.11531   0.00001   0.00015   0.00036   0.00051  -1.11480
         Item               Value     Threshold  Converged?
 Maximum Force            0.000034     0.000450     YES
 RMS     Force            0.000009     0.000300     YES
 Maximum Displacement     0.006077     0.001800     NO 
 RMS     Displacement     0.001599     0.001200     NO 
 Predicted change in Energy=-3.946753D-08
 GradGradGradGradGradGradGradGradGradGradGradGradGradGradGradGradGradGrad

                          Input orientation:                          
 ---------------------------------------------------------------------
 Center     Atomic      Atomic             Coordinates (Angstroms)
 Number     Number       Type             X           Y           Z
 ---------------------------------------------------------------------
      1          6           0        0.910441    0.255592    0.110678
      2          6           0        2.388558    0.204448    0.300185
      3          6           0        3.027344   -0.822981    1.177003
      4          6           0        4.549713   -0.905914    1.029219
      5          1           0        0.622078    0.903999   -0.735647
      6          1           0        0.385825    0.652249    1.011366
      7          1           0        0.486532   -0.752545   -0.068333
      8          1           0        2.988724    1.074021    0.002036
      9          1           0        2.573697   -1.815669    0.975485
     10          1           0        2.779530   -0.616754    2.245896
     11          1           0        4.833137   -1.169066   -0.005693
     12          1           0        4.980374   -1.665864    1.704935
     13          1           0        5.023568    0.063923    1.267970
 ---------------------------------------------------------------------
                    Distance matrix (angstroms):
                    1          2          3          4          5
     1  C    0.000000
     2  C    1.491093   0.000000
     3  C    2.604160   1.494145   0.000000
     4  C    3.929009   2.536728   1.531772   0.000000
     5  H    1.104469   2.163971   3.525053   4.670852   0.000000
     6  H    1.115256   2.171921   3.030076   4.445914   1.780800
     7  H    1.108189   2.160866   2.830468   4.211600   1.791038
     8  H    2.236266   1.097838   2.231738   2.722487   2.484773
     9  H    2.793641   2.138032   1.109881   2.176047   3.759439
    10  H    2.968777   2.147795   1.116456   2.167363   3.982071
    11  H    4.175014   2.820651   2.186191   1.104817   4.750100
    12  H    4.774725   3.491261   2.191686   1.104348   5.617418
    13  H    4.277134   2.810629   2.186271   1.105497   4.908495
                    6          7          8          9         10
     6  H    0.000000
     7  H    1.774637   0.000000
     8  H    2.823423   3.098750   0.000000
     9  H    3.298286   2.564380   3.077362   0.000000
    10  H    2.977290   3.260665   2.817337   1.758894   0.000000
    11  H    4.912248   4.366965   2.904024   2.546738   3.097096
    12  H    5.192742   4.916629   3.791240   2.519253   2.497396
    13  H    4.681947   4.799689   2.600669   3.101657   2.540741
                   11         12         13
    11  H    0.000000
    12  H    1.787382   0.000000
    13  H    1.782903   1.784647   0.000000
 Stoichiometry    C4H9(2)
 Framework group  C1[X(C4H9)]
 Deg. of freedom    33
 Full point group                 C1      NOp   1
 Largest Abelian subgroup         C1      NOp   1
 Largest concise Abelian subgroup C1      NOp   1
                         Standard orientation:                         
 ---------------------------------------------------------------------
 Center     Atomic      Atomic             Coordinates (Angstroms)
 Number     Number       Type             X           Y           Z
 ---------------------------------------------------------------------
      1          6           0        1.985939    0.043062   -0.067204
      2          6           0        0.581131   -0.444330    0.043796
      3          6           0       -0.572064    0.504505    0.091967
      4          6           0       -1.937375   -0.167916   -0.081529
      5          1           0        2.688132   -0.768612   -0.327902
      6          1           0        2.351681    0.488733    0.887472
      7          1           0        2.082536    0.840075   -0.831091
      8          1           0        0.406516   -1.485003    0.346713
      9          1           0       -0.437423    1.290612   -0.679876
     10          1           0       -0.564888    1.061729    1.059398
     11          1           0       -2.004743   -0.680833   -1.057745
     12          1           0       -2.759768    0.566927   -0.024418
     13          1           0       -2.107829   -0.925553    0.705271
 ---------------------------------------------------------------------
 Rotational constants (GHZ):          26.2953423           3.6185794           3.4035789
 Standard basis: def2SVPP (5D, 7F)
 There are    78 symmetry adapted cartesian basis functions of A   symmetry.
 There are    74 symmetry adapted basis functions of A   symmetry.
    74 basis functions,   136 primitive gaussians,    78 cartesian basis functions
    17 alpha electrons       16 beta electrons
       nuclear repulsion energy       121.5181183886 Hartrees.
 NAtoms=   13 NActive=   13 NUniq=   13 SFac= 1.00D+00 NAtFMM=   60 NAOKFM=F Big=F
 Integral buffers will be    131072 words long.
 Raffenetti 2 integral format.
 Two-electron integral symmetry is turned on.
 Nuclear repulsion after empirical dispersion term =      121.5048277581 Hartrees.
 One-electron integrals computed using PRISM.
   1 Symmetry operations used in ECPInt.
 ECPInt:  NShTT=     903 NPrTT=    3649 LenC2=     903 LenP2D=    3132.
 LDataN:  DoStor=T MaxTD1= 4 Len=   56
 NBasis=    74 RedAO= T EigKep=  2.56D-03  NBF=    74
 NBsUse=    74 1.00D-06 EigRej= -1.00D+00 NBFU=    74
 Initial guess from the checkpoint file:  "/tmp/scratch/Gau-3761564.chk"
 B after Tr=    -0.000000   -0.000000   -0.000000
         Rot=    1.000000   -0.000260   -0.000017    0.000000 Ang=  -0.03 deg.
 Initial guess <Sx>= 0.0000 <Sy>= 0.0000 <Sz>= 0.5000 <S**2>= 0.7540 S= 0.5020
 Requested convergence on RMS density matrix=1.00D-08 within 128 cycles.
 Requested convergence on MAX density matrix=1.00D-06.
 Requested convergence on             energy=1.00D-06.
 No special actions if energy rises.
 SCF Done:  E(UB3LYP) =  -157.670390872     A.U. after    7 cycles
            NFock=  7  Conv=0.53D-08     -V/T= 2.0120
 <Sx>= 0.0000 <Sy>= 0.0000 <Sz>= 0.5000 <S**2>= 0.7540 S= 0.5020
 <L.S>=  0.00000000000    
 Annihilation of the first spin contaminant:
 S**2 before annihilation     0.7540,   after     0.7500
   1 Symmetry operations used in ECPInt.
 ECPInt:  NShTT=     903 NPrTT=    3649 LenC2=     903 LenP2D=    3132.
 LDataN:  DoStor=T MaxTD1= 5 Len=  102
 Calling FoFJK, ICntrl=      2127 FMM=F ISym2X=0 I1Cent= 0 IOpClX= 1 NMat=1 NMatS=1 NMatT=0.
 ***** Axes restored to original set *****
 -------------------------------------------------------------------
 Center     Atomic                   Forces (Hartrees/Bohr)
 Number     Number              X              Y              Z
 -------------------------------------------------------------------
      1        6          -0.000030611    0.000005038    0.000001151
      2        6           0.000013870    0.000002386    0.000003523
      3        6          -0.000032619   -0.000015064    0.000029171
      4        6           0.000028840    0.000003385   -0.000005893
      5        1           0.000000328    0.000000105   -0.000005596
      6        1           0.000004517    0.000001330   -0.000000644
      7        1           0.000001295   -0.000002642   -0.000003828
      8        1           0.000002355    0.000003580   -0.000002409
      9        1           0.000005227   -0.000001908   -0.000006956
     10        1           0.000007957    0.000007959   -0.000011235
     11        1          -0.000002530   -0.000000052   -0.000002256
     12        1           0.000002930   -0.000005281    0.000001765
     13        1          -0.000001560    0.000001165    0.000003206
 -------------------------------------------------------------------
 Cartesian Forces:  Max     0.000032619 RMS     0.000010970

 GradGradGradGradGradGradGradGradGradGradGradGradGradGradGradGradGradGrad
 Berny optimization.
 Using GEDIIS/GDIIS optimizer.
 FormGI is forming the generalized inverse of G from B-inverse, IUseBI=4.
 Internal  Forces:  Max     0.000027803 RMS     0.000006631
 Search for a local minimum.
 Step number  13 out of a maximum of   64
 All quantities printed in internal units (Hartrees-Bohrs-Radians)
 Mixed Optimization -- En-DIIS/RFO-DIIS
 Swapping is turned off.
 Update second derivatives using D2CorX and points    1    2    3    4    5
                                                      6    7    8    9   10
                                                     11   12   13
 DE= -5.95D-08 DEPred=-3.95D-08 R= 1.51D+00
 Trust test= 1.51D+00 RLast= 9.24D-03 DXMaxT set to 5.05D-01
 ITU=  0  0  0  0  1  1  1  1  1  1  1  1  0
     Eigenvalues ---    0.00065   0.00079   0.00367   0.00832   0.03990
     Eigenvalues ---    0.05273   0.05545   0.05646   0.06983   0.07085
     Eigenvalues ---    0.09604   0.12962   0.14989   0.15520   0.15921
     Eigenvalues ---    0.15988   0.16007   0.16253   0.16591   0.19814
     Eigenvalues ---    0.23372   0.31083   0.32588   0.33106   0.34188
     Eigenvalues ---    0.34228   0.34290   0.34303   0.34330   0.34342
     Eigenvalues ---    0.34560   0.35736   0.45074
 En-DIIS/RFO-DIIS/Sim-DIIS IScMMF=       -3 using points:    13   12   11   10    9    8    7    6    5    4
 RFO step:  Lambda=-1.77324047D-08.
 DIIS inversion failure, remove point  10.
 DIIS inversion failure, remove point   9.
 DIIS inversion failure, remove point   8.
 DIIS inversion failure, remove point   7.
 DIIS inversion failure, remove point   6.
 DIIS inversion failure, remove point   5.
 DIIS inversion failure, remove point   4.
 RFO-DIIS uses    3 points instead of   10
 DidBck=F Rises=F RFO-DIIS coefs:    1.65184   -1.02016    0.36832    0.00000    0.00000
                  RFO-DIIS coefs:    0.00000    0.00000    0.00000    0.00000    0.00000
 Iteration  1 RMS(Cart)=  0.00044064 RMS(Int)=  0.00000013
 Iteration  2 RMS(Cart)=  0.00000015 RMS(Int)=  0.00000001
 Variable       Old X    -DE/DX   Delta X   Delta X   Delta X     New X
                                 (Linear)    (Quad)   (Total)
    R1        2.81776   0.00003   0.00003   0.00004   0.00006   2.81782
    R2        2.08714   0.00000   0.00001   0.00001   0.00002   2.08716
    R3        2.10753  -0.00000  -0.00002   0.00000  -0.00002   2.10751
    R4        2.09417   0.00000  -0.00002   0.00001  -0.00001   2.09416
    R5        2.82352   0.00001   0.00002   0.00002   0.00004   2.82356
    R6        2.07461   0.00000  -0.00000   0.00001   0.00001   2.07462
    R7        2.89463   0.00003   0.00006   0.00004   0.00010   2.89472
    R8        2.09737   0.00000  -0.00002   0.00000  -0.00002   2.09735
    R9        2.10980  -0.00001  -0.00003  -0.00001  -0.00004   2.10975
   R10        2.08780   0.00000  -0.00001   0.00000  -0.00000   2.08780
   R11        2.08692   0.00001   0.00000   0.00001   0.00001   2.08693
   R12        2.08909   0.00000  -0.00001   0.00001  -0.00000   2.08908
    A1        1.95664  -0.00000  -0.00005  -0.00000  -0.00005   1.95659
    A2        1.95613  -0.00000   0.00003  -0.00002   0.00001   1.95613
    A3        1.94821  -0.00000   0.00000  -0.00001  -0.00001   1.94820
    A4        1.86213   0.00000  -0.00004   0.00002  -0.00002   1.86211
    A5        1.88643  -0.00000  -0.00001  -0.00000  -0.00001   1.88642
    A6        1.84842   0.00000   0.00006   0.00002   0.00009   1.84851
    A7        2.11996   0.00001   0.00014  -0.00001   0.00013   2.12009
    A8        2.07172  -0.00001  -0.00007  -0.00000  -0.00007   2.07165
    A9        2.06044  -0.00000  -0.00002  -0.00001  -0.00003   2.06041
   A10        1.98834  -0.00001  -0.00006  -0.00002  -0.00008   1.98825
   A11        1.91106   0.00000   0.00001  -0.00000   0.00001   1.91107
   A12        1.91763   0.00000   0.00003  -0.00001   0.00002   1.91765
   A13        1.91801  -0.00000  -0.00001  -0.00001  -0.00002   1.91799
   A14        1.89966  -0.00000  -0.00004  -0.00000  -0.00004   1.89962
   A15        1.82174   0.00001   0.00008   0.00005   0.00014   1.82188
   A16        1.93717  -0.00000  -0.00001  -0.00002  -0.00003   1.93714
   A17        1.94529   0.00000   0.00000   0.00000   0.00000   1.94529
   A18        1.93657  -0.00000  -0.00001  -0.00001  -0.00001   1.93655
   A19        1.88515   0.00000  -0.00000   0.00001   0.00001   1.88516
   A20        1.87685   0.00000   0.00002   0.00001   0.00003   1.87688
   A21        1.88011   0.00000   0.00000   0.00001   0.00001   1.88012
    D1       -2.90671   0.00000   0.00098  -0.00004   0.00094  -2.90577
    D2        0.50525   0.00000   0.00076   0.00006   0.00083   0.50608
    D3        1.28287   0.00000   0.00104  -0.00005   0.00099   1.28386
    D4       -1.58835   0.00000   0.00083   0.00005   0.00088  -1.58747
    D5       -0.78737  -0.00000   0.00094  -0.00005   0.00088  -0.78649
    D6        2.62459  -0.00000   0.00072   0.00005   0.00077   2.62536
    D7        2.93523  -0.00000  -0.00022  -0.00016  -0.00037   2.93486
    D8        0.77972   0.00000  -0.00017  -0.00013  -0.00029   0.77942
    D9       -1.21141  -0.00001  -0.00029  -0.00018  -0.00047  -1.21189
   D10       -0.47505   0.00000  -0.00001  -0.00026  -0.00027  -0.47532
   D11       -2.63056   0.00001   0.00004  -0.00023  -0.00019  -2.63075
   D12        1.66150  -0.00000  -0.00008  -0.00029  -0.00037   1.66113
   D13       -1.05422   0.00000   0.00037  -0.00002   0.00035  -1.05386
   D14        3.12687   0.00000   0.00038  -0.00002   0.00037   3.12723
   D15        1.03158   0.00000   0.00038  -0.00002   0.00036   1.03194
   D16        1.09752  -0.00000   0.00034  -0.00004   0.00029   1.09781
   D17       -1.00458  -0.00000   0.00035  -0.00004   0.00030  -1.00428
   D18       -3.09987  -0.00000   0.00035  -0.00005   0.00030  -3.09957
   D19        3.08259   0.00000   0.00041   0.00001   0.00042   3.08301
   D20        0.98049   0.00000   0.00042   0.00001   0.00043   0.98092
   D21       -1.11480   0.00000   0.00042   0.00001   0.00043  -1.11437
         Item               Value     Threshold  Converged?
 Maximum Force            0.000028     0.000450     YES
 RMS     Force            0.000007     0.000300     YES
 Maximum Displacement     0.001277     0.001800     YES
 RMS     Displacement     0.000441     0.001200     YES
 Predicted change in Energy=-8.509085D-09
 Optimization completed.
    -- Stationary point found.
                           ----------------------------
                           !   Optimized Parameters   !
                           ! (Angstroms and Degrees)  !
 --------------------------                            --------------------------
 ! Name  Definition              Value          Derivative Info.                !
 --------------------------------------------------------------------------------
 ! R1    R(1,2)                  1.4911         -DE/DX =    0.0                 !
 ! R2    R(1,5)                  1.1045         -DE/DX =    0.0                 !
 ! R3    R(1,6)                  1.1153         -DE/DX =    0.0                 !
 ! R4    R(1,7)                  1.1082         -DE/DX =    0.0                 !
 ! R5    R(2,3)                  1.4941         -DE/DX =    0.0                 !
 ! R6    R(2,8)                  1.0978         -DE/DX =    0.0                 !
 ! R7    R(3,4)                  1.5318         -DE/DX =    0.0                 !
 ! R8    R(3,9)                  1.1099         -DE/DX =    0.0                 !
 ! R9    R(3,10)                 1.1165         -DE/DX =    0.0                 !
 ! R10   R(4,11)                 1.1048         -DE/DX =    0.0                 !
 ! R11   R(4,12)                 1.1043         -DE/DX =    0.0                 !
 ! R12   R(4,13)                 1.1055         -DE/DX =    0.0                 !
 ! A1    A(2,1,5)              112.1071         -DE/DX =    0.0                 !
 ! A2    A(2,1,6)              112.0778         -DE/DX =    0.0                 !
 ! A3    A(2,1,7)              111.6245         -DE/DX =    0.0                 !
 ! A4    A(5,1,6)              106.6922         -DE/DX =    0.0                 !
 ! A5    A(5,1,7)              108.0845         -DE/DX =    0.0                 !
 ! A6    A(6,1,7)              105.9067         -DE/DX =    0.0                 !
 ! A7    A(1,2,3)              121.4648         -DE/DX =    0.0                 !
 ! A8    A(1,2,8)              118.701          -DE/DX =    0.0                 !
 ! A9    A(3,2,8)              118.0546         -DE/DX =    0.0                 !
 ! A10   A(2,3,4)              113.9234         -DE/DX =    0.0                 !
 ! A11   A(2,3,9)              109.4955         -DE/DX =    0.0                 !
 ! A12   A(2,3,10)             109.8722         -DE/DX =    0.0                 !
 ! A13   A(4,3,9)              109.8942         -DE/DX =    0.0                 !
 ! A14   A(4,3,10)             108.8428         -DE/DX =    0.0                 !
 ! A15   A(9,3,10)             104.3781         -DE/DX =    0.0                 !
 ! A16   A(3,4,11)             110.9916         -DE/DX =    0.0                 !
 ! A17   A(3,4,12)             111.4568         -DE/DX =    0.0                 !
 ! A18   A(3,4,13)             110.9571         -DE/DX =    0.0                 !
 ! A19   A(11,4,12)            108.0114         -DE/DX =    0.0                 !
 ! A20   A(11,4,13)            107.5357         -DE/DX =    0.0                 !
 ! A21   A(12,4,13)            107.7221         -DE/DX =    0.0                 !
 ! D1    D(5,1,2,3)           -166.5423         -DE/DX =    0.0                 !
 ! D2    D(5,1,2,8)             28.9487         -DE/DX =    0.0                 !
 ! D3    D(6,1,2,3)             73.5032         -DE/DX =    0.0                 !
 ! D4    D(6,1,2,8)            -91.0058         -DE/DX =    0.0                 !
 ! D5    D(7,1,2,3)            -45.113          -DE/DX =    0.0                 !
 ! D6    D(7,1,2,8)            150.378          -DE/DX =    0.0                 !
 ! D7    D(1,2,3,4)            168.1763         -DE/DX =    0.0                 !
 ! D8    D(1,2,3,9)             44.6745         -DE/DX =    0.0                 !
 ! D9    D(1,2,3,10)           -69.4088         -DE/DX =    0.0                 !
 ! D10   D(8,2,3,4)            -27.2182         -DE/DX =    0.0                 !
 ! D11   D(8,2,3,9)           -150.72           -DE/DX =    0.0                 !
 ! D12   D(8,2,3,10)            95.1967         -DE/DX =    0.0                 !
 ! D13   D(2,3,4,11)           -60.4023         -DE/DX =    0.0                 !
 ! D14   D(2,3,4,12)           179.1563         -DE/DX =    0.0                 !
 ! D15   D(2,3,4,13)            59.1051         -DE/DX =    0.0                 !
 ! D16   D(9,3,4,11)            62.8832         -DE/DX =    0.0                 !
 ! D17   D(9,3,4,12)           -57.5582         -DE/DX =    0.0                 !
 ! D18   D(9,3,4,13)          -177.6095         -DE/DX =    0.0                 !
 ! D19   D(10,3,4,11)          176.6194         -DE/DX =    0.0                 !
 ! D20   D(10,3,4,12)           56.178          -DE/DX =    0.0                 !
 ! D21   D(10,3,4,13)          -63.8732         -DE/DX =    0.0                 !
 --------------------------------------------------------------------------------
 GradGradGradGradGradGradGradGradGradGradGradGradGradGradGradGradGradGrad

                          Input orientation:                          
 ---------------------------------------------------------------------
 Center     Atomic      Atomic             Coordinates (Angstroms)
 Number     Number       Type             X           Y           Z
 ---------------------------------------------------------------------
      1          6           0        0.910441    0.255592    0.110678
      2          6           0        2.388558    0.204448    0.300185
      3          6           0        3.027344   -0.822981    1.177003
      4          6           0        4.549713   -0.905914    1.029219
      5          1           0        0.622078    0.903999   -0.735647
      6          1           0        0.385825    0.652249    1.011366
      7          1           0        0.486532   -0.752545   -0.068333
      8          1           0        2.988724    1.074021    0.002036
      9          1           0        2.573697   -1.815669    0.975485
     10          1           0        2.779530   -0.616754    2.245896
     11          1           0        4.833137   -1.169066   -0.005693
     12          1           0        4.980374   -1.665864    1.704935
     13          1           0        5.023568    0.063923    1.267970
 ---------------------------------------------------------------------
                    Distance matrix (angstroms):
                    1          2          3          4          5
     1  C    0.000000
     2  C    1.491093   0.000000
     3  C    2.604160   1.494145   0.000000
     4  C    3.929009   2.536728   1.531772   0.000000
     5  H    1.104469   2.163971   3.525053   4.670852   0.000000
     6  H    1.115256   2.171921   3.030076   4.445914   1.780800
     7  H    1.108189   2.160866   2.830468   4.211600   1.791038
     8  H    2.236266   1.097838   2.231738   2.722487   2.484773
     9  H    2.793641   2.138032   1.109881   2.176047   3.759439
    10  H    2.968777   2.147795   1.116456   2.167363   3.982071
    11  H    4.175014   2.820651   2.186191   1.104817   4.750100
    12  H    4.774725   3.491261   2.191686   1.104348   5.617418
    13  H    4.277134   2.810629   2.186271   1.105497   4.908495
                    6          7          8          9         10
     6  H    0.000000
     7  H    1.774637   0.000000
     8  H    2.823423   3.098750   0.000000
     9  H    3.298286   2.564380   3.077362   0.000000
    10  H    2.977290   3.260665   2.817337   1.758894   0.000000
    11  H    4.912248   4.366965   2.904024   2.546738   3.097096
    12  H    5.192742   4.916629   3.791240   2.519253   2.497396
    13  H    4.681947   4.799689   2.600669   3.101657   2.540741
                   11         12         13
    11  H    0.000000
    12  H    1.787382   0.000000
    13  H    1.782903   1.784647   0.000000
 Stoichiometry    C4H9(2)
 Framework group  C1[X(C4H9)]
 Deg. of freedom    33
 Full point group                 C1      NOp   1
 Largest Abelian subgroup         C1      NOp   1
 Largest concise Abelian subgroup C1      NOp   1
                         Standard orientation:                         
 ---------------------------------------------------------------------
 Center     Atomic      Atomic             Coordinates (Angstroms)
 Number     Number       Type             X           Y           Z
 ---------------------------------------------------------------------
      1          6           0        1.985939    0.043062   -0.067204
      2          6           0        0.581131   -0.444330    0.043796
      3          6           0       -0.572064    0.504505    0.091967
      4          6           0       -1.937375   -0.167916   -0.081529
      5          1           0        2.688132   -0.768612   -0.327902
      6          1           0        2.351681    0.488733    0.887472
      7          1           0        2.082536    0.840075   -0.831091
      8          1           0        0.406516   -1.485003    0.346713
      9          1           0       -0.437423    1.290612   -0.679876
     10          1           0       -0.564888    1.061729    1.059398
     11          1           0       -2.004743   -0.680833   -1.057745
     12          1           0       -2.759768    0.566927   -0.024418
     13          1           0       -2.107829   -0.925553    0.705271
 ---------------------------------------------------------------------
 Rotational constants (GHZ):          26.2953423           3.6185794           3.4035789

 **********************************************************************

            Population analysis using the SCF Density.

 **********************************************************************

 Orbital symmetries:
 Alpha Orbitals:
       Occupied  (A) (A) (A) (A) (A) (A) (A) (A) (A) (A) (A) (A)
                 (A) (A) (A) (A) (A)
       Virtual   (A) (A) (A) (A) (A) (A) (A) (A) (A) (A) (A) (A)
                 (A) (A) (A) (A) (A) (A) (A) (A) (A) (A) (A) (A)
                 (A) (A) (A) (A) (A) (A) (A) (A) (A) (A) (A) (A)
                 (A) (A) (A) (A) (A) (A) (A) (A) (A) (A) (A) (A)
                 (A) (A) (A) (A) (A) (A) (A) (A) (A)
 Beta  Orbitals:
       Occupied  (A) (A) (A) (A) (A) (A) (A) (A) (A) (A) (A) (A)
                 (A) (A) (A) (A)
       Virtual   (A) (A) (A) (A) (A) (A) (A) (A) (A) (A) (A) (A)
                 (A) (A) (A) (A) (A) (A) (A) (A) (A) (A) (A) (A)
                 (A) (A) (A) (A) (A) (A) (A) (A) (A) (A) (A) (A)
                 (A) (A) (A) (A) (A) (A) (A) (A) (A) (A) (A) (A)
                 (A) (A) (A) (A) (A) (A) (A) (A) (A) (A)
 The electronic state is 2-A.
 Alpha  occ. eigenvalues --  -10.18277 -10.18078 -10.17538 -10.17101  -0.78633
 Alpha  occ. eigenvalues --   -0.71893  -0.62526  -0.55885  -0.45367  -0.43295
 Alpha  occ. eigenvalues --   -0.42907  -0.40509  -0.37323  -0.35094  -0.34283
 Alpha  occ. eigenvalues --   -0.33859  -0.18577
 Alpha virt. eigenvalues --    0.06389   0.07939   0.09059   0.11380   0.12793
 Alpha virt. eigenvalues --    0.14384   0.14921   0.15196   0.16591   0.22860
 Alpha virt. eigenvalues --    0.25240   0.27138   0.40278   0.41814   0.42699
 Alpha virt. eigenvalues --    0.45943   0.47683   0.49823   0.55309   0.57761
 Alpha virt. eigenvalues --    0.63002   0.63559   0.66209   0.67862   0.69005
 Alpha virt. eigenvalues --    0.69963   0.70096   0.70748   0.71287   0.71889
 Alpha virt. eigenvalues --    0.73241   0.74081   0.76083   0.81442   0.91036
 Alpha virt. eigenvalues --    0.99908   1.04807   1.40203   1.48923   1.57654
 Alpha virt. eigenvalues --    1.74677   1.80371   1.83484   1.87259   1.92596
 Alpha virt. eigenvalues --    1.97224   2.03342   2.04257   2.10997   2.15322
 Alpha virt. eigenvalues --    2.20669   2.27671   2.35478   2.37017   2.50724
 Alpha virt. eigenvalues --    2.68840   2.72060
  Beta  occ. eigenvalues --  -10.18178 -10.17640 -10.17080 -10.16854  -0.77409
  Beta  occ. eigenvalues --   -0.71346  -0.62014  -0.54216  -0.44500  -0.42836
  Beta  occ. eigenvalues --   -0.42399  -0.39516  -0.37065  -0.34676  -0.33902
  Beta  occ. eigenvalues --   -0.33380
  Beta virt. eigenvalues --   -0.03838   0.06518   0.08027   0.09350   0.11592
  Beta virt. eigenvalues --    0.13090   0.14513   0.15281   0.15660   0.16945
  Beta virt. eigenvalues --    0.23113   0.26372   0.27728   0.40546   0.42045
  Beta virt. eigenvalues --    0.43109   0.47472   0.48761   0.51241   0.58048
  Beta virt. eigenvalues --    0.59443   0.64092   0.65147   0.66771   0.68048
  Beta virt. eigenvalues --    0.69211   0.70219   0.70498   0.71068   0.71473
  Beta virt. eigenvalues --    0.72232   0.73342   0.74774   0.76481   0.81900
  Beta virt. eigenvalues --    0.91751   1.00233   1.05188   1.41858   1.51693
  Beta virt. eigenvalues --    1.57770   1.74989   1.81009   1.86260   1.88660
  Beta virt. eigenvalues --    1.94534   1.97572   2.04259   2.05558   2.12560
  Beta virt. eigenvalues --    2.15631   2.20920   2.28433   2.37012   2.39017
  Beta virt. eigenvalues --    2.51954   2.69492   2.72700
          Condensed to atoms (all electrons):
               1          2          3          4          5          6
     1  C    4.790495   0.412920  -0.044940   0.006538   0.372923   0.360672
     2  C    0.412920   5.186880   0.406670  -0.048553  -0.016938  -0.027666
     3  C   -0.044940   0.406670   4.734217   0.444818   0.007462  -0.005092
     4  C    0.006538  -0.048553   0.444818   4.778546  -0.000319  -0.000115
     5  H    0.372923  -0.016938   0.007462  -0.000319   0.597635  -0.027261
     6  H    0.360672  -0.027666  -0.005092  -0.000115  -0.027261   0.629936
     7  H    0.374090  -0.027755  -0.008650   0.000298  -0.022644  -0.032929
     8  H   -0.045306   0.387805  -0.053537  -0.004047  -0.007558   0.000456
     9  H   -0.006466  -0.034586   0.360992  -0.022034  -0.000019  -0.001545
    10  H   -0.002094  -0.033654   0.346666  -0.026366  -0.000382   0.005787
    11  H    0.000175   0.000937  -0.027443   0.380227  -0.000021   0.000051
    12  H   -0.000391   0.006965  -0.016024   0.369161   0.000009   0.000022
    13  H    0.000262  -0.007705  -0.022411   0.378822   0.000004  -0.000041
               7          8          9         10         11         12
     1  C    0.374090  -0.045306  -0.006466  -0.002094   0.000175  -0.000391
     2  C   -0.027755   0.387805  -0.034586  -0.033654   0.000937   0.006965
     3  C   -0.008650  -0.053537   0.360992   0.346666  -0.027443  -0.016024
     4  C    0.000298  -0.004047  -0.022034  -0.026366   0.380227   0.369161
     5  H   -0.022644  -0.007558  -0.000019  -0.000382  -0.000021   0.000009
     6  H   -0.032929   0.000456  -0.001545   0.005787   0.000051   0.000022
     7  H    0.607985   0.006826   0.009836  -0.001478  -0.000097  -0.000011
     8  H    0.006826   0.622091   0.007793   0.000058  -0.000538   0.000066
     9  H    0.009836   0.007793   0.654784  -0.040817  -0.009083  -0.005215
    10  H   -0.001478   0.000058  -0.040817   0.673286   0.008688  -0.004196
    11  H   -0.000097  -0.000538  -0.009083   0.008688   0.606653  -0.024558
    12  H   -0.000011   0.000066  -0.005215  -0.004196  -0.024558   0.608774
    13  H    0.000038   0.006556   0.007647  -0.008164  -0.027830  -0.025510
              13
     1  C    0.000262
     2  C   -0.007705
     3  C   -0.022411
     4  C    0.378822
     5  H    0.000004
     6  H   -0.000041
     7  H    0.000038
     8  H    0.006556
     9  H    0.007647
    10  H   -0.008164
    11  H   -0.027830
    12  H   -0.025510
    13  H    0.608209
          Atomic-Atomic Spin Densities.
               1          2          3          4          5          6
     1  C   -0.080552  -0.035041  -0.001963   0.000361   0.006716   0.005928
     2  C   -0.035041   1.228033  -0.037415  -0.014724  -0.007030  -0.031830
     3  C   -0.001963  -0.037415  -0.069665   0.009483   0.000337  -0.001288
     4  C    0.000361  -0.014724   0.009483   0.017249   0.000026  -0.000171
     5  H    0.006716  -0.007030   0.000337   0.000026   0.012209  -0.009297
     6  H    0.005928  -0.031830  -0.001288  -0.000171  -0.009297   0.119810
     7  H    0.009329  -0.017280   0.002139   0.000248   0.004375  -0.018813
     8  H    0.000814  -0.003966   0.001237   0.001285   0.001335  -0.001743
     9  H    0.001871  -0.020247   0.009170   0.007661   0.000279  -0.002439
    10  H   -0.000270  -0.031464   0.001086  -0.006769  -0.000298   0.006382
    11  H   -0.000132   0.007853  -0.002111  -0.006362  -0.000024   0.000069
    12  H   -0.000019   0.000728  -0.000162  -0.002561  -0.000001   0.000017
    13  H    0.000052  -0.000400   0.001584   0.000841   0.000009  -0.000058
               7          8          9         10         11         12
     1  C    0.009329   0.000814   0.001871  -0.000270  -0.000132  -0.000019
     2  C   -0.017280  -0.003966  -0.020247  -0.031464   0.007853   0.000728
     3  C    0.002139   0.001237   0.009170   0.001086  -0.002111  -0.000162
     4  C    0.000248   0.001285   0.007661  -0.006769  -0.006362  -0.002561
     5  H    0.004375   0.001335   0.000279  -0.000298  -0.000024  -0.000001
     6  H   -0.018813  -0.001743  -0.002439   0.006382   0.000069   0.000017
     7  H    0.041291   0.000437   0.004086  -0.002378  -0.000123  -0.000017
     8  H    0.000437  -0.049144   0.000577  -0.001738  -0.000508  -0.000129
     9  H    0.004086   0.000577   0.047050  -0.020898  -0.002723  -0.001205
    10  H   -0.002378  -0.001738  -0.020898   0.117835   0.002051   0.002265
    11  H   -0.000123  -0.000508  -0.002723   0.002051   0.004612   0.001882
    12  H   -0.000017  -0.000129  -0.001205   0.002265   0.001882  -0.000299
    13  H    0.000025   0.000447   0.000652  -0.002461  -0.001556  -0.000520
              13
     1  C    0.000052
     2  C   -0.000400
     3  C    0.001584
     4  C    0.000841
     5  H    0.000009
     6  H   -0.000058
     7  H    0.000025
     8  H    0.000447
     9  H    0.000652
    10  H   -0.002461
    11  H   -0.001556
    12  H   -0.000520
    13  H    0.000574
 Mulliken charges and spin densities:
               1          2
     1  C   -0.218878  -0.092907
     2  C   -0.205320   1.037215
     3  C   -0.122726  -0.087567
     4  C   -0.256978   0.006566
     5  H    0.097107   0.008636
     6  H    0.097724   0.066566
     7  H    0.094490   0.023317
     8  H    0.079334  -0.051096
     9  H    0.078712   0.023834
    10  H    0.082665   0.063342
    11  H    0.092838   0.002927
    12  H    0.090910  -0.000022
    13  H    0.090121  -0.000811
 Sum of Mulliken charges =  -0.00000   1.00000
 Mulliken charges and spin densities with hydrogens summed into heavy atoms:
               1          2
     1  C    0.070444   0.005612
     2  C   -0.125987   0.986118
     3  C    0.038652  -0.000391
     4  C    0.016890   0.008660
 Electronic spatial extent (au):  <R**2>=            419.5698
 Charge=              0.0000 electrons
 Dipole moment (field-independent basis, Debye):
    X=              0.0805    Y=              0.1627    Z=              0.1816  Tot=              0.2568
 Quadrupole moment (field-independent basis, Debye-Ang):
   XX=            -27.8126   YY=            -27.5029   ZZ=            -28.0982
   XY=             -0.1976   XZ=             -0.0198   YZ=             -0.3460
 Traceless Quadrupole moment (field-independent basis, Debye-Ang):
   XX=             -0.0080   YY=              0.3016   ZZ=             -0.2936
   XY=             -0.1976   XZ=             -0.0198   YZ=             -0.3460
 Octapole moment (field-independent basis, Debye-Ang**2):
  XXX=              1.3238  YYY=             -0.5419  ZZZ=              0.1851  XYY=              0.2605
  XXY=              0.1710  XXZ=              0.1561  XZZ=             -0.3533  YZZ=              0.6388
  YYZ=              0.1986  XYZ=              0.0655
 Hexadecapole moment (field-independent basis, Debye-Ang**3):
 XXXX=           -456.9785 YYYY=            -82.2500 ZZZZ=            -52.7319 XXXY=             -5.8072
 XXXZ=             -0.8541 YYYX=             -1.0335 YYYZ=             -1.5348 ZZZX=              0.6426
 ZZZY=              0.0106 XXYY=            -87.3019 XXZZ=            -83.9055 YYZZ=            -22.0533
 XXYZ=              0.3104 YYXZ=             -0.6164 ZZXY=              1.4858
 N-N= 1.215048277581D+02 E-N=-6.064727415532D+02  KE= 1.558034912610D+02
                          Isotropic Fermi Contact Couplings
        Atom                 a.u.       MegaHertz       Gauss      10(-4) cm-1
     1  C(13)             -0.04273     -48.03206     -17.13903     -16.02177
     2  C(13)              0.20475     230.17778      82.13316      76.77904
     3  C(13)             -0.04083     -45.90386     -16.37964     -15.31188
     4  C(13)              0.01215      13.65656       4.87300       4.55534
     5  H(1)               0.00401      17.94060       6.40165       5.98434
     6  H(1)               0.02731     122.05793      43.55330      40.71414
     7  H(1)               0.00992      44.36268      15.82971      14.79780
     8  H(1)              -0.01279     -57.18582     -20.40532     -19.07514
     9  H(1)               0.01038      46.38939      16.55289      15.47383
    10  H(1)               0.02538     113.46131      40.48582      37.84662
    11  H(1)              -0.00036      -1.59068      -0.56759      -0.53059
    12  H(1)              -0.00030      -1.36134      -0.48576      -0.45410
    13  H(1)              -0.00031      -1.37343      -0.49008      -0.45813
 --------------------------------------------------------
       Center         ----  Spin Dipole Couplings  ----
                      3XX-RR        3YY-RR        3ZZ-RR
 --------------------------------------------------------
     1   Atom        0.015538     -0.008447     -0.007092
     2   Atom       -0.528414     -0.477370      1.005784
     3   Atom        0.006458     -0.000604     -0.005854
     4   Atom        0.017233     -0.008640     -0.008592
     5   Atom        0.016629     -0.009297     -0.007332
     6   Atom        0.008972     -0.004697     -0.004275
     7   Atom        0.005045      0.000969     -0.006014
     8   Atom       -0.062465      0.061458      0.001007
     9   Atom       -0.002603      0.009901     -0.007298
    10   Atom        0.000443      0.003341     -0.003784
    11   Atom        0.009869     -0.005665     -0.004204
    12   Atom        0.005686     -0.002688     -0.002998
    13   Atom        0.008397     -0.004521     -0.003876
 --------------------------------------------------------
                        XY            XZ            YZ
 --------------------------------------------------------
     1   Atom        0.011097      0.000595      0.001831
     2   Atom        0.030221      0.150436      0.301844
     3   Atom       -0.014283     -0.002399      0.003734
     4   Atom        0.001437     -0.003981     -0.000844
     5   Atom       -0.002733     -0.002376      0.000410
     6   Atom        0.008772      0.005677      0.003783
     7   Atom        0.011660     -0.005865     -0.004407
     8   Atom        0.022295     -0.000277     -0.024366
     9   Atom       -0.011018      0.003570     -0.004957
    10   Atom       -0.010392     -0.004094      0.007441
    11   Atom        0.001283      0.005095      0.001337
    12   Atom       -0.002264      0.000169      0.000235
    13   Atom        0.002987     -0.003539     -0.000645
 --------------------------------------------------------


 ---------------------------------------------------------------------------------
              Anisotropic Spin Dipole Couplings in Principal Axis System
 ---------------------------------------------------------------------------------

       Atom             a.u.   MegaHertz   Gauss  10(-4) cm-1        Axes

              Baa    -0.0132    -1.766    -0.630    -0.589 -0.3458  0.9072 -0.2398
     1 C(13)  Bbb    -0.0068    -0.910    -0.325    -0.303 -0.1289  0.2072  0.9698
              Bcc     0.0199     2.676     0.955     0.893  0.9294  0.3663  0.0453
 
              Baa    -0.5431   -72.885   -26.007   -24.312  0.9891 -0.1288 -0.0710
     2 C(13)  Bbb    -0.5364   -71.974   -25.682   -24.008  0.1123  0.9731 -0.2014
              Bcc     1.0795   144.859    51.689    48.320  0.0950  0.1913  0.9769
 
              Baa    -0.0122    -1.632    -0.582    -0.544  0.5695  0.7839 -0.2475
     3 C(13)  Bbb    -0.0062    -0.833    -0.297    -0.278  0.2859  0.0934  0.9537
              Bcc     0.0184     2.465     0.879     0.822  0.7707 -0.6139 -0.1709
 
              Baa    -0.0096    -1.291    -0.461    -0.431  0.0907  0.5694  0.8170
     4 C(13)  Bbb    -0.0083    -1.114    -0.397    -0.372 -0.1330  0.8200 -0.5567
              Bcc     0.0179     2.405     0.858     0.802  0.9870  0.0582 -0.1500
 
              Baa    -0.0096    -5.119    -1.827    -1.708  0.0963  0.9922 -0.0786
     5 H(1)   Bbb    -0.0076    -4.031    -1.438    -1.345  0.1052  0.0684  0.9921
              Bcc     0.0171     9.150     3.265     3.052  0.9898 -0.1038 -0.0978
 
              Baa    -0.0093    -4.941    -1.763    -1.648 -0.3392  0.8942 -0.2922
     6 H(1)   Bbb    -0.0063    -3.364    -1.200    -1.122 -0.4133  0.1373  0.9002
              Bcc     0.0156     8.305     2.963     2.770  0.8450  0.4261  0.3230
 
              Baa    -0.0090    -4.821    -1.720    -1.608  0.6728 -0.5840  0.4542
     7 H(1)   Bbb    -0.0081    -4.335    -1.547    -1.446 -0.1010  0.5357  0.8383
              Bcc     0.0172     9.156     3.267     3.054  0.7329  0.6099 -0.3015
 
              Baa    -0.0666   -35.532   -12.679   -11.852  0.9812 -0.1826 -0.0618
     8 H(1)   Bbb    -0.0068    -3.606    -1.287    -1.203  0.1155  0.3004  0.9468
              Bcc     0.0734    39.139    13.966    13.055  0.1543  0.9362 -0.3159
 
              Baa    -0.0095    -5.060    -1.805    -1.688  0.7450  0.2671 -0.6113
     9 H(1)   Bbb    -0.0083    -4.433    -1.582    -1.479  0.4488  0.4772  0.7555
              Bcc     0.0178     9.493     3.387     3.166 -0.4935  0.8372 -0.2356
 
              Baa    -0.0097    -5.195    -1.854    -1.733  0.4959  0.6923 -0.5243
    10 H(1)   Bbb    -0.0062    -3.292    -1.175    -1.098  0.6441  0.1117  0.7567
              Bcc     0.0159     8.487     3.028     2.831 -0.5825  0.7129  0.3905
 
              Baa    -0.0067    -3.580    -1.277    -1.194 -0.1608 -0.6970  0.6988
    11 H(1)   Bbb    -0.0050    -2.649    -0.945    -0.884 -0.2827  0.7109  0.6440
              Bcc     0.0117     6.229     2.223     2.078  0.9456  0.0940  0.3114
 
              Baa    -0.0034    -1.830    -0.653    -0.610  0.2136  0.8204 -0.5304
    12 H(1)   Bbb    -0.0028    -1.510    -0.539    -0.504  0.1205  0.5167  0.8477
              Bcc     0.0063     3.340     1.192     1.114  0.9695 -0.2449  0.0115
 
              Baa    -0.0052    -2.784    -0.993    -0.929 -0.2759  0.9174 -0.2868
    13 H(1)   Bbb    -0.0048    -2.545    -0.908    -0.849  0.1712  0.3405  0.9245
              Bcc     0.0100     5.328     1.901     1.777  0.9458  0.2059 -0.2510
 

 ---------------------------------------------------------------------------------

 Unable to Open any file for archive entry.
 1\1\GINC-NODE01\FOpt\UB3LYP\def2SVPP\C4H9(2)\XUHJ\28-Aug-2024\0\\#N op
 t freq B3LYP/def2SVPP symm=veryloose em=gd3bj scale=0.961 press=0.987\
 \C[CH]CC_1\\0,2\C,0.9104408557,0.2555921092,0.1106783732\C,2.388557707
 3,0.2044481734,0.3001849258\C,3.0273442663,-0.8229806234,1.1770032958\
 C,4.5497128294,-0.905913944,1.0292191923\H,0.6220777612,0.9039992178,-
 0.7356471566\H,0.385824889,0.6522490465,1.0113657887\H,0.4865324666,-0
 .7525447011,-0.0683333433\H,2.9887236593,1.0740205938,0.0020359137\H,2
 .573696724,-1.8156686306,0.9754851196\H,2.7795301463,-0.6167538415,2.2
 458959904\H,4.8331369672,-1.1690661312,-0.005692869\H,4.9803740188,-1.
 6658638209,1.7049346197\H,5.0235677089,0.063922552,1.2679701497\\Versi
 on=ES64L-G16RevC.01\State=2-A\HF=-157.6703909\S2=0.754\S2-1=0.\S2A=0.7
 50012\RMSD=5.266e-09\RMSF=1.097e-05\Dipole=-0.0562382,0.0093109,0.0834
 163\Quadrupole=-0.0784267,0.3187901,-0.2403634,0.0720834,0.1004359,-0.
 1972929\PG=C01 [X(C4H9)]\\@
 The archive entry for this job was punched.


 THOSE WHO ASPIRE NOT TO GUESS AND DIVINE,
 BUT TO DISCOVER AND KNOW, WHO PROPOSE NOT TO DEVISE 
 MIMIC AND FABULOUS WORLDS OF THEIR OWN, BUT TO 
 EXAMINE AND DISSECT THE NATURE OF THIS VERY WORLD 
 ITSELF, MUST GO TO THE FACTS THEMSELVES FOR EVERYTHING.

                               -- FRANCIS BACON, 1620
 Job cpu time:       0 days  0 hours  7 minutes 16.3 seconds.
 Elapsed time:       0 days  0 hours  0 minutes 54.7 seconds.
 File lengths (MBytes):  RWF=     10 Int=      0 D2E=      0 Chk=      2 Scr=      1
 Normal termination of Gaussian 16 at Wed Aug 28 07:51:49 2024.
 Link1:  Proceeding to internal job step number  2.
 --------------------------------------------------------------------
 #N Geom=AllCheck Guess=TCheck SCRF=Check GenChk UB3LYP/def2SVPP Freq
 --------------------------------------------------------------------
 1/10=4,29=7,30=1,38=1,40=1,113=-987000,114=961000/1,3;
 2/12=2,17=2,18=2,40=1/2;
 3/5=43,7=202,11=2,14=-4,25=1,30=1,70=2,71=2,74=-5,116=2,124=41,140=1/1,2,3;
 4/5=101/1;
 5/5=2,38=6,98=1/2;
 8/6=4,10=90,11=11/1;
 11/6=1,8=1,9=11,15=111,16=1/1,2,10;
 10/6=1/2;
 6/7=2,8=2,9=2,10=2,28=1/1;
 7/8=1,10=1,25=1/1,2,3,16;
 1/10=4,30=1/3;
 99//99;
 Structure from the checkpoint file:  "/tmp/scratch/Gau-3761564.chk"
 ---------
 C[CH]CC_1
 ---------
 Charge =  0 Multiplicity = 2
 Redundant internal coordinates found in file.  (old form).
 C,0,0.9104408557,0.2555921092,0.1106783732
 C,0,2.3885577073,0.2044481734,0.3001849258
 C,0,3.0273442663,-0.8229806234,1.1770032958
 C,0,4.5497128294,-0.905913944,1.0292191923
 H,0,0.6220777612,0.9039992178,-0.7356471566
 H,0,0.385824889,0.6522490465,1.0113657887
 H,0,0.4865324666,-0.7525447011,-0.0683333433
 H,0,2.9887236593,1.0740205938,0.0020359137
 H,0,2.573696724,-1.8156686306,0.9754851196
 H,0,2.7795301463,-0.6167538415,2.2458959904
 H,0,4.8331369672,-1.1690661312,-0.005692869
 H,0,4.9803740188,-1.6658638209,1.7049346197
 H,0,5.0235677089,0.063922552,1.2679701497
 Recover connectivity data from disk.

 GradGradGradGradGradGradGradGradGradGradGradGradGradGradGradGradGradGrad
 Berny optimization.
 Initialization pass.
                           ----------------------------
                           !    Initial Parameters    !
                           ! (Angstroms and Degrees)  !
 --------------------------                            --------------------------
 ! Name  Definition              Value          Derivative Info.                !
 --------------------------------------------------------------------------------
 ! R1    R(1,2)                  1.4911         calculate D2E/DX2 analytically  !
 ! R2    R(1,5)                  1.1045         calculate D2E/DX2 analytically  !
 ! R3    R(1,6)                  1.1153         calculate D2E/DX2 analytically  !
 ! R4    R(1,7)                  1.1082         calculate D2E/DX2 analytically  !
 ! R5    R(2,3)                  1.4941         calculate D2E/DX2 analytically  !
 ! R6    R(2,8)                  1.0978         calculate D2E/DX2 analytically  !
 ! R7    R(3,4)                  1.5318         calculate D2E/DX2 analytically  !
 ! R8    R(3,9)                  1.1099         calculate D2E/DX2 analytically  !
 ! R9    R(3,10)                 1.1165         calculate D2E/DX2 analytically  !
 ! R10   R(4,11)                 1.1048         calculate D2E/DX2 analytically  !
 ! R11   R(4,12)                 1.1043         calculate D2E/DX2 analytically  !
 ! R12   R(4,13)                 1.1055         calculate D2E/DX2 analytically  !
 ! A1    A(2,1,5)              112.1071         calculate D2E/DX2 analytically  !
 ! A2    A(2,1,6)              112.0778         calculate D2E/DX2 analytically  !
 ! A3    A(2,1,7)              111.6245         calculate D2E/DX2 analytically  !
 ! A4    A(5,1,6)              106.6922         calculate D2E/DX2 analytically  !
 ! A5    A(5,1,7)              108.0845         calculate D2E/DX2 analytically  !
 ! A6    A(6,1,7)              105.9067         calculate D2E/DX2 analytically  !
 ! A7    A(1,2,3)              121.4648         calculate D2E/DX2 analytically  !
 ! A8    A(1,2,8)              118.701          calculate D2E/DX2 analytically  !
 ! A9    A(3,2,8)              118.0546         calculate D2E/DX2 analytically  !
 ! A10   A(2,3,4)              113.9234         calculate D2E/DX2 analytically  !
 ! A11   A(2,3,9)              109.4955         calculate D2E/DX2 analytically  !
 ! A12   A(2,3,10)             109.8722         calculate D2E/DX2 analytically  !
 ! A13   A(4,3,9)              109.8942         calculate D2E/DX2 analytically  !
 ! A14   A(4,3,10)             108.8428         calculate D2E/DX2 analytically  !
 ! A15   A(9,3,10)             104.3781         calculate D2E/DX2 analytically  !
 ! A16   A(3,4,11)             110.9916         calculate D2E/DX2 analytically  !
 ! A17   A(3,4,12)             111.4568         calculate D2E/DX2 analytically  !
 ! A18   A(3,4,13)             110.9571         calculate D2E/DX2 analytically  !
 ! A19   A(11,4,12)            108.0114         calculate D2E/DX2 analytically  !
 ! A20   A(11,4,13)            107.5357         calculate D2E/DX2 analytically  !
 ! A21   A(12,4,13)            107.7221         calculate D2E/DX2 analytically  !
 ! D1    D(5,1,2,3)           -166.5423         calculate D2E/DX2 analytically  !
 ! D2    D(5,1,2,8)             28.9487         calculate D2E/DX2 analytically  !
 ! D3    D(6,1,2,3)             73.5032         calculate D2E/DX2 analytically  !
 ! D4    D(6,1,2,8)            -91.0058         calculate D2E/DX2 analytically  !
 ! D5    D(7,1,2,3)            -45.113          calculate D2E/DX2 analytically  !
 ! D6    D(7,1,2,8)            150.378          calculate D2E/DX2 analytically  !
 ! D7    D(1,2,3,4)            168.1763         calculate D2E/DX2 analytically  !
 ! D8    D(1,2,3,9)             44.6745         calculate D2E/DX2 analytically  !
 ! D9    D(1,2,3,10)           -69.4088         calculate D2E/DX2 analytically  !
 ! D10   D(8,2,3,4)            -27.2182         calculate D2E/DX2 analytically  !
 ! D11   D(8,2,3,9)           -150.72           calculate D2E/DX2 analytically  !
 ! D12   D(8,2,3,10)            95.1967         calculate D2E/DX2 analytically  !
 ! D13   D(2,3,4,11)           -60.4023         calculate D2E/DX2 analytically  !
 ! D14   D(2,3,4,12)           179.1563         calculate D2E/DX2 analytically  !
 ! D15   D(2,3,4,13)            59.1051         calculate D2E/DX2 analytically  !
 ! D16   D(9,3,4,11)            62.8832         calculate D2E/DX2 analytically  !
 ! D17   D(9,3,4,12)           -57.5582         calculate D2E/DX2 analytically  !
 ! D18   D(9,3,4,13)          -177.6095         calculate D2E/DX2 analytically  !
 ! D19   D(10,3,4,11)          176.6194         calculate D2E/DX2 analytically  !
 ! D20   D(10,3,4,12)           56.178          calculate D2E/DX2 analytically  !
 ! D21   D(10,3,4,13)          -63.8732         calculate D2E/DX2 analytically  !
 --------------------------------------------------------------------------------
 Trust Radius=3.00D-01 FncErr=1.00D-07 GrdErr=1.00D-07 EigMax=2.50D+02 EigMin=1.00D-04
 Number of steps in this run=      2 maximum allowed number of steps=      2.
 GradGradGradGradGradGradGradGradGradGradGradGradGradGradGradGradGradGrad

                          Input orientation:                          
 ---------------------------------------------------------------------
 Center     Atomic      Atomic             Coordinates (Angstroms)
 Number     Number       Type             X           Y           Z
 ---------------------------------------------------------------------
      1          6           0        0.910441    0.255592    0.110678
      2          6           0        2.388558    0.204448    0.300185
      3          6           0        3.027344   -0.822981    1.177003
      4          6           0        4.549713   -0.905914    1.029219
      5          1           0        0.622078    0.903999   -0.735647
      6          1           0        0.385825    0.652249    1.011366
      7          1           0        0.486532   -0.752545   -0.068333
      8          1           0        2.988724    1.074021    0.002036
      9          1           0        2.573697   -1.815669    0.975485
     10          1           0        2.779530   -0.616754    2.245896
     11          1           0        4.833137   -1.169066   -0.005693
     12          1           0        4.980374   -1.665864    1.704935
     13          1           0        5.023568    0.063923    1.267970
 ---------------------------------------------------------------------
                    Distance matrix (angstroms):
                    1          2          3          4          5
     1  C    0.000000
     2  C    1.491093   0.000000
     3  C    2.604160   1.494145   0.000000
     4  C    3.929009   2.536728   1.531772   0.000000
     5  H    1.104469   2.163971   3.525053   4.670852   0.000000
     6  H    1.115256   2.171921   3.030076   4.445914   1.780800
     7  H    1.108189   2.160866   2.830468   4.211600   1.791038
     8  H    2.236266   1.097838   2.231738   2.722487   2.484773
     9  H    2.793641   2.138032   1.109881   2.176047   3.759439
    10  H    2.968777   2.147795   1.116456   2.167363   3.982071
    11  H    4.175014   2.820651   2.186191   1.104817   4.750100
    12  H    4.774725   3.491261   2.191686   1.104348   5.617418
    13  H    4.277134   2.810629   2.186271   1.105497   4.908495
                    6          7          8          9         10
     6  H    0.000000
     7  H    1.774637   0.000000
     8  H    2.823423   3.098750   0.000000
     9  H    3.298286   2.564380   3.077362   0.000000
    10  H    2.977290   3.260665   2.817337   1.758894   0.000000
    11  H    4.912248   4.366965   2.904024   2.546738   3.097096
    12  H    5.192742   4.916629   3.791240   2.519253   2.497396
    13  H    4.681947   4.799689   2.600669   3.101657   2.540741
                   11         12         13
    11  H    0.000000
    12  H    1.787382   0.000000
    13  H    1.782903   1.784647   0.000000
 Stoichiometry    C4H9(2)
 Framework group  C1[X(C4H9)]
 Deg. of freedom    33
 Full point group                 C1      NOp   1
 Largest Abelian subgroup         C1      NOp   1
 Largest concise Abelian subgroup C1      NOp   1
                         Standard orientation:                         
 ---------------------------------------------------------------------
 Center     Atomic      Atomic             Coordinates (Angstroms)
 Number     Number       Type             X           Y           Z
 ---------------------------------------------------------------------
      1          6           0        1.985939    0.043062   -0.067204
      2          6           0        0.581131   -0.444330    0.043796
      3          6           0       -0.572064    0.504505    0.091967
      4          6           0       -1.937375   -0.167916   -0.081529
      5          1           0        2.688132   -0.768612   -0.327902
      6          1           0        2.351681    0.488733    0.887472
      7          1           0        2.082536    0.840075   -0.831091
      8          1           0        0.406516   -1.485003    0.346713
      9          1           0       -0.437423    1.290612   -0.679876
     10          1           0       -0.564888    1.061729    1.059398
     11          1           0       -2.004743   -0.680833   -1.057745
     12          1           0       -2.759768    0.566927   -0.024418
     13          1           0       -2.107829   -0.925553    0.705271
 ---------------------------------------------------------------------
 Rotational constants (GHZ):          26.2953423           3.6185794           3.4035789
 Standard basis: def2SVPP (5D, 7F)
 There are    78 symmetry adapted cartesian basis functions of A   symmetry.
 There are    74 symmetry adapted basis functions of A   symmetry.
    74 basis functions,   136 primitive gaussians,    78 cartesian basis functions
    17 alpha electrons       16 beta electrons
       nuclear repulsion energy       121.5181183886 Hartrees.
 NAtoms=   13 NActive=   13 NUniq=   13 SFac= 1.00D+00 NAtFMM=   60 NAOKFM=F Big=F
 Integral buffers will be    131072 words long.
 Raffenetti 2 integral format.
 Two-electron integral symmetry is turned on.
 Nuclear repulsion after empirical dispersion term =      121.5048277581 Hartrees.
 One-electron integrals computed using PRISM.
   1 Symmetry operations used in ECPInt.
 ECPInt:  NShTT=     903 NPrTT=    3649 LenC2=     903 LenP2D=    3132.
 LDataN:  DoStor=T MaxTD1= 4 Len=   56
 NBasis=    74 RedAO= T EigKep=  2.56D-03  NBF=    74
 NBsUse=    74 1.00D-06 EigRej= -1.00D+00 NBFU=    74
 Initial guess from the checkpoint file:  "/tmp/scratch/Gau-3761564.chk"
 B after Tr=     0.000000    0.000000   -0.000000
         Rot=    1.000000   -0.000000   -0.000000    0.000000 Ang=   0.00 deg.
 Initial guess <Sx>= 0.0000 <Sy>= 0.0000 <Sz>= 0.5000 <S**2>= 0.7540 S= 0.5020
 Requested convergence on RMS density matrix=1.00D-08 within 128 cycles.
 Requested convergence on MAX density matrix=1.00D-06.
 Requested convergence on             energy=1.00D-06.
 No special actions if energy rises.
 SCF Done:  E(UB3LYP) =  -157.670390872     A.U. after    1 cycles
            NFock=  1  Conv=0.18D-08     -V/T= 2.0120
 <Sx>= 0.0000 <Sy>= 0.0000 <Sz>= 0.5000 <S**2>= 0.7540 S= 0.5020
 <L.S>=  0.00000000000    
 Annihilation of the first spin contaminant:
 S**2 before annihilation     0.7540,   after     0.7500
 DoSCS=F DFT=T ScalE2(SS,OS)=  1.000000  1.000000
 Range of M.O.s used for correlation:     1    74
 NBasis=    74 NAE=    17 NBE=    16 NFC=     0 NFV=     0
 NROrb=     74 NOA=    17 NOB=    16 NVA=    57 NVB=    58
   1 Symmetry operations used in ECPInt.
 ECPInt:  NShTT=     903 NPrTT=    3649 LenC2=     903 LenP2D=    3132.
 LDataN:  DoStor=T MaxTD1= 5 Len=  102
 Symmetrizing basis deriv contribution to polar:
 IMax=3 JMax=2 DiffMx= 0.00D+00
 G2DrvN: will do    14 centers at a time, making    1 passes.
 Calling FoFCou, ICntrl=  3107 FMM=F I1Cent=   0 AccDes= 0.00D+00.
 End of G2Drv F.D. properties file   721 does not exist.
 End of G2Drv F.D. properties file   722 does not exist.
 End of G2Drv F.D. properties file   788 does not exist.
          IDoAtm=1111111111111
          Differentiating once with respect to electric field.
                with respect to dipole field.
          Differentiating once with respect to nuclear coordinates.
 Keep R1 and R2 ints in memory in canonical form, NReq=14905479.
          There are    42 degrees of freedom in the 1st order CPHF.  IDoFFX=6 NUNeed=     3.
     39 vectors produced by pass  0 Test12= 4.52D-15 2.38D-09 XBig12= 5.58D+01 1.87D+00.
 AX will form    39 AO Fock derivatives at one time.
     39 vectors produced by pass  1 Test12= 4.52D-15 2.38D-09 XBig12= 1.91D+00 2.97D-01.
     39 vectors produced by pass  2 Test12= 4.52D-15 2.38D-09 XBig12= 2.24D-02 2.72D-02.
     39 vectors produced by pass  3 Test12= 4.52D-15 2.38D-09 XBig12= 7.77D-05 2.05D-03.
     39 vectors produced by pass  4 Test12= 4.52D-15 2.38D-09 XBig12= 1.91D-07 5.90D-05.
     36 vectors produced by pass  5 Test12= 4.52D-15 2.38D-09 XBig12= 3.55D-10 3.00D-06.
     11 vectors produced by pass  6 Test12= 4.52D-15 2.38D-09 XBig12= 5.60D-13 1.05D-07.
      2 vectors produced by pass  7 Test12= 4.52D-15 2.38D-09 XBig12= 1.22D-15 4.54D-09.
 InvSVY:  IOpt=1 It=  1 EMax= 2.66D-15
 Solved reduced A of dimension   244 with    42 vectors.
 Isotropic polarizability for W=    0.000000       44.20 Bohr**3.
 End of Minotr F.D. properties file   721 does not exist.
 End of Minotr F.D. properties file   722 does not exist.
 End of Minotr F.D. properties file   788 does not exist.

 **********************************************************************

            Population analysis using the SCF Density.

 **********************************************************************

 Orbital symmetries:
 Alpha Orbitals:
       Occupied  (A) (A) (A) (A) (A) (A) (A) (A) (A) (A) (A) (A)
                 (A) (A) (A) (A) (A)
       Virtual   (A) (A) (A) (A) (A) (A) (A) (A) (A) (A) (A) (A)
                 (A) (A) (A) (A) (A) (A) (A) (A) (A) (A) (A) (A)
                 (A) (A) (A) (A) (A) (A) (A) (A) (A) (A) (A) (A)
                 (A) (A) (A) (A) (A) (A) (A) (A) (A) (A) (A) (A)
                 (A) (A) (A) (A) (A) (A) (A) (A) (A)
 Beta  Orbitals:
       Occupied  (A) (A) (A) (A) (A) (A) (A) (A) (A) (A) (A) (A)
                 (A) (A) (A) (A)
       Virtual   (A) (A) (A) (A) (A) (A) (A) (A) (A) (A) (A) (A)
                 (A) (A) (A) (A) (A) (A) (A) (A) (A) (A) (A) (A)
                 (A) (A) (A) (A) (A) (A) (A) (A) (A) (A) (A) (A)
                 (A) (A) (A) (A) (A) (A) (A) (A) (A) (A) (A) (A)
                 (A) (A) (A) (A) (A) (A) (A) (A) (A) (A)
 The electronic state is 2-A.
 Alpha  occ. eigenvalues --  -10.18277 -10.18078 -10.17538 -10.17101  -0.78633
 Alpha  occ. eigenvalues --   -0.71893  -0.62526  -0.55885  -0.45367  -0.43295
 Alpha  occ. eigenvalues --   -0.42907  -0.40509  -0.37323  -0.35094  -0.34283
 Alpha  occ. eigenvalues --   -0.33859  -0.18577
 Alpha virt. eigenvalues --    0.06389   0.07939   0.09059   0.11380   0.12793
 Alpha virt. eigenvalues --    0.14384   0.14921   0.15196   0.16591   0.22860
 Alpha virt. eigenvalues --    0.25240   0.27138   0.40278   0.41814   0.42699
 Alpha virt. eigenvalues --    0.45943   0.47683   0.49823   0.55309   0.57761
 Alpha virt. eigenvalues --    0.63002   0.63559   0.66209   0.67862   0.69005
 Alpha virt. eigenvalues --    0.69963   0.70096   0.70748   0.71287   0.71889
 Alpha virt. eigenvalues --    0.73241   0.74081   0.76083   0.81442   0.91036
 Alpha virt. eigenvalues --    0.99908   1.04807   1.40203   1.48923   1.57654
 Alpha virt. eigenvalues --    1.74677   1.80371   1.83484   1.87259   1.92596
 Alpha virt. eigenvalues --    1.97224   2.03342   2.04257   2.10997   2.15322
 Alpha virt. eigenvalues --    2.20669   2.27671   2.35478   2.37017   2.50724
 Alpha virt. eigenvalues --    2.68840   2.72060
  Beta  occ. eigenvalues --  -10.18178 -10.17640 -10.17080 -10.16854  -0.77409
  Beta  occ. eigenvalues --   -0.71346  -0.62014  -0.54216  -0.44500  -0.42836
  Beta  occ. eigenvalues --   -0.42399  -0.39516  -0.37065  -0.34676  -0.33902
  Beta  occ. eigenvalues --   -0.33380
  Beta virt. eigenvalues --   -0.03838   0.06518   0.08027   0.09350   0.11592
  Beta virt. eigenvalues --    0.13090   0.14513   0.15281   0.15660   0.16945
  Beta virt. eigenvalues --    0.23113   0.26372   0.27728   0.40546   0.42045
  Beta virt. eigenvalues --    0.43109   0.47472   0.48761   0.51241   0.58048
  Beta virt. eigenvalues --    0.59443   0.64092   0.65147   0.66771   0.68048
  Beta virt. eigenvalues --    0.69211   0.70219   0.70498   0.71068   0.71473
  Beta virt. eigenvalues --    0.72232   0.73342   0.74774   0.76481   0.81900
  Beta virt. eigenvalues --    0.91751   1.00233   1.05188   1.41858   1.51693
  Beta virt. eigenvalues --    1.57770   1.74989   1.81009   1.86260   1.88660
  Beta virt. eigenvalues --    1.94534   1.97572   2.04259   2.05558   2.12560
  Beta virt. eigenvalues --    2.15631   2.20920   2.28433   2.37012   2.39017
  Beta virt. eigenvalues --    2.51954   2.69492   2.72700
          Condensed to atoms (all electrons):
               1          2          3          4          5          6
     1  C    4.790495   0.412920  -0.044940   0.006538   0.372923   0.360672
     2  C    0.412920   5.186880   0.406670  -0.048553  -0.016938  -0.027666
     3  C   -0.044940   0.406670   4.734217   0.444818   0.007462  -0.005092
     4  C    0.006538  -0.048553   0.444818   4.778546  -0.000319  -0.000115
     5  H    0.372923  -0.016938   0.007462  -0.000319   0.597635  -0.027261
     6  H    0.360672  -0.027666  -0.005092  -0.000115  -0.027261   0.629936
     7  H    0.374090  -0.027755  -0.008650   0.000298  -0.022644  -0.032929
     8  H   -0.045306   0.387805  -0.053537  -0.004047  -0.007558   0.000456
     9  H   -0.006466  -0.034586   0.360992  -0.022034  -0.000019  -0.001545
    10  H   -0.002094  -0.033654   0.346666  -0.026366  -0.000382   0.005787
    11  H    0.000175   0.000937  -0.027443   0.380227  -0.000021   0.000051
    12  H   -0.000391   0.006965  -0.016024   0.369161   0.000009   0.000022
    13  H    0.000262  -0.007705  -0.022411   0.378822   0.000004  -0.000041
               7          8          9         10         11         12
     1  C    0.374090  -0.045306  -0.006466  -0.002094   0.000175  -0.000391
     2  C   -0.027755   0.387805  -0.034586  -0.033654   0.000937   0.006965
     3  C   -0.008650  -0.053537   0.360992   0.346666  -0.027443  -0.016024
     4  C    0.000298  -0.004047  -0.022034  -0.026366   0.380227   0.369161
     5  H   -0.022644  -0.007558  -0.000019  -0.000382  -0.000021   0.000009
     6  H   -0.032929   0.000456  -0.001545   0.005787   0.000051   0.000022
     7  H    0.607984   0.006826   0.009836  -0.001478  -0.000097  -0.000011
     8  H    0.006826   0.622091   0.007793   0.000058  -0.000538   0.000066
     9  H    0.009836   0.007793   0.654784  -0.040817  -0.009083  -0.005215
    10  H   -0.001478   0.000058  -0.040817   0.673286   0.008688  -0.004196
    11  H   -0.000097  -0.000538  -0.009083   0.008688   0.606653  -0.024558
    12  H   -0.000011   0.000066  -0.005215  -0.004196  -0.024558   0.608774
    13  H    0.000038   0.006556   0.007647  -0.008164  -0.027830  -0.025510
              13
     1  C    0.000262
     2  C   -0.007705
     3  C   -0.022411
     4  C    0.378822
     5  H    0.000004
     6  H   -0.000041
     7  H    0.000038
     8  H    0.006556
     9  H    0.007647
    10  H   -0.008164
    11  H   -0.027830
    12  H   -0.025510
    13  H    0.608209
          Atomic-Atomic Spin Densities.
               1          2          3          4          5          6
     1  C   -0.080552  -0.035041  -0.001963   0.000361   0.006716   0.005928
     2  C   -0.035041   1.228033  -0.037415  -0.014724  -0.007030  -0.031830
     3  C   -0.001963  -0.037415  -0.069665   0.009483   0.000337  -0.001288
     4  C    0.000361  -0.014724   0.009483   0.017249   0.000026  -0.000171
     5  H    0.006716  -0.007030   0.000337   0.000026   0.012209  -0.009297
     6  H    0.005928  -0.031830  -0.001288  -0.000171  -0.009297   0.119810
     7  H    0.009329  -0.017280   0.002139   0.000248   0.004375  -0.018813
     8  H    0.000814  -0.003966   0.001237   0.001285   0.001335  -0.001743
     9  H    0.001871  -0.020247   0.009170   0.007661   0.000279  -0.002439
    10  H   -0.000270  -0.031464   0.001086  -0.006769  -0.000298   0.006382
    11  H   -0.000132   0.007853  -0.002111  -0.006362  -0.000024   0.000069
    12  H   -0.000019   0.000728  -0.000162  -0.002561  -0.000001   0.000017
    13  H    0.000052  -0.000400   0.001584   0.000841   0.000009  -0.000058
               7          8          9         10         11         12
     1  C    0.009329   0.000814   0.001871  -0.000270  -0.000132  -0.000019
     2  C   -0.017280  -0.003966  -0.020247  -0.031464   0.007853   0.000728
     3  C    0.002139   0.001237   0.009170   0.001086  -0.002111  -0.000162
     4  C    0.000248   0.001285   0.007661  -0.006769  -0.006362  -0.002561
     5  H    0.004375   0.001335   0.000279  -0.000298  -0.000024  -0.000001
     6  H   -0.018813  -0.001743  -0.002439   0.006382   0.000069   0.000017
     7  H    0.041291   0.000437   0.004086  -0.002378  -0.000123  -0.000017
     8  H    0.000437  -0.049144   0.000577  -0.001738  -0.000508  -0.000129
     9  H    0.004086   0.000577   0.047050  -0.020898  -0.002723  -0.001205
    10  H   -0.002378  -0.001738  -0.020898   0.117835   0.002051   0.002265
    11  H   -0.000123  -0.000508  -0.002723   0.002051   0.004612   0.001882
    12  H   -0.000017  -0.000129  -0.001205   0.002265   0.001882  -0.000299
    13  H    0.000025   0.000447   0.000652  -0.002461  -0.001556  -0.000520
              13
     1  C    0.000052
     2  C   -0.000400
     3  C    0.001584
     4  C    0.000841
     5  H    0.000009
     6  H   -0.000058
     7  H    0.000025
     8  H    0.000447
     9  H    0.000652
    10  H   -0.002461
    11  H   -0.001556
    12  H   -0.000520
    13  H    0.000574
 Mulliken charges and spin densities:
               1          2
     1  C   -0.218878  -0.092907
     2  C   -0.205320   1.037215
     3  C   -0.122726  -0.087567
     4  C   -0.256978   0.006566
     5  H    0.097107   0.008636
     6  H    0.097724   0.066566
     7  H    0.094490   0.023317
     8  H    0.079334  -0.051096
     9  H    0.078712   0.023834
    10  H    0.082665   0.063342
    11  H    0.092838   0.002927
    12  H    0.090910  -0.000022
    13  H    0.090121  -0.000811
 Sum of Mulliken charges =  -0.00000   1.00000
 Mulliken charges and spin densities with hydrogens summed into heavy atoms:
               1          2
     1  C    0.070444   0.005612
     2  C   -0.125986   0.986118
     3  C    0.038652  -0.000391
     4  C    0.016890   0.008660
 APT charges:
               1
     1  C    0.062284
     2  C    0.013014
     3  C    0.124585
     4  C    0.085716
     5  H   -0.016747
     6  H   -0.037603
     7  H   -0.019917
     8  H   -0.011899
     9  H   -0.053404
    10  H   -0.070053
    11  H   -0.020817
    12  H   -0.030568
    13  H   -0.024591
 Sum of APT charges =   0.00000
 APT charges with hydrogens summed into heavy atoms:
               1
     1  C   -0.011983
     2  C    0.001115
     3  C    0.001129
     4  C    0.009739
 Electronic spatial extent (au):  <R**2>=            419.5698
 Charge=              0.0000 electrons
 Dipole moment (field-independent basis, Debye):
    X=              0.0805    Y=              0.1627    Z=              0.1816  Tot=              0.2568
 Quadrupole moment (field-independent basis, Debye-Ang):
   XX=            -27.8126   YY=            -27.5029   ZZ=            -28.0982
   XY=             -0.1976   XZ=             -0.0198   YZ=             -0.3460
 Traceless Quadrupole moment (field-independent basis, Debye-Ang):
   XX=             -0.0080   YY=              0.3016   ZZ=             -0.2936
   XY=             -0.1976   XZ=             -0.0198   YZ=             -0.3460
 Octapole moment (field-independent basis, Debye-Ang**2):
  XXX=              1.3238  YYY=             -0.5419  ZZZ=              0.1851  XYY=              0.2605
  XXY=              0.1710  XXZ=              0.1561  XZZ=             -0.3533  YZZ=              0.6388
  YYZ=              0.1986  XYZ=              0.0655
 Hexadecapole moment (field-independent basis, Debye-Ang**3):
 XXXX=           -456.9785 YYYY=            -82.2500 ZZZZ=            -52.7319 XXXY=             -5.8072
 XXXZ=             -0.8541 YYYX=             -1.0335 YYYZ=             -1.5348 ZZZX=              0.6426
 ZZZY=              0.0106 XXYY=            -87.3019 XXZZ=            -83.9055 YYZZ=            -22.0533
 XXYZ=              0.3104 YYXZ=             -0.6164 ZZXY=              1.4858
 N-N= 1.215048277581D+02 E-N=-6.064727419750D+02  KE= 1.558034914374D+02
  Exact polarizability:      52.328       0.008      42.852      -0.163      -0.267      37.422
 Approx polarizability:      58.205      -0.208      57.545      -0.343      -0.431      51.111
                          Isotropic Fermi Contact Couplings
        Atom                 a.u.       MegaHertz       Gauss      10(-4) cm-1
     1  C(13)             -0.04273     -48.03202     -17.13902     -16.02176
     2  C(13)              0.20475     230.17776      82.13315      76.77904
     3  C(13)             -0.04083     -45.90385     -16.37963     -15.31188
     4  C(13)              0.01215      13.65656       4.87300       4.55534
     5  H(1)               0.00401      17.94061       6.40165       5.98434
     6  H(1)               0.02731     122.05793      43.55331      40.71414
     7  H(1)               0.00992      44.36262      15.82969      14.79778
     8  H(1)              -0.01279     -57.18582     -20.40532     -19.07514
     9  H(1)               0.01038      46.38935      16.55288      15.47382
    10  H(1)               0.02538     113.46133      40.48582      37.84662
    11  H(1)              -0.00036      -1.59068      -0.56760      -0.53059
    12  H(1)              -0.00030      -1.36135      -0.48576      -0.45410
    13  H(1)              -0.00031      -1.37344      -0.49008      -0.45813
 --------------------------------------------------------
       Center         ----  Spin Dipole Couplings  ----
                      3XX-RR        3YY-RR        3ZZ-RR
 --------------------------------------------------------
     1   Atom        0.015538     -0.008447     -0.007092
     2   Atom       -0.528414     -0.477370      1.005784
     3   Atom        0.006458     -0.000604     -0.005854
     4   Atom        0.017233     -0.008640     -0.008592
     5   Atom        0.016629     -0.009297     -0.007332
     6   Atom        0.008972     -0.004697     -0.004275
     7   Atom        0.005045      0.000969     -0.006014
     8   Atom       -0.062465      0.061458      0.001007
     9   Atom       -0.002603      0.009901     -0.007298
    10   Atom        0.000443      0.003341     -0.003784
    11   Atom        0.009869     -0.005665     -0.004204
    12   Atom        0.005686     -0.002688     -0.002998
    13   Atom        0.008397     -0.004521     -0.003876
 --------------------------------------------------------
                        XY            XZ            YZ
 --------------------------------------------------------
     1   Atom        0.011097      0.000595      0.001831
     2   Atom        0.030221      0.150436      0.301844
     3   Atom       -0.014283     -0.002399      0.003734
     4   Atom        0.001437     -0.003981     -0.000844
     5   Atom       -0.002733     -0.002376      0.000410
     6   Atom        0.008772      0.005677      0.003783
     7   Atom        0.011660     -0.005865     -0.004407
     8   Atom        0.022295     -0.000277     -0.024366
     9   Atom       -0.011018      0.003570     -0.004957
    10   Atom       -0.010392     -0.004094      0.007441
    11   Atom        0.001283      0.005095      0.001337
    12   Atom       -0.002264      0.000169      0.000235
    13   Atom        0.002987     -0.003539     -0.000645
 --------------------------------------------------------


 ---------------------------------------------------------------------------------
              Anisotropic Spin Dipole Couplings in Principal Axis System
 ---------------------------------------------------------------------------------

       Atom             a.u.   MegaHertz   Gauss  10(-4) cm-1        Axes

              Baa    -0.0132    -1.766    -0.630    -0.589 -0.3458  0.9072 -0.2397
     1 C(13)  Bbb    -0.0068    -0.910    -0.325    -0.303 -0.1289  0.2072  0.9698
              Bcc     0.0199     2.676     0.955     0.893  0.9294  0.3663  0.0453
 
              Baa    -0.5431   -72.885   -26.007   -24.312  0.9891 -0.1288 -0.0710
     2 C(13)  Bbb    -0.5364   -71.974   -25.682   -24.008  0.1123  0.9731 -0.2014
              Bcc     1.0795   144.859    51.689    48.320  0.0950  0.1913  0.9769
 
              Baa    -0.0122    -1.632    -0.582    -0.544  0.5695  0.7839 -0.2475
     3 C(13)  Bbb    -0.0062    -0.833    -0.297    -0.278  0.2859  0.0934  0.9537
              Bcc     0.0184     2.465     0.879     0.822  0.7707 -0.6139 -0.1709
 
              Baa    -0.0096    -1.291    -0.461    -0.431  0.0907  0.5694  0.8170
     4 C(13)  Bbb    -0.0083    -1.114    -0.397    -0.372 -0.1330  0.8200 -0.5567
              Bcc     0.0179     2.405     0.858     0.802  0.9870  0.0582 -0.1500
 
              Baa    -0.0096    -5.119    -1.827    -1.708  0.0963  0.9922 -0.0786
     5 H(1)   Bbb    -0.0076    -4.031    -1.438    -1.345  0.1052  0.0684  0.9921
              Bcc     0.0171     9.150     3.265     3.052  0.9898 -0.1038 -0.0978
 
              Baa    -0.0093    -4.941    -1.763    -1.648 -0.3392  0.8942 -0.2922
     6 H(1)   Bbb    -0.0063    -3.364    -1.200    -1.122 -0.4133  0.1373  0.9002
              Bcc     0.0156     8.305     2.963     2.770  0.8450  0.4261  0.3230
 
              Baa    -0.0090    -4.821    -1.720    -1.608  0.6728 -0.5840  0.4542
     7 H(1)   Bbb    -0.0081    -4.335    -1.547    -1.446 -0.1010  0.5357  0.8383
              Bcc     0.0172     9.156     3.267     3.054  0.7329  0.6099 -0.3015
 
              Baa    -0.0666   -35.532   -12.679   -11.852  0.9812 -0.1826 -0.0618
     8 H(1)   Bbb    -0.0068    -3.606    -1.287    -1.203  0.1155  0.3004  0.9468
              Bcc     0.0734    39.139    13.966    13.055  0.1543  0.9362 -0.3159
 
              Baa    -0.0095    -5.060    -1.805    -1.688  0.7450  0.2671 -0.6113
     9 H(1)   Bbb    -0.0083    -4.433    -1.582    -1.479  0.4488  0.4772  0.7555
              Bcc     0.0178     9.493     3.387     3.166 -0.4935  0.8372 -0.2356
 
              Baa    -0.0097    -5.195    -1.854    -1.733  0.4959  0.6923 -0.5243
    10 H(1)   Bbb    -0.0062    -3.292    -1.175    -1.098  0.6441  0.1117  0.7567
              Bcc     0.0159     8.487     3.028     2.831 -0.5825  0.7129  0.3905
 
              Baa    -0.0067    -3.580    -1.277    -1.194 -0.1608 -0.6970  0.6988
    11 H(1)   Bbb    -0.0050    -2.649    -0.945    -0.884 -0.2827  0.7109  0.6440
              Bcc     0.0117     6.229     2.223     2.078  0.9456  0.0940  0.3114
 
              Baa    -0.0034    -1.830    -0.653    -0.610  0.2136  0.8204 -0.5304
    12 H(1)   Bbb    -0.0028    -1.510    -0.539    -0.504  0.1205  0.5167  0.8477
              Bcc     0.0063     3.340     1.192     1.114  0.9695 -0.2449  0.0115
 
              Baa    -0.0052    -2.784    -0.993    -0.929 -0.2759  0.9174 -0.2868
    13 H(1)   Bbb    -0.0048    -2.545    -0.908    -0.849  0.1712  0.3405  0.9245
              Bcc     0.0100     5.328     1.901     1.777  0.9458  0.2059 -0.2510
 

 ---------------------------------------------------------------------------------

   1 Symmetry operations used in ECPInt.
 ECPInt:  NShTT=     903 NPrTT=    3649 LenC2=     903 LenP2D=    3132.
 LDataN:  DoStor=T MaxTD1= 6 Len=  172
 Calling FoFJK, ICntrl=    100127 FMM=F ISym2X=0 I1Cent= 0 IOpClX= 1 NMat=1 NMatS=1 NMatT=0.
 Full mass-weighted force constant matrix:
 Low frequencies ---   -6.5466   -2.9736    0.0010    0.0010    0.0014    5.0469
 Low frequencies ---   61.9356  113.0546  246.4356
 Diagonal vibrational polarizability:
        0.7397111       1.3432701       3.9907401
 Harmonic frequencies (cm**-1), IR intensities (KM/Mole), Raman scattering
 activities (A**4/AMU), depolarization ratios for plane and unpolarized
 incident light, reduced masses (AMU), force constants (mDyne/A),
 and normal coordinates:
                      1                      2                      3
                      A                      A                      A
 Frequencies --     61.9353               113.0545               246.4356
 Red. masses --      1.8553                 1.1286                 1.1124
 Frc consts  --      0.0042                 0.0085                 0.0398
 IR Inten    --      0.0375                 0.1171                 0.2000
  Atom  AN      X      Y      Z        X      Y      Z        X      Y      Z
     1   6    -0.02  -0.01  -0.13    -0.00   0.02   0.04     0.01  -0.03   0.02
     2   6     0.00   0.01   0.16     0.00  -0.03  -0.08    -0.01   0.03   0.02
     3   6    -0.01  -0.00   0.14     0.01  -0.02   0.01    -0.01   0.03  -0.07
     4   6     0.02   0.01  -0.13    -0.01   0.02   0.03     0.00  -0.02   0.01
     5   1    -0.03  -0.08   0.03     0.12  -0.04   0.56    -0.03  -0.07   0.03
     6   1     0.08   0.28  -0.30    -0.28   0.49  -0.08     0.03  -0.06   0.02
     7   1    -0.10  -0.23  -0.38     0.13  -0.31  -0.30     0.06  -0.04   0.02
     8   1     0.05   0.07   0.40    -0.02  -0.08  -0.28    -0.02   0.09   0.22
     9   1     0.09   0.09   0.26    -0.01   0.03   0.05    -0.04  -0.02  -0.12
    10   1    -0.14  -0.14   0.22     0.07  -0.07   0.04    -0.01   0.09  -0.10
    11   1     0.13   0.17  -0.22    -0.07   0.10  -0.01    -0.22   0.38  -0.18
    12   1     0.00  -0.01  -0.09     0.01   0.03   0.12    -0.06  -0.14   0.57
    13   1    -0.06  -0.13  -0.27     0.02  -0.04  -0.02     0.31  -0.38  -0.26
                      4                      5                      6
                      A                      A                      A
 Frequencies --    263.9053               401.3367               432.9264
 Red. masses --      2.0273                 1.3256                 2.6999
 Frc consts  --      0.0832                 0.1258                 0.2981
 IR Inten    --      1.2386                20.2802                 0.1689
  Atom  AN      X      Y      Z        X      Y      Z        X      Y      Z
     1   6     0.04  -0.12  -0.00    -0.00  -0.01   0.01     0.23  -0.02  -0.00
     2   6    -0.06   0.16  -0.02    -0.02   0.00  -0.16     0.12   0.12  -0.00
     3   6    -0.06   0.15   0.05    -0.00   0.02   0.02    -0.11  -0.09  -0.00
     4   6     0.07  -0.12   0.00     0.02  -0.01   0.01    -0.23   0.00  -0.00
     5   1    -0.15  -0.31   0.09     0.02  -0.03   0.13     0.05  -0.20   0.06
     6   1     0.11  -0.12  -0.03    -0.17  -0.07   0.11     0.33  -0.06  -0.02
     7   1     0.26  -0.21  -0.07     0.15  -0.00   0.06     0.44  -0.10  -0.06
     8   1    -0.21   0.07  -0.41     0.06   0.26   0.81     0.21   0.10   0.01
     9   1    -0.15   0.20   0.08    -0.06   0.16   0.16    -0.21   0.00   0.07
    10   1    -0.14   0.10   0.08     0.05  -0.18   0.14    -0.19  -0.15   0.03
    11   1     0.29  -0.25   0.05     0.08  -0.10   0.05    -0.36   0.01   0.00
    12   1    -0.10  -0.30  -0.16    -0.01  -0.04  -0.08    -0.07   0.18  -0.01
    13   1     0.18  -0.07   0.07     0.01   0.05   0.07    -0.39   0.07   0.02
                      7                      8                      9
                      A                      A                      A
 Frequencies --    774.6607               856.8901               974.5826
 Red. masses --      1.1819                 1.9222                 1.2439
 Frc consts  --      0.4179                 0.8316                 0.6961
 IR Inten    --      1.4566                 0.2043                 2.4594
  Atom  AN      X      Y      Z        X      Y      Z        X      Y      Z
     1   6     0.02   0.00  -0.02     0.13  -0.03  -0.00     0.02   0.01   0.12
     2   6    -0.00  -0.01  -0.05     0.02  -0.15   0.00    -0.01  -0.00  -0.06
     3   6    -0.02   0.01   0.11    -0.03   0.16   0.01    -0.00  -0.01  -0.04
     4   6    -0.02  -0.00   0.03    -0.12   0.02  -0.02     0.01  -0.00   0.04
     5   1     0.05   0.00   0.04     0.49   0.30  -0.09    -0.14  -0.01  -0.25
     6   1    -0.09  -0.03   0.04    -0.04   0.16  -0.03     0.56   0.24  -0.20
     7   1     0.10   0.03   0.02    -0.24   0.06   0.04    -0.41  -0.20  -0.16
     8   1     0.08   0.00   0.06    -0.12  -0.13   0.04    -0.18   0.05   0.05
     9   1    -0.17  -0.37  -0.31     0.10   0.16   0.04    -0.21   0.08   0.02
    10   1     0.19   0.48  -0.18     0.00   0.08   0.04     0.25  -0.12   0.02
    11   1     0.35   0.22  -0.12     0.09  -0.13   0.04     0.16   0.11  -0.04
    12   1    -0.04  -0.01  -0.18    -0.46  -0.35  -0.04     0.02   0.02  -0.10
    13   1    -0.30  -0.19  -0.22     0.22  -0.04   0.01    -0.15  -0.09  -0.08
                     10                     11                     12
                      A                      A                      A
 Frequencies --    990.8997              1041.8268              1075.5051
 Red. masses --      1.2260                 2.8064                 1.5036
 Frc consts  --      0.7093                 1.7947                 1.0247
 IR Inten    --      3.4769                 0.2656                 0.8379
  Atom  AN      X      Y      Z        X      Y      Z        X      Y      Z
     1   6     0.06  -0.07  -0.02    -0.11  -0.07  -0.01     0.00  -0.00  -0.06
     2   6    -0.01   0.02   0.01     0.10   0.12   0.03     0.01   0.00   0.10
     3   6    -0.04   0.01  -0.00     0.25   0.09  -0.02    -0.04  -0.04  -0.13
     4   6     0.08  -0.04   0.01    -0.17  -0.15   0.01     0.01   0.05   0.09
     5   1     0.41   0.25  -0.04     0.03   0.03   0.03     0.10   0.03   0.12
     6   1    -0.22   0.11   0.00    -0.29  -0.00   0.04    -0.22  -0.11   0.08
     7   1    -0.25   0.07   0.09    -0.24   0.03   0.08     0.16   0.11   0.08
     8   1    -0.30   0.07   0.02    -0.14   0.15  -0.05    -0.04  -0.03  -0.06
     9   1    -0.33   0.05  -0.02     0.14   0.21   0.07    -0.33   0.24   0.11
    10   1    -0.27   0.02  -0.01     0.44  -0.01   0.05     0.33  -0.39   0.08
    11   1    -0.16   0.10  -0.05    -0.25  -0.00  -0.07     0.46   0.19  -0.02
    12   1     0.39   0.29   0.04    -0.03   0.02  -0.09    -0.12  -0.08  -0.21
    13   1    -0.23   0.04   0.02    -0.51  -0.18  -0.09    -0.07  -0.16  -0.14
                     13                     14                     15
                      A                      A                      A
 Frequencies --   1141.2856              1185.7120              1269.3199
 Red. masses --      1.9754                 2.0076                 1.1992
 Frc consts  --      1.5160                 1.6630                 1.1384
 IR Inten    --      0.3429                 0.4205                 0.0692
  Atom  AN      X      Y      Z        X      Y      Z        X      Y      Z
     1   6    -0.11  -0.13   0.04    -0.05   0.07   0.00    -0.01   0.01  -0.01
     2   6     0.20   0.07  -0.04     0.06  -0.18   0.02     0.02  -0.01   0.03
     3   6    -0.07  -0.01   0.00    -0.03   0.19  -0.04    -0.02   0.00   0.06
     4   6     0.01   0.07   0.00     0.03  -0.08   0.02     0.01   0.01  -0.11
     5   1    -0.01   0.00  -0.06    -0.27  -0.15   0.07    -0.01  -0.01   0.04
     6   1    -0.18   0.09  -0.03     0.15  -0.15   0.03    -0.01  -0.04   0.01
     7   1    -0.49  -0.07   0.05     0.22  -0.06  -0.09     0.02   0.02   0.01
     8   1     0.64  -0.00  -0.04     0.43  -0.26  -0.02    -0.05  -0.01   0.00
     9   1    -0.26  -0.00  -0.02    -0.30   0.29   0.02    -0.57  -0.03  -0.07
    10   1    -0.23   0.04  -0.03    -0.17   0.02   0.05     0.64   0.03   0.04
    11   1     0.14  -0.01   0.04    -0.17   0.13  -0.08    -0.25  -0.20   0.02
    12   1    -0.12  -0.08  -0.00     0.24   0.17  -0.04     0.01  -0.02   0.18
    13   1     0.19   0.03   0.00    -0.33  -0.02   0.00     0.19   0.20   0.12
                     16                     17                     18
                      A                      A                      A
 Frequencies --   1313.2538              1398.8542              1410.4230
 Red. masses --      1.3306                 1.2297                 1.2609
 Frc consts  --      1.3520                 1.4177                 1.4778
 IR Inten    --      8.3211                 1.0216                 2.7966
  Atom  AN      X      Y      Z        X      Y      Z        X      Y      Z
     1   6     0.02  -0.06   0.01    -0.10  -0.05   0.00    -0.05  -0.01  -0.00
     2   6    -0.10   0.05   0.01    -0.04   0.01  -0.00     0.02  -0.01  -0.00
     3   6    -0.10   0.03  -0.02     0.07  -0.01   0.00     0.03   0.00   0.00
     4   6     0.02  -0.06  -0.00     0.02   0.04   0.00    -0.13  -0.05  -0.02
     5   1     0.22   0.14  -0.06     0.33   0.28   0.11     0.10   0.09   0.09
     6   1     0.05   0.14  -0.09     0.46   0.16  -0.29     0.20  -0.00  -0.09
     7   1     0.01   0.03   0.09     0.42   0.12   0.23     0.14   0.04   0.06
     8   1     0.58  -0.08  -0.04     0.12  -0.01   0.00    -0.07   0.01   0.01
     9   1     0.45  -0.02   0.03    -0.22  -0.01  -0.04    -0.08   0.03   0.01
    10   1     0.49  -0.07   0.04    -0.17  -0.02   0.01    -0.07   0.05  -0.02
    11   1    -0.03   0.08  -0.07    -0.15  -0.10   0.08     0.51   0.11  -0.13
    12   1     0.19   0.13   0.01    -0.15  -0.16  -0.03     0.32   0.42   0.09
    13   1    -0.04   0.04   0.07    -0.12  -0.06  -0.12     0.48   0.07   0.22
                     19                     20                     21
                      A                      A                      A
 Frequencies --   1425.1657              1452.8637              1459.1741
 Red. masses --      1.7678                 1.0714                 1.1048
 Frc consts  --      2.1154                 1.3325                 1.3859
 IR Inten    --      0.8220                 0.3696                 7.1720
  Atom  AN      X      Y      Z        X      Y      Z        X      Y      Z
     1   6    -0.10   0.00  -0.03    -0.02   0.01   0.00     0.05   0.01  -0.05
     2   6     0.18  -0.02  -0.02    -0.00   0.00  -0.00    -0.05  -0.00  -0.01
     3   6    -0.16   0.02   0.01    -0.02  -0.07  -0.01     0.02  -0.01  -0.00
     4   6     0.05  -0.01   0.01     0.01   0.01   0.00    -0.00   0.00   0.00
     5   1     0.11   0.05   0.35     0.15   0.14   0.03    -0.07  -0.31   0.60
     6   1     0.32  -0.17  -0.08     0.07  -0.22   0.07     0.23  -0.05  -0.08
     7   1     0.04   0.08   0.08     0.00  -0.16  -0.16    -0.47   0.36   0.26
     8   1    -0.54   0.12   0.03     0.03  -0.00   0.01     0.12  -0.03  -0.01
     9   1     0.46  -0.11  -0.02     0.03   0.43   0.48    -0.04   0.07   0.06
    10   1     0.21  -0.04   0.02     0.10   0.53  -0.33    -0.03   0.07  -0.04
    11   1    -0.07   0.14  -0.06    -0.03  -0.09   0.05    -0.01  -0.04   0.03
    12   1    -0.01  -0.08   0.01     0.02   0.02  -0.00     0.01   0.02  -0.02
    13   1    -0.14   0.11   0.08    -0.01  -0.07  -0.08     0.01  -0.04  -0.04
                     22                     23                     24
                      A                      A                      A
 Frequencies --   1467.4284              1480.0545              1488.4414
 Red. masses --      1.0582                 1.0377                 1.0697
 Frc consts  --      1.3426                 1.3393                 1.3962
 IR Inten    --      6.4740                 7.6119                 3.9085
  Atom  AN      X      Y      Z        X      Y      Z        X      Y      Z
     1   6     0.01  -0.03   0.00     0.00   0.00  -0.00     0.01   0.00  -0.00
     2   6     0.03  -0.03   0.00    -0.01   0.00   0.00    -0.03   0.01   0.00
     3   6    -0.03  -0.02  -0.01     0.00   0.00  -0.02     0.04  -0.03  -0.00
     4   6     0.01  -0.01  -0.00     0.00   0.01  -0.05     0.02  -0.04  -0.01
     5   1    -0.31  -0.22  -0.23     0.00  -0.00   0.01     0.05   0.02   0.03
     6   1    -0.16   0.55  -0.20     0.00  -0.01   0.00     0.02  -0.05   0.02
     7   1     0.22   0.30   0.36    -0.02  -0.00  -0.00    -0.04  -0.02  -0.03
     8   1    -0.13   0.00   0.03     0.03  -0.01  -0.01     0.07  -0.00  -0.00
     9   1     0.04   0.18   0.20     0.04   0.03   0.01    -0.10   0.05   0.06
    10   1     0.05   0.22  -0.13    -0.05  -0.02  -0.01    -0.07   0.06  -0.05
    11   1     0.00   0.04  -0.03     0.45  -0.20   0.05    -0.02   0.55  -0.31
    12   1    -0.00  -0.02   0.01    -0.04  -0.10   0.69    -0.24  -0.31  -0.06
    13   1    -0.02   0.04   0.04    -0.46   0.19   0.04    -0.06   0.45   0.44
                     25                     26                     27
                      A                      A                      A
 Frequencies --   2900.4950              2921.0030              2988.3433
 Red. masses --      1.0734                 1.0594                 1.0865
 Frc consts  --      5.3203                 5.3255                 5.7166
 IR Inten    --     37.5591                44.0760                25.5544
  Atom  AN      X      Y      Z        X      Y      Z        X      Y      Z
     1   6     0.00   0.00   0.01    -0.03  -0.03  -0.05    -0.00   0.00  -0.00
     2   6     0.00  -0.00  -0.00    -0.00  -0.00  -0.00     0.00   0.00  -0.00
     3   6    -0.00  -0.04  -0.06     0.00  -0.00  -0.01    -0.01  -0.05   0.06
     4   6    -0.00   0.00   0.00    -0.00   0.00   0.00    -0.00   0.00  -0.01
     5   1    -0.01   0.02   0.01     0.11  -0.14  -0.06    -0.00   0.01  -0.00
     6   1    -0.03  -0.04  -0.10     0.30   0.37   0.82     0.01   0.01   0.03
     7   1    -0.00  -0.02   0.03     0.01   0.14  -0.16     0.00  -0.03   0.03
     8   1    -0.00  -0.01   0.00    -0.00  -0.01  -0.00    -0.00  -0.02   0.01
     9   1     0.01   0.08  -0.10    -0.00  -0.01   0.00     0.12   0.69  -0.69
    10   1     0.01   0.48   0.86    -0.00   0.06   0.10    -0.00  -0.07  -0.08
    11   1    -0.00  -0.01  -0.02     0.00  -0.00  -0.00     0.00   0.02   0.04
    12   1     0.02  -0.02  -0.00     0.00  -0.01  -0.00     0.03  -0.03  -0.00
    13   1     0.00   0.02  -0.01     0.00   0.00  -0.00    -0.01  -0.05   0.05
                     28                     29                     30
                      A                      A                      A
 Frequencies --   3011.1149              3014.8467              3081.9701
 Red. masses --      1.0375                 1.0782                 1.1002
 Frc consts  --      5.5426                 5.7739                 6.1569
 IR Inten    --     31.1136                25.3933                19.4467
  Atom  AN      X      Y      Z        X      Y      Z        X      Y      Z
     1   6    -0.00  -0.00   0.01    -0.02  -0.02   0.07     0.04  -0.08  -0.00
     2   6     0.00   0.00  -0.00     0.00   0.00  -0.00     0.00   0.01  -0.00
     3   6     0.00   0.00   0.00    -0.00  -0.00   0.00    -0.00  -0.00   0.00
     4   6    -0.04  -0.03  -0.00     0.00   0.00  -0.00     0.00  -0.00   0.00
     5   1     0.02  -0.03  -0.01     0.24  -0.28  -0.08    -0.57   0.67   0.21
     6   1    -0.01  -0.01  -0.02    -0.08  -0.11  -0.20     0.03   0.01   0.07
     7   1     0.01   0.06  -0.06     0.07   0.64  -0.60     0.03   0.28  -0.28
     8   1    -0.00  -0.01   0.00    -0.00  -0.01   0.01    -0.02  -0.11   0.04
     9   1    -0.00   0.00  -0.00     0.00   0.03  -0.03    -0.00   0.00  -0.00
    10   1    -0.00  -0.01  -0.01     0.00   0.00   0.01    -0.00  -0.00  -0.00
    11   1     0.03   0.26   0.51    -0.00  -0.02  -0.05    -0.00  -0.00  -0.01
    12   1     0.39  -0.36  -0.03    -0.04   0.03   0.00    -0.00   0.00   0.00
    13   1     0.09   0.42  -0.45    -0.01  -0.04   0.05     0.00   0.01  -0.01
                     31                     32                     33
                      A                      A                      A
 Frequencies --   3087.8039              3094.5008              3142.8249
 Red. masses --      1.1042                 1.1049                 1.0881
 Frc consts  --      6.2028                 6.2338                 6.3325
 IR Inten    --     31.7469                27.6663                24.8604
  Atom  AN      X      Y      Z        X      Y      Z        X      Y      Z
     1   6     0.00  -0.00   0.00     0.00  -0.00  -0.00     0.01  -0.01   0.00
     2   6    -0.00  -0.00   0.00    -0.00  -0.00   0.00    -0.01  -0.08   0.02
     3   6     0.00   0.00  -0.01     0.00   0.00   0.00    -0.00  -0.00   0.00
     4   6    -0.01   0.04  -0.08    -0.04   0.07   0.04     0.00  -0.00   0.00
     5   1    -0.01   0.02   0.00    -0.00   0.00   0.00    -0.07   0.07   0.02
     6   1     0.00   0.00   0.00    -0.00  -0.00  -0.00     0.01   0.00   0.01
     7   1    -0.00   0.00  -0.01    -0.00  -0.00   0.00     0.01   0.04  -0.04
     8   1     0.01   0.02  -0.01     0.00   0.02  -0.01     0.16   0.94  -0.26
     9   1    -0.01  -0.06   0.06    -0.00  -0.01   0.01     0.00   0.02  -0.02
    10   1     0.00   0.02   0.03    -0.00  -0.02  -0.03    -0.00   0.00   0.00
    11   1     0.03   0.26   0.48    -0.04  -0.27  -0.53     0.00   0.00   0.01
    12   1     0.23  -0.20  -0.03     0.58  -0.53  -0.04    -0.01   0.01   0.00
    13   1    -0.11  -0.52   0.54    -0.02  -0.07   0.09     0.01   0.02  -0.02

 -------------------
 - Thermochemistry -
 -------------------
 Temperature   298.150 Kelvin.  Pressure   0.98700 Atm.
 Thermochemistry will use frequencies scaled by 0.9610.
 Atom     1 has atomic number  6 and mass  12.00000
 Atom     2 has atomic number  6 and mass  12.00000
 Atom     3 has atomic number  6 and mass  12.00000
 Atom     4 has atomic number  6 and mass  12.00000
 Atom     5 has atomic number  1 and mass   1.00783
 Atom     6 has atomic number  1 and mass   1.00783
 Atom     7 has atomic number  1 and mass   1.00783
 Atom     8 has atomic number  1 and mass   1.00783
 Atom     9 has atomic number  1 and mass   1.00783
 Atom    10 has atomic number  1 and mass   1.00783
 Atom    11 has atomic number  1 and mass   1.00783
 Atom    12 has atomic number  1 and mass   1.00783
 Atom    13 has atomic number  1 and mass   1.00783
 Molecular mass:    57.07043 amu.
 Principal axes and moments of inertia in atomic units:
                           1         2         3
     Eigenvalues --    68.63349 498.74302 530.24809
           X            0.99998   0.00670  -0.00004
           Y           -0.00670   0.99965  -0.02540
           Z           -0.00013   0.02540   0.99968
 This molecule is an asymmetric top.
 Rotational symmetry number  1.
 Rotational temperatures (Kelvin)      1.26198     0.17366     0.16335
 Rotational constants (GHZ):          26.29534     3.61858     3.40358
 Zero-point vibrational energy     292971.8 (Joules/Mol)
                                   70.02193 (Kcal/Mol)
 Warning -- explicit consideration of   6 degrees of freedom as
           vibrations may cause significant error
 Vibrational temperatures:     85.64   156.32   340.74   364.89   554.91
          (Kelvin)            598.59  1071.10  1184.79  1347.52  1370.08
                             1440.50  1487.06  1578.02  1639.44  1755.04
                             1815.79  1934.15  1950.14  1970.53  2008.82
                             2017.55  2028.96  2046.42  2058.02  4010.41
                             4038.77  4131.88  4163.36  4168.52  4261.33
                             4269.40  4278.66  4345.47
 
 Zero-point correction=                           0.111587 (Hartree/Particle)
 Thermal correction to Energy=                    0.118023
 Thermal correction to Enthalpy=                  0.118967
 Thermal correction to Gibbs Free Energy=         0.081777
 Sum of electronic and zero-point Energies=           -157.558804
 Sum of electronic and thermal Energies=              -157.552368
 Sum of electronic and thermal Enthalpies=            -157.551424
 Sum of electronic and thermal Free Energies=         -157.588614
 
                     E (Thermal)             CV                S
                      KCal/Mol        Cal/Mol-Kelvin    Cal/Mol-Kelvin
 Total                   74.060             21.086             78.272
 Electronic               0.000              0.000              1.377
 Translational            0.889              2.981             38.072
 Rotational               0.889              2.981             24.410
 Vibrational             72.283             15.124             14.412
 Vibration     1          0.597              1.974              4.473
 Vibration     2          0.606              1.942              3.293
 Vibration     3          0.656              1.784              1.827
 Vibration     4          0.665              1.757              1.705
 Vibration     5          0.754              1.501              1.017
 Vibration     6          0.779              1.435              0.906
                       Q            Log10(Q)             Ln(Q)
 Total Bot       0.242717D-37        -37.614900        -86.611508
 Total V=0       0.514677D+14         13.711534         31.571975
 Vib (Bot)       0.146563D-49        -49.833975       -114.746968
 Vib (Bot)    1  0.346967D+01          0.540288          1.244059
 Vib (Bot)    2  0.188568D+01          0.275467          0.634287
 Vib (Bot)    3  0.829148D+00         -0.081368         -0.187356
 Vib (Bot)    4  0.768239D+00         -0.114504         -0.263655
 Vib (Bot)    5  0.466919D+00         -0.330759         -0.761600
 Vib (Bot)    6  0.423319D+00         -0.373332         -0.859628
 Vib (V=0)       0.310785D+02          1.492459          3.436515
 Vib (V=0)    1  0.400551D+01          0.602658          1.387671
 Vib (V=0)    2  0.245084D+01          0.389315          0.896431
 Vib (V=0)    3  0.146824D+01          0.166797          0.384064
 Vib (V=0)    4  0.141662D+01          0.151253          0.348273
 Vib (V=0)    5  0.118411D+01          0.073394          0.168996
 Vib (V=0)    6  0.115513D+01          0.062632          0.144216
 Electronic      0.200000D+01          0.301030          0.693147
 Translational   0.171693D+08          7.234753         16.658635
 Rotational      0.482272D+05          4.683292         10.783677
 ***** Axes restored to original set *****
 -------------------------------------------------------------------
 Center     Atomic                   Forces (Hartrees/Bohr)
 Number     Number              X              Y              Z
 -------------------------------------------------------------------
      1        6          -0.000030620    0.000005036    0.000001142
      2        6           0.000013895    0.000002392    0.000003527
      3        6          -0.000032613   -0.000015061    0.000029163
      4        6           0.000028836    0.000003398   -0.000005902
      5        1           0.000000328    0.000000106   -0.000005596
      6        1           0.000004513    0.000001333   -0.000000635
      7        1           0.000001294   -0.000002644   -0.000003828
      8        1           0.000002350    0.000003572   -0.000002410
      9        1           0.000005224   -0.000001912   -0.000006956
     10        1           0.000007955    0.000007960   -0.000011228
     11        1          -0.000002531   -0.000000051   -0.000002251
     12        1           0.000002933   -0.000005287    0.000001770
     13        1          -0.000001563    0.000001159    0.000003205
 -------------------------------------------------------------------
 Cartesian Forces:  Max     0.000032613 RMS     0.000010970
 FormGI is forming the generalized inverse of G from B-inverse, IUseBI=4.

 GradGradGradGradGradGradGradGradGradGradGradGradGradGradGradGradGradGrad
 Berny optimization.
 Internal  Forces:  Max     0.000027797 RMS     0.000006631
 Search for a local minimum.
 Step number   1 out of a maximum of    2
 All quantities printed in internal units (Hartrees-Bohrs-Radians)
 Second derivative matrix not updated -- analytic derivatives used.
 ITU=  0
     Eigenvalues ---    0.00065   0.00078   0.00261   0.00576   0.03820
     Eigenvalues ---    0.04244   0.04574   0.04605   0.05614   0.05734
     Eigenvalues ---    0.08079   0.10583   0.11310   0.12047   0.12329
     Eigenvalues ---    0.12637   0.13700   0.14126   0.16154   0.16707
     Eigenvalues ---    0.20751   0.29244   0.29887   0.30014   0.31226
     Eigenvalues ---    0.32087   0.33021   0.33065   0.33193   0.33535
     Eigenvalues ---    0.33859   0.34589   0.35136
 Angle between quadratic step and forces=  79.46 degrees.
 Linear search not attempted -- first point.
 Iteration  1 RMS(Cart)=  0.00044863 RMS(Int)=  0.00000012
 Iteration  2 RMS(Cart)=  0.00000014 RMS(Int)=  0.00000000
 Variable       Old X    -DE/DX   Delta X   Delta X   Delta X     New X
                                 (Linear)    (Quad)   (Total)
    R1        2.81776   0.00003   0.00000   0.00009   0.00009   2.81784
    R2        2.08714   0.00000   0.00000   0.00002   0.00002   2.08717
    R3        2.10753  -0.00000   0.00000  -0.00001  -0.00001   2.10752
    R4        2.09417   0.00000   0.00000  -0.00001  -0.00001   2.09417
    R5        2.82352   0.00001   0.00000   0.00005   0.00005   2.82358
    R6        2.07461   0.00000   0.00000   0.00002   0.00002   2.07463
    R7        2.89463   0.00003   0.00000   0.00013   0.00013   2.89475
    R8        2.09737   0.00000   0.00000  -0.00001  -0.00001   2.09736
    R9        2.10980  -0.00001   0.00000  -0.00005  -0.00005   2.10975
   R10        2.08780   0.00000   0.00000   0.00000   0.00000   2.08780
   R11        2.08692   0.00001   0.00000   0.00002   0.00002   2.08693
   R12        2.08909   0.00000   0.00000  -0.00000  -0.00000   2.08909
    A1        1.95664  -0.00000   0.00000  -0.00005  -0.00005   1.95658
    A2        1.95613  -0.00000   0.00000  -0.00001  -0.00001   1.95612
    A3        1.94821  -0.00000   0.00000  -0.00002  -0.00002   1.94819
    A4        1.86213   0.00000   0.00000   0.00000   0.00000   1.86213
    A5        1.88643  -0.00000   0.00000  -0.00001  -0.00001   1.88642
    A6        1.84842   0.00000   0.00000   0.00009   0.00009   1.84851
    A7        2.11996   0.00001   0.00000   0.00013   0.00013   2.12009
    A8        2.07172  -0.00001   0.00000  -0.00007  -0.00007   2.07166
    A9        2.06044  -0.00000   0.00000  -0.00004  -0.00004   2.06040
   A10        1.98834  -0.00001   0.00000  -0.00011  -0.00011   1.98823
   A11        1.91106   0.00000   0.00000   0.00002   0.00002   1.91107
   A12        1.91763   0.00000   0.00000   0.00002   0.00002   1.91765
   A13        1.91801  -0.00000   0.00000  -0.00003  -0.00003   1.91798
   A14        1.89966  -0.00000   0.00000  -0.00004  -0.00004   1.89962
   A15        1.82174   0.00001   0.00000   0.00017   0.00017   1.82191
   A16        1.93717  -0.00000   0.00000  -0.00005  -0.00005   1.93712
   A17        1.94529   0.00000   0.00000   0.00000   0.00000   1.94529
   A18        1.93657  -0.00000   0.00000  -0.00002  -0.00002   1.93654
   A19        1.88515   0.00000   0.00000   0.00001   0.00001   1.88517
   A20        1.87685   0.00000   0.00000   0.00004   0.00004   1.87689
   A21        1.88011   0.00000   0.00000   0.00002   0.00002   1.88012
    D1       -2.90671   0.00000   0.00000   0.00090   0.00090  -2.90582
    D2        0.50525   0.00000   0.00000   0.00080   0.00080   0.50605
    D3        1.28287   0.00000   0.00000   0.00093   0.00093   1.28381
    D4       -1.58835   0.00000   0.00000   0.00084   0.00084  -1.58751
    D5       -0.78737  -0.00000   0.00000   0.00083   0.00083  -0.78654
    D6        2.62459  -0.00000   0.00000   0.00074   0.00074   2.62533
    D7        2.93523  -0.00000   0.00000  -0.00045  -0.00045   2.93478
    D8        0.77972   0.00000   0.00000  -0.00034  -0.00034   0.77938
    D9       -1.21141  -0.00001   0.00000  -0.00056  -0.00056  -1.21197
   D10       -0.47505   0.00000   0.00000  -0.00035  -0.00035  -0.47540
   D11       -2.63056   0.00001   0.00000  -0.00025  -0.00025  -2.63081
   D12        1.66150  -0.00000   0.00000  -0.00047  -0.00047   1.66102
   D13       -1.05422   0.00000   0.00000   0.00041   0.00041  -1.05381
   D14        3.12687   0.00000   0.00000   0.00042   0.00042   3.12729
   D15        1.03158   0.00000   0.00000   0.00041   0.00041   1.03199
   D16        1.09752  -0.00000   0.00000   0.00033   0.00033   1.09785
   D17       -1.00458  -0.00000   0.00000   0.00034   0.00034  -1.00424
   D18       -3.09987  -0.00000   0.00000   0.00033   0.00033  -3.09954
   D19        3.08259   0.00000   0.00000   0.00049   0.00049   3.08308
   D20        0.98049   0.00000   0.00000   0.00050   0.00050   0.98099
   D21       -1.11480   0.00000   0.00000   0.00049   0.00049  -1.11431
         Item               Value     Threshold  Converged?
 Maximum Force            0.000028     0.000450     YES
 RMS     Force            0.000007     0.000300     YES
 Maximum Displacement     0.001155     0.001800     YES
 RMS     Displacement     0.000449     0.001200     YES
 Predicted change in Energy=-1.177779D-08
 Optimization completed.
    -- Stationary point found.
                           ----------------------------
                           !   Optimized Parameters   !
                           ! (Angstroms and Degrees)  !
 --------------------------                            --------------------------
 ! Name  Definition              Value          Derivative Info.                !
 --------------------------------------------------------------------------------
 ! R1    R(1,2)                  1.4911         -DE/DX =    0.0                 !
 ! R2    R(1,5)                  1.1045         -DE/DX =    0.0                 !
 ! R3    R(1,6)                  1.1153         -DE/DX =    0.0                 !
 ! R4    R(1,7)                  1.1082         -DE/DX =    0.0                 !
 ! R5    R(2,3)                  1.4941         -DE/DX =    0.0                 !
 ! R6    R(2,8)                  1.0978         -DE/DX =    0.0                 !
 ! R7    R(3,4)                  1.5318         -DE/DX =    0.0                 !
 ! R8    R(3,9)                  1.1099         -DE/DX =    0.0                 !
 ! R9    R(3,10)                 1.1165         -DE/DX =    0.0                 !
 ! R10   R(4,11)                 1.1048         -DE/DX =    0.0                 !
 ! R11   R(4,12)                 1.1043         -DE/DX =    0.0                 !
 ! R12   R(4,13)                 1.1055         -DE/DX =    0.0                 !
 ! A1    A(2,1,5)              112.1071         -DE/DX =    0.0                 !
 ! A2    A(2,1,6)              112.0778         -DE/DX =    0.0                 !
 ! A3    A(2,1,7)              111.6245         -DE/DX =    0.0                 !
 ! A4    A(5,1,6)              106.6922         -DE/DX =    0.0                 !
 ! A5    A(5,1,7)              108.0845         -DE/DX =    0.0                 !
 ! A6    A(6,1,7)              105.9067         -DE/DX =    0.0                 !
 ! A7    A(1,2,3)              121.4648         -DE/DX =    0.0                 !
 ! A8    A(1,2,8)              118.701          -DE/DX =    0.0                 !
 ! A9    A(3,2,8)              118.0546         -DE/DX =    0.0                 !
 ! A10   A(2,3,4)              113.9234         -DE/DX =    0.0                 !
 ! A11   A(2,3,9)              109.4955         -DE/DX =    0.0                 !
 ! A12   A(2,3,10)             109.8722         -DE/DX =    0.0                 !
 ! A13   A(4,3,9)              109.8942         -DE/DX =    0.0                 !
 ! A14   A(4,3,10)             108.8428         -DE/DX =    0.0                 !
 ! A15   A(9,3,10)             104.3781         -DE/DX =    0.0                 !
 ! A16   A(3,4,11)             110.9916         -DE/DX =    0.0                 !
 ! A17   A(3,4,12)             111.4568         -DE/DX =    0.0                 !
 ! A18   A(3,4,13)             110.9571         -DE/DX =    0.0                 !
 ! A19   A(11,4,12)            108.0114         -DE/DX =    0.0                 !
 ! A20   A(11,4,13)            107.5357         -DE/DX =    0.0                 !
 ! A21   A(12,4,13)            107.7221         -DE/DX =    0.0                 !
 ! D1    D(5,1,2,3)           -166.5423         -DE/DX =    0.0                 !
 ! D2    D(5,1,2,8)             28.9487         -DE/DX =    0.0                 !
 ! D3    D(6,1,2,3)             73.5032         -DE/DX =    0.0                 !
 ! D4    D(6,1,2,8)            -91.0058         -DE/DX =    0.0                 !
 ! D5    D(7,1,2,3)            -45.113          -DE/DX =    0.0                 !
 ! D6    D(7,1,2,8)            150.378          -DE/DX =    0.0                 !
 ! D7    D(1,2,3,4)            168.1763         -DE/DX =    0.0                 !
 ! D8    D(1,2,3,9)             44.6745         -DE/DX =    0.0                 !
 ! D9    D(1,2,3,10)           -69.4088         -DE/DX =    0.0                 !
 ! D10   D(8,2,3,4)            -27.2182         -DE/DX =    0.0                 !
 ! D11   D(8,2,3,9)           -150.72           -DE/DX =    0.0                 !
 ! D12   D(8,2,3,10)            95.1967         -DE/DX =    0.0                 !
 ! D13   D(2,3,4,11)           -60.4023         -DE/DX =    0.0                 !
 ! D14   D(2,3,4,12)           179.1563         -DE/DX =    0.0                 !
 ! D15   D(2,3,4,13)            59.1051         -DE/DX =    0.0                 !
 ! D16   D(9,3,4,11)            62.8832         -DE/DX =    0.0                 !
 ! D17   D(9,3,4,12)           -57.5582         -DE/DX =    0.0                 !
 ! D18   D(9,3,4,13)          -177.6095         -DE/DX =    0.0                 !
 ! D19   D(10,3,4,11)          176.6194         -DE/DX =    0.0                 !
 ! D20   D(10,3,4,12)           56.178          -DE/DX =    0.0                 !
 ! D21   D(10,3,4,13)          -63.8732         -DE/DX =    0.0                 !
 --------------------------------------------------------------------------------
 GradGradGradGradGradGradGradGradGradGradGradGradGradGradGradGradGradGrad


 ----------------------------------------------------------------------

 Electric dipole moment (input orientation):
 (Debye = 10**-18 statcoulomb cm , SI units = C m)
                  (au)            (Debye)         (10**-30 SI)
   Tot        0.101033D+00      0.256800D+00      0.856593D+00
   x         -0.562381D-01     -0.142943D+00     -0.476806D+00
   y          0.931098D-02      0.236662D-01      0.789418D-01
   z          0.834160D-01      0.212022D+00      0.707231D+00

 Dipole polarizability, Alpha (input orientation).
 (esu units = cm**3 , SI units = C**2 m**2 J**-1)
 Alpha(0;0):
               (au)            (10**-24 esu)      (10**-40 SI)
   iso        0.442007D+02      0.654987D+01      0.728771D+01
   aniso      0.130774D+02      0.193787D+01      0.215617D+01
   xx         0.506109D+02      0.749977D+01      0.834462D+01
   yx        -0.266734D+01     -0.395259D+00     -0.439785D+00
   yy         0.419729D+02      0.621974D+01      0.692039D+01
   zx         0.250912D+01      0.371813D+00      0.413698D+00
   zy        -0.343832D+01     -0.509506D+00     -0.566902D+00
   zz         0.400183D+02      0.593009D+01      0.659812D+01

 ----------------------------------------------------------------------

 Dipole orientation:
     6          1.55848307          0.50982053         -0.74048017
     6          4.07428605          0.45910534         -2.00851740
     6          5.94430136         -1.59220316         -1.49134576
     6          8.17305833         -1.64162216         -3.33771400
     1          0.25023495          1.86151060         -1.64468768
     1          1.70383270          1.07119229          1.28570172
     1          0.65153661         -1.37775276         -0.74944697
     1          4.74850882          2.17850619         -2.95355911
     1          4.96784007         -3.44837781         -1.50145508
     1          6.69077610         -1.40361373          0.47294675
     1          7.51517694         -1.94131154         -5.29636050
     1          9.51918940         -3.16584873         -2.86880170
     1          9.21917617          0.16615907         -3.29474875

 Electric dipole moment (dipole orientation):
 (Debye = 10**-18 statcoulomb cm , SI units = C m)
                  (au)            (Debye)         (10**-30 SI)
   Tot        0.101033D+00      0.256800D+00      0.856593D+00
   x          0.000000D+00      0.000000D+00      0.000000D+00
   y          0.000000D+00      0.000000D+00      0.000000D+00
   z          0.101033D+00      0.256800D+00      0.856593D+00

 Dipole polarizability, Alpha (dipole orientation).
 (esu units = cm**3 , SI units = C**2 m**2 J**-1)
 Alpha(0;0):
               (au)            (10**-24 esu)      (10**-40 SI)
   iso        0.442007D+02      0.654987D+01      0.728771D+01
   aniso      0.130774D+02      0.193787D+01      0.215617D+01
   xx         0.494093D+02      0.732171D+01      0.814650D+01
   yx        -0.395348D+01     -0.585845D+00     -0.651840D+00
   yy         0.424317D+02      0.628773D+01      0.699604D+01
   zx        -0.436640D+01     -0.647033D+00     -0.719921D+00
   zy        -0.112492D+01     -0.166696D+00     -0.185475D+00
   zz         0.407611D+02      0.604016D+01      0.672059D+01

 ----------------------------------------------------------------------
 Unable to Open any file for archive entry.
 1\1\GINC-NODE01\Freq\UB3LYP\def2SVPP\C4H9(2)\XUHJ\28-Aug-2024\0\\#N Ge
 om=AllCheck Guess=TCheck SCRF=Check GenChk UB3LYP/def2SVPP Freq\\C[CH]
 CC_1\\0,2\C,0.9104408557,0.2555921092,0.1106783732\C,2.3885577073,0.20
 44481734,0.3001849258\C,3.0273442663,-0.8229806234,1.1770032958\C,4.54
 97128294,-0.905913944,1.0292191923\H,0.6220777612,0.9039992178,-0.7356
 471566\H,0.385824889,0.6522490465,1.0113657887\H,0.4865324666,-0.75254
 47011,-0.0683333433\H,2.9887236593,1.0740205938,0.0020359137\H,2.57369
 6724,-1.8156686306,0.9754851196\H,2.7795301463,-0.6167538415,2.2458959
 904\H,4.8331369672,-1.1690661312,-0.005692869\H,4.9803740188,-1.665863
 8209,1.7049346197\H,5.0235677089,0.063922552,1.2679701497\\Version=ES6
 4L-G16RevC.01\State=2-A\HF=-157.6703909\S2=0.754\S2-1=0.\S2A=0.750012\
 RMSD=1.790e-09\RMSF=1.097e-05\ZeroPoint=0.111587\Thermal=0.1180227\ETo
 t=-157.5523682\HTot=-157.551424\GTot=-157.5886136\Dipole=-0.0562381,0.
 009311,0.083416\DipoleDeriv=0.0216785,0.0091345,-0.0494059,0.0377482,0
 .0456873,0.0542831,-0.0103113,0.0342421,0.1194863,0.1241854,0.0457196,
 0.075691,0.0281718,0.0741739,-0.1678543,0.0944235,-0.1482019,-0.159318
 6,0.077497,-0.0197298,-0.0086223,-0.0105544,0.1171373,0.0475264,-0.052
 7545,0.0706569,0.1791215,0.0764277,0.0007886,0.0047954,0.0416138,0.092
 4783,0.0075254,-0.0296079,0.011122,0.0882407,-0.0042266,0.0344138,-0.0
 400942,0.0473496,0.0045209,0.1001509,-0.0764019,0.1015854,-0.0505362,-
 0.0689654,0.0560606,0.0390831,0.0420135,0.0451568,-0.0573118,0.1141915
 ,-0.0782088,-0.089,-0.0062604,-0.0398282,-0.0189777,-0.0982317,-0.1161
 94,-0.0405573,-0.0211663,-0.018127,0.0627041,-0.0626196,-0.0672341,-0.
 0082461,-0.0632447,-0.0582563,0.0809298,-0.026777,0.0557627,0.0851788,
 -0.0614876,-0.0784571,-0.0270128,-0.0663647,-0.1386939,-0.0058207,-0.0
 265218,-0.035726,0.0399702,-0.0371496,0.0391081,0.0535112,0.0540823,0.
 0230931,-0.030396,0.0260979,0.0026556,-0.1961013,0.0005389,0.0091596,0
 .024863,0.0068079,0.0552184,-0.0394276,0.0871167,-0.0569954,-0.118207,
 -0.0390094,0.055954,-0.0384284,0.0844279,-0.0368452,0.0943034,-0.07028
 4,0.1010543,-0.0158504,-0.0206089,-0.0450897,-0.0071562,-0.1038197,-0.
 1074765,-0.0433511,-0.008005,-0.0398198,0.0543117\Polar=50.61094,-2.66
 73429,41.9728814,2.5091217,-3.438317,40.0182543\Quadrupole=-0.0784266,
 0.31879,-0.2403634,0.0720838,0.100436,-0.1972929\PG=C01 [X(C4H9)]\NIma
 g=0\\0.48564681,0.00657124,0.54785571,0.02203413,-0.03671513,0.5152456
 0,-0.23634609,0.00149456,-0.02622332,0.54453923,-0.00070965,-0.0790149
 0,0.01865295,0.07255099,0.45889430,-0.02484240,0.01802306,-0.06422657,
 0.04286611,-0.19969968,0.22765850,-0.01115178,0.02130679,-0.02284729,-
 0.11148247,0.03839706,-0.04044225,0.49661038,0.00304453,0.00039728,0.0
 0055529,0.03468094,-0.14759301,0.07326095,0.02563241,0.53213516,-0.002
 51302,-0.00081820,0.00152021,-0.03756567,0.07518347,-0.11053654,0.0016
 6974,0.00717069,0.48618994,0.00013967,0.00070727,-0.00012735,-0.019751
 72,0.00607778,-0.00368018,-0.19938609,0.00369243,0.01600456,0.48040215
 ,0.00037467,-0.00290745,0.00251460,0.02559648,-0.00103375,-0.00152829,
 0.00402191,-0.08336305,-0.00114846,0.00073236,0.57242969,-0.00098871,0
 .00291205,-0.00224318,-0.02286531,0.00036803,0.00066747,0.01435609,0.0
 0021609,-0.07872161,0.01085784,-0.00507161,0.57278429,-0.06264212,0.03
 534104,-0.05104827,-0.00854357,0.02285956,-0.02486476,-0.00537025,-0.0
 0202170,0.00047466,-0.00001287,0.00113549,-0.00110766,0.06929250,0.036
 05613,-0.14020983,0.12011077,0.00116957,-0.00087038,-0.00097029,0.0005
 3302,0.00098020,0.00039839,-0.00011884,0.00025927,0.00034568,-0.042269
 84,0.14455370,-0.05271391,0.12026302,-0.20226265,0.00037163,0.00059278
 ,-0.00077402,-0.00045552,-0.00093730,0.00088225,0.00026308,0.00030815,
 -0.00004564,0.05539668,-0.13092069,0.21412399,-0.08756642,0.04104645,0
 .09133663,-0.02454256,0.00938551,0.02229658,0.00155992,-0.00141204,0.0
 0031892,-0.00005559,-0.00000952,-0.00034853,0.00387870,-0.00349985,-0.
 00584308,0.10211576,0.03649162,-0.07368917,-0.06852436,0.00250847,0.00
 147813,0.00167373,-0.00027094,0.00052003,0.00039374,0.00004813,0.00003
 485,0.00014196,-0.00923708,0.00761742,0.01518402,-0.04278901,0.0753529
 3,0.07930788,-0.06776295,-0.20093184,0.00426059,0.00347116,0.00836419,
 0.00043774,0.00009085,0.00003382,-0.00004329,-0.00013256,0.00019841,0.
 01015373,-0.00947237,-0.01888793,-0.09638289,0.07666437,0.21593164,-0.
 07843884,-0.08565401,-0.01887173,-0.01643568,-0.02953291,-0.00132262,0
 .00148852,-0.00145807,0.00081163,0.00004114,0.00019942,0.00017576,0.00
 247029,0.00768533,0.00296250,0.00580539,0.01292372,0.00164537,0.089551
 02,-0.08347389,-0.25949442,-0.03524956,-0.00302553,0.00372078,0.001886
 98,0.00062695,0.00095112,0.00079042,0.00019478,0.00041011,-0.00004908,
 -0.00539636,-0.01320690,-0.00415114,-0.00338145,-0.01033592,-0.0018808
 1,0.09404483,0.27750639,-0.01953757,-0.03591072,-0.05339839,0.00102740
 ,-0.00181296,0.00079937,0.00020992,-0.00075337,-0.00010463,-0.00000813
 ,0.00015375,-0.00002150,0.01026769,0.02148523,0.00630425,-0.00902672,-
 0.02454350,-0.00430668,0.01707619,0.04095459,0.05068700,-0.01091545,-0
 .02338483,0.00502798,-0.13438052,-0.12240936,0.03597161,0.00715135,0.0
 1001698,-0.00459885,0.00148689,0.00094224,0.00015804,0.00129069,0.0003
 0984,-0.00004474,-0.00078127,0.00015536,0.00042140,-0.00484847,0.00069
 948,0.00032225,0.14123661,0.00397863,0.00521709,-0.00030622,-0.1249274
 6,-0.21833813,0.08019971,-0.01035523,-0.01144438,0.00301828,-0.0020335
 0,0.00101865,-0.00055515,-0.00029864,0.00047248,-0.00024417,-0.0001360
 8,-0.00076209,-0.00043066,0.00014755,0.00026136,0.00015317,0.13115143,
 0.22692663,-0.00267554,-0.00026366,0.00407100,0.03265250,0.07431946,-0
 .04313075,0.00948771,0.01602201,0.00090340,0.00079551,-0.00046265,0.00
 068831,0.00055092,-0.00107041,0.00048080,-0.00078779,-0.00098443,-0.00
 030093,-0.00216519,-0.00161967,0.00023371,-0.03554243,-0.08478507,0.03
 998701,0.00080698,0.00108114,0.00082388,0.00639981,0.01002451,0.002850
 35,-0.08868160,-0.08431334,-0.01928080,-0.01391848,-0.02933239,-0.0072
 2860,0.00011779,-0.00005192,0.00005083,-0.00019002,0.00005023,-0.00015
 142,0.00008066,-0.00039274,-0.00020425,-0.00043766,0.00101362,-0.00152
 634,0.09676052,-0.00139548,0.00086246,-0.00039742,-0.00845428,-0.02119
 799,0.00250079,-0.08865387,-0.24214207,-0.04451951,0.00173778,0.003814
 51,0.00105677,0.00002355,0.00056768,0.00009090,0.00021929,-0.00003875,
 -0.00013943,0.00126664,0.00044057,0.00026166,0.00248097,-0.00261612,0.
 00042976,0.09520430,0.26413233,0.00085062,0.00001073,0.00039915,0.0077
 4938,0.02101755,0.00110729,-0.01941082,-0.04380242,-0.05257040,0.00131
 813,0.00375814,0.00017584,0.00029665,-0.00012186,-0.00001513,-0.000003
 98,-0.00027235,-0.00006742,-0.00024970,-0.00052373,0.00010705,-0.00131
 276,0.00292991,-0.00178575,0.02226969,0.04341846,0.05831669,0.00053842
 ,-0.00018548,0.00117357,0.00352637,-0.00173844,-0.01241114,-0.05537494
 ,0.00964245,0.04174841,-0.00995135,0.00774766,0.03289461,0.00010238,0.
 00002592,0.00019411,-0.00040081,0.00020241,0.00033042,-0.00004404,0.00
 003145,-0.00027645,-0.00009799,0.00000930,-0.00015718,0.00304201,-0.00
 272615,-0.01184109,0.06266102,-0.00088710,0.00055747,-0.00075290,-0.00
 295142,0.00203764,0.02480717,0.00887386,-0.05244715,-0.04006175,0.0001
 7546,-0.00032764,-0.00174167,-0.00010798,-0.00012156,-0.00014988,0.000
 64282,-0.00014922,-0.00044829,0.00024445,-0.00010650,-0.00000413,0.000
 43683,-0.00111480,-0.00090316,0.00567692,-0.00600804,-0.02734170,-0.01
 287217,0.05642197,0.00083577,0.00019881,0.00127587,-0.00173345,0.00791
 044,-0.02163900,0.05199581,-0.05100237,-0.24990387,0.00063014,-0.00095
 834,-0.00233659,-0.00026601,0.00028133,0.00016841,-0.00142009,0.000251
 25,0.00002711,-0.00009352,-0.00018379,-0.00024073,-0.00048283,0.000270
 46,-0.00080369,0.00137311,-0.00313995,-0.00680293,-0.05178231,0.045865
 53,0.27812599,-0.00005316,-0.00001484,-0.00006931,0.00185854,-0.001359
 78,0.00069190,-0.00894388,0.00872217,0.03168428,-0.06235697,0.01484822
 ,0.05772440,0.00000456,-0.00000171,-0.00006364,0.00021011,-0.00007499,
 -0.00007204,0.00002629,0.00002195,0.00007217,0.00003927,0.00044025,-0.
 00004529,0.00146022,-0.00031313,-0.00006209,-0.00688754,0.00066665,0.0
 0052058,0.06873352,0.00001006,-0.00009120,0.00010000,-0.00005641,0.000
 47957,-0.00042183,0.00011358,-0.00061587,-0.00088173,0.01540317,-0.064
 66261,-0.05890089,0.00001713,-0.00000652,-0.00000049,-0.00010019,-0.00
 000434,0.00003653,-0.00006670,-0.00003956,-0.00002264,0.00000827,-0.00
 028987,-0.00008570,0.00010317,0.00023139,0.00078238,0.00010171,0.00099
 864,0.00026640,-0.01665986,0.06187114,-0.00005089,-0.00012709,0.000153
 30,-0.00072420,0.00049852,0.00082674,0.00057693,-0.00021584,-0.0009644
 6,0.06026169,-0.05942707,-0.28036899,0.00009748,-0.00003824,0.00002316
 ,-0.00003678,0.00002291,-0.00005721,0.00000553,0.00001836,-0.00001110,
 0.00016819,-0.00027295,-0.00004624,0.00043272,0.00044418,0.00031530,0.
 00060366,0.00034333,0.00122276,-0.06626697,0.06458755,0.29834944,-0.00
 000588,0.00146570,-0.00109768,-0.00647150,-0.00187772,0.00172652,-0.01
 135362,0.02389238,-0.02085011,-0.08493158,0.06753081,-0.05992525,-0.00
 058104,0.00005149,-0.00011135,-0.00008728,0.00002788,0.00009435,0.0000
 3920,-0.00010824,-0.00000362,0.00013346,0.00014171,0.00008452,0.001093
 73,-0.00045772,-0.00040514,0.00146378,0.00004542,0.00030649,0.00278179
 ,-0.00673814,0.00418350,0.09248039,-0.00018895,0.00014266,0.00003531,0
 .00065255,0.00067090,-0.00000250,-0.00133785,-0.00016367,-0.00047466,0
 .06960948,-0.17437142,0.11196696,0.00004402,-0.00002317,0.00000587,0.0
 0006281,-0.00001739,-0.00002171,0.00007915,0.00000843,-0.00000079,-0.0
 0010892,0.00041304,-0.00024530,0.00020198,0.00068009,-0.00029040,0.000
 25628,-0.00014878,-0.00028305,-0.00454105,0.00699528,-0.00530567,-0.07
 554940,0.18242940,0.00021435,0.00003510,0.00049527,0.00058784,0.000225
 64,0.00064287,0.00241721,-0.00464572,0.00286367,-0.06200573,0.11273563
 ,-0.14898392,0.00007769,-0.00001519,0.00000982,-0.00015645,-0.00000407
 ,0.00000659,-0.00002726,-0.00002763,-0.00001876,0.00009883,-0.00024209
 ,-0.00016032,-0.00045838,-0.00009858,-0.00006019,-0.00027532,-0.000375
 70,0.00061091,-0.01107138,0.02069925,-0.01521578,0.06628412,-0.1225286
 4,0.15439829,-0.00001214,0.00022498,-0.00011124,0.00163016,-0.00166755
 ,0.00116029,-0.01506555,-0.03011914,-0.00790375,-0.09170520,-0.0937873
 4,-0.02370268,-0.00000707,0.00011086,-0.00000660,0.00005406,-0.0000358
 0,-0.00000184,0.00026450,0.00015877,0.00008111,0.00012309,0.00086841,-
 0.00067138,-0.00653396,0.00106809,0.00080111,0.00142268,0.00005626,0.0
 0011632,0.00312725,0.00786419,0.00074915,0.00543855,0.01081991,0.00431
 449,0.10126360,0.00012819,0.00037432,-0.00002331,0.00076153,0.00076684
 ,0.00027020,0.00111230,0.00278540,0.00094932,-0.09622630,-0.25130117,-
 0.05068913,-0.00008917,-0.00001237,-0.00004106,-0.00002874,-0.00000646
 ,0.00002587,0.00012061,-0.00011546,0.00003970,-0.00029831,0.00025615,-
 0.00035118,0.00073452,0.00127394,0.00043529,-0.00049495,0.00040798,0.0
 0052329,-0.00173389,-0.00486606,-0.00052800,-0.00842415,-0.01661537,-0
 .00575800,0.10443836,0.26705226,0.00007929,0.00015498,-0.00009776,-0.0
 0040350,-0.00072734,0.00024046,0.00200473,0.00404113,0.00040824,-0.024
 26626,-0.05074130,-0.06179289,-0.00002878,-0.00001234,-0.00000732,0.00
 005418,-0.00000328,-0.00000977,0.00005302,0.00003506,-0.00002958,-0.00
 018668,0.00026478,-0.00013655,0.00104922,0.00009238,0.00088051,-0.0002
 0128,0.00076316,0.00029575,-0.01304260,-0.02615882,-0.00422692,0.00971
 364,0.01714459,0.00541156,0.02517501,0.05514700,0.05906428\\0.00003062
 ,-0.00000504,-0.00000114,-0.00001390,-0.00000239,-0.00000353,0.0000326
 1,0.00001506,-0.00002916,-0.00002884,-0.00000340,0.00000590,-0.0000003
 3,-0.00000011,0.00000560,-0.00000451,-0.00000133,0.00000064,-0.0000012
 9,0.00000264,0.00000383,-0.00000235,-0.00000357,0.00000241,-0.00000522
 ,0.00000191,0.00000696,-0.00000795,-0.00000796,0.00001123,0.00000253,0
 .00000005,0.00000225,-0.00000293,0.00000529,-0.00000177,0.00000156,-0.
 00000116,-0.00000320\\\@
 The archive entry for this job was punched.


 Time has a wonderful way of weeding out the trivial.
                                -- Richard Ben Sapir
 Job cpu time:       0 days  0 hours  3 minutes 21.3 seconds.
 Elapsed time:       0 days  0 hours  0 minutes 25.2 seconds.
 File lengths (MBytes):  RWF=     22 Int=      0 D2E=      0 Chk=      2 Scr=      1
 Normal termination of Gaussian 16 at Wed Aug 28 07:52:14 2024.
