%nprocshared=16
%mem=640MB
#N opt freq B3LYP/def2SVPP symm=veryloose em=gd3bj scale=0.961 press=0.987

C=C_1

0 1
C          1.00268       -0.05165        0.08486
C          2.33488       -0.05165        0.08486
H          0.45275       -0.74161       -0.54717
H          0.45275        0.63830        0.71690
H          2.88481       -0.74161       -0.54717
H          2.88481        0.63830        0.71690

