%nprocshared=16
%mem=320MB
#N opt freq B3LYP/def2SVPP symm=veryloose em=gd3bj scale=0.961 press=0.987

C_1

0 1
C          1.02439       -0.09680        0.00583
H          2.13379       -0.09681        0.00582
H          0.65460        0.47076        0.88439
H          0.65459       -1.14145        0.05807
H          0.65459        0.38027       -0.92498

