%nprocshared=8
%mem=9600MB
#N opt freq B3LYP/def2SVPP symm=veryloose em=gd3bj scale=0.961 press=0.987

c1cc2ccc3ccc4ccc5ccc6ccc1c1c2c3c4c5c61_2

0 1
C          3.00690       -2.18290        0.18820
C          3.60210       -0.92060        0.12920
C          2.81710        0.23750        0.05390
C          3.39860        1.51080       -0.00590
C          2.60210        2.65570       -0.08070
C          1.20470        2.55500       -0.09750
C          0.39180        3.69360       -0.17230
C         -1.00000        3.57630       -0.18810
C         -1.61240        2.31750       -0.12960
C         -3.00690        2.18290       -0.14450
C         -3.60210        0.92060       -0.08550
C         -2.81710       -0.23750       -0.01010
C         -3.39860       -1.51080        0.04970
C         -2.60210       -2.65570        0.12450
C         -1.20470       -2.55500        0.14130
C         -0.39170       -3.69360        0.21600
C          1.00000       -3.57630        0.23180
C          1.61240       -2.31750        0.17330
C          0.80660       -1.15930        0.09760
C          1.40930        0.11880        0.03790
C          0.60270        1.27810       -0.03790
C         -0.80660        1.15930       -0.05390
C         -1.40930       -0.11880        0.00580
C         -0.60270       -1.27810        0.08160
H          3.64490       -3.06190        0.24610
H          4.68750       -0.85090        0.14270
H          4.48050        1.62370        0.00520
H          3.08510        3.62920       -0.12590
H          0.83560        4.68560       -0.21900
H         -1.60240        4.48010       -0.24670
H         -3.64490        3.06200       -0.20230
H         -4.68750        0.85090       -0.09900
H         -4.48050       -1.62370        0.03850
H         -3.08510       -3.62930        0.16960
H         -0.83550       -4.68560        0.26270
H          1.60240       -4.48010        0.29040

