 Entering Gaussian System, Link 0=g16
 Initial command:
 /home/software/g16/l1.exe "/home/software/g16tmp/Gau-88645.inp" -scrdir="/home/software/g16tmp/"
 Default is to use a total of   8 processors:
                                8 via shared-memory
                                1 via Linda
 Entering Link 1 = /home/software/g16/l1.exe PID=     88646.
  
 Copyright (c) 1988-2019, Gaussian, Inc.  All Rights Reserved.
  
 This is part of the Gaussian(R) 16 program.  It is based on
 the Gaussian(R) 09 system (copyright 2009, Gaussian, Inc.),
 the Gaussian(R) 03 system (copyright 2003, Gaussian, Inc.),
 the Gaussian(R) 98 system (copyright 1998, Gaussian, Inc.),
 the Gaussian(R) 94 system (copyright 1995, Gaussian, Inc.),
 the Gaussian 92(TM) system (copyright 1992, Gaussian, Inc.),
 the Gaussian 90(TM) system (copyright 1990, Gaussian, Inc.),
 the Gaussian 88(TM) system (copyright 1988, Gaussian, Inc.),
 the Gaussian 86(TM) system (copyright 1986, Carnegie Mellon
 University), and the Gaussian 82(TM) system (copyright 1983,
 Carnegie Mellon University). Gaussian is a federally registered
 trademark of Gaussian, Inc.
  
 This software contains proprietary and confidential information,
 including trade secrets, belonging to Gaussian, Inc.
  
 This software is provided under written license and may be
 used, copied, transmitted, or stored only in accord with that
 written license.
  
 The following legend is applicable only to US Government
 contracts under FAR:
  
                    RESTRICTED RIGHTS LEGEND
  
 Use, reproduction and disclosure by the US Government is
 subject to restrictions as set forth in subparagraphs (a)
 and (c) of the Commercial Computer Software - Restricted
 Rights clause in FAR 52.227-19.
  
 Gaussian, Inc.
 340 Quinnipiac St., Bldg. 40, Wallingford CT 06492
  
  
 ---------------------------------------------------------------
 Warning -- This program may not be used in any manner that
 competes with the business of Gaussian, Inc. or will provide
 assistance to any competitor of Gaussian, Inc.  The licensee
 of this program is prohibited from giving any competitor of
 Gaussian, Inc. access to this program.  By using this program,
 the user acknowledges that Gaussian, Inc. is engaged in the
 business of creating and licensing software in the field of
 computational chemistry and represents and warrants to the
 licensee that it is not a competitor of Gaussian, Inc. and that
 it will not use this program in any manner prohibited above.
 ---------------------------------------------------------------
  

 Cite this work as:
 Gaussian 16, Revision C.01,
 M. J. Frisch, G. W. Trucks, H. B. Schlegel, G. E. Scuseria, 
 M. A. Robb, J. R. Cheeseman, G. Scalmani, V. Barone, 
 G. A. Petersson, H. Nakatsuji, X. Li, M. Caricato, A. V. Marenich, 
 J. Bloino, B. G. Janesko, R. Gomperts, B. Mennucci, H. P. Hratchian, 
 J. V. Ortiz, A. F. Izmaylov, J. L. Sonnenberg, D. Williams-Young, 
 F. Ding, F. Lipparini, F. Egidi, J. Goings, B. Peng, A. Petrone, 
 T. Henderson, D. Ranasinghe, V. G. Zakrzewski, J. Gao, N. Rega, 
 G. Zheng, W. Liang, M. Hada, M. Ehara, K. Toyota, R. Fukuda, 
 J. Hasegawa, M. Ishida, T. Nakajima, Y. Honda, O. Kitao, H. Nakai, 
 T. Vreven, K. Throssell, J. A. Montgomery, Jr., J. E. Peralta, 
 F. Ogliaro, M. J. Bearpark, J. J. Heyd, E. N. Brothers, K. N. Kudin, 
 V. N. Staroverov, T. A. Keith, R. Kobayashi, J. Normand, 
 K. Raghavachari, A. P. Rendell, J. C. Burant, S. S. Iyengar, 
 J. Tomasi, M. Cossi, J. M. Millam, M. Klene, C. Adamo, R. Cammi, 
 J. W. Ochterski, R. L. Martin, K. Morokuma, O. Farkas, 
 J. B. Foresman, and D. J. Fox, Gaussian, Inc., Wallingford CT, 2019.
 
 ******************************************
 Gaussian 16:  ES64L-G16RevC.01  3-Jul-2019
                19-Dec-2023 
 ******************************************
 %nprocshared=16
 Will use up to   16 processors via shared memory.
 %mem=320MB
 ----------------------------------------------------------------------
 #N opt freq B3LYP/def2SVPP symm=veryloose em=gd3bj scale=0.961 press=0
 .987
 ----------------------------------------------------------------------
 1/18=20,19=15,26=3,38=1,113=-987000,114=961000/1,3;
 2/9=110,12=2,17=2,18=2,40=1/2;
 3/5=43,7=202,11=2,25=1,30=1,71=1,74=-5,124=41/1,2,3;
 4//1;
 5/5=2,38=5/2;
 6/7=2,8=2,9=2,10=2,28=1/1;
 7//1,2,3,16;
 1/18=20,19=15,26=3/3(2);
 2/9=110/2;
 99//99;
 2/9=110/2;
 3/5=43,7=202,11=2,25=1,30=1,71=1,74=-5,124=41/1,2,3;
 4/5=5,16=3,69=1/1;
 5/5=2,38=5/2;
 7//1,2,3,16;
 1/18=20,19=15,26=3/3(-5);
 2/9=110/2;
 6/7=2,8=2,9=2,10=2,19=2,28=1/1;
 99/9=1/99;
 --------
 [CH]-2_1
 --------
 Symbolic Z-matrix:
 Charge =  0 Multiplicity = 2
 C                     0.88207   0.00779   0.01704 
 H                     1.99147   0.00779   0.01704 
 

 GradGradGradGradGradGradGradGradGradGradGradGradGradGradGradGradGradGrad
 Berny optimization.
 Initialization pass.
                           ----------------------------
                           !    Initial Parameters    !
                           ! (Angstroms and Degrees)  !
 --------------------------                            --------------------------
 ! Name  Definition              Value          Derivative Info.                !
 --------------------------------------------------------------------------------
 ! R1    R(1,2)                  1.1094         estimate D2E/DX2                !
 --------------------------------------------------------------------------------
 Trust Radius=3.00D-01 FncErr=1.00D-07 GrdErr=1.00D-06 EigMax=2.50D+02 EigMin=1.00D-04
 Number of steps in this run=     20 maximum allowed number of steps=    100.
 GradGradGradGradGradGradGradGradGradGradGradGradGradGradGradGradGradGrad

                          Input orientation:                          
 ---------------------------------------------------------------------
 Center     Atomic      Atomic             Coordinates (Angstroms)
 Number     Number       Type             X           Y           Z
 ---------------------------------------------------------------------
      1          6           0        0.882070    0.007790    0.017040
      2          1           0        1.991470    0.007790    0.017040
 ---------------------------------------------------------------------
 Stoichiometry    CH(2)
 Framework group  C*V[C*(HC)]
 Deg. of freedom     1
 Full point group                 C*V     NOp   4
 Largest Abelian subgroup         C2V     NOp   4
 Largest concise Abelian subgroup C1      NOp   1
                         Standard orientation:                         
 ---------------------------------------------------------------------
 Center     Atomic      Atomic             Coordinates (Angstroms)
 Number     Number       Type             X           Y           Z
 ---------------------------------------------------------------------
      1          6           0        0.000000    0.000000    0.158486
      2          1           0        0.000000    0.000000   -0.950914
 ---------------------------------------------------------------------
 Rotational constants (GHZ):           0.0000000         441.6509553         441.6509553
 Standard basis: def2SVPP (5D, 7F)
 There are    10 symmetry adapted cartesian basis functions of A1  symmetry.
 There are     1 symmetry adapted cartesian basis functions of A2  symmetry.
 There are     3 symmetry adapted cartesian basis functions of B1  symmetry.
 There are     3 symmetry adapted cartesian basis functions of B2  symmetry.
 There are     9 symmetry adapted basis functions of A1  symmetry.
 There are     1 symmetry adapted basis functions of A2  symmetry.
 There are     3 symmetry adapted basis functions of B1  symmetry.
 There are     3 symmetry adapted basis functions of B2  symmetry.
    16 basis functions,    29 primitive gaussians,    17 cartesian basis functions
     4 alpha electrons        3 beta electrons
       nuclear repulsion energy         2.8619643641 Hartrees.
 NAtoms=    2 NActive=    2 NUniq=    2 SFac= 1.00D+00 NAtFMM=   60 NAOKFM=F Big=F
 Integral buffers will be    131072 words long.
 Raffenetti 2 integral format.
 Two-electron integral symmetry is turned on.
 Nuclear repulsion after empirical dispersion term =        2.8615393372 Hartrees.
 One-electron integrals computed using PRISM.
 PrsmSu:  requested number of processors reduced to:  12 ShMem   1 Linda.
   4 Symmetry operations used in ECPInt.
 ECPInt:  NShTT=      36 NPrTT=     152 LenC2=      37 LenP2D=     150.
 LDataN:  DoStor=T MaxTD1= 4 Len=   56
 NBasis=    16 RedAO= T EigKep=  4.14D-02  NBF=     9     1     3     3
 NBsUse=    16 1.00D-06 EigRej= -1.00D+00 NBFU=     9     1     3     3
 ExpMin= 1.22D-01 ExpMax= 1.24D+03 ExpMxC= 1.86D+02 IAcc=3 IRadAn=         5 AccDes= 0.00D+00
 Harris functional with IExCor=  402 and IRadAn=       5 diagonalized for initial guess.
 HarFok:  IExCor=  402 AccDes= 0.00D+00 IRadAn=         5 IDoV= 1 UseB2=F ITyADJ=14
 ICtDFT=  3500011 ScaDFX=  1.000000  1.000000  1.000000  1.000000
 FoFCou: FMM=F IPFlag=           0 FMFlag=      100000 FMFlg1=           0
         NFxFlg=           0 DoJE=T BraDBF=F KetDBF=T FulRan=T
         wScrn=  0.000000 ICntrl=       500 IOpCl=  0 I1Cent=   200000004 NGrid=           0
         NMat0=    1 NMatS0=      1 NMatT0=    0 NMatD0=    1 NMtDS0=    0 NMtDT0=    0
 Petite list used in FoFCou.
 Initial guess orbital symmetries:
 Alpha Orbitals:
       Occupied  (SG) (SG) (SG) (PI)
       Virtual   (PI) (SG) (SG) (SG) (PI) (PI) (SG) (PI) (PI) (DLTA)
                 (DLTA) (SG)
 Beta  Orbitals:
       Occupied  (SG) (SG) (SG)
       Virtual   (PI) (PI) (SG) (SG) (SG) (PI) (PI) (SG) (PI) (PI)
                 (DLTA) (DLTA) (SG)
 Initial guess <Sx>= 0.0000 <Sy>= 0.0000 <Sz>= 0.5000 <S**2>= 0.7500 S= 0.5000
 Keep R1 and R2 ints in memory in symmetry-blocked form, NReq=13815781.
 Requested convergence on RMS density matrix=1.00D-08 within 128 cycles.
 Requested convergence on MAX density matrix=1.00D-06.
 Requested convergence on             energy=1.00D-06.
 No special actions if energy rises.
 Integral accuracy reduced to 1.0D-05 until final iterations.
 Initial convergence to 1.0D-05 achieved.  Increase integral accuracy.
 SCF Done:  E(UB3LYP) =  -38.4469304768     A.U. after   11 cycles
            NFock= 11  Conv=0.93D-08     -V/T= 2.0057
 <Sx>= 0.0000 <Sy>= 0.0000 <Sz>= 0.5000 <S**2>= 0.7522 S= 0.5011
 <L.S>=  0.00000000000    
 Annihilation of the first spin contaminant:
 S**2 before annihilation     0.7522,   after     0.7500

 **********************************************************************

            Population analysis using the SCF Density.

 **********************************************************************

 Orbital symmetries:
 Alpha Orbitals:
       Occupied  (SG) (SG) (SG) (?A)
       Virtual   (?A) (SG) (SG) (?A) (SG) (?A) (SG) (PI) (DLTA)
                 (PI) (DLTA) (SG)
 Beta  Orbitals:
       Occupied  (SG) (SG) (SG)
       Virtual   (PI) (PI) (SG) (SG) (SG) (PI) (PI) (SG) (PI) (PI)
                 (?A) (?A) (?A)
 Unable to determine electronic state:  an orbital has unidentified symmetry.
 Alpha  occ. eigenvalues --  -10.28053  -0.64656  -0.31939  -0.25692
 Alpha virt. eigenvalues --   -0.14371   0.08828   0.40036   0.45549   0.46518
 Alpha virt. eigenvalues --    0.48297   0.64169   1.63383   1.64089   1.64797
 Alpha virt. eigenvalues --    1.65268   2.02164
  Beta  occ. eigenvalues --  -10.26562  -0.60571  -0.29694
  Beta virt. eigenvalues --   -0.12537  -0.07699   0.09505   0.41932   0.47518
  Beta virt. eigenvalues --    0.49332   0.52929   0.65453   1.65620   1.70139
  Beta virt. eigenvalues --    1.72105   1.72250   2.05105
          Condensed to atoms (all electrons):
               1          2
     1  C    5.976553   0.139055
     2  H    0.139055   0.745336
          Atomic-Atomic Spin Densities.
               1          2
     1  C    1.046497  -0.010136
     2  H   -0.010136  -0.026225
 Mulliken charges and spin densities:
               1          2
     1  C   -0.115609   1.036361
     2  H    0.115609  -0.036361
 Sum of Mulliken charges =   0.00000   1.00000
 Mulliken charges and spin densities with hydrogens summed into heavy atoms:
               1          2
     1  C    0.000000   1.000000
 Electronic spatial extent (au):  <R**2>=             19.1559
 Charge=              0.0000 electrons
 Dipole moment (field-independent basis, Debye):
    X=              0.0000    Y=              0.0000    Z=             -1.5596  Tot=              1.5596
 Quadrupole moment (field-independent basis, Debye-Ang):
   XX=             -7.4738   YY=             -5.5162   ZZ=             -7.7083
   XY=              0.0000   XZ=              0.0000   YZ=              0.0000
 Traceless Quadrupole moment (field-independent basis, Debye-Ang):
   XX=             -0.5744   YY=              1.3832   ZZ=             -0.8088
   XY=              0.0000   XZ=              0.0000   YZ=              0.0000
 Octapole moment (field-independent basis, Debye-Ang**2):
  XXX=              0.0000  YYY=              0.0000  ZZZ=             -2.5120  XYY=              0.0000
  XXY=              0.0000  XXZ=             -0.8217  XZZ=              0.0000  YZZ=              0.0000
  YYZ=             -0.5296  XYZ=              0.0000
 Hexadecapole moment (field-independent basis, Debye-Ang**3):
 XXXX=             -8.6688 YYYY=             -5.0083 ZZZZ=            -14.9180 XXXY=              0.0000
 XXXZ=              0.0000 YYYX=              0.0000 YYYZ=              0.0000 ZZZX=              0.0000
 ZZZY=              0.0000 XXYY=             -2.2795 XXZZ=             -4.0205 YYZZ=             -3.3669
 XXYZ=              0.0000 YYXZ=              0.0000 ZZXY=              0.0000
 N-N= 2.861539337184D+00 E-N=-9.488821125245D+01  KE= 3.822857942604D+01
 Symmetry A1   KE= 3.698323048137D+01
 Symmetry A2   KE= 3.124317627979D-35
 Symmetry B1   KE= 1.245348944673D+00
 Symmetry B2   KE= 9.338621313002D-33
 Symmetry A1   SP=-1.092436687986D-14
 Symmetry A2   SP=-5.554291868622D-36
 Symmetry B1   SP= 1.000000000000D+00
 Symmetry B2   SP= 7.498798913309D-33
                          Isotropic Fermi Contact Couplings
        Atom                 a.u.       MegaHertz       Gauss      10(-4) cm-1
     1  C(13)              0.15979     179.63548      64.09841      59.91995
     2  H(1)              -0.00970     -43.35752     -15.47104     -14.46251
 --------------------------------------------------------
       Center         ----  Spin Dipole Couplings  ----
                      3XX-RR        3YY-RR        3ZZ-RR
 --------------------------------------------------------
     1   Atom        1.288014     -0.664194     -0.623820
     2   Atom       -0.009333     -0.073632      0.082965
 --------------------------------------------------------
                        XY            XZ            YZ
 --------------------------------------------------------
     1   Atom        0.000000      0.000000      0.000000
     2   Atom        0.000000      0.000000      0.000000
 --------------------------------------------------------


 ---------------------------------------------------------------------------------
              Anisotropic Spin Dipole Couplings in Principal Axis System
 ---------------------------------------------------------------------------------

       Atom             a.u.   MegaHertz   Gauss  10(-4) cm-1        Axes

              Baa    -0.6642   -89.129   -31.803   -29.730 -0.0000  1.0000  0.0000
     1 C(13)  Bbb    -0.6238   -83.711   -29.870   -27.923  0.0000  0.0000  1.0000
              Bcc     1.2880   172.839    61.673    57.653  1.0000  0.0000  0.0000
 
              Baa    -0.0736   -39.286   -14.018   -13.105 -0.0000  1.0000  0.0000
     2 H(1)   Bbb    -0.0093    -4.980    -1.777    -1.661  1.0000  0.0000  0.0000
              Bcc     0.0830    44.266    15.795    14.766  0.0000  0.0000  1.0000
 

 ---------------------------------------------------------------------------------

 PrsmSu:  requested number of processors reduced to:  12 ShMem   1 Linda.
   4 Symmetry operations used in ECPInt.
 ECPInt:  NShTT=      36 NPrTT=     152 LenC2=      37 LenP2D=     150.
 LDataN:  DoStor=T MaxTD1= 5 Len=  102
 Calling FoFJK, ICntrl=      2127 FMM=F ISym2X=1 I1Cent= 0 IOpClX= 1 NMat=1 NMatS=1 NMatT=0.
 ***** Axes restored to original set *****
 -------------------------------------------------------------------
 Center     Atomic                   Forces (Hartrees/Bohr)
 Number     Number              X              Y              Z
 -------------------------------------------------------------------
      1        6          -0.015972251   -0.000000000   -0.000000000
      2        1           0.015972251   -0.000000000   -0.000000000
 -------------------------------------------------------------------
 Cartesian Forces:  Max     0.015972251 RMS     0.009221583

 GradGradGradGradGradGradGradGradGradGradGradGradGradGradGradGradGradGrad
 Berny optimization.
 FormGI is forming the generalized inverse of G from B-inverse, IUseBI=4.
 Internal  Forces:  Max     0.015972251 RMS     0.015972251
 Search for a local minimum.
 Step number   1 out of a maximum of   20
 All quantities printed in internal units (Hartrees-Bohrs-Radians)
 Mixed Optimization -- RFO/linear search
 Second derivative matrix not updated -- first step.
 The second derivative matrix:
                          R1
           R1           0.32664
 ITU=  0
     Eigenvalues ---    0.32664
 RFO step:  Lambda=-7.79171514D-04 EMin= 3.26636288D-01
 Linear search not attempted -- first point.
 Iteration  1 RMS(Cart)=  0.03449467 RMS(Int)=  0.00000000
 Iteration  2 RMS(Cart)=  0.00000000 RMS(Int)=  0.00000000
 ClnCor:  largest displacement from symmetrization is 0.00D+00 for atom     0.
 Variable       Old X    -DE/DX   Delta X   Delta X   Delta X     New X
                                 (Linear)    (Quad)   (Total)
    R1        2.09646   0.01597   0.00000   0.04878   0.04878   2.14524
         Item               Value     Threshold  Converged?
 Maximum Force            0.015972     0.000450     NO 
 RMS     Force            0.015972     0.000300     NO 
 Maximum Displacement     0.024391     0.001800     NO 
 RMS     Displacement     0.034495     0.001200     NO 
 Predicted change in Energy=-3.905129D-04
 GradGradGradGradGradGradGradGradGradGradGradGradGradGradGradGradGradGrad

                          Input orientation:                          
 ---------------------------------------------------------------------
 Center     Atomic      Atomic             Coordinates (Angstroms)
 Number     Number       Type             X           Y           Z
 ---------------------------------------------------------------------
      1          6           0        0.869163    0.007790    0.017040
      2          1           0        2.004377    0.007790    0.017040
 ---------------------------------------------------------------------
 Stoichiometry    CH(2)
 Framework group  C*V[C*(HC)]
 Deg. of freedom     1
 Full point group                 C*V     NOp   4
 Largest Abelian subgroup         C2V     NOp   4
 Largest concise Abelian subgroup C1      NOp   1
                         Standard orientation:                         
 ---------------------------------------------------------------------
 Center     Atomic      Atomic             Coordinates (Angstroms)
 Number     Number       Type             X           Y           Z
 ---------------------------------------------------------------------
      1          6           0        0.000000    0.000000    0.162174
      2          1           0        0.000000    0.000000   -0.973041
 ---------------------------------------------------------------------
 Rotational constants (GHZ):           0.0000000         421.7930696         421.7930696
 Standard basis: def2SVPP (5D, 7F)
 There are    10 symmetry adapted cartesian basis functions of A1  symmetry.
 There are     1 symmetry adapted cartesian basis functions of A2  symmetry.
 There are     3 symmetry adapted cartesian basis functions of B1  symmetry.
 There are     3 symmetry adapted cartesian basis functions of B2  symmetry.
 There are     9 symmetry adapted basis functions of A1  symmetry.
 There are     1 symmetry adapted basis functions of A2  symmetry.
 There are     3 symmetry adapted basis functions of B1  symmetry.
 There are     3 symmetry adapted basis functions of B2  symmetry.
    16 basis functions,    29 primitive gaussians,    17 cartesian basis functions
     4 alpha electrons        3 beta electrons
       nuclear repulsion energy         2.7968833564 Hartrees.
 NAtoms=    2 NActive=    2 NUniq=    2 SFac= 1.00D+00 NAtFMM=   60 NAOKFM=F Big=F
 Integral buffers will be    131072 words long.
 Raffenetti 2 integral format.
 Two-electron integral symmetry is turned on.
 Nuclear repulsion after empirical dispersion term =        2.7964580898 Hartrees.
 One-electron integrals computed using PRISM.
 PrsmSu:  requested number of processors reduced to:  12 ShMem   1 Linda.
   4 Symmetry operations used in ECPInt.
 ECPInt:  NShTT=      36 NPrTT=     152 LenC2=      37 LenP2D=     150.
 LDataN:  DoStor=T MaxTD1= 4 Len=   56
 NBasis=    16 RedAO= T EigKep=  4.40D-02  NBF=     9     1     3     3
 NBsUse=    16 1.00D-06 EigRej= -1.00D+00 NBFU=     9     1     3     3
 Initial guess from the checkpoint file:  "/home/software/g16tmp/Gau-88646.chk"
 B after Tr=     0.000000    0.000000    0.000000
         Rot=    1.000000    0.000000    0.000000    0.000000 Ang=   0.00 deg.
 Initial guess orbital symmetries:
 Alpha Orbitals:
       Occupied  (SG) (SG) (SG) (?A)
       Virtual   (?A) (SG) (SG) (?A) (SG) (?A) (SG) (PI) (DLTA)
                 (PI) (DLTA) (SG)
 Beta  Orbitals:
       Occupied  (SG) (SG) (SG)
       Virtual   (PI) (PI) (SG) (SG) (SG) (PI) (PI) (SG) (PI) (PI)
                 (?A) (?A) (?A)
 Initial guess <Sx>= 0.0000 <Sy>= 0.0000 <Sz>= 0.5000 <S**2>= 0.7523 S= 0.5011
 ExpMin= 1.22D-01 ExpMax= 1.24D+03 ExpMxC= 1.86D+02 IAcc=3 IRadAn=         5 AccDes= 0.00D+00
 Harris functional with IExCor=  402 and IRadAn=       5 diagonalized for initial guess.
 HarFok:  IExCor=  402 AccDes= 0.00D+00 IRadAn=         5 IDoV= 1 UseB2=F ITyADJ=14
 ICtDFT=  3500011 ScaDFX=  1.000000  1.000000  1.000000  1.000000
 FoFCou: FMM=F IPFlag=           0 FMFlag=      100000 FMFlg1=           0
         NFxFlg=           0 DoJE=T BraDBF=F KetDBF=T FulRan=T
         wScrn=  0.000000 ICntrl=       500 IOpCl=  0 I1Cent=   200000004 NGrid=           0
         NMat0=    1 NMatS0=      1 NMatT0=    0 NMatD0=    1 NMtDS0=    0 NMtDT0=    0
 Petite list used in FoFCou.
 Keep R1 and R2 ints in memory in symmetry-blocked form, NReq=13815781.
 Requested convergence on RMS density matrix=1.00D-08 within 128 cycles.
 Requested convergence on MAX density matrix=1.00D-06.
 Requested convergence on             energy=1.00D-06.
 No special actions if energy rises.
 Integral accuracy reduced to 1.0D-05 until final iterations.
 Initial convergence to 1.0D-05 achieved.  Increase integral accuracy.
 SCF Done:  E(UB3LYP) =  -38.4473320150     A.U. after   10 cycles
            NFock= 10  Conv=0.79D-08     -V/T= 2.0064
 <Sx>= 0.0000 <Sy>= 0.0000 <Sz>= 0.5000 <S**2>= 0.7523 S= 0.5011
 <L.S>=  0.00000000000    
 Annihilation of the first spin contaminant:
 S**2 before annihilation     0.7523,   after     0.7500
 PrsmSu:  requested number of processors reduced to:  12 ShMem   1 Linda.
   4 Symmetry operations used in ECPInt.
 ECPInt:  NShTT=      36 NPrTT=     152 LenC2=      37 LenP2D=     150.
 LDataN:  DoStor=T MaxTD1= 5 Len=  102
 Calling FoFJK, ICntrl=      2127 FMM=F ISym2X=1 I1Cent= 0 IOpClX= 1 NMat=1 NMatS=1 NMatT=0.
 ***** Axes restored to original set *****
 -------------------------------------------------------------------
 Center     Atomic                   Forces (Hartrees/Bohr)
 Number     Number              X              Y              Z
 -------------------------------------------------------------------
      1        6          -0.000870354   -0.000000000   -0.000000000
      2        1           0.000870354   -0.000000000   -0.000000000
 -------------------------------------------------------------------
 Cartesian Forces:  Max     0.000870354 RMS     0.000502499

 GradGradGradGradGradGradGradGradGradGradGradGradGradGradGradGradGradGrad
 Berny optimization.
 Using GEDIIS/GDIIS optimizer.
 Internal  Forces:  Max     0.000870354 RMS     0.000870354
 Search for a local minimum.
 Step number   2 out of a maximum of   20
 All quantities printed in internal units (Hartrees-Bohrs-Radians)
 Mixed Optimization -- En-DIIS/RFO-DIIS
 Update second derivatives using D2CorX and points    1    2
 DE= -4.02D-04 DEPred=-3.91D-04 R= 1.03D+00
 TightC=F SS=  1.41D+00  RLast= 4.88D-02 DXNew= 5.0454D-01 1.4635D-01
 Trust test= 1.03D+00 RLast= 4.88D-02 DXMaxT set to 3.00D-01
 The second derivative matrix:
                          R1
           R1           0.30957
 ITU=  1  0
 Use linear search instead of GDIIS.
     Eigenvalues ---    0.30957
 RFO step:  Lambda= 0.00000000D+00 EMin= 3.09574051D-01
 Quartic linear search produced a step of  0.06259.
 Iteration  1 RMS(Cart)=  0.00215886 RMS(Int)=  0.00000000
 Iteration  2 RMS(Cart)=  0.00000000 RMS(Int)=  0.00000000
 ClnCor:  largest displacement from symmetrization is 0.00D+00 for atom     0.
 Variable       Old X    -DE/DX   Delta X   Delta X   Delta X     New X
                                 (Linear)    (Quad)   (Total)
    R1        2.14524   0.00087   0.00305   0.00000   0.00305   2.14830
         Item               Value     Threshold  Converged?
 Maximum Force            0.000870     0.000450     NO 
 RMS     Force            0.000870     0.000300     NO 
 Maximum Displacement     0.001527     0.001800     YES
 RMS     Displacement     0.002159     0.001200     NO 
 Predicted change in Energy=-1.214445D-06
 GradGradGradGradGradGradGradGradGradGradGradGradGradGradGradGradGradGrad

                          Input orientation:                          
 ---------------------------------------------------------------------
 Center     Atomic      Atomic             Coordinates (Angstroms)
 Number     Number       Type             X           Y           Z
 ---------------------------------------------------------------------
      1          6           0        0.868355    0.007790    0.017040
      2          1           0        2.005185    0.007790    0.017040
 ---------------------------------------------------------------------
 Stoichiometry    CH(2)
 Framework group  C*V[C*(HC)]
 Deg. of freedom     1
 Full point group                 C*V     NOp   4
 Largest Abelian subgroup         C2V     NOp   4
 Largest concise Abelian subgroup C1      NOp   1
                         Standard orientation:                         
 ---------------------------------------------------------------------
 Center     Atomic      Atomic             Coordinates (Angstroms)
 Number     Number       Type             X           Y           Z
 ---------------------------------------------------------------------
      1          6           0        0.000000    0.000000    0.162404
      2          1           0        0.000000    0.000000   -0.974426
 ---------------------------------------------------------------------
 Rotational constants (GHZ):           0.0000000         420.5950457         420.5950457
 Standard basis: def2SVPP (5D, 7F)
 There are    10 symmetry adapted cartesian basis functions of A1  symmetry.
 There are     1 symmetry adapted cartesian basis functions of A2  symmetry.
 There are     3 symmetry adapted cartesian basis functions of B1  symmetry.
 There are     3 symmetry adapted cartesian basis functions of B2  symmetry.
 There are     9 symmetry adapted basis functions of A1  symmetry.
 There are     1 symmetry adapted basis functions of A2  symmetry.
 There are     3 symmetry adapted basis functions of B1  symmetry.
 There are     3 symmetry adapted basis functions of B2  symmetry.
    16 basis functions,    29 primitive gaussians,    17 cartesian basis functions
     4 alpha electrons        3 beta electrons
       nuclear repulsion energy         2.7929085214 Hartrees.
 NAtoms=    2 NActive=    2 NUniq=    2 SFac= 1.00D+00 NAtFMM=   60 NAOKFM=F Big=F
 Integral buffers will be    131072 words long.
 Raffenetti 2 integral format.
 Two-electron integral symmetry is turned on.
 Nuclear repulsion after empirical dispersion term =        2.7924832354 Hartrees.
 One-electron integrals computed using PRISM.
 PrsmSu:  requested number of processors reduced to:  12 ShMem   1 Linda.
   4 Symmetry operations used in ECPInt.
 ECPInt:  NShTT=      36 NPrTT=     152 LenC2=      37 LenP2D=     150.
 LDataN:  DoStor=T MaxTD1= 4 Len=   56
 NBasis=    16 RedAO= T EigKep=  4.42D-02  NBF=     9     1     3     3
 NBsUse=    16 1.00D-06 EigRej= -1.00D+00 NBFU=     9     1     3     3
 Initial guess from the checkpoint file:  "/home/software/g16tmp/Gau-88646.chk"
 B after Tr=     0.000000    0.000000    0.000000
         Rot=    1.000000    0.000000    0.000000    0.000000 Ang=   0.00 deg.
 Initial guess orbital symmetries:
 Alpha Orbitals:
       Occupied  (SG) (SG) (SG) (?A)
       Virtual   (?A) (SG) (SG) (?A) (SG) (?A) (SG) (PI) (?B) (PI)
                 (?B) (?B)
 Beta  Orbitals:
       Occupied  (SG) (SG) (SG)
       Virtual   (PI) (PI) (SG) (SG) (SG) (PI) (PI) (SG) (PI) (PI)
                 (?A) (?A) (?A)
 Initial guess <Sx>= 0.0000 <Sy>= 0.0000 <Sz>= 0.5000 <S**2>= 0.7523 S= 0.5011
 Keep R1 and R2 ints in memory in symmetry-blocked form, NReq=13815781.
 Requested convergence on RMS density matrix=1.00D-08 within 128 cycles.
 Requested convergence on MAX density matrix=1.00D-06.
 Requested convergence on             energy=1.00D-06.
 No special actions if energy rises.
 SCF Done:  E(UB3LYP) =  -38.4473333403     A.U. after    7 cycles
            NFock=  7  Conv=0.76D-08     -V/T= 2.0064
 <Sx>= 0.0000 <Sy>= 0.0000 <Sz>= 0.5000 <S**2>= 0.7523 S= 0.5011
 <L.S>=  0.00000000000    
 Annihilation of the first spin contaminant:
 S**2 before annihilation     0.7523,   after     0.7500
 PrsmSu:  requested number of processors reduced to:  12 ShMem   1 Linda.
   4 Symmetry operations used in ECPInt.
 ECPInt:  NShTT=      36 NPrTT=     152 LenC2=      37 LenP2D=     150.
 LDataN:  DoStor=T MaxTD1= 5 Len=  102
 Calling FoFJK, ICntrl=      2127 FMM=F ISym2X=1 I1Cent= 0 IOpClX= 1 NMat=1 NMatS=1 NMatT=0.
 ***** Axes restored to original set *****
 -------------------------------------------------------------------
 Center     Atomic                   Forces (Hartrees/Bohr)
 Number     Number              X              Y              Z
 -------------------------------------------------------------------
      1        6           0.000000742   -0.000000000   -0.000000000
      2        1          -0.000000742   -0.000000000   -0.000000000
 -------------------------------------------------------------------
 Cartesian Forces:  Max     0.000000742 RMS     0.000000428

 GradGradGradGradGradGradGradGradGradGradGradGradGradGradGradGradGradGrad
 Berny optimization.
 Using GEDIIS/GDIIS optimizer.
 Internal  Forces:  Max     0.000000742 RMS     0.000000742
 Search for a local minimum.
 Step number   3 out of a maximum of   20
 All quantities printed in internal units (Hartrees-Bohrs-Radians)
 Mixed Optimization -- En-DIIS/RFO-DIIS
 Swapping is turned off.
 Update second derivatives using D2CorX and points    2    3
 DE= -1.33D-06 DEPred=-1.21D-06 R= 1.09D+00
 TightC=F SS=  1.41D+00  RLast= 3.05D-03 DXNew= 5.0454D-01 9.1593D-03
 Trust test= 1.09D+00 RLast= 3.05D-03 DXMaxT set to 3.00D-01
 The second derivative matrix:
                          R1
           R1           0.28532
 ITU=  1  1
     Eigenvalues ---    0.28532
 En-DIIS/RFO-DIIS/Sim-DIIS IScMMF=       -3 using points:     3    2
 RFO step:  Lambda=-1.92776350D-12.
 DidBck=F Rises=F RFO-DIIS coefs:    0.99915    0.00085
 Iteration  1 RMS(Cart)=  0.00000184 RMS(Int)=  0.00000000
 Iteration  2 RMS(Cart)=  0.00000000 RMS(Int)=  0.00000000
 ClnCor:  largest displacement from symmetrization is 0.00D+00 for atom     0.
 Variable       Old X    -DE/DX   Delta X   Delta X   Delta X     New X
                                 (Linear)    (Quad)   (Total)
    R1        2.14830  -0.00000  -0.00000  -0.00000  -0.00000   2.14830
         Item               Value     Threshold  Converged?
 Maximum Force            0.000001     0.000450     YES
 RMS     Force            0.000001     0.000300     YES
 Maximum Displacement     0.000001     0.001800     YES
 RMS     Displacement     0.000002     0.001200     YES
 Predicted change in Energy=-9.638820D-13
 Optimization completed.
    -- Stationary point found.
                           ----------------------------
                           !   Optimized Parameters   !
                           ! (Angstroms and Degrees)  !
 --------------------------                            --------------------------
 ! Name  Definition              Value          Derivative Info.                !
 --------------------------------------------------------------------------------
 ! R1    R(1,2)                  1.1368         -DE/DX =    0.0                 !
 --------------------------------------------------------------------------------
 GradGradGradGradGradGradGradGradGradGradGradGradGradGradGradGradGradGrad

                          Input orientation:                          
 ---------------------------------------------------------------------
 Center     Atomic      Atomic             Coordinates (Angstroms)
 Number     Number       Type             X           Y           Z
 ---------------------------------------------------------------------
      1          6           0        0.868355    0.007790    0.017040
      2          1           0        2.005185    0.007790    0.017040
 ---------------------------------------------------------------------
 Stoichiometry    CH(2)
 Framework group  C*V[C*(HC)]
 Deg. of freedom     1
 Full point group                 C*V     NOp   4
 Largest Abelian subgroup         C2V     NOp   4
 Largest concise Abelian subgroup C1      NOp   1
                         Standard orientation:                         
 ---------------------------------------------------------------------
 Center     Atomic      Atomic             Coordinates (Angstroms)
 Number     Number       Type             X           Y           Z
 ---------------------------------------------------------------------
      1          6           0        0.000000    0.000000    0.162404
      2          1           0        0.000000    0.000000   -0.974426
 ---------------------------------------------------------------------
 Rotational constants (GHZ):           0.0000000         420.5950457         420.5950457

 **********************************************************************

            Population analysis using the SCF Density.

 **********************************************************************

 Orbital symmetries:
 Alpha Orbitals:
       Occupied  (SG) (SG) (SG) (?A)
       Virtual   (?A) (SG) (SG) (?A) (SG) (?A) (SG) (PI) (?B) (PI)
                 (?B) (?B)
 Beta  Orbitals:
       Occupied  (SG) (SG) (SG)
       Virtual   (PI) (PI) (SG) (SG) (SG) (PI) (PI) (SG) (PI) (PI)
                 (?A) (?A) (?A)
 Unable to determine electronic state:  an orbital has unidentified symmetry.
 Alpha  occ. eigenvalues --  -10.28339  -0.64052  -0.31942  -0.25736
 Alpha virt. eigenvalues --   -0.14404   0.08340   0.39880   0.45474   0.46450
 Alpha virt. eigenvalues --    0.48221   0.62619   1.63522   1.64022   1.64963
 Alpha virt. eigenvalues --    1.65201   1.99907
  Beta  occ. eigenvalues --  -10.26844  -0.59910  -0.29753
  Beta virt. eigenvalues --   -0.12571  -0.07726   0.09062   0.41762   0.47403
  Beta virt. eigenvalues --    0.49253   0.52852   0.63868   1.65797   1.70319
  Beta virt. eigenvalues --    1.72024   1.72186   2.02888
          Condensed to atoms (all electrons):
               1          2
     1  C    5.969147   0.143031
     2  H    0.143031   0.744791
          Atomic-Atomic Spin Densities.
               1          2
     1  C    1.045447  -0.008866
     2  H   -0.008866  -0.027714
 Mulliken charges and spin densities:
               1          2
     1  C   -0.112178   1.036580
     2  H    0.112178  -0.036580
 Sum of Mulliken charges =   0.00000   1.00000
 Mulliken charges and spin densities with hydrogens summed into heavy atoms:
               1          2
     1  C    0.000000   1.000000
 Electronic spatial extent (au):  <R**2>=             19.3999
 Charge=              0.0000 electrons
 Dipole moment (field-independent basis, Debye):
    X=              0.0000    Y=              0.0000    Z=             -1.5097  Tot=              1.5097
 Quadrupole moment (field-independent basis, Debye-Ang):
   XX=             -7.4992   YY=             -5.5443   ZZ=             -7.7292
   XY=              0.0000   XZ=              0.0000   YZ=              0.0000
 Traceless Quadrupole moment (field-independent basis, Debye-Ang):
   XX=             -0.5750   YY=              1.3799   ZZ=             -0.8050
   XY=              0.0000   XZ=              0.0000   YZ=              0.0000
 Octapole moment (field-independent basis, Debye-Ang**2):
  XXX=              0.0000  YYY=              0.0000  ZZZ=             -2.4357  XYY=              0.0000
  XXY=              0.0000  XXZ=             -0.7853  XZZ=              0.0000  YZZ=              0.0000
  YYZ=             -0.4852  XYZ=              0.0000
 Hexadecapole moment (field-independent basis, Debye-Ang**3):
 XXXX=             -8.7002 YYYY=             -5.0482 ZZZZ=            -15.3187 XXXY=              0.0000
 XXXZ=              0.0000 YYYX=              0.0000 YYYZ=              0.0000 ZZZX=              0.0000
 ZZZY=              0.0000 XXYY=             -2.2913 XXZZ=             -4.1017 YYZZ=             -3.4471
 XXYZ=              0.0000 YYXZ=              0.0000 ZZXY=              0.0000
 N-N= 2.792483235404D+00 E-N=-9.473512575128D+01  KE= 3.820174871675D+01
 Symmetry A1   KE= 3.695489729880D+01
 Symmetry A2   KE= 3.145971766590D-35
 Symmetry B1   KE= 1.246851417949D+00
 Symmetry B2   KE= 9.349888057977D-33
 Symmetry A1   SP= 2.013959745500D-15
 Symmetry A2   SP=-5.585259603098D-36
 Symmetry B1   SP= 1.000000000000D+00
 Symmetry B2   SP= 7.498798913309D-33
                          Isotropic Fermi Contact Couplings
        Atom                 a.u.       MegaHertz       Gauss      10(-4) cm-1
     1  C(13)              0.16043     180.35257      64.35428      60.15914
     2  H(1)              -0.00986     -44.08390     -15.73023     -14.70481
 --------------------------------------------------------
       Center         ----  Spin Dipole Couplings  ----
                      3XX-RR        3YY-RR        3ZZ-RR
 --------------------------------------------------------
     1   Atom        1.289487     -0.666000     -0.623487
     2   Atom       -0.011062     -0.069878      0.080940
 --------------------------------------------------------
                        XY            XZ            YZ
 --------------------------------------------------------
     1   Atom        0.000000      0.000000      0.000000
     2   Atom        0.000000      0.000000      0.000000
 --------------------------------------------------------


 ---------------------------------------------------------------------------------
              Anisotropic Spin Dipole Couplings in Principal Axis System
 ---------------------------------------------------------------------------------

       Atom             a.u.   MegaHertz   Gauss  10(-4) cm-1        Axes

              Baa    -0.6660   -89.371   -31.890   -29.811 -0.0000  1.0000  0.0000
     1 C(13)  Bbb    -0.6235   -83.666   -29.854   -27.908  0.0000  0.0000  1.0000
              Bcc     1.2895   173.037    61.744    57.719  1.0000  0.0000  0.0000
 
              Baa    -0.0699   -37.283   -13.304   -12.436 -0.0000  1.0000  0.0000
     2 H(1)   Bbb    -0.0111    -5.902    -2.106    -1.969  1.0000  0.0000  0.0000
              Bcc     0.0809    43.186    15.410    14.405  0.0000  0.0000  1.0000
 

 ---------------------------------------------------------------------------------

 Unable to Open any file for archive entry.
 1\1\GINC-NODE02\FOpt\UB3LYP\def2SVPP\C1H1(2)\XUHJ\19-Dec-2023\0\\#N op
 t freq B3LYP/def2SVPP symm=veryloose em=gd3bj scale=0.961 press=0.987\
 \[CH]-2_1\\0,2\C,0.8683548082,0.00779,0.01704\H,2.0051851918,0.00779,0
 .01704\\Version=ES64L-G16RevC.01\HF=-38.4473333\S2=0.752287\S2-1=0.\S2
 A=0.750001\RMSD=7.588e-09\RMSF=4.282e-07\Dipole=0.5939648,0.,0.\Quadru
 pole=-0.5984662,1.0259527,-0.4274865,0.,0.,0.\PG=C*V [C*(H1C1)]\\@
 The archive entry for this job was punched.


 IF IT HAPPENS, IT MUST BE POSSIBLE.

 -- THE UNNAMED LAW FROM PAUL DICKSON'S 
    "THE OFFICIAL RULES"
 Job cpu time:       0 days  0 hours  0 minutes 55.5 seconds.
 Elapsed time:       0 days  0 hours  0 minutes  5.1 seconds.
 File lengths (MBytes):  RWF=     17 Int=      0 D2E=      0 Chk=      2 Scr=      2
 Normal termination of Gaussian 16 at Tue Dec 19 12:53:49 2023.
 Link1:  Proceeding to internal job step number  2.
 --------------------------------------------------------------------
 #N Geom=AllCheck Guess=TCheck SCRF=Check GenChk UB3LYP/def2SVPP Freq
 --------------------------------------------------------------------
 1/10=4,29=7,30=1,38=1,40=1,113=-987000,114=961000/1,3;
 2/12=2,17=2,18=2,40=1/2;
 3/5=43,7=202,11=2,14=-4,25=1,30=1,70=2,71=2,74=-5,116=2,124=41,140=1/1,2,3;
 4/5=101/1;
 5/5=2,38=6,98=1/2;
 8/6=4,10=90,11=11/1;
 11/6=1,8=1,9=11,15=111,16=1/1,2,10;
 10/6=1/2;
 6/7=2,8=2,9=2,10=2,28=1/1;
 7/8=1,10=1,25=1/1,2,3,16;
 1/10=4,30=1/3;
 99//99;
 Structure from the checkpoint file:  "/home/software/g16tmp/Gau-88646.chk"
 --------
 [CH]-2_1
 --------
 Charge =  0 Multiplicity = 2
 Redundant internal coordinates found in file.  (old form).
 C,0,0.8683548082,0.00779,0.01704
 H,0,2.0051851918,0.00779,0.01704
 Recover connectivity data from disk.

 GradGradGradGradGradGradGradGradGradGradGradGradGradGradGradGradGradGrad
 Berny optimization.
 Initialization pass.
                           ----------------------------
                           !    Initial Parameters    !
                           ! (Angstroms and Degrees)  !
 --------------------------                            --------------------------
 ! Name  Definition              Value          Derivative Info.                !
 --------------------------------------------------------------------------------
 ! R1    R(1,2)                  1.1368         calculate D2E/DX2 analytically  !
 --------------------------------------------------------------------------------
 Trust Radius=3.00D-01 FncErr=1.00D-07 GrdErr=1.00D-07 EigMax=2.50D+02 EigMin=1.00D-04
 Number of steps in this run=      2 maximum allowed number of steps=      2.
 GradGradGradGradGradGradGradGradGradGradGradGradGradGradGradGradGradGrad

                          Input orientation:                          
 ---------------------------------------------------------------------
 Center     Atomic      Atomic             Coordinates (Angstroms)
 Number     Number       Type             X           Y           Z
 ---------------------------------------------------------------------
      1          6           0        0.868355    0.007790    0.017040
      2          1           0        2.005185    0.007790    0.017040
 ---------------------------------------------------------------------
 Stoichiometry    CH(2)
 Framework group  C*V[C*(HC)]
 Deg. of freedom     1
 Full point group                 C*V     NOp   4
 Largest Abelian subgroup         C2V     NOp   4
 Largest concise Abelian subgroup C1      NOp   1
                         Standard orientation:                         
 ---------------------------------------------------------------------
 Center     Atomic      Atomic             Coordinates (Angstroms)
 Number     Number       Type             X           Y           Z
 ---------------------------------------------------------------------
      1          6           0        0.000000    0.000000    0.162404
      2          1           0        0.000000    0.000000   -0.974426
 ---------------------------------------------------------------------
 Rotational constants (GHZ):           0.0000000         420.5950457         420.5950457
 Standard basis: def2SVPP (5D, 7F)
 There are    10 symmetry adapted cartesian basis functions of A1  symmetry.
 There are     1 symmetry adapted cartesian basis functions of A2  symmetry.
 There are     3 symmetry adapted cartesian basis functions of B1  symmetry.
 There are     3 symmetry adapted cartesian basis functions of B2  symmetry.
 There are     9 symmetry adapted basis functions of A1  symmetry.
 There are     1 symmetry adapted basis functions of A2  symmetry.
 There are     3 symmetry adapted basis functions of B1  symmetry.
 There are     3 symmetry adapted basis functions of B2  symmetry.
    16 basis functions,    29 primitive gaussians,    17 cartesian basis functions
     4 alpha electrons        3 beta electrons
       nuclear repulsion energy         2.7929085214 Hartrees.
 NAtoms=    2 NActive=    2 NUniq=    2 SFac= 1.00D+00 NAtFMM=   60 NAOKFM=F Big=F
 Integral buffers will be    131072 words long.
 Raffenetti 2 integral format.
 Two-electron integral symmetry is turned on.
 Nuclear repulsion after empirical dispersion term =        2.7924832354 Hartrees.
 One-electron integrals computed using PRISM.
 PrsmSu:  requested number of processors reduced to:  12 ShMem   1 Linda.
   4 Symmetry operations used in ECPInt.
 ECPInt:  NShTT=      36 NPrTT=     152 LenC2=      37 LenP2D=     150.
 LDataN:  DoStor=T MaxTD1= 4 Len=   56
 NBasis=    16 RedAO= T EigKep=  4.42D-02  NBF=     9     1     3     3
 NBsUse=    16 1.00D-06 EigRej= -1.00D+00 NBFU=     9     1     3     3
 Initial guess from the checkpoint file:  "/home/software/g16tmp/Gau-88646.chk"
 B after Tr=     0.000000    0.000000    0.000000
         Rot=    1.000000    0.000000    0.000000    0.000000 Ang=   0.00 deg.
 Initial guess orbital symmetries:
 Alpha Orbitals:
       Occupied  (SG) (SG) (SG) (?A)
       Virtual   (?A) (SG) (SG) (?A) (SG) (?A) (SG) (PI) (?B) (PI)
                 (?B) (?B)
 Beta  Orbitals:
       Occupied  (SG) (SG) (SG)
       Virtual   (PI) (PI) (SG) (SG) (SG) (PI) (PI) (SG) (PI) (PI)
                 (?A) (?A) (?A)
 Initial guess <Sx>= 0.0000 <Sy>= 0.0000 <Sz>= 0.5000 <S**2>= 0.7523 S= 0.5011
 Keep R1 and R2 ints in memory in symmetry-blocked form, NReq=13815781.
 Requested convergence on RMS density matrix=1.00D-08 within 128 cycles.
 Requested convergence on MAX density matrix=1.00D-06.
 Requested convergence on             energy=1.00D-06.
 No special actions if energy rises.
 SCF Done:  E(UB3LYP) =  -38.4473333403     A.U. after    1 cycles
            NFock=  1  Conv=0.48D-09     -V/T= 2.0064
 <Sx>= 0.0000 <Sy>= 0.0000 <Sz>= 0.5000 <S**2>= 0.7523 S= 0.5011
 <L.S>=  0.00000000000    
 Annihilation of the first spin contaminant:
 S**2 before annihilation     0.7523,   after     0.7500
 DoSCS=F DFT=T ScalE2(SS,OS)=  1.000000  1.000000
 Range of M.O.s used for correlation:     1    16
 NBasis=    16 NAE=     4 NBE=     3 NFC=     0 NFV=     0
 NROrb=     16 NOA=     4 NOB=     3 NVA=    12 NVB=    13
 PrsmSu:  requested number of processors reduced to:  12 ShMem   1 Linda.
   4 Symmetry operations used in ECPInt.
 ECPInt:  NShTT=      36 NPrTT=     152 LenC2=      37 LenP2D=     150.
 LDataN:  DoStor=T MaxTD1= 5 Len=  102
 Symmetrizing basis deriv contribution to polar:
 IMax=3 JMax=2 DiffMx= 0.00D+00
 G2DrvN: will do     3 centers at a time, making    1 passes.
 Calling FoFCou, ICntrl=  3107 FMM=F I1Cent=   0 AccDes= 0.00D+00.
 End of G2Drv F.D. properties file   721 does not exist.
 End of G2Drv F.D. properties file   722 does not exist.
 End of G2Drv F.D. properties file   788 does not exist.
          IDoAtm=11
          Differentiating once with respect to electric field.
                with respect to dipole field.
          Differentiating once with respect to nuclear coordinates.
 Keep R1 and R2 ints in memory in symmetry-blocked form, NReq=13761669.
          There are     9 degrees of freedom in the 1st order CPHF.  IDoFFX=6 NUNeed=     3.
      6 vectors produced by pass  0 Test12= 9.67D-16 1.11D-08 XBig12= 2.18D+01 3.04D+00.
 AX will form     6 AO Fock derivatives at one time.
      6 vectors produced by pass  1 Test12= 9.67D-16 1.11D-08 XBig12= 9.81D-01 4.46D-01.
      6 vectors produced by pass  2 Test12= 9.67D-16 1.11D-08 XBig12= 7.42D-02 1.63D-01.
      6 vectors produced by pass  3 Test12= 9.67D-16 1.11D-08 XBig12= 4.43D-05 3.87D-03.
      6 vectors produced by pass  4 Test12= 9.67D-16 1.11D-08 XBig12= 7.27D-08 1.39D-04.
      6 vectors produced by pass  5 Test12= 9.67D-16 1.11D-08 XBig12= 2.80D-10 5.58D-06.
      4 vectors produced by pass  6 Test12= 9.67D-16 1.11D-08 XBig12= 1.70D-12 5.34D-07.
      1 vectors produced by pass  7 Test12= 9.67D-16 1.11D-08 XBig12= 1.71D-15 2.17D-08.
 InvSVY:  IOpt=1 It=  1 EMax= 1.13D-15
 Solved reduced A of dimension    41 with     6 vectors.
 Isotropic polarizability for W=    0.000000       12.98 Bohr**3.
 End of Minotr F.D. properties file   721 does not exist.
 End of Minotr F.D. properties file   722 does not exist.
 End of Minotr F.D. properties file   788 does not exist.

 **********************************************************************

            Population analysis using the SCF Density.

 **********************************************************************

 Orbital symmetries:
 Alpha Orbitals:
       Occupied  (SG) (SG) (SG) (?A)
       Virtual   (?A) (SG) (SG) (?A) (SG) (?A) (SG) (PI) (?B) (PI)
                 (?B) (?B)
 Beta  Orbitals:
       Occupied  (SG) (SG) (SG)
       Virtual   (PI) (PI) (SG) (SG) (SG) (PI) (PI) (SG) (PI) (PI)
                 (?A) (?A) (?A)
 Unable to determine electronic state:  an orbital has unidentified symmetry.
 Alpha  occ. eigenvalues --  -10.28339  -0.64052  -0.31942  -0.25736
 Alpha virt. eigenvalues --   -0.14404   0.08340   0.39880   0.45474   0.46450
 Alpha virt. eigenvalues --    0.48221   0.62619   1.63522   1.64022   1.64963
 Alpha virt. eigenvalues --    1.65201   1.99907
  Beta  occ. eigenvalues --  -10.26844  -0.59910  -0.29753
  Beta virt. eigenvalues --   -0.12571  -0.07726   0.09062   0.41762   0.47403
  Beta virt. eigenvalues --    0.49253   0.52852   0.63868   1.65797   1.70319
  Beta virt. eigenvalues --    1.72024   1.72186   2.02888
          Condensed to atoms (all electrons):
               1          2
     1  C    5.969147   0.143031
     2  H    0.143031   0.744791
          Atomic-Atomic Spin Densities.
               1          2
     1  C    1.045447  -0.008866
     2  H   -0.008866  -0.027714
 Mulliken charges and spin densities:
               1          2
     1  C   -0.112178   1.036580
     2  H    0.112178  -0.036580
 Sum of Mulliken charges =  -0.00000   1.00000
 Mulliken charges and spin densities with hydrogens summed into heavy atoms:
               1          2
     1  C   -0.000000   1.000000
 APT charges:
               1
     1  C   -0.055095
     2  H    0.055095
 Sum of APT charges =  -0.00000
 APT charges with hydrogens summed into heavy atoms:
               1
     1  C   -0.000000
 Electronic spatial extent (au):  <R**2>=             19.3999
 Charge=              0.0000 electrons
 Dipole moment (field-independent basis, Debye):
    X=              0.0000    Y=              0.0000    Z=             -1.5097  Tot=              1.5097
 Quadrupole moment (field-independent basis, Debye-Ang):
   XX=             -7.4992   YY=             -5.5443   ZZ=             -7.7292
   XY=              0.0000   XZ=              0.0000   YZ=              0.0000
 Traceless Quadrupole moment (field-independent basis, Debye-Ang):
   XX=             -0.5750   YY=              1.3799   ZZ=             -0.8050
   XY=              0.0000   XZ=              0.0000   YZ=              0.0000
 Octapole moment (field-independent basis, Debye-Ang**2):
  XXX=              0.0000  YYY=              0.0000  ZZZ=             -2.4357  XYY=              0.0000
  XXY=              0.0000  XXZ=             -0.7853  XZZ=              0.0000  YZZ=              0.0000
  YYZ=             -0.4852  XYZ=              0.0000
 Hexadecapole moment (field-independent basis, Debye-Ang**3):
 XXXX=             -8.7002 YYYY=             -5.0482 ZZZZ=            -15.3187 XXXY=              0.0000
 XXXZ=              0.0000 YYYX=              0.0000 YYYZ=              0.0000 ZZZX=              0.0000
 ZZZY=              0.0000 XXYY=             -2.2913 XXZZ=             -4.1017 YYZZ=             -3.4471
 XXYZ=              0.0000 YYXZ=              0.0000 ZZXY=              0.0000
 N-N= 2.792483235404D+00 E-N=-9.473512576415D+01  KE= 3.820174872462D+01
 Symmetry A1   KE= 3.695489730766D+01
 Symmetry A2   KE= 3.145971718243D-35
 Symmetry B1   KE= 1.246851416965D+00
 Symmetry B2   KE= 9.349888050594D-33
 Symmetry A1   SP=-3.745972716046D-15
 Symmetry A2   SP=-5.585259528267D-36
 Symmetry B1   SP= 1.000000000000D+00
 Symmetry B2   SP= 7.498798913309D-33
  Exact polarizability:       8.251       0.000      17.448       0.000       0.000      13.229
 Approx polarizability:       7.561      -0.000      11.983      -0.000      -0.000      15.562
                          Isotropic Fermi Contact Couplings
        Atom                 a.u.       MegaHertz       Gauss      10(-4) cm-1
     1  C(13)              0.16043     180.35255      64.35428      60.15914
     2  H(1)              -0.00986     -44.08391     -15.73024     -14.70481
 --------------------------------------------------------
       Center         ----  Spin Dipole Couplings  ----
                      3XX-RR        3YY-RR        3ZZ-RR
 --------------------------------------------------------
     1   Atom        1.289487     -0.666000     -0.623487
     2   Atom       -0.011062     -0.069878      0.080940
 --------------------------------------------------------
                        XY            XZ            YZ
 --------------------------------------------------------
     1   Atom        0.000000      0.000000      0.000000
     2   Atom        0.000000      0.000000      0.000000
 --------------------------------------------------------


 ---------------------------------------------------------------------------------
              Anisotropic Spin Dipole Couplings in Principal Axis System
 ---------------------------------------------------------------------------------

       Atom             a.u.   MegaHertz   Gauss  10(-4) cm-1        Axes

              Baa    -0.6660   -89.371   -31.890   -29.811 -0.0000  1.0000  0.0000
     1 C(13)  Bbb    -0.6235   -83.666   -29.854   -27.908  0.0000  0.0000  1.0000
              Bcc     1.2895   173.037    61.744    57.719  1.0000  0.0000  0.0000
 
              Baa    -0.0699   -37.283   -13.304   -12.436 -0.0000  1.0000  0.0000
     2 H(1)   Bbb    -0.0111    -5.902    -2.106    -1.969  1.0000  0.0000  0.0000
              Bcc     0.0809    43.186    15.410    14.405  0.0000  0.0000  1.0000
 

 ---------------------------------------------------------------------------------

 PrsmSu:  requested number of processors reduced to:  12 ShMem   1 Linda.
 PrsmSu:  requested number of processors reduced to:  12 ShMem   1 Linda.
   4 Symmetry operations used in ECPInt.
 ECPInt:  NShTT=      36 NPrTT=     152 LenC2=      37 LenP2D=     150.
 LDataN:  DoStor=T MaxTD1= 6 Len=  172
 Calling FoFJK, ICntrl=    100127 FMM=F ISym2X=1 I1Cent= 0 IOpClX= 1 NMat=1 NMatS=1 NMatT=0.
 CoulSu:  requested number of processors reduced to:  12 ShMem   1 Linda.
 Full mass-weighted force constant matrix:
 Low frequencies ---    0.0010    0.0011    0.0015   24.0047   32.4203 2840.8183
 Diagonal vibrational polarizability:
        0.0000000       0.0000000       0.5210903
 Harmonic frequencies (cm**-1), IR intensities (KM/Mole), Raman scattering
 activities (A**4/AMU), depolarization ratios for plane and unpolarized
 incident light, reduced masses (AMU), force constants (mDyne/A),
 and normal coordinates:
                      1
                     SG
 Frequencies --   2840.8183
 Red. masses --      1.0848
 Frc consts  --      5.1581
 IR Inten    --    156.2668
  Atom  AN      X      Y      Z
     1   6    -0.00  -0.00  -0.08
     2   1    -0.00  -0.00   1.00

 -------------------
 - Thermochemistry -
 -------------------
 Temperature   298.150 Kelvin.  Pressure   0.98700 Atm.
 Thermochemistry will use frequencies scaled by 0.9610.
 Atom     1 has atomic number  6 and mass  12.00000
 Atom     2 has atomic number  1 and mass   1.00783
 Molecular mass:    13.00783 amu.
 Principal axes and moments of inertia in atomic units:
                           1         2         3
     Eigenvalues --     0.00000   4.29092   4.29092
           X            0.00000  -0.00000   1.00000
           Y            0.00000   1.00000   0.00000
           Z            1.00000   0.00000   0.00000
 This molecule is a prolate symmetric top.
 Rotational symmetry number  1.
 Rotational temperature (Kelvin)     20.18538
 Rotational constant (GHZ):         420.595046
 Zero-point vibrational energy      16329.2 (Joules/Mol)
                                    3.90277 (Kcal/Mol)
 Vibrational temperatures:   3927.90
          (Kelvin)
 
 Zero-point correction=                           0.006219 (Hartree/Particle)
 Thermal correction to Energy=                    0.008580
 Thermal correction to Enthalpy=                  0.009524
 Thermal correction to Gibbs Free Energy=        -0.010612
 Sum of electronic and zero-point Energies=            -38.441114
 Sum of electronic and thermal Energies=               -38.438753
 Sum of electronic and thermal Enthalpies=             -38.437809
 Sum of electronic and thermal Free Energies=          -38.457945
 
                     E (Thermal)             CV                S
                      KCal/Mol        Cal/Mol-Kelvin    Cal/Mol-Kelvin
 Total                    5.384              4.969             42.380
 Electronic               0.000              0.000              1.377
 Translational            0.889              2.981             33.664
 Rotational               0.592              1.987              7.338
 Vibrational              3.903              0.001              0.000
                       Q            Log10(Q)             Ln(Q)
 Total Bot       0.760542D+05          4.881123         11.239201
 Total V=0       0.551915D+08          7.741872         17.826320
 Vib (Bot)       0.137801D-02         -2.860749         -6.587117
 Vib (V=0)       0.100000D+01          0.000001          0.000002
 Electronic      0.200000D+01          0.301030          0.693147
 Translational   0.186829D+07          6.271444         14.440533
 Rotational      0.147706D+02          1.169398          2.692638
 ***** Axes restored to original set *****
 -------------------------------------------------------------------
 Center     Atomic                   Forces (Hartrees/Bohr)
 Number     Number              X              Y              Z
 -------------------------------------------------------------------
      1        6           0.000000741   -0.000000000   -0.000000000
      2        1          -0.000000741   -0.000000000   -0.000000000
 -------------------------------------------------------------------
 Cartesian Forces:  Max     0.000000741 RMS     0.000000428
 FormGI is forming the generalized inverse of G from B-inverse, IUseBI=4.

 GradGradGradGradGradGradGradGradGradGradGradGradGradGradGradGradGradGrad
 Berny optimization.
 Internal  Forces:  Max     0.000000741 RMS     0.000000741
 Search for a local minimum.
 Step number   1 out of a maximum of    2
 All quantities printed in internal units (Hartrees-Bohrs-Radians)
 Second derivative matrix not updated -- analytic derivatives used.
 The second derivative matrix:
                          R1
           R1           0.28395
 ITU=  0
     Eigenvalues ---    0.28395
 Angle between quadratic step and forces=   0.00 degrees.
 Linear search not attempted -- first point.
 Iteration  1 RMS(Cart)=  0.00000185 RMS(Int)=  0.00000000
 Iteration  2 RMS(Cart)=  0.00000000 RMS(Int)=  0.00000000
 ClnCor:  largest displacement from symmetrization is 0.00D+00 for atom     0.
 Variable       Old X    -DE/DX   Delta X   Delta X   Delta X     New X
                                 (Linear)    (Quad)   (Total)
    R1        2.14830  -0.00000   0.00000  -0.00000  -0.00000   2.14830
         Item               Value     Threshold  Converged?
 Maximum Force            0.000001     0.000450     YES
 RMS     Force            0.000001     0.000300     YES
 Maximum Displacement     0.000001     0.001800     YES
 RMS     Displacement     0.000002     0.001200     YES
 Predicted change in Energy=-9.678027D-13
 Optimization completed.
    -- Stationary point found.
                           ----------------------------
                           !   Optimized Parameters   !
                           ! (Angstroms and Degrees)  !
 --------------------------                            --------------------------
 ! Name  Definition              Value          Derivative Info.                !
 --------------------------------------------------------------------------------
 ! R1    R(1,2)                  1.1368         -DE/DX =    0.0                 !
 --------------------------------------------------------------------------------
 GradGradGradGradGradGradGradGradGradGradGradGradGradGradGradGradGradGrad


 ----------------------------------------------------------------------

 Electric dipole moment (input orientation):
 (Debye = 10**-18 statcoulomb cm , SI units = C m)
                  (au)            (Debye)         (10**-30 SI)
   Tot        0.593965D+00      0.150971D+01      0.503584D+01
   x          0.593965D+00      0.150971D+01      0.503584D+01
   y          0.000000D+00      0.000000D+00      0.000000D+00
   z          0.000000D+00      0.000000D+00      0.000000D+00

 Dipole polarizability, Alpha (input orientation).
 (esu units = cm**3 , SI units = C**2 m**2 J**-1)
 Alpha(0;0):
               (au)            (10**-24 esu)      (10**-40 SI)
   iso        0.129760D+02      0.192285D+01      0.213946D+01
   aniso      0.797400D+01      0.118163D+01      0.131474D+01
   xx         0.132295D+02      0.196041D+01      0.218125D+01
   yx         0.000000D+00      0.000000D+00      0.000000D+00
   yy         0.174478D+02      0.258550D+01      0.287676D+01
   zx         0.000000D+00      0.000000D+00      0.000000D+00
   zy         0.000000D+00      0.000000D+00      0.000000D+00
   zz         0.825074D+01      0.122263D+01      0.136036D+01

 ----------------------------------------------------------------------

 Dipole orientation:
     6         -0.03220093          0.01472097          1.64095277
     1         -0.03220093          0.01472097          3.78925084

 Electric dipole moment (dipole orientation):
 (Debye = 10**-18 statcoulomb cm , SI units = C m)
                  (au)            (Debye)         (10**-30 SI)
   Tot        0.593965D+00      0.150971D+01      0.503584D+01
   x          0.000000D+00      0.000000D+00      0.000000D+00
   y          0.000000D+00      0.000000D+00      0.000000D+00
   z          0.593965D+00      0.150971D+01      0.503584D+01

 Dipole polarizability, Alpha (dipole orientation).
 (esu units = cm**3 , SI units = C**2 m**2 J**-1)
 Alpha(0;0):
               (au)            (10**-24 esu)      (10**-40 SI)
   iso        0.129760D+02      0.192285D+01      0.213946D+01
   aniso      0.797400D+01      0.118163D+01      0.131474D+01
   xx         0.825074D+01      0.122263D+01      0.136036D+01
   yx         0.000000D+00      0.000000D+00      0.000000D+00
   yy         0.174478D+02      0.258550D+01      0.287676D+01
   zx         0.000000D+00      0.000000D+00      0.000000D+00
   zy         0.000000D+00      0.000000D+00      0.000000D+00
   zz         0.132295D+02      0.196041D+01      0.218125D+01

 ----------------------------------------------------------------------
 Unable to Open any file for archive entry.
 1\1\GINC-NODE02\Freq\UB3LYP\def2SVPP\C1H1(2)\XUHJ\19-Dec-2023\0\\#N Ge
 om=AllCheck Guess=TCheck SCRF=Check GenChk UB3LYP/def2SVPP Freq\\[CH]-
 2_1\\0,2\C,0.8683548082,0.00779,0.01704\H,2.0051851918,0.00779,0.01704
 \\Version=ES64L-G16RevC.01\HF=-38.4473333\S2=0.752287\S2-1=0.\S2A=0.75
 0001\RMSD=4.819e-10\RMSF=4.280e-07\ZeroPoint=0.0062195\Thermal=0.00857
 99\ETot=-38.4387534\HTot=-38.4378092\GTot=-38.4579452\Dipole=0.5939648
 ,0.,0.\DipoleDeriv=0.3860456,0.,0.,0.,-0.2751209,0.,0.,0.,-0.2762089,-
 0.3860456,0.,0.,0.,0.2751209,0.,0.,0.,0.2762089\Polar=13.2294919,0.,17
 .4478479,0.,0.,8.2507369\Quadrupole=-0.5984662,1.0259527,-0.4274865,0.
 ,0.,0.\PG=C*V [C*(H1C1)]\NImag=0\\0.28394882,0.,0.00003698,0.,0.,0.000
 02027,-0.28394882,0.,0.,0.28394882,0.,-0.00003698,0.,0.,0.00003698,0.,
 0.,-0.00002027,0.,0.,0.00002027\\-0.00000074,0.,0.,0.00000074,0.,0.\\\
 @
 The archive entry for this job was punched.


 THERE ONCE WAS A GIRL NAMED IRENE,
 WHO LIVED ON DISTILLED KEROSENE,
      BUT SHE STARTED ABSORBIN'
      A NEW HYDROCARBON,
 AND SINCE THEN HAS NEVER BENZENE.
 Job cpu time:       0 days  0 hours  0 minutes 31.3 seconds.
 Elapsed time:       0 days  0 hours  0 minutes  2.8 seconds.
 File lengths (MBytes):  RWF=     17 Int=      0 D2E=      0 Chk=      2 Scr=      2
 Normal termination of Gaussian 16 at Tue Dec 19 12:53:53 2023.
