%nprocshared=16
%mem=1280MB
#N opt freq B3LYP/def2SVPP symm=veryloose em=gd3bj scale=0.961 press=0.987

C=CCC_1

0 1
C          1.42856        0.86705       -0.39293
C          2.28037       -0.04721        0.08033
C          3.05602        0.16783        1.35142
C          4.55411        0.11938        1.07482
H          0.88576        0.67643       -1.31305
H          1.26470        1.80630        0.12639
H          2.41669       -0.97525       -0.46757
H          2.78997       -0.63348        2.07308
H          2.80778        1.14961        1.81155
H          4.83646       -0.86535        0.64435
H          5.11278        0.26595        2.02322
H          4.83982        0.92439        0.36423

