%nprocshared=8
%mem=10400MB
#N opt freq B3LYP/def2SVPP symm=veryloose em=gd3bj scale=0.961 press=0.987

c1ccc2c(c1)ccc1cc3ccc4c5ccccc5ccc4c3cc12_2

0 1
C         -5.97430        2.15370       -0.17610
C         -4.74930        2.79530       -0.26870
C         -3.56590        2.05430       -0.18880
C         -3.56200        0.64650       -0.01370
C         -4.83100        0.01800        0.07770
C         -6.01360        0.77310       -0.00400
C         -4.91200       -1.36510        0.25060
C         -3.75940       -2.13960        0.33500
C         -2.49320       -1.55300        0.24880
C         -1.34940       -2.35780        0.33710
C         -0.05490       -1.82300        0.25710
C          1.04290       -2.67300        0.35140
C          2.34150       -2.17330        0.27570
C          2.61570       -0.80190        0.10220
C          3.96610       -0.28870        0.02430
C          5.14090       -1.08370        0.11100
C          6.42710       -0.53920        0.02980
C          6.58910        0.82560       -0.14170
C          5.46490        1.64010       -0.23130
C          4.16890        1.10030       -0.15060
C          3.07090        1.94850       -0.24470
C          1.77220        1.44680       -0.16880
C          1.49530        0.07440        0.00480
C          0.14330       -0.44120        0.08310
C         -1.04030        0.34880       -0.00290
C         -2.36770       -0.16010        0.07420
H         -6.89760        2.72300       -0.23740
H         -4.70660        3.87290       -0.40330
H         -2.63580        2.60920       -0.26760
H         -6.98390        0.28550        0.06680
H         -5.87870       -1.85890        0.32210
H         -3.86380       -3.21430        0.46980
H         -1.46970       -3.43230        0.47200
H          0.90630       -3.74420        0.48610
H          3.14310       -2.90120        0.35790
H          5.07820       -2.15940        0.24550
H          7.29630       -1.18770        0.10150
H          7.58400        1.25700       -0.20570
H          5.60810        2.71040       -0.36600
H          3.20740        3.01960       -0.37940
H          0.97260        2.17670       -0.25130
H         -0.92570        1.41790       -0.13710

