%nprocshared=16
%mem=5760MB
#N opt freq B3LYP/def2SVPP symm=veryloose em=gd3bj scale=0.961 press=0.987

c1ccc2c(c1)ccc1c3ccccc3ccc21_1

0 1
C          4.66541       -0.02064        0.20686
C          4.14736        1.25812        0.33368
C          2.77005        1.46555        0.20915
C          1.85787        0.40284       -0.01641
C          2.41263       -0.89655       -0.09102
C          3.80294       -1.09127       -0.01073
C          1.57008       -1.99506       -0.22842
C          0.18532       -1.83346       -0.20270
C         -0.42644       -0.56613       -0.10815
C         -1.85542       -0.39929       -0.01167
C         -2.77108       -1.46192        0.20484
C         -4.14790       -1.25070        0.33055
C         -4.66356        0.03023        0.21130
C         -3.79901        1.09826       -0.00896
C         -2.40983        0.89960       -0.09293
C         -1.56777        1.99767       -0.23532
C         -0.18320        1.83653       -0.20993
C          0.42862        0.56941       -0.11029
H          5.73451       -0.19043        0.29685
H          4.80660        2.09766        0.53915
H          2.41555        2.48467        0.34065
H          4.22368       -2.09058       -0.09472
H          1.97784       -2.99882       -0.31971
H         -0.41188       -2.73750       -0.28488
H         -2.41874       -2.48216        0.33047
H         -4.80874       -2.08932        0.53311
H         -5.73209        0.20227        0.30623
H         -4.21789        2.09945       -0.08800
H         -1.97449        3.00256       -0.32764
H          0.41476        2.73925       -0.29623

