%nprocshared=16
%mem=1280MB
#N opt freq B3LYP/def2SVPP symm=veryloose em=gd3bj scale=0.961 press=0.987

[CH2]CCC_1

0 2
C         -1.914026      -0.142908       0.016268
C         -0.535518       0.518454      -0.045855
H         -2.716510       0.599902      -0.029151
H         -2.039082      -0.712002       0.944427
H         -2.057796      -0.838708      -0.818051
C          0.620538      -0.491604       0.019471
H         -0.445672       1.105898      -0.967827
H         -0.431005       1.232727       0.781351
C          1.970850       0.135618      -0.003617
H          0.498328      -1.099352       0.936519
H          0.527271      -1.213554      -0.804797
H          2.847385      -0.431754      -0.294645
H          2.128179       1.123939       0.415671

