 Entering Gaussian System, Link 0=g16
 Initial command:
 /home/software/g16/l1.exe "/home/software/g16tmp/Gau-115238.inp" -scrdir="/home/software/g16tmp/"
 Default is to use a total of   8 processors:
                                8 via shared-memory
                                1 via Linda
 Entering Link 1 = /home/software/g16/l1.exe PID=    115239.
  
 Copyright (c) 1988-2019, Gaussian, Inc.  All Rights Reserved.
  
 This is part of the Gaussian(R) 16 program.  It is based on
 the Gaussian(R) 09 system (copyright 2009, Gaussian, Inc.),
 the Gaussian(R) 03 system (copyright 2003, Gaussian, Inc.),
 the Gaussian(R) 98 system (copyright 1998, Gaussian, Inc.),
 the Gaussian(R) 94 system (copyright 1995, Gaussian, Inc.),
 the Gaussian 92(TM) system (copyright 1992, Gaussian, Inc.),
 the Gaussian 90(TM) system (copyright 1990, Gaussian, Inc.),
 the Gaussian 88(TM) system (copyright 1988, Gaussian, Inc.),
 the Gaussian 86(TM) system (copyright 1986, Carnegie Mellon
 University), and the Gaussian 82(TM) system (copyright 1983,
 Carnegie Mellon University). Gaussian is a federally registered
 trademark of Gaussian, Inc.
  
 This software contains proprietary and confidential information,
 including trade secrets, belonging to Gaussian, Inc.
  
 This software is provided under written license and may be
 used, copied, transmitted, or stored only in accord with that
 written license.
  
 The following legend is applicable only to US Government
 contracts under FAR:
  
                    RESTRICTED RIGHTS LEGEND
  
 Use, reproduction and disclosure by the US Government is
 subject to restrictions as set forth in subparagraphs (a)
 and (c) of the Commercial Computer Software - Restricted
 Rights clause in FAR 52.227-19.
  
 Gaussian, Inc.
 340 Quinnipiac St., Bldg. 40, Wallingford CT 06492
  
  
 ---------------------------------------------------------------
 Warning -- This program may not be used in any manner that
 competes with the business of Gaussian, Inc. or will provide
 assistance to any competitor of Gaussian, Inc.  The licensee
 of this program is prohibited from giving any competitor of
 Gaussian, Inc. access to this program.  By using this program,
 the user acknowledges that Gaussian, Inc. is engaged in the
 business of creating and licensing software in the field of
 computational chemistry and represents and warrants to the
 licensee that it is not a competitor of Gaussian, Inc. and that
 it will not use this program in any manner prohibited above.
 ---------------------------------------------------------------
  

 Cite this work as:
 Gaussian 16, Revision C.01,
 M. J. Frisch, G. W. Trucks, H. B. Schlegel, G. E. Scuseria, 
 M. A. Robb, J. R. Cheeseman, G. Scalmani, V. Barone, 
 G. A. Petersson, H. Nakatsuji, X. Li, M. Caricato, A. V. Marenich, 
 J. Bloino, B. G. Janesko, R. Gomperts, B. Mennucci, H. P. Hratchian, 
 J. V. Ortiz, A. F. Izmaylov, J. L. Sonnenberg, D. Williams-Young, 
 F. Ding, F. Lipparini, F. Egidi, J. Goings, B. Peng, A. Petrone, 
 T. Henderson, D. Ranasinghe, V. G. Zakrzewski, J. Gao, N. Rega, 
 G. Zheng, W. Liang, M. Hada, M. Ehara, K. Toyota, R. Fukuda, 
 J. Hasegawa, M. Ishida, T. Nakajima, Y. Honda, O. Kitao, H. Nakai, 
 T. Vreven, K. Throssell, J. A. Montgomery, Jr., J. E. Peralta, 
 F. Ogliaro, M. J. Bearpark, J. J. Heyd, E. N. Brothers, K. N. Kudin, 
 V. N. Staroverov, T. A. Keith, R. Kobayashi, J. Normand, 
 K. Raghavachari, A. P. Rendell, J. C. Burant, S. S. Iyengar, 
 J. Tomasi, M. Cossi, J. M. Millam, M. Klene, C. Adamo, R. Cammi, 
 J. W. Ochterski, R. L. Martin, K. Morokuma, O. Farkas, 
 J. B. Foresman, and D. J. Fox, Gaussian, Inc., Wallingford CT, 2019.
 
 ******************************************
 Gaussian 16:  ES64L-G16RevC.01  3-Jul-2019
                19-Dec-2023 
 ******************************************
 %nprocshared=16
 Will use up to   16 processors via shared memory.
 %mem=640MB
 ----------------------------------------------------------------------
 #N opt freq B3LYP/def2SVPP symm=veryloose em=gd3bj scale=0.961 press=0
 .987
 ----------------------------------------------------------------------
 1/18=20,19=15,26=3,38=1,113=-987000,114=961000/1,3;
 2/9=110,12=2,17=2,18=2,40=1/2;
 3/5=43,7=202,11=2,25=1,30=1,71=1,74=-5,124=41/1,2,3;
 4//1;
 5/5=2,38=5/2;
 6/7=2,8=2,9=2,10=2,28=1/1;
 7//1,2,3,16;
 1/18=20,19=15,26=3/3(2);
 2/9=110/2;
 99//99;
 2/9=110/2;
 3/5=43,7=202,11=2,25=1,30=1,71=1,74=-5,124=41/1,2,3;
 4/5=5,16=3,69=1/1;
 5/5=2,38=5/2;
 7//1,2,3,16;
 1/18=20,19=15,26=3/3(-5);
 2/9=110/2;
 6/7=2,8=2,9=2,10=2,19=2,28=1/1;
 99/9=1/99;
 -----
 C=O_1
 -----
 Symbolic Z-matrix:
 Charge =  0 Multiplicity = 1
 C                     1.03601   0.08908   0.04344 
 O                     2.25546   0.08908   0.04344 
 H                     0.49377   0.82521   0.62657 
 H                     0.49377  -0.64705  -0.53969 
 

 GradGradGradGradGradGradGradGradGradGradGradGradGradGradGradGradGradGrad
 Berny optimization.
 Initialization pass.
                           ----------------------------
                           !    Initial Parameters    !
                           ! (Angstroms and Degrees)  !
 --------------------------                            --------------------------
 ! Name  Definition              Value          Derivative Info.                !
 --------------------------------------------------------------------------------
 ! R1    R(1,2)                  1.2195         estimate D2E/DX2                !
 ! R2    R(1,3)                  1.0844         estimate D2E/DX2                !
 ! R3    R(1,4)                  1.0844         estimate D2E/DX2                !
 ! A1    A(2,1,3)              120.002          estimate D2E/DX2                !
 ! A2    A(2,1,4)              120.002          estimate D2E/DX2                !
 ! A3    A(3,1,4)              119.9959         estimate D2E/DX2                !
 ! D1    D(2,1,4,3)            180.0            estimate D2E/DX2                !
 --------------------------------------------------------------------------------
 Trust Radius=3.00D-01 FncErr=1.00D-07 GrdErr=1.00D-06 EigMax=2.50D+02 EigMin=1.00D-04
 Number of steps in this run=     20 maximum allowed number of steps=    100.
 GradGradGradGradGradGradGradGradGradGradGradGradGradGradGradGradGradGrad

                          Input orientation:                          
 ---------------------------------------------------------------------
 Center     Atomic      Atomic             Coordinates (Angstroms)
 Number     Number       Type             X           Y           Z
 ---------------------------------------------------------------------
      1          6           0        1.036010    0.089080    0.043440
      2          8           0        2.255460    0.089080    0.043440
      3          1           0        0.493770    0.825210    0.626570
      4          1           0        0.493770   -0.647050   -0.539690
 ---------------------------------------------------------------------
                    Distance matrix (angstroms):
                    1          2          3          4
     1  C    0.000000
     2  O    1.219450   0.000000
     3  H    1.084413   1.996367   0.000000
     4  H    1.084413   1.996367   1.878220   0.000000
 Stoichiometry    CH2O
 Framework group  C2V[C2(CO),SGV(H2)]
 Deg. of freedom     3
 Full point group                 C2V     NOp   4
 Largest Abelian subgroup         C2V     NOp   4
 Largest concise Abelian subgroup C2      NOp   2
                         Standard orientation:                         
 ---------------------------------------------------------------------
 Center     Atomic      Atomic             Coordinates (Angstroms)
 Number     Number       Type             X           Y           Z
 ---------------------------------------------------------------------
      1          6           0        0.000000   -0.000000   -0.541945
      2          8           0       -0.000000    0.000000    0.677505
      3          1           0       -0.000000    0.939110   -1.084185
      4          1           0       -0.000000   -0.939110   -1.084185
 ---------------------------------------------------------------------
 Rotational constants (GHZ):         284.2948174          38.6319259          34.0103647
 Standard basis: def2SVPP (5D, 7F)
 There are    18 symmetry adapted cartesian basis functions of A1  symmetry.
 There are     2 symmetry adapted cartesian basis functions of A2  symmetry.
 There are     6 symmetry adapted cartesian basis functions of B1  symmetry.
 There are     8 symmetry adapted cartesian basis functions of B2  symmetry.
 There are    16 symmetry adapted basis functions of A1  symmetry.
 There are     2 symmetry adapted basis functions of A2  symmetry.
 There are     6 symmetry adapted basis functions of B1  symmetry.
 There are     8 symmetry adapted basis functions of B2  symmetry.
    32 basis functions,    58 primitive gaussians,    34 cartesian basis functions
     8 alpha electrons        8 beta electrons
       nuclear repulsion energy        31.2081614555 Hartrees.
 NAtoms=    4 NActive=    4 NUniq=    3 SFac= 1.78D+00 NAtFMM=   60 NAOKFM=F Big=F
 Integral buffers will be    131072 words long.
 Raffenetti 2 integral format.
 Two-electron integral symmetry is turned on.
 Nuclear repulsion after empirical dispersion term =       31.2063257212 Hartrees.
 One-electron integrals computed using PRISM.
   4 Symmetry operations used in ECPInt.
 ECPInt:  NShTT=     136 NPrTT=     560 LenC2=     137 LenP2D=     528.
 LDataN:  DoStor=T MaxTD1= 4 Len=   56
 NBasis=    32 RedAO= T EigKep=  1.93D-02  NBF=    16     2     6     8
 NBsUse=    32 1.00D-06 EigRej= -1.00D+00 NBFU=    16     2     6     8
 ExpMin= 1.22D-01 ExpMax= 2.27D+03 ExpMxC= 3.41D+02 IAcc=3 IRadAn=         5 AccDes= 0.00D+00
 Harris functional with IExCor=  402 and IRadAn=       5 diagonalized for initial guess.
 HarFok:  IExCor=  402 AccDes= 0.00D+00 IRadAn=         5 IDoV= 1 UseB2=F ITyADJ=14
 ICtDFT=  3500011 ScaDFX=  1.000000  1.000000  1.000000  1.000000
 FoFCou: FMM=F IPFlag=           0 FMFlag=      100000 FMFlg1=           0
         NFxFlg=           0 DoJE=T BraDBF=F KetDBF=T FulRan=T
         wScrn=  0.000000 ICntrl=       500 IOpCl=  0 I1Cent=   200000004 NGrid=           0
         NMat0=    1 NMatS0=      1 NMatT0=    0 NMatD0=    1 NMtDS0=    0 NMtDT0=    0
 Petite list used in FoFCou.
 Initial guess orbital symmetries:
       Occupied  (A1) (A1) (A1) (A1) (B2) (A1) (B1) (B2)
       Virtual   (B1) (A1) (B2) (A1) (A1) (B1) (B2) (A1) (B2) (A1)
                 (A1) (B1) (B2) (A1) (A2) (B1) (B2) (A1) (A1) (A2)
                 (A1) (B1) (B2) (A1)
 The electronic state of the initial guess is 1-A1.
 Keep R1 ints in memory in symmetry-blocked form, NReq=13965238.
 Requested convergence on RMS density matrix=1.00D-08 within 128 cycles.
 Requested convergence on MAX density matrix=1.00D-06.
 Requested convergence on             energy=1.00D-06.
 No special actions if energy rises.
 Integral accuracy reduced to 1.0D-05 until final iterations.
 Initial convergence to 1.0D-05 achieved.  Increase integral accuracy.
 SCF Done:  E(RB3LYP) =  -114.410717050     A.U. after   11 cycles
            NFock= 11  Conv=0.71D-08     -V/T= 2.0075

 **********************************************************************

            Population analysis using the SCF Density.

 **********************************************************************

 Orbital symmetries:
       Occupied  (A1) (A1) (A1) (A1) (B2) (A1) (B1) (B2)
       Virtual   (B1) (A1) (B2) (A1) (A1) (B1) (B2) (A1) (B2) (A1)
                 (A1) (B1) (B2) (A1) (A2) (B1) (A1) (B2) (A1) (A2)
                 (A1) (B1) (B2) (A1)
 The electronic state is 1-A1.
 Alpha  occ. eigenvalues --  -19.14904 -10.27832  -1.04023  -0.63504  -0.50633
 Alpha  occ. eigenvalues --   -0.44476  -0.39752  -0.27037
 Alpha virt. eigenvalues --   -0.04933   0.07324   0.13264   0.19670   0.42222
 Alpha virt. eigenvalues --    0.45440   0.57433   0.61245   0.65753   0.65839
 Alpha virt. eigenvalues --    0.89835   0.99387   1.10208   1.29422   1.58264
 Alpha virt. eigenvalues --    1.62890   1.90901   1.93785   2.24023   2.65124
 Alpha virt. eigenvalues --    2.67432   3.09237   3.13115   3.53055
          Condensed to atoms (all electrons):
               1          2          3          4
     1  C    4.651488   0.620719   0.346227   0.346227
     2  O    0.620719   7.701084  -0.051200  -0.051200
     3  H    0.346227  -0.051200   0.712390  -0.099450
     4  H    0.346227  -0.051200  -0.099450   0.712390
 Mulliken charges:
               1
     1  C    0.035338
     2  O   -0.219403
     3  H    0.092032
     4  H    0.092032
 Sum of Mulliken charges =  -0.00000
 Mulliken charges with hydrogens summed into heavy atoms:
               1
     1  C    0.219403
     2  O   -0.219403
 Electronic spatial extent (au):  <R**2>=             60.0287
 Charge=             -0.0000 electrons
 Dipole moment (field-independent basis, Debye):
    X=             -0.0000    Y=              0.0000    Z=             -2.2463  Tot=              2.2463
 Quadrupole moment (field-independent basis, Debye-Ang):
   XX=            -11.3935   YY=            -11.4183   ZZ=            -12.0626
   XY=              0.0000   XZ=              0.0000   YZ=             -0.0000
 Traceless Quadrupole moment (field-independent basis, Debye-Ang):
   XX=              0.2313   YY=              0.2065   ZZ=             -0.4378
   XY=              0.0000   XZ=              0.0000   YZ=             -0.0000
 Octapole moment (field-independent basis, Debye-Ang**2):
  XXX=              0.0000  YYY=             -0.0000  ZZZ=              1.1693  XYY=              0.0000
  XXY=             -0.0000  XXZ=              0.8698  XZZ=              0.0000  YZZ=              0.0000
  YYZ=              0.0365  XYZ=             -0.0000
 Hexadecapole moment (field-independent basis, Debye-Ang**3):
 XXXX=             -9.3890 YYYY=            -17.6423 ZZZZ=            -44.0197 XXXY=             -0.0000
 XXXZ=             -0.0000 YYYX=             -0.0000 YYYZ=              0.0000 ZZZX=             -0.0000
 ZZZY=              0.0000 XXYY=             -4.7015 XXZZ=             -8.7893 YYZZ=            -10.1009
 XXYZ=              0.0000 YYXZ=             -0.0000 ZZXY=             -0.0000
 N-N= 3.120632572121D+01 E-N=-3.307981708957D+02  KE= 1.135554990466D+02
 Symmetry A1   KE= 1.031254400697D+02
 Symmetry A2   KE= 3.379844201490D-34
 Symmetry B1   KE= 3.617401504383D+00
 Symmetry B2   KE= 6.812657472521D+00
   4 Symmetry operations used in ECPInt.
 ECPInt:  NShTT=     136 NPrTT=     560 LenC2=     137 LenP2D=     528.
 LDataN:  DoStor=T MaxTD1= 5 Len=  102
 Calling FoFJK, ICntrl=      2127 FMM=F ISym2X=1 I1Cent= 0 IOpClX= 0 NMat=1 NMatS=1 NMatT=0.
 ***** Axes restored to original set *****
 -------------------------------------------------------------------
 Center     Atomic                   Forces (Hartrees/Bohr)
 Number     Number              X              Y              Z
 -------------------------------------------------------------------
      1        6           0.056610868   -0.000000000   -0.000000000
      2        8          -0.023247811   -0.000000000   -0.000000000
      3        1          -0.016681528    0.012736119    0.010088996
      4        1          -0.016681528   -0.012736119   -0.010088996
 -------------------------------------------------------------------
 Cartesian Forces:  Max     0.056610868 RMS     0.020061969

 GradGradGradGradGradGradGradGradGradGradGradGradGradGradGradGradGradGrad
 Berny optimization.
 FormGI is forming the generalized inverse of G from B-inverse, IUseBI=4.
 Internal  Forces:  Max     0.023247811 RMS     0.015385324
 Search for a local minimum.
 Step number   1 out of a maximum of   20
 All quantities printed in internal units (Hartrees-Bohrs-Radians)
 Mixed Optimization -- RFO/linear search
 Second derivative matrix not updated -- first step.
 The second derivative matrix:
                          R1        R2        R3        A1        A2
           R1           0.95627
           R2           0.00000   0.35466
           R3           0.00000   0.00000   0.35466
           A1           0.00000   0.00000   0.00000   0.16000
           A2           0.00000   0.00000   0.00000   0.00000   0.16000
           A3           0.00000   0.00000   0.00000   0.00000   0.00000
           D1           0.00000   0.00000   0.00000   0.00000   0.00000
                          A3        D1
           A3           0.16000
           D1           0.00000   0.00309
 ITU=  0
     Eigenvalues ---    0.00309   0.16000   0.16000   0.35466   0.35466
     Eigenvalues ---    0.95627
 RFO step:  Lambda=-4.04548123D-03 EMin= 3.08731538D-03
 Linear search not attempted -- first point.
 Iteration  1 RMS(Cart)=  0.02952557 RMS(Int)=  0.00081424
 Iteration  2 RMS(Cart)=  0.00087254 RMS(Int)=  0.00000042
 Iteration  3 RMS(Cart)=  0.00000034 RMS(Int)=  0.00000001
 ClnCor:  largest displacement from symmetrization is 1.74D-09 for atom     1.
 Variable       Old X    -DE/DX   Delta X   Delta X   Delta X     New X
                                 (Linear)    (Quad)   (Total)
    R1        2.30443  -0.02325   0.00000  -0.02421  -0.02421   2.28022
    R2        2.04924   0.02241   0.00000   0.06248   0.06248   2.11172
    R3        2.04924   0.02241   0.00000   0.06248   0.06248   2.11172
    A1        2.09443   0.00432   0.00000   0.02632   0.02632   2.12075
    A2        2.09443   0.00432   0.00000   0.02632   0.02632   2.12075
    A3        2.09432  -0.00864   0.00000  -0.05265  -0.05265   2.04168
    D1        3.14159   0.00000   0.00000   0.00000  -0.00000   3.14159
         Item               Value     Threshold  Converged?
 Maximum Force            0.023248     0.000450     NO 
 RMS     Force            0.015385     0.000300     NO 
 Maximum Displacement     0.045558     0.001800     NO 
 RMS     Displacement     0.029492     0.001200     NO 
 Predicted change in Energy=-2.048125D-03
 GradGradGradGradGradGradGradGradGradGradGradGradGradGradGradGradGradGrad

                          Input orientation:                          
 ---------------------------------------------------------------------
 Center     Atomic      Atomic             Coordinates (Angstroms)
 Number     Number       Type             X           Y           Z
 ---------------------------------------------------------------------
      1          6           0        1.060118    0.089080    0.043440
      2          8           0        2.266758    0.089080    0.043440
      3          1           0        0.476067    0.835863    0.635009
      4          1           0        0.476067   -0.657703   -0.548129
 ---------------------------------------------------------------------
                    Distance matrix (angstroms):
                    1          2          3          4
     1  C    0.000000
     2  O    1.206639   0.000000
     3  H    1.117476   2.028351   0.000000
     4  H    1.117476   2.028351   1.905401   0.000000
 Stoichiometry    CH2O
 Framework group  C2V[C2(CO),SGV(H2)]
 Deg. of freedom     3
 Full point group                 C2V     NOp   4
 Largest Abelian subgroup         C2V     NOp   4
 Largest concise Abelian subgroup C2      NOp   2
                         Standard orientation:                         
 ---------------------------------------------------------------------
 Center     Atomic      Atomic             Coordinates (Angstroms)
 Number     Number       Type             X           Y           Z
 ---------------------------------------------------------------------
      1          6           0       -0.000000   -0.000000   -0.530313
      2          8           0        0.000000    0.000000    0.676326
      3          1           0       -0.000000    0.952700   -1.114364
      4          1           0       -0.000000   -0.952700   -1.114364
 ---------------------------------------------------------------------
 Rotational constants (GHZ):         276.2418261          38.7805853          34.0065320
 Standard basis: def2SVPP (5D, 7F)
 There are    18 symmetry adapted cartesian basis functions of A1  symmetry.
 There are     2 symmetry adapted cartesian basis functions of A2  symmetry.
 There are     6 symmetry adapted cartesian basis functions of B1  symmetry.
 There are     8 symmetry adapted cartesian basis functions of B2  symmetry.
 There are    16 symmetry adapted basis functions of A1  symmetry.
 There are     2 symmetry adapted basis functions of A2  symmetry.
 There are     6 symmetry adapted basis functions of B1  symmetry.
 There are     8 symmetry adapted basis functions of B2  symmetry.
    32 basis functions,    58 primitive gaussians,    34 cartesian basis functions
     8 alpha electrons        8 beta electrons
       nuclear repulsion energy        31.1851477306 Hartrees.
 NAtoms=    4 NActive=    4 NUniq=    3 SFac= 1.78D+00 NAtFMM=   60 NAOKFM=F Big=F
 Integral buffers will be    131072 words long.
 Raffenetti 2 integral format.
 Two-electron integral symmetry is turned on.
 Nuclear repulsion after empirical dispersion term =       31.1833136267 Hartrees.
 One-electron integrals computed using PRISM.
   4 Symmetry operations used in ECPInt.
 ECPInt:  NShTT=     136 NPrTT=     560 LenC2=     137 LenP2D=     526.
 LDataN:  DoStor=T MaxTD1= 4 Len=   56
 NBasis=    32 RedAO= T EigKep=  1.98D-02  NBF=    16     2     6     8
 NBsUse=    32 1.00D-06 EigRej= -1.00D+00 NBFU=    16     2     6     8
 Initial guess from the checkpoint file:  "/home/software/g16tmp/Gau-115239.chk"
 B after Tr=     0.000000    0.000000   -0.000000
         Rot=    1.000000   -0.000000   -0.000000    0.000000 Ang=   0.00 deg.
 Initial guess orbital symmetries:
       Occupied  (A1) (A1) (A1) (A1) (B2) (A1) (B1) (B2)
       Virtual   (B1) (A1) (B2) (A1) (A1) (B1) (B2) (A1) (B2) (A1)
                 (A1) (B1) (B2) (A1) (A2) (B1) (A1) (B2) (A1) (A2)
                 (A1) (B1) (B2) (A1)
 ExpMin= 1.22D-01 ExpMax= 2.27D+03 ExpMxC= 3.41D+02 IAcc=3 IRadAn=         5 AccDes= 0.00D+00
 Harris functional with IExCor=  402 and IRadAn=       5 diagonalized for initial guess.
 HarFok:  IExCor=  402 AccDes= 0.00D+00 IRadAn=         5 IDoV= 1 UseB2=F ITyADJ=14
 ICtDFT=  3500011 ScaDFX=  1.000000  1.000000  1.000000  1.000000
 FoFCou: FMM=F IPFlag=           0 FMFlag=      100000 FMFlg1=           0
         NFxFlg=           0 DoJE=T BraDBF=F KetDBF=T FulRan=T
         wScrn=  0.000000 ICntrl=       500 IOpCl=  0 I1Cent=   200000004 NGrid=           0
         NMat0=    1 NMatS0=      1 NMatT0=    0 NMatD0=    1 NMtDS0=    0 NMtDT0=    0
 Petite list used in FoFCou.
 Keep R1 ints in memory in symmetry-blocked form, NReq=13965238.
 Requested convergence on RMS density matrix=1.00D-08 within 128 cycles.
 Requested convergence on MAX density matrix=1.00D-06.
 Requested convergence on             energy=1.00D-06.
 No special actions if energy rises.
 Integral accuracy reduced to 1.0D-05 until final iterations.
 Initial convergence to 1.0D-05 achieved.  Increase integral accuracy.
 SCF Done:  E(RB3LYP) =  -114.413113313     A.U. after   11 cycles
            NFock= 11  Conv=0.82D-09     -V/T= 2.0080
   4 Symmetry operations used in ECPInt.
 ECPInt:  NShTT=     136 NPrTT=     560 LenC2=     137 LenP2D=     526.
 LDataN:  DoStor=T MaxTD1= 5 Len=  102
 Calling FoFJK, ICntrl=      2127 FMM=F ISym2X=1 I1Cent= 0 IOpClX= 0 NMat=1 NMatS=1 NMatT=0.
 ***** Axes restored to original set *****
 -------------------------------------------------------------------
 Center     Atomic                   Forces (Hartrees/Bohr)
 Number     Number              X              Y              Z
 -------------------------------------------------------------------
      1        6           0.017104221    0.000000000    0.000000000
      2        8          -0.010179258   -0.000000000   -0.000000000
      3        1          -0.003462482    0.000395158    0.000313027
      4        1          -0.003462482   -0.000395158   -0.000313027
 -------------------------------------------------------------------
 Cartesian Forces:  Max     0.017104221 RMS     0.005920709

 GradGradGradGradGradGradGradGradGradGradGradGradGradGradGradGradGradGrad
 Berny optimization.
 Using GEDIIS/GDIIS optimizer.
 FormGI is forming the generalized inverse of G from B-inverse, IUseBI=4.
 Internal  Forces:  Max     0.010179258 RMS     0.004393748
 Search for a local minimum.
 Step number   2 out of a maximum of   20
 All quantities printed in internal units (Hartrees-Bohrs-Radians)
 Mixed Optimization -- RFO/linear search
 Update second derivatives using D2CorX and points    1    2
 DE= -2.40D-03 DEPred=-2.05D-03 R= 1.17D+00
 TightC=F SS=  1.41D+00  RLast= 1.12D-01 DXNew= 5.0454D-01 3.3610D-01
 Trust test= 1.17D+00 RLast= 1.12D-01 DXMaxT set to 3.36D-01
 The second derivative matrix:
                          R1        R2        R3        A1        A2
           R1           0.87515
           R2           0.04655   0.35811
           R3           0.04655   0.00344   0.35811
           A1           0.01456  -0.00817  -0.00817   0.15739
           A2           0.01456  -0.00817  -0.00817  -0.00261   0.15739
           A3          -0.02913   0.01633   0.01633   0.00523   0.00523
           D1          -0.00000   0.00000   0.00000   0.00000   0.00000
                          A3        D1
           A3           0.14955
           D1          -0.00000   0.00309
 ITU=  1  0
 Use linear search instead of GDIIS.
     Eigenvalues ---    0.00309   0.13804   0.16000   0.35466   0.35815
     Eigenvalues ---    0.88483
 RFO step:  Lambda=-1.69846514D-04 EMin= 3.08731538D-03
 Quartic linear search produced a step of  0.28205.
 Iteration  1 RMS(Cart)=  0.01276026 RMS(Int)=  0.00018621
 Iteration  2 RMS(Cart)=  0.00019632 RMS(Int)=  0.00000001
 Iteration  3 RMS(Cart)=  0.00000001 RMS(Int)=  0.00000000
 ClnCor:  largest displacement from symmetrization is 1.16D-08 for atom     1.
 Variable       Old X    -DE/DX   Delta X   Delta X   Delta X     New X
                                 (Linear)    (Quad)   (Total)
    R1        2.28022  -0.01018  -0.00683  -0.00792  -0.01475   2.26547
    R2        2.11172   0.00224   0.01762  -0.00606   0.01156   2.12328
    R3        2.11172   0.00224   0.01762  -0.00606   0.01156   2.12328
    A1        2.12075   0.00189   0.00742   0.00968   0.01711   2.13786
    A2        2.12075   0.00189   0.00742   0.00968   0.01711   2.13786
    A3        2.04168  -0.00378  -0.01485  -0.01936  -0.03421   2.00746
    D1        3.14159   0.00000  -0.00000  -0.00000   0.00000   3.14159
         Item               Value     Threshold  Converged?
 Maximum Force            0.010179     0.000450     NO 
 RMS     Force            0.004394     0.000300     NO 
 Maximum Displacement     0.022109     0.001800     NO 
 RMS     Displacement     0.012837     0.001200     NO 
 Predicted change in Energy=-1.832487D-04
 GradGradGradGradGradGradGradGradGradGradGradGradGradGradGradGradGradGrad

                          Input orientation:                          
 ---------------------------------------------------------------------
 Center     Atomic      Atomic             Coordinates (Angstroms)
 Number     Number       Type             X           Y           Z
 ---------------------------------------------------------------------
      1          6           0        1.071818    0.089080    0.043440
      2          8           0        2.270651    0.089080    0.043440
      3          1           0        0.468270    0.831967    0.631922
      4          1           0        0.468270   -0.653807   -0.545042
 ---------------------------------------------------------------------
                    Distance matrix (angstroms):
                    1          2          3          4
     1  C    0.000000
     2  O    1.198834   0.000000
     3  H    1.123593   2.036362   0.000000
     4  H    1.123593   2.036362   1.895460   0.000000
 Stoichiometry    CH2O
 Framework group  C2V[C2(CO),SGV(H2)]
 Deg. of freedom     3
 Full point group                 C2V     NOp   4
 Largest Abelian subgroup         C2V     NOp   4
 Largest concise Abelian subgroup C2      NOp   2
                         Standard orientation:                         
 ---------------------------------------------------------------------
 Center     Atomic      Atomic             Coordinates (Angstroms)
 Number     Number       Type             X           Y           Z
 ---------------------------------------------------------------------
      1          6           0        0.000000    0.000000   -0.523973
      2          8           0       -0.000000   -0.000000    0.674860
      3          1           0       -0.000000    0.947730   -1.127521
      4          1           0       -0.000000   -0.947730   -1.127521
 ---------------------------------------------------------------------
 Rotational constants (GHZ):         279.1468557          38.9488598          34.1798120
 Standard basis: def2SVPP (5D, 7F)
 There are    18 symmetry adapted cartesian basis functions of A1  symmetry.
 There are     2 symmetry adapted cartesian basis functions of A2  symmetry.
 There are     6 symmetry adapted cartesian basis functions of B1  symmetry.
 There are     8 symmetry adapted cartesian basis functions of B2  symmetry.
 There are    16 symmetry adapted basis functions of A1  symmetry.
 There are     2 symmetry adapted basis functions of A2  symmetry.
 There are     6 symmetry adapted basis functions of B1  symmetry.
 There are     8 symmetry adapted basis functions of B2  symmetry.
    32 basis functions,    58 primitive gaussians,    34 cartesian basis functions
     8 alpha electrons        8 beta electrons
       nuclear repulsion energy        31.2763121373 Hartrees.
 NAtoms=    4 NActive=    4 NUniq=    3 SFac= 1.78D+00 NAtFMM=   60 NAOKFM=F Big=F
 Integral buffers will be    131072 words long.
 Raffenetti 2 integral format.
 Two-electron integral symmetry is turned on.
 Nuclear repulsion after empirical dispersion term =       31.2744781551 Hartrees.
 One-electron integrals computed using PRISM.
   4 Symmetry operations used in ECPInt.
 ECPInt:  NShTT=     136 NPrTT=     560 LenC2=     137 LenP2D=     526.
 LDataN:  DoStor=T MaxTD1= 4 Len=   56
 NBasis=    32 RedAO= T EigKep=  1.99D-02  NBF=    16     2     6     8
 NBsUse=    32 1.00D-06 EigRej= -1.00D+00 NBFU=    16     2     6     8
 Initial guess from the checkpoint file:  "/home/software/g16tmp/Gau-115239.chk"
 B after Tr=    -0.000000   -0.000000   -0.000000
         Rot=    1.000000    0.000000    0.000000   -0.000000 Ang=   0.00 deg.
 Initial guess orbital symmetries:
       Occupied  (A1) (A1) (A1) (A1) (B2) (A1) (B1) (B2)
       Virtual   (B1) (A1) (B2) (A1) (A1) (B1) (B2) (A1) (B2) (A1)
                 (A1) (B1) (B2) (A1) (A2) (B1) (A1) (B2) (A1) (A2)
                 (A1) (B1) (B2) (A1)
 ExpMin= 1.22D-01 ExpMax= 2.27D+03 ExpMxC= 3.41D+02 IAcc=3 IRadAn=         5 AccDes= 0.00D+00
 Harris functional with IExCor=  402 and IRadAn=       5 diagonalized for initial guess.
 HarFok:  IExCor=  402 AccDes= 0.00D+00 IRadAn=         5 IDoV= 1 UseB2=F ITyADJ=14
 ICtDFT=  3500011 ScaDFX=  1.000000  1.000000  1.000000  1.000000
 FoFCou: FMM=F IPFlag=           0 FMFlag=      100000 FMFlg1=           0
         NFxFlg=           0 DoJE=T BraDBF=F KetDBF=T FulRan=T
         wScrn=  0.000000 ICntrl=       500 IOpCl=  0 I1Cent=   200000004 NGrid=           0
         NMat0=    1 NMatS0=      1 NMatT0=    0 NMatD0=    1 NMtDS0=    0 NMtDT0=    0
 Petite list used in FoFCou.
 Keep R1 ints in memory in symmetry-blocked form, NReq=13965238.
 Requested convergence on RMS density matrix=1.00D-08 within 128 cycles.
 Requested convergence on MAX density matrix=1.00D-06.
 Requested convergence on             energy=1.00D-06.
 No special actions if energy rises.
 Integral accuracy reduced to 1.0D-05 until final iterations.
 Initial convergence to 1.0D-05 achieved.  Increase integral accuracy.
 SCF Done:  E(RB3LYP) =  -114.413305072     A.U. after   10 cycles
            NFock= 10  Conv=0.49D-08     -V/T= 2.0079
   4 Symmetry operations used in ECPInt.
 ECPInt:  NShTT=     136 NPrTT=     560 LenC2=     137 LenP2D=     526.
 LDataN:  DoStor=T MaxTD1= 5 Len=  102
 Calling FoFJK, ICntrl=      2127 FMM=F ISym2X=1 I1Cent= 0 IOpClX= 0 NMat=1 NMatS=1 NMatT=0.
 ***** Axes restored to original set *****
 -------------------------------------------------------------------
 Center     Atomic                   Forces (Hartrees/Bohr)
 Number     Number              X              Y              Z
 -------------------------------------------------------------------
      1        6          -0.000820221    0.000000000    0.000000000
      2        8           0.000441381   -0.000000000    0.000000000
      3        1           0.000189420   -0.000236038   -0.000186979
      4        1           0.000189420    0.000236038    0.000186979
 -------------------------------------------------------------------
 Cartesian Forces:  Max     0.000820221 RMS     0.000305599

 GradGradGradGradGradGradGradGradGradGradGradGradGradGradGradGradGradGrad
 Berny optimization.
 Using GEDIIS/GDIIS optimizer.
 FormGI is forming the generalized inverse of G from B-inverse, IUseBI=4.
 Internal  Forces:  Max     0.000441381 RMS     0.000252963
 Search for a local minimum.
 Step number   3 out of a maximum of   20
 All quantities printed in internal units (Hartrees-Bohrs-Radians)
 Mixed Optimization -- En-DIIS/RFO-DIIS
 Update second derivatives using D2CorX and points    1    2    3
 DE= -1.92D-04 DEPred=-1.83D-04 R= 1.05D+00
 TightC=F SS=  1.41D+00  RLast= 4.73D-02 DXNew= 5.6525D-01 1.4200D-01
 Trust test= 1.05D+00 RLast= 4.73D-02 DXMaxT set to 3.36D-01
 The second derivative matrix:
                          R1        R2        R3        A1        A2
           R1           0.89675
           R2           0.04240   0.35845
           R3           0.04240   0.00379   0.35845
           A1           0.01585  -0.00942  -0.00942   0.15616
           A2           0.01585  -0.00942  -0.00942  -0.00384   0.15616
           A3          -0.03170   0.01884   0.01884   0.00769   0.00769
           D1           0.00000  -0.00000  -0.00000  -0.00000  -0.00000
                          A3        D1
           A3           0.14463
           D1           0.00000   0.00309
 ITU=  1  1  0
 Use linear search instead of GDIIS.
     Eigenvalues ---    0.00309   0.12941   0.16000   0.35466   0.36154
     Eigenvalues ---    0.90499
 RFO step:  Lambda=-5.30132915D-07 EMin= 3.08731538D-03
 Quartic linear search produced a step of -0.03504.
 Iteration  1 RMS(Cart)=  0.00046706 RMS(Int)=  0.00000010
 Iteration  2 RMS(Cart)=  0.00000010 RMS(Int)=  0.00000000
 ClnCor:  largest displacement from symmetrization is 4.18D-11 for atom     1.
 Variable       Old X    -DE/DX   Delta X   Delta X   Delta X     New X
                                 (Linear)    (Quad)   (Total)
    R1        2.26547   0.00044   0.00052   0.00010   0.00061   2.26608
    R2        2.12328  -0.00036  -0.00041  -0.00068  -0.00108   2.12220
    R3        2.12328  -0.00036  -0.00041  -0.00068  -0.00108   2.12220
    A1        2.13786   0.00000  -0.00060   0.00040  -0.00020   2.13766
    A2        2.13786   0.00000  -0.00060   0.00040  -0.00020   2.13766
    A3        2.00746  -0.00000   0.00120  -0.00080   0.00040   2.00786
    D1        3.14159   0.00000  -0.00000   0.00000   0.00000   3.14159
         Item               Value     Threshold  Converged?
 Maximum Force            0.000441     0.000450     YES
 RMS     Force            0.000253     0.000300     YES
 Maximum Displacement     0.000622     0.001800     YES
 RMS     Displacement     0.000467     0.001200     YES
 Predicted change in Energy=-5.220572D-07
 Optimization completed.
    -- Stationary point found.
                           ----------------------------
                           !   Optimized Parameters   !
                           ! (Angstroms and Degrees)  !
 --------------------------                            --------------------------
 ! Name  Definition              Value          Derivative Info.                !
 --------------------------------------------------------------------------------
 ! R1    R(1,2)                  1.1988         -DE/DX =    0.0004              !
 ! R2    R(1,3)                  1.1236         -DE/DX =   -0.0004              !
 ! R3    R(1,4)                  1.1236         -DE/DX =   -0.0004              !
 ! A1    A(2,1,3)              122.4904         -DE/DX =    0.0                 !
 ! A2    A(2,1,4)              122.4904         -DE/DX =    0.0                 !
 ! A3    A(3,1,4)              115.0192         -DE/DX =    0.0                 !
 ! D1    D(2,1,4,3)            180.0            -DE/DX =    0.0                 !
 --------------------------------------------------------------------------------
 GradGradGradGradGradGradGradGradGradGradGradGradGradGradGradGradGradGrad

                          Input orientation:                          
 ---------------------------------------------------------------------
 Center     Atomic      Atomic             Coordinates (Angstroms)
 Number     Number       Type             X           Y           Z
 ---------------------------------------------------------------------
      1          6           0        1.071818    0.089080    0.043440
      2          8           0        2.270651    0.089080    0.043440
      3          1           0        0.468270    0.831967    0.631922
      4          1           0        0.468270   -0.653807   -0.545042
 ---------------------------------------------------------------------
                    Distance matrix (angstroms):
                    1          2          3          4
     1  C    0.000000
     2  O    1.198834   0.000000
     3  H    1.123593   2.036362   0.000000
     4  H    1.123593   2.036362   1.895460   0.000000
 Stoichiometry    CH2O
 Framework group  C2V[C2(CO),SGV(H2)]
 Deg. of freedom     3
 Full point group                 C2V     NOp   4
 Largest Abelian subgroup         C2V     NOp   4
 Largest concise Abelian subgroup C2      NOp   2
                         Standard orientation:                         
 ---------------------------------------------------------------------
 Center     Atomic      Atomic             Coordinates (Angstroms)
 Number     Number       Type             X           Y           Z
 ---------------------------------------------------------------------
      1          6           0       -0.000000    0.000000   -0.523973
      2          8           0        0.000000    0.000000    0.674860
      3          1           0        0.000000    0.947730   -1.127521
      4          1           0       -0.000000   -0.947730   -1.127521
 ---------------------------------------------------------------------
 Rotational constants (GHZ):         279.1468557          38.9488598          34.1798120

 **********************************************************************

            Population analysis using the SCF Density.

 **********************************************************************

 Orbital symmetries:
       Occupied  (A1) (A1) (A1) (A1) (B2) (A1) (B1) (B2)
       Virtual   (B1) (A1) (B2) (A1) (A1) (B1) (B2) (A1) (B2) (A1)
                 (A1) (B1) (B2) (A1) (A2) (B1) (A1) (B2) (A1) (A2)
                 (A1) (B1) (B2) (A1)
 The electronic state is 1-A1.
 Alpha  occ. eigenvalues --  -19.15382 -10.28453  -1.05443  -0.62693  -0.49693
 Alpha  occ. eigenvalues --   -0.45261  -0.40699  -0.27185
 Alpha virt. eigenvalues --   -0.04527   0.06587   0.13188   0.19568   0.44357
 Alpha virt. eigenvalues --    0.45137   0.54951   0.59969   0.62858   0.67324
 Alpha virt. eigenvalues --    0.89137   0.99147   1.09809   1.28807   1.58662
 Alpha virt. eigenvalues --    1.63361   1.86997   1.92230   2.26511   2.64954
 Alpha virt. eigenvalues --    2.67099   3.11494   3.15950   3.55228
          Condensed to atoms (all electrons):
               1          2          3          4
     1  C    4.668002   0.633629   0.339416   0.339416
     2  O    0.633629   7.657858  -0.048961  -0.048961
     3  H    0.339416  -0.048961   0.726021  -0.103490
     4  H    0.339416  -0.048961  -0.103490   0.726021
 Mulliken charges:
               1
     1  C    0.019537
     2  O   -0.193564
     3  H    0.087014
     4  H    0.087014
 Sum of Mulliken charges =  -0.00000
 Mulliken charges with hydrogens summed into heavy atoms:
               1
     1  C    0.193564
     2  O   -0.193564
 Electronic spatial extent (au):  <R**2>=             60.5268
 Charge=             -0.0000 electrons
 Dipole moment (field-independent basis, Debye):
    X=              0.0000    Y=             -0.0000    Z=             -2.1141  Tot=              2.1141
 Quadrupole moment (field-independent basis, Debye-Ang):
   XX=            -11.4207   YY=            -11.6322   ZZ=            -12.1040
   XY=             -0.0000   XZ=             -0.0000   YZ=              0.0000
 Traceless Quadrupole moment (field-independent basis, Debye-Ang):
   XX=              0.2983   YY=              0.0868   ZZ=             -0.3851
   XY=             -0.0000   XZ=             -0.0000   YZ=              0.0000
 Octapole moment (field-independent basis, Debye-Ang**2):
  XXX=              0.0000  YYY=             -0.0000  ZZZ=              1.4376  XYY=              0.0000
  XXY=              0.0000  XXZ=              0.9723  XZZ=              0.0000  YZZ=             -0.0000
  YYZ=              0.2938  XYZ=              0.0000
 Hexadecapole moment (field-independent basis, Debye-Ang**3):
 XXXX=             -9.4058 YYYY=            -18.7046 ZZZZ=            -44.6281 XXXY=             -0.0000
 XXXZ=             -0.0000 YYYX=             -0.0000 YYYZ=              0.0000 ZZZX=             -0.0000
 ZZZY=             -0.0000 XXYY=             -4.8633 XXZZ=             -8.9464 YYZZ=            -10.4157
 XXYZ=             -0.0000 YYXZ=             -0.0000 ZZXY=             -0.0000
 N-N= 3.127447815512D+01 E-N=-3.308584106142D+02  KE= 1.135199158821D+02
 Symmetry A1   KE= 1.031457552748D+02
 Symmetry A2   KE= 6.153686608211D-34
 Symmetry B1   KE= 3.655779940380D+00
 Symmetry B2   KE= 6.718380666900D+00
 Unable to Open any file for archive entry.
 1\1\GINC-NODE02\FOpt\RB3LYP\def2SVPP\C1H2O1\XUHJ\19-Dec-2023\0\\#N opt
  freq B3LYP/def2SVPP symm=veryloose em=gd3bj scale=0.961 press=0.987\\
 C=O_1\\0,1\C,1.0718178126,0.08908,0.04344\O,2.2706514433,0.08908,0.043
 44\H,0.468270372,0.8319667602,0.63192241\H,0.468270372,-0.6538067602,-
 0.54504241\\Version=ES64L-G16RevC.01\State=1-A1\HF=-114.4133051\RMSD=4
 .937e-09\RMSF=3.056e-04\Dipole=-0.8317395,0.,0.\Quadrupole=-0.2862859,
 0.1251521,0.1611338,0.,0.,-0.0765207\PG=C02V [C2(C1O1),SGV(H2)]\\@
 The archive entry for this job was punched.


 Spring appears, and we are once more children.
                                  -- Anonymous
 Job cpu time:       0 days  0 hours  0 minutes 50.7 seconds.
 Elapsed time:       0 days  0 hours  0 minutes  4.5 seconds.
 File lengths (MBytes):  RWF=     17 Int=      0 D2E=      0 Chk=      2 Scr=      2
 Normal termination of Gaussian 16 at Tue Dec 19 12:56:19 2023.
 Link1:  Proceeding to internal job step number  2.
 --------------------------------------------------------------------
 #N Geom=AllCheck Guess=TCheck SCRF=Check GenChk RB3LYP/def2SVPP Freq
 --------------------------------------------------------------------
 1/10=4,29=7,30=1,38=1,40=1,113=-987000,114=961000/1,3;
 2/12=2,17=2,18=2,40=1/2;
 3/5=43,7=202,11=2,14=-4,25=1,30=1,70=2,71=2,74=-5,116=1,124=41,140=1/1,2,3;
 4/5=101/1;
 5/5=2,38=6,98=1/2;
 8/6=4,10=90,11=11/1;
 11/6=1,8=1,9=11,15=111,16=1/1,2,10;
 10/6=1/2;
 6/7=2,8=2,9=2,10=2,28=1/1;
 7/8=1,10=1,25=1/1,2,3,16;
 1/10=4,30=1/3;
 99//99;
 Structure from the checkpoint file:  "/home/software/g16tmp/Gau-115239.chk"
 -----
 C=O_1
 -----
 Charge =  0 Multiplicity = 1
 Redundant internal coordinates found in file.  (old form).
 C,0,1.0718178126,0.08908,0.04344
 O,0,2.2706514433,0.08908,0.04344
 H,0,0.468270372,0.8319667602,0.63192241
 H,0,0.468270372,-0.6538067602,-0.54504241
 Recover connectivity data from disk.

 GradGradGradGradGradGradGradGradGradGradGradGradGradGradGradGradGradGrad
 Berny optimization.
 Initialization pass.
                           ----------------------------
                           !    Initial Parameters    !
                           ! (Angstroms and Degrees)  !
 --------------------------                            --------------------------
 ! Name  Definition              Value          Derivative Info.                !
 --------------------------------------------------------------------------------
 ! R1    R(1,2)                  1.1988         calculate D2E/DX2 analytically  !
 ! R2    R(1,3)                  1.1236         calculate D2E/DX2 analytically  !
 ! R3    R(1,4)                  1.1236         calculate D2E/DX2 analytically  !
 ! A1    A(2,1,3)              122.4904         calculate D2E/DX2 analytically  !
 ! A2    A(2,1,4)              122.4904         calculate D2E/DX2 analytically  !
 ! A3    A(3,1,4)              115.0192         calculate D2E/DX2 analytically  !
 ! D1    D(2,1,4,3)            180.0            calculate D2E/DX2 analytically  !
 --------------------------------------------------------------------------------
 Trust Radius=3.00D-01 FncErr=1.00D-07 GrdErr=1.00D-07 EigMax=2.50D+02 EigMin=1.00D-04
 Number of steps in this run=      2 maximum allowed number of steps=      2.
 GradGradGradGradGradGradGradGradGradGradGradGradGradGradGradGradGradGrad

                          Input orientation:                          
 ---------------------------------------------------------------------
 Center     Atomic      Atomic             Coordinates (Angstroms)
 Number     Number       Type             X           Y           Z
 ---------------------------------------------------------------------
      1          6           0        1.071818    0.089080    0.043440
      2          8           0        2.270651    0.089080    0.043440
      3          1           0        0.468270    0.831967    0.631922
      4          1           0        0.468270   -0.653807   -0.545042
 ---------------------------------------------------------------------
                    Distance matrix (angstroms):
                    1          2          3          4
     1  C    0.000000
     2  O    1.198834   0.000000
     3  H    1.123593   2.036362   0.000000
     4  H    1.123593   2.036362   1.895460   0.000000
 Stoichiometry    CH2O
 Framework group  C2V[C2(CO),SGV(H2)]
 Deg. of freedom     3
 Full point group                 C2V     NOp   4
 Largest Abelian subgroup         C2V     NOp   4
 Largest concise Abelian subgroup C2      NOp   2
                         Standard orientation:                         
 ---------------------------------------------------------------------
 Center     Atomic      Atomic             Coordinates (Angstroms)
 Number     Number       Type             X           Y           Z
 ---------------------------------------------------------------------
      1          6           0       -0.000000    0.000000   -0.523973
      2          8           0        0.000000   -0.000000    0.674860
      3          1           0        0.000000    0.947730   -1.127521
      4          1           0       -0.000000   -0.947730   -1.127521
 ---------------------------------------------------------------------
 Rotational constants (GHZ):         279.1468557          38.9488598          34.1798120
 Standard basis: def2SVPP (5D, 7F)
 There are    18 symmetry adapted cartesian basis functions of A1  symmetry.
 There are     2 symmetry adapted cartesian basis functions of A2  symmetry.
 There are     6 symmetry adapted cartesian basis functions of B1  symmetry.
 There are     8 symmetry adapted cartesian basis functions of B2  symmetry.
 There are    16 symmetry adapted basis functions of A1  symmetry.
 There are     2 symmetry adapted basis functions of A2  symmetry.
 There are     6 symmetry adapted basis functions of B1  symmetry.
 There are     8 symmetry adapted basis functions of B2  symmetry.
    32 basis functions,    58 primitive gaussians,    34 cartesian basis functions
     8 alpha electrons        8 beta electrons
       nuclear repulsion energy        31.2763121373 Hartrees.
 NAtoms=    4 NActive=    4 NUniq=    3 SFac= 1.78D+00 NAtFMM=   60 NAOKFM=F Big=F
 Integral buffers will be    131072 words long.
 Raffenetti 2 integral format.
 Two-electron integral symmetry is turned on.
 Nuclear repulsion after empirical dispersion term =       31.2744781551 Hartrees.
 One-electron integrals computed using PRISM.
   4 Symmetry operations used in ECPInt.
 ECPInt:  NShTT=     136 NPrTT=     560 LenC2=     137 LenP2D=     526.
 LDataN:  DoStor=T MaxTD1= 4 Len=   56
 NBasis=    32 RedAO= T EigKep=  1.99D-02  NBF=    16     2     6     8
 NBsUse=    32 1.00D-06 EigRej= -1.00D+00 NBFU=    16     2     6     8
 Initial guess from the checkpoint file:  "/home/software/g16tmp/Gau-115239.chk"
 B after Tr=     0.000000    0.000000   -0.000000
         Rot=    1.000000   -0.000000    0.000000    0.000000 Ang=   0.00 deg.
 Initial guess orbital symmetries:
       Occupied  (A1) (A1) (A1) (A1) (B2) (A1) (B1) (B2)
       Virtual   (B1) (A1) (B2) (A1) (A1) (B1) (B2) (A1) (B2) (A1)
                 (A1) (B1) (B2) (A1) (A2) (B1) (A1) (B2) (A1) (A2)
                 (A1) (B1) (B2) (A1)
 Keep R1 ints in memory in symmetry-blocked form, NReq=13965238.
 Requested convergence on RMS density matrix=1.00D-08 within 128 cycles.
 Requested convergence on MAX density matrix=1.00D-06.
 Requested convergence on             energy=1.00D-06.
 No special actions if energy rises.
 SCF Done:  E(RB3LYP) =  -114.413305072     A.U. after    1 cycles
            NFock=  1  Conv=0.57D-09     -V/T= 2.0079
 DoSCS=F DFT=T ScalE2(SS,OS)=  1.000000  1.000000
 Range of M.O.s used for correlation:     1    32
 NBasis=    32 NAE=     8 NBE=     8 NFC=     0 NFV=     0
 NROrb=     32 NOA=     8 NOB=     8 NVA=    24 NVB=    24
   4 Symmetry operations used in ECPInt.
 ECPInt:  NShTT=     136 NPrTT=     560 LenC2=     137 LenP2D=     526.
 LDataN:  DoStor=T MaxTD1= 5 Len=  102
 Symmetrizing basis deriv contribution to polar:
 IMax=3 JMax=2 DiffMx= 0.00D+00
 G2DrvN: will do     5 centers at a time, making    1 passes.
 Calling FoFCou, ICntrl=  3107 FMM=F I1Cent=   0 AccDes= 0.00D+00.
 End of G2Drv F.D. properties file   721 does not exist.
 End of G2Drv F.D. properties file   722 does not exist.
 End of G2Drv F.D. properties file   788 does not exist.
          IDoAtm=1111
          Differentiating once with respect to electric field.
                with respect to dipole field.
          Differentiating once with respect to nuclear coordinates.
 Keep R1 ints in memory in symmetry-blocked form, NReq=13912809.
          There are    12 degrees of freedom in the 1st order CPHF.  IDoFFX=4 NUNeed=    12.
     12 vectors produced by pass  0 Test12= 1.60D-15 8.33D-09 XBig12= 1.68D+01 3.10D+00.
 AX will form    12 AO Fock derivatives at one time.
     12 vectors produced by pass  1 Test12= 1.60D-15 8.33D-09 XBig12= 4.44D+00 8.87D-01.
     12 vectors produced by pass  2 Test12= 1.60D-15 8.33D-09 XBig12= 2.78D-02 5.60D-02.
     12 vectors produced by pass  3 Test12= 1.60D-15 8.33D-09 XBig12= 3.82D-05 2.22D-03.
     12 vectors produced by pass  4 Test12= 1.60D-15 8.33D-09 XBig12= 2.09D-08 4.47D-05.
      6 vectors produced by pass  5 Test12= 1.60D-15 8.33D-09 XBig12= 1.16D-11 1.16D-06.
      1 vectors produced by pass  6 Test12= 1.60D-15 8.33D-09 XBig12= 5.27D-15 2.32D-08.
 InvSVY:  IOpt=1 It=  1 EMax= 8.88D-16
 Solved reduced A of dimension    67 with    12 vectors.
 Isotropic polarizability for W=    0.000000       13.23 Bohr**3.
 End of Minotr F.D. properties file   721 does not exist.
 End of Minotr F.D. properties file   722 does not exist.
 End of Minotr F.D. properties file   788 does not exist.

 **********************************************************************

            Population analysis using the SCF Density.

 **********************************************************************

 Orbital symmetries:
       Occupied  (A1) (A1) (A1) (A1) (B2) (A1) (B1) (B2)
       Virtual   (B1) (A1) (B2) (A1) (A1) (B1) (B2) (A1) (B2) (A1)
                 (A1) (B1) (B2) (A1) (A2) (B1) (A1) (B2) (A1) (A2)
                 (A1) (B1) (B2) (A1)
 The electronic state is 1-A1.
 Alpha  occ. eigenvalues --  -19.15382 -10.28453  -1.05443  -0.62693  -0.49693
 Alpha  occ. eigenvalues --   -0.45261  -0.40699  -0.27185
 Alpha virt. eigenvalues --   -0.04527   0.06587   0.13188   0.19568   0.44357
 Alpha virt. eigenvalues --    0.45137   0.54951   0.59969   0.62858   0.67324
 Alpha virt. eigenvalues --    0.89137   0.99147   1.09809   1.28807   1.58662
 Alpha virt. eigenvalues --    1.63361   1.86997   1.92230   2.26511   2.64954
 Alpha virt. eigenvalues --    2.67099   3.11494   3.15950   3.55228
          Condensed to atoms (all electrons):
               1          2          3          4
     1  C    4.668002   0.633629   0.339416   0.339416
     2  O    0.633629   7.657858  -0.048961  -0.048961
     3  H    0.339416  -0.048961   0.726021  -0.103490
     4  H    0.339416  -0.048961  -0.103490   0.726021
 Mulliken charges:
               1
     1  C    0.019537
     2  O   -0.193564
     3  H    0.087014
     4  H    0.087014
 Sum of Mulliken charges =  -0.00000
 Mulliken charges with hydrogens summed into heavy atoms:
               1
     1  C    0.193564
     2  O   -0.193564
 APT charges:
               1
     1  C    0.715917
     2  O   -0.555544
     3  H   -0.080186
     4  H   -0.080186
 Sum of APT charges =  -0.00000
 APT charges with hydrogens summed into heavy atoms:
               1
     1  C    0.555544
     2  O   -0.555544
 Electronic spatial extent (au):  <R**2>=             60.5268
 Charge=             -0.0000 electrons
 Dipole moment (field-independent basis, Debye):
    X=             -0.0000    Y=              0.0000    Z=             -2.1141  Tot=              2.1141
 Quadrupole moment (field-independent basis, Debye-Ang):
   XX=            -11.4207   YY=            -11.6322   ZZ=            -12.1040
   XY=              0.0000   XZ=              0.0000   YZ=             -0.0000
 Traceless Quadrupole moment (field-independent basis, Debye-Ang):
   XX=              0.2983   YY=              0.0868   ZZ=             -0.3851
   XY=              0.0000   XZ=              0.0000   YZ=             -0.0000
 Octapole moment (field-independent basis, Debye-Ang**2):
  XXX=              0.0000  YYY=             -0.0000  ZZZ=              1.4376  XYY=             -0.0000
  XXY=             -0.0000  XXZ=              0.9723  XZZ=             -0.0000  YZZ=              0.0000
  YYZ=              0.2938  XYZ=             -0.0000
 Hexadecapole moment (field-independent basis, Debye-Ang**3):
 XXXX=             -9.4058 YYYY=            -18.7046 ZZZZ=            -44.6281 XXXY=             -0.0000
 XXXZ=             -0.0000 YYYX=             -0.0000 YYYZ=              0.0000 ZZZX=             -0.0000
 ZZZY=             -0.0000 XXYY=             -4.8633 XXZZ=             -8.9464 YYZZ=            -10.4157
 XXYZ=              0.0000 YYXZ=             -0.0000 ZZXY=             -0.0000
 N-N= 3.127447815512D+01 E-N=-3.308584104945D+02  KE= 1.135199158193D+02
 Symmetry A1   KE= 1.031457552536D+02
 Symmetry A2   KE= 4.840370584373D-34
 Symmetry B1   KE= 3.655779925277D+00
 Symmetry B2   KE= 6.718380640466D+00
  Exact polarizability:       7.078      -0.000      14.424       0.000       0.000      18.181
 Approx polarizability:       8.997       0.000      16.754       0.000      -0.000      30.294
   4 Symmetry operations used in ECPInt.
 ECPInt:  NShTT=     136 NPrTT=     560 LenC2=     137 LenP2D=     526.
 LDataN:  DoStor=T MaxTD1= 6 Len=  172
 Calling FoFJK, ICntrl=    100127 FMM=F ISym2X=1 I1Cent= 0 IOpClX= 0 NMat=1 NMatS=1 NMatT=0.
 Full mass-weighted force constant matrix:
 Low frequencies ---  -18.0582   -0.0012   -0.0006    0.0010   16.5235   66.7405
 Low frequencies --- 1191.1727 1273.3358 1542.6724
 Diagonal vibrational polarizability:
        0.0159494       0.7744816       1.1572581
 Harmonic frequencies (cm**-1), IR intensities (KM/Mole), Raman scattering
 activities (A**4/AMU), depolarization ratios for plane and unpolarized
 incident light, reduced masses (AMU), force constants (mDyne/A),
 and normal coordinates:
                      1                      2                      3
                     B1                     B2                     A1
 Frequencies --   1191.1721              1273.3348              1542.6724
 Red. masses --      1.3760                 1.3499                 1.1042
 Frc consts  --      1.1503                 1.2896                 1.5483
 IR Inten    --      0.8409                14.0816                 5.5304
  Atom  AN      X      Y      Z        X      Y      Z        X      Y      Z
     1   6    -0.18  -0.00  -0.00     0.00  -0.15   0.00    -0.00   0.00   0.00
     2   8     0.04   0.00  -0.00    -0.00   0.08  -0.00     0.00  -0.00  -0.08
     3   1     0.70  -0.00   0.00    -0.00   0.25   0.65     0.00   0.35   0.61
     4   1     0.70   0.00  -0.00    -0.00   0.25  -0.65     0.00  -0.35   0.61
                      4                      5                      6
                     A1                     A1                     B2
 Frequencies --   1871.3085              2873.3410              2918.7806
 Red. masses --      7.3790                 1.0461                 1.1227
 Frc consts  --     15.2244                 5.0887                 5.6351
 IR Inten    --    115.6302                63.2309               171.1880
  Atom  AN      X      Y      Z        X      Y      Z        X      Y      Z
     1   6     0.00  -0.00   0.59    -0.00  -0.00   0.06     0.00  -0.10  -0.00
     2   8    -0.00  -0.00  -0.42     0.00   0.00   0.00    -0.00   0.00   0.00
     3   1    -0.00  -0.45  -0.20     0.00   0.61  -0.36    -0.00   0.60  -0.37
     4   1    -0.00   0.45  -0.20     0.00  -0.61  -0.36    -0.00   0.60   0.37

 -------------------
 - Thermochemistry -
 -------------------
 Temperature   298.150 Kelvin.  Pressure   0.98700 Atm.
 Thermochemistry will use frequencies scaled by 0.9610.
 Atom     1 has atomic number  6 and mass  12.00000
 Atom     2 has atomic number  8 and mass  15.99491
 Atom     3 has atomic number  1 and mass   1.00783
 Atom     4 has atomic number  1 and mass   1.00783
 Molecular mass:    30.01056 amu.
 Principal axes and moments of inertia in atomic units:
                           1         2         3
     Eigenvalues --     6.46520  46.33618  52.80138
           X            0.00000  -0.00000   1.00000
           Y            0.00000   1.00000   0.00000
           Z            1.00000   0.00000   0.00000
 This molecule is an asymmetric top.
 Rotational symmetry number  2.
 Rotational temperatures (Kelvin)     13.39694     1.86925     1.64037
 Rotational constants (GHZ):         279.14686    38.94886    34.17981
 Zero-point vibrational energy      67083.3 (Joules/Mol)
                                   16.03330 (Kcal/Mol)
 Vibrational temperatures:   1646.99  1760.60  2133.00  2587.39  3972.87
          (Kelvin)           4035.69
 
 Zero-point correction=                           0.025551 (Hartree/Particle)
 Thermal correction to Energy=                    0.028426
 Thermal correction to Enthalpy=                  0.029370
 Thermal correction to Gibbs Free Energy=         0.004524
 Sum of electronic and zero-point Energies=           -114.387754
 Sum of electronic and thermal Energies=              -114.384879
 Sum of electronic and thermal Enthalpies=            -114.383935
 Sum of electronic and thermal Free Energies=         -114.408781
 
                     E (Thermal)             CV                S
                      KCal/Mol        Cal/Mol-Kelvin    Cal/Mol-Kelvin
 Total                   17.838              6.502             52.294
 Electronic               0.000              0.000              0.000
 Translational            0.889              2.981             36.156
 Rotational               0.889              2.981             16.033
 Vibrational             16.060              0.540              0.105
                       Q            Log10(Q)             Ln(Q)
 Total Bot       0.830393D-02         -2.080717         -4.791027
 Total V=0       0.469649D+10          9.671774         22.270082
 Vib (Bot)       0.178175D-11        -11.749154        -27.053427
 Vib (V=0)       0.100771D+01          0.003336          0.007682
 Electronic      0.100000D+01          0.000000          0.000000
 Translational   0.654709D+07          6.816048         15.694530
 Rotational      0.711852D+03          2.852389          6.567869
 ***** Axes restored to original set *****
 -------------------------------------------------------------------
 Center     Atomic                   Forces (Hartrees/Bohr)
 Number     Number              X              Y              Z
 -------------------------------------------------------------------
      1        6          -0.000820216   -0.000000000   -0.000000000
      2        8           0.000441378    0.000000000    0.000000000
      3        1           0.000189419   -0.000236038   -0.000186979
      4        1           0.000189419    0.000236038    0.000186979
 -------------------------------------------------------------------
 Cartesian Forces:  Max     0.000820216 RMS     0.000305598
 FormGI is forming the generalized inverse of G from B-inverse, IUseBI=4.

 GradGradGradGradGradGradGradGradGradGradGradGradGradGradGradGradGradGrad
 Berny optimization.
 Internal  Forces:  Max     0.000441378 RMS     0.000252962
 Search for a local minimum.
 Step number   1 out of a maximum of    2
 All quantities printed in internal units (Hartrees-Bohrs-Radians)
 Second derivative matrix not updated -- analytic derivatives used.
 The second derivative matrix:
                          R1        R2        R3        A1        A2
           R1           0.92681
           R2           0.03816   0.29757
           R3           0.03816   0.00718   0.29757
           A1           0.01771   0.00060  -0.00916   0.11908
           A2           0.01771  -0.00916   0.00060  -0.07474   0.11908
           A3          -0.03542   0.00856   0.00856  -0.04434  -0.04434
           D1           0.00000   0.00000   0.00000  -0.00000  -0.00000
                          A3        D1
           A3           0.08867
           D1           0.00000   0.07072
 ITU=  0
     Eigenvalues ---    0.07072   0.12882   0.19284   0.29137   0.30209
     Eigenvalues ---    0.93365
 Angle between quadratic step and forces=  25.24 degrees.
 Linear search not attempted -- first point.
 Iteration  1 RMS(Cart)=  0.00055650 RMS(Int)=  0.00000008
 Iteration  2 RMS(Cart)=  0.00000009 RMS(Int)=  0.00000000
 ClnCor:  largest displacement from symmetrization is 7.15D-09 for atom     1.
 Variable       Old X    -DE/DX   Delta X   Delta X   Delta X     New X
                                 (Linear)    (Quad)   (Total)
    R1        2.26547   0.00044   0.00000   0.00060   0.00060   2.26606
    R2        2.12328  -0.00036   0.00000  -0.00125  -0.00125   2.12203
    R3        2.12328  -0.00036   0.00000  -0.00125  -0.00125   2.12203
    A1        2.13786   0.00000   0.00000  -0.00015  -0.00015   2.13771
    A2        2.13786   0.00000   0.00000  -0.00015  -0.00015   2.13771
    A3        2.00746  -0.00000   0.00000   0.00030   0.00030   2.00776
    D1        3.14159  -0.00000   0.00000  -0.00000   0.00000   3.14159
         Item               Value     Threshold  Converged?
 Maximum Force            0.000441     0.000450     YES
 RMS     Force            0.000253     0.000300     YES
 Maximum Displacement     0.000696     0.001800     YES
 RMS     Displacement     0.000557     0.001200     YES
 Predicted change in Energy=-5.773925D-07
 Optimization completed.
    -- Stationary point found.
                           ----------------------------
                           !   Optimized Parameters   !
                           ! (Angstroms and Degrees)  !
 --------------------------                            --------------------------
 ! Name  Definition              Value          Derivative Info.                !
 --------------------------------------------------------------------------------
 ! R1    R(1,2)                  1.1988         -DE/DX =    0.0004              !
 ! R2    R(1,3)                  1.1236         -DE/DX =   -0.0004              !
 ! R3    R(1,4)                  1.1236         -DE/DX =   -0.0004              !
 ! A1    A(2,1,3)              122.4904         -DE/DX =    0.0                 !
 ! A2    A(2,1,4)              122.4904         -DE/DX =    0.0                 !
 ! A3    A(3,1,4)              115.0192         -DE/DX =    0.0                 !
 ! D1    D(2,1,4,3)            180.0            -DE/DX =    0.0                 !
 --------------------------------------------------------------------------------
 GradGradGradGradGradGradGradGradGradGradGradGradGradGradGradGradGradGrad


 ----------------------------------------------------------------------

 Electric dipole moment (input orientation):
 (Debye = 10**-18 statcoulomb cm , SI units = C m)
                  (au)            (Debye)         (10**-30 SI)
   Tot        0.831739D+00      0.211407D+01      0.705178D+01
   x         -0.831739D+00     -0.211407D+01     -0.705178D+01
   y          0.000000D+00      0.000000D+00      0.000000D+00
   z          0.000000D+00      0.000000D+00      0.000000D+00

 Dipole polarizability, Alpha (input orientation).
 (esu units = cm**3 , SI units = C**2 m**2 J**-1)
 Alpha(0;0):
               (au)            (10**-24 esu)      (10**-40 SI)
   iso        0.132276D+02      0.196013D+01      0.218094D+01
   aniso      0.978145D+01      0.144946D+01      0.161274D+01
   xx         0.181808D+02      0.269412D+01      0.299761D+01
   yx         0.000000D+00      0.000000D+00      0.000000D+00
   yy         0.115917D+02      0.171771D+01      0.191122D+01
   zx         0.000000D+00      0.000000D+00      0.000000D+00
   zy         0.357563D+01      0.529854D+00      0.589542D+00
   zz         0.991038D+01      0.146857D+01      0.163400D+01

 ----------------------------------------------------------------------

 Dipole orientation:
     6          0.08208970          0.16833680         -2.02544212
     8          0.08208970          0.16833680         -4.29090935
     1          1.19416029          1.57218932         -0.88490276
     1         -1.02998088         -1.23551572         -0.88490276

 Electric dipole moment (dipole orientation):
 (Debye = 10**-18 statcoulomb cm , SI units = C m)
                  (au)            (Debye)         (10**-30 SI)
   Tot        0.831739D+00      0.211407D+01      0.705178D+01
   x          0.000000D+00      0.000000D+00      0.000000D+00
   y          0.000000D+00      0.000000D+00      0.000000D+00
   z          0.831739D+00      0.211407D+01      0.705178D+01

 Dipole polarizability, Alpha (dipole orientation).
 (esu units = cm**3 , SI units = C**2 m**2 J**-1)
 Alpha(0;0):
               (au)            (10**-24 esu)      (10**-40 SI)
   iso        0.132276D+02      0.196013D+01      0.218094D+01
   aniso      0.978145D+01      0.144946D+01      0.161274D+01
   xx         0.991038D+01      0.146857D+01      0.163400D+01
   yx         0.357563D+01      0.529854D+00      0.589542D+00
   yy         0.115917D+02      0.171771D+01      0.191122D+01
   zx         0.000000D+00      0.000000D+00      0.000000D+00
   zy         0.000000D+00      0.000000D+00      0.000000D+00
   zz         0.181808D+02      0.269412D+01      0.299761D+01

 ----------------------------------------------------------------------
 Unable to Open any file for archive entry.
 1\1\GINC-NODE02\Freq\RB3LYP\def2SVPP\C1H2O1\XUHJ\19-Dec-2023\0\\#N Geo
 m=AllCheck Guess=TCheck SCRF=Check GenChk RB3LYP/def2SVPP Freq\\C=O_1\
 \0,1\C,1.0718178126,0.08908,0.04344\O,2.2706514433,0.08908,0.04344\H,0
 .468270372,0.8319667602,0.63192241\H,0.468270372,-0.6538067602,-0.5450
 4241\\Version=ES64L-G16RevC.01\State=1-A1\HF=-114.4133051\RMSD=5.694e-
 10\RMSF=3.056e-04\ZeroPoint=0.0255507\Thermal=0.0284261\ETot=-114.3848
 79\HTot=-114.3839348\GTot=-114.4087815\Dipole=-0.8317395,0.,0.\DipoleD
 eriv=1.0729511,0.,0.,0.,0.6167216,0.3373824,0.,0.3373824,0.4580774,-0.
 9315715,0.,0.,0.,-0.3811331,-0.0578583,0.,-0.0578583,-0.3539269,-0.070
 6898,0.0844021,0.0668597,0.0948142,-0.1177943,-0.1397621,0.0751077,-0.
 1397621,-0.0520752,-0.0706898,-0.0844021,-0.0668597,-0.0948142,-0.1177
 943,-0.1397621,-0.0751077,-0.1397621,-0.0520752\Polar=18.1807915,0.,11
 .5917151,0.,3.5756326,9.910378\Quadrupole=-0.2862859,0.1251521,0.16113
 37,0.,0.,-0.0765207\PG=C02V [C2(C1O1),SGV(H2)]\NImag=0\\1.04051639,0.,
 0.42127862,0.,0.19677857,0.32874922,-0.84360669,0.,0.,0.92680895,0.,-0
 .09064391,-0.02614113,0.,0.05367959,0.,-0.02614113,-0.07835180,0.,0.02
 733531,0.04082596,-0.09845485,0.06087423,0.04822191,-0.04160113,0.0284
 5356,0.02253967,0.12935709,0.05803269,-0.16531736,-0.08531872,0.014694
 28,0.01848216,-0.00059709,-0.08102738,0.15128884,0.04597096,-0.0853187
 2,-0.12519871,0.01164016,-0.00059709,0.01876292,-0.06418635,0.10457681
 ,0.10211464,-0.09845485,-0.06087423,-0.04822191,-0.04160113,-0.0284535
 6,-0.02253967,0.01069889,0.00830041,0.00657522,0.12935709,-0.05803269,
 -0.16531736,-0.08531872,-0.01469428,0.01848216,-0.00059709,-0.00830041
 ,-0.00445364,-0.01866100,0.08102738,0.15128884,-0.04597096,-0.08531872
 ,-0.12519871,-0.01164016,-0.00059709,0.01876292,-0.00657522,-0.0186610
 0,0.00432115,0.06418635,0.10457681,0.10211464\\0.00082022,0.,0.,-0.000
 44138,0.,0.,-0.00018942,0.00023604,0.00018698,-0.00018942,-0.00023604,
 -0.00018698\\\@
 The archive entry for this job was punched.


 ON A CLEAR DISK YOU CAN SEEK FOREVER.
 Job cpu time:       0 days  0 hours  0 minutes 28.3 seconds.
 Elapsed time:       0 days  0 hours  0 minutes  2.4 seconds.
 File lengths (MBytes):  RWF=     17 Int=      0 D2E=      0 Chk=      2 Scr=      2
 Normal termination of Gaussian 16 at Tue Dec 19 12:56:22 2023.
