 Entering Gaussian System, Link 0=g16
 Initial command:
 /home/software/g16/l1.exe "/home/software/g16tmp/Gau-123545.inp" -scrdir="/home/software/g16tmp/"
 Default is to use a total of   8 processors:
                                8 via shared-memory
                                1 via Linda
 Entering Link 1 = /home/software/g16/l1.exe PID=    123546.
  
 Copyright (c) 1988-2019, Gaussian, Inc.  All Rights Reserved.
  
 This is part of the Gaussian(R) 16 program.  It is based on
 the Gaussian(R) 09 system (copyright 2009, Gaussian, Inc.),
 the Gaussian(R) 03 system (copyright 2003, Gaussian, Inc.),
 the Gaussian(R) 98 system (copyright 1998, Gaussian, Inc.),
 the Gaussian(R) 94 system (copyright 1995, Gaussian, Inc.),
 the Gaussian 92(TM) system (copyright 1992, Gaussian, Inc.),
 the Gaussian 90(TM) system (copyright 1990, Gaussian, Inc.),
 the Gaussian 88(TM) system (copyright 1988, Gaussian, Inc.),
 the Gaussian 86(TM) system (copyright 1986, Carnegie Mellon
 University), and the Gaussian 82(TM) system (copyright 1983,
 Carnegie Mellon University). Gaussian is a federally registered
 trademark of Gaussian, Inc.
  
 This software contains proprietary and confidential information,
 including trade secrets, belonging to Gaussian, Inc.
  
 This software is provided under written license and may be
 used, copied, transmitted, or stored only in accord with that
 written license.
  
 The following legend is applicable only to US Government
 contracts under FAR:
  
                    RESTRICTED RIGHTS LEGEND
  
 Use, reproduction and disclosure by the US Government is
 subject to restrictions as set forth in subparagraphs (a)
 and (c) of the Commercial Computer Software - Restricted
 Rights clause in FAR 52.227-19.
  
 Gaussian, Inc.
 340 Quinnipiac St., Bldg. 40, Wallingford CT 06492
  
  
 ---------------------------------------------------------------
 Warning -- This program may not be used in any manner that
 competes with the business of Gaussian, Inc. or will provide
 assistance to any competitor of Gaussian, Inc.  The licensee
 of this program is prohibited from giving any competitor of
 Gaussian, Inc. access to this program.  By using this program,
 the user acknowledges that Gaussian, Inc. is engaged in the
 business of creating and licensing software in the field of
 computational chemistry and represents and warrants to the
 licensee that it is not a competitor of Gaussian, Inc. and that
 it will not use this program in any manner prohibited above.
 ---------------------------------------------------------------
  

 Cite this work as:
 Gaussian 16, Revision C.01,
 M. J. Frisch, G. W. Trucks, H. B. Schlegel, G. E. Scuseria, 
 M. A. Robb, J. R. Cheeseman, G. Scalmani, V. Barone, 
 G. A. Petersson, H. Nakatsuji, X. Li, M. Caricato, A. V. Marenich, 
 J. Bloino, B. G. Janesko, R. Gomperts, B. Mennucci, H. P. Hratchian, 
 J. V. Ortiz, A. F. Izmaylov, J. L. Sonnenberg, D. Williams-Young, 
 F. Ding, F. Lipparini, F. Egidi, J. Goings, B. Peng, A. Petrone, 
 T. Henderson, D. Ranasinghe, V. G. Zakrzewski, J. Gao, N. Rega, 
 G. Zheng, W. Liang, M. Hada, M. Ehara, K. Toyota, R. Fukuda, 
 J. Hasegawa, M. Ishida, T. Nakajima, Y. Honda, O. Kitao, H. Nakai, 
 T. Vreven, K. Throssell, J. A. Montgomery, Jr., J. E. Peralta, 
 F. Ogliaro, M. J. Bearpark, J. J. Heyd, E. N. Brothers, K. N. Kudin, 
 V. N. Staroverov, T. A. Keith, R. Kobayashi, J. Normand, 
 K. Raghavachari, A. P. Rendell, J. C. Burant, S. S. Iyengar, 
 J. Tomasi, M. Cossi, J. M. Millam, M. Klene, C. Adamo, R. Cammi, 
 J. W. Ochterski, R. L. Martin, K. Morokuma, O. Farkas, 
 J. B. Foresman, and D. J. Fox, Gaussian, Inc., Wallingford CT, 2019.
 
 ******************************************
 Gaussian 16:  ES64L-G16RevC.01  3-Jul-2019
                19-Dec-2023 
 ******************************************
 %nprocshared=16
 Will use up to   16 processors via shared memory.
 %mem=640MB
 ----------------------------------------------------------------------
 #N opt freq B3LYP/def2SVPP symm=veryloose em=gd3bj scale=0.961 press=0
 .987
 ----------------------------------------------------------------------
 1/18=20,19=15,26=3,38=1,113=-987000,114=961000/1,3;
 2/9=110,12=2,17=2,18=2,40=1/2;
 3/5=43,7=202,11=2,25=1,30=1,71=1,74=-5,124=41/1,2,3;
 4//1;
 5/5=2,38=5/2;
 6/7=2,8=2,9=2,10=2,28=1/1;
 7//1,2,3,16;
 1/18=20,19=15,26=3/3(2);
 2/9=110/2;
 99//99;
 2/9=110/2;
 3/5=43,7=202,11=2,25=1,30=1,71=1,74=-5,124=41/1,2,3;
 4/5=5,16=3,69=1/1;
 5/5=2,38=5/2;
 7//1,2,3,16;
 1/18=20,19=15,26=3/3(-5);
 2/9=110/2;
 6/7=2,8=2,9=2,10=2,19=2,28=1/1;
 99/9=1/99;
 -------
 [C]#C_1
 -------
 Symbolic Z-matrix:
 Charge =  0 Multiplicity = 2
 C                     1.04393  -0.06534  -0.0757 
 C                     2.2493   -0.06534  -0.0757 
 H                     3.30774  -0.06534  -0.0757 
 

 GradGradGradGradGradGradGradGradGradGradGradGradGradGradGradGradGradGrad
 Berny optimization.
 Initialization pass.
                           ----------------------------
                           !    Initial Parameters    !
                           ! (Angstroms and Degrees)  !
 --------------------------                            --------------------------
 ! Name  Definition              Value          Derivative Info.                !
 --------------------------------------------------------------------------------
 ! R1    R(1,2)                  1.2054         estimate D2E/DX2                !
 ! R2    R(2,3)                  1.0584         estimate D2E/DX2                !
 ! A1    L(1,2,3,-2,-1)        180.0            estimate D2E/DX2                !
 ! A2    L(1,2,3,-3,-2)        180.0            estimate D2E/DX2                !
 --------------------------------------------------------------------------------
 Trust Radius=3.00D-01 FncErr=1.00D-07 GrdErr=1.00D-06 EigMax=2.50D+02 EigMin=1.00D-04
 Number of steps in this run=     20 maximum allowed number of steps=    100.
 GradGradGradGradGradGradGradGradGradGradGradGradGradGradGradGradGradGrad

                          Input orientation:                          
 ---------------------------------------------------------------------
 Center     Atomic      Atomic             Coordinates (Angstroms)
 Number     Number       Type             X           Y           Z
 ---------------------------------------------------------------------
      1          6           0        1.043930   -0.065340   -0.075700
      2          6           0        2.249300   -0.065340   -0.075700
      3          1           0        3.307740   -0.065340   -0.075700
 ---------------------------------------------------------------------
                    Distance matrix (angstroms):
                    1          2          3
     1  C    0.000000
     2  C    1.205370   0.000000
     3  H    2.263810   1.058440   0.000000
 Stoichiometry    C2H(2)
 Framework group  C*V[C*(HCC)]
 Deg. of freedom     2
 Full point group                 C*V     NOp   4
 Largest Abelian subgroup         C2V     NOp   4
 Largest concise Abelian subgroup C1      NOp   1
                         Standard orientation:                         
 ---------------------------------------------------------------------
 Center     Atomic      Atomic             Coordinates (Angstroms)
 Number     Number       Type             X           Y           Z
 ---------------------------------------------------------------------
      1          6           0        0.000000    0.000000    0.730464
      2          6           0        0.000000    0.000000   -0.474906
      3          1           0        0.000000    0.000000   -1.533346
 ---------------------------------------------------------------------
 Rotational constants (GHZ):           0.0000000          44.3846106          44.3846106
 Standard basis: def2SVPP (5D, 7F)
 There are    18 symmetry adapted cartesian basis functions of A1  symmetry.
 There are     2 symmetry adapted cartesian basis functions of A2  symmetry.
 There are     6 symmetry adapted cartesian basis functions of B1  symmetry.
 There are     6 symmetry adapted cartesian basis functions of B2  symmetry.
 There are    16 symmetry adapted basis functions of A1  symmetry.
 There are     2 symmetry adapted basis functions of A2  symmetry.
 There are     6 symmetry adapted basis functions of B1  symmetry.
 There are     6 symmetry adapted basis functions of B2  symmetry.
    30 basis functions,    54 primitive gaussians,    32 cartesian basis functions
     7 alpha electrons        6 beta electrons
       nuclear repulsion energy        20.2068790312 Hartrees.
 NAtoms=    3 NActive=    3 NUniq=    3 SFac= 1.00D+00 NAtFMM=   60 NAOKFM=F Big=F
 Integral buffers will be    131072 words long.
 Raffenetti 2 integral format.
 Two-electron integral symmetry is turned on.
 Nuclear repulsion after empirical dispersion term =       20.2050958279 Hartrees.
 One-electron integrals computed using PRISM.
   4 Symmetry operations used in ECPInt.
 ECPInt:  NShTT=     105 NPrTT=     435 LenC2=     106 LenP2D=     416.
 LDataN:  DoStor=T MaxTD1= 4 Len=   56
 NBasis=    30 RedAO= T EigKep=  2.15D-03  NBF=    16     2     6     6
 NBsUse=    30 1.00D-06 EigRej= -1.00D+00 NBFU=    16     2     6     6
 ExpMin= 1.22D-01 ExpMax= 1.24D+03 ExpMxC= 1.86D+02 IAcc=3 IRadAn=         5 AccDes= 0.00D+00
 Harris functional with IExCor=  402 and IRadAn=       5 diagonalized for initial guess.
 HarFok:  IExCor=  402 AccDes= 0.00D+00 IRadAn=         5 IDoV= 1 UseB2=F ITyADJ=14
 ICtDFT=  3500011 ScaDFX=  1.000000  1.000000  1.000000  1.000000
 FoFCou: FMM=F IPFlag=           0 FMFlag=      100000 FMFlg1=           0
         NFxFlg=           0 DoJE=T BraDBF=F KetDBF=T FulRan=T
         wScrn=  0.000000 ICntrl=       500 IOpCl=  0 I1Cent=   200000004 NGrid=           0
         NMat0=    1 NMatS0=      1 NMatT0=    0 NMatD0=    1 NMtDS0=    0 NMtDT0=    0
 Petite list used in FoFCou.
 Initial guess orbital symmetries:
 Alpha Orbitals:
       Occupied  (SG) (SG) (SG) (SG) (PI) (PI) (SG)
       Virtual   (PI) (PI) (SG) (SG) (SG) (PI) (PI) (SG) (PI) (PI)
                 (SG) (SG) (SG) (PI) (PI) (DLTA) (DLTA) (DLTA)
                 (DLTA) (SG) (PI) (PI) (SG)
 Beta  Orbitals:
       Occupied  (SG) (SG) (SG) (SG) (PI) (PI)
       Virtual   (SG) (PI) (PI) (SG) (SG) (SG) (PI) (PI) (SG) (PI)
                 (PI) (SG) (SG) (SG) (PI) (PI) (DLTA) (DLTA) (DLTA)
                 (DLTA) (SG) (PI) (PI) (SG)
 The electronic state of the initial guess is 2-SG.
 Initial guess <Sx>= 0.0000 <Sy>= 0.0000 <Sz>= 0.5000 <S**2>= 0.7500 S= 0.5000
 Keep R1 and R2 ints in memory in symmetry-blocked form, NReq=13931357.
 Requested convergence on RMS density matrix=1.00D-08 within 128 cycles.
 Requested convergence on MAX density matrix=1.00D-06.
 Requested convergence on             energy=1.00D-06.
 No special actions if energy rises.
 Integral accuracy reduced to 1.0D-05 until final iterations.
 Initial convergence to 1.0D-05 achieved.  Increase integral accuracy.
 SCF Done:  E(UB3LYP) =  -76.5484613525     A.U. after   13 cycles
            NFock= 13  Conv=0.44D-08     -V/T= 2.0093
 <Sx>= 0.0000 <Sy>= 0.0000 <Sz>= 0.5000 <S**2>= 0.7746 S= 0.5122
 <L.S>=  0.00000000000    
 Annihilation of the first spin contaminant:
 S**2 before annihilation     0.7746,   after     0.7504

 **********************************************************************

            Population analysis using the SCF Density.

 **********************************************************************

 Orbital symmetries:
 Alpha Orbitals:
       Occupied  (SG) (SG) (SG) (SG) (SG) (PI) (PI)
       Virtual   (PI) (PI) (SG) (SG) (SG) (SG) (PI) (PI) (PI) (PI)
                 (SG) (SG) (SG) (PI) (PI) (DLTA) (DLTA) (DLTA)
                 (DLTA) (SG) (PI) (PI) (SG)
 Beta  Orbitals:
       Occupied  (SG) (SG) (SG) (SG) (PI) (PI)
       Virtual   (SG) (PI) (PI) (SG) (SG) (SG) (SG) (PI) (PI) (PI)
                 (PI) (SG) (SG) (SG) (PI) (PI) (DLTA) (DLTA) (DLTA)
                 (DLTA) (SG) (PI) (PI) (SG)
 The electronic state is 2-SG.
 Alpha  occ. eigenvalues --  -10.25094 -10.20964  -0.76381  -0.55626  -0.40118
 Alpha  occ. eigenvalues --   -0.31528  -0.31528
 Alpha virt. eigenvalues --    0.02250   0.02250   0.08876   0.26932   0.36969
 Alpha virt. eigenvalues --    0.39494   0.45795   0.45795   0.57719   0.57719
 Alpha virt. eigenvalues --    0.64519   0.92849   1.04637   1.47255   1.47255
 Alpha virt. eigenvalues --    1.51427   1.51427   1.90913   1.90913   2.19009
 Alpha virt. eigenvalues --    2.45197   2.45197   2.96602
  Beta  occ. eigenvalues --  -10.22878 -10.20964  -0.74547  -0.54789  -0.30141
  Beta  occ. eigenvalues --   -0.30141
  Beta virt. eigenvalues --   -0.19043   0.04644   0.04644   0.08899   0.27148
  Beta virt. eigenvalues --    0.40621   0.45298   0.46361   0.46361   0.58885
  Beta virt. eigenvalues --    0.58885   0.64349   0.95433   1.06397   1.51251
  Beta virt. eigenvalues --    1.51251   1.52796   1.52796   1.92535   1.92535
  Beta virt. eigenvalues --    2.24888   2.49415   2.49415   3.01196
          Condensed to atoms (all electrons):
               1          2          3
     1  C    5.337250   0.742481  -0.100383
     2  C    0.742481   4.945554   0.436703
     3  H   -0.100383   0.436703   0.559594
          Atomic-Atomic Spin Densities.
               1          2          3
     1  C    1.105535   0.047674  -0.005799
     2  C    0.047674  -0.222337  -0.000138
     3  H   -0.005799  -0.000138   0.033329
 Mulliken charges and spin densities:
               1          2
     1  C    0.020652   1.147410
     2  C   -0.124738  -0.174801
     3  H    0.104086   0.027391
 Sum of Mulliken charges =   0.00000   1.00000
 Mulliken charges and spin densities with hydrogens summed into heavy atoms:
               1          2
     1  C    0.020652   1.147410
     2  C   -0.020652  -0.147410
 Electronic spatial extent (au):  <R**2>=             49.4214
 Charge=              0.0000 electrons
 Dipole moment (field-independent basis, Debye):
    X=              0.0000    Y=              0.0000    Z=             -0.7299  Tot=              0.7299
 Quadrupole moment (field-independent basis, Debye-Ang):
   XX=            -12.5169   YY=            -12.5169   ZZ=             -8.2695
   XY=              0.0000   XZ=              0.0000   YZ=              0.0000
 Traceless Quadrupole moment (field-independent basis, Debye-Ang):
   XX=             -1.4158   YY=             -1.4158   ZZ=              2.8316
   XY=              0.0000   XZ=              0.0000   YZ=              0.0000
 Octapole moment (field-independent basis, Debye-Ang**2):
  XXX=              0.0000  YYY=              0.0000  ZZZ=             -4.1256  XYY=              0.0000
  XXY=              0.0000  XXZ=             -0.4799  XZZ=              0.0000  YZZ=              0.0000
  YYZ=             -0.4799  XYZ=              0.0000
 Hexadecapole moment (field-independent basis, Debye-Ang**3):
 XXXX=            -13.8651 YYYY=            -13.8651 ZZZZ=            -37.3602 XXXY=              0.0000
 XXXZ=              0.0000 YYYX=              0.0000 YYYZ=              0.0000 ZZZX=              0.0000
 ZZZY=              0.0000 XXYY=             -4.6217 XXZZ=             -9.7494 YYZZ=             -9.7494
 XXYZ=              0.0000 YYXZ=              0.0000 ZZXY=              0.0000
 N-N= 2.020509582793D+01 E-N=-2.177546781956D+02  KE= 7.584417823582D+01
 Symmetry A1   KE= 7.129398430783D+01
 Symmetry A2   KE=-2.063760949054D-51
 Symmetry B1   KE= 2.275096963994D+00
 Symmetry B2   KE= 2.275096963994D+00
 Symmetry A1   SP= 1.000000000000D+00
 Symmetry A2   SP= 1.840146492441D-52
 Symmetry B1   SP=-4.903087484631D-15
 Symmetry B2   SP= 2.116633691235D-15
                          Isotropic Fermi Contact Couplings
        Atom                 a.u.       MegaHertz       Gauss      10(-4) cm-1
     1  C(13)              1.24984    1405.05738     501.35941     468.67669
     2  C(13)              0.20639     232.02035      82.79063      77.39366
     3  H(1)               0.00997      44.58448      15.90885      14.87178
 --------------------------------------------------------
       Center         ----  Spin Dipole Couplings  ----
                      3XX-RR        3YY-RR        3ZZ-RR
 --------------------------------------------------------
     1   Atom       -0.333819     -0.333819      0.667637
     2   Atom       -0.165456     -0.165456      0.330912
     3   Atom       -0.004904     -0.004904      0.009808
 --------------------------------------------------------
                        XY            XZ            YZ
 --------------------------------------------------------
     1   Atom        0.000000      0.000000      0.000000
     2   Atom        0.000000      0.000000      0.000000
     3   Atom        0.000000      0.000000      0.000000
 --------------------------------------------------------


 ---------------------------------------------------------------------------------
              Anisotropic Spin Dipole Couplings in Principal Axis System
 ---------------------------------------------------------------------------------

       Atom             a.u.   MegaHertz   Gauss  10(-4) cm-1        Axes

              Baa    -0.3338   -44.795   -15.984   -14.942 -0.0000  1.0000  0.0000
     1 C(13)  Bbb    -0.3338   -44.795   -15.984   -14.942  1.0000  0.0000  0.0000
              Bcc     0.6676    89.591    31.968    29.884  0.0000  0.0000  1.0000
 
              Baa    -0.1655   -22.203    -7.922    -7.406  1.0000  0.0000  0.0000
     2 C(13)  Bbb    -0.1655   -22.203    -7.922    -7.406 -0.0000  1.0000  0.0000
              Bcc     0.3309    44.405    15.845    14.812  0.0000  0.0000  1.0000
 
              Baa    -0.0049    -2.617    -0.934    -0.873  1.0000  0.0000  0.0000
     3 H(1)   Bbb    -0.0049    -2.617    -0.934    -0.873 -0.0000  1.0000  0.0000
              Bcc     0.0098     5.233     1.867     1.746  0.0000  0.0000  1.0000
 

 ---------------------------------------------------------------------------------

   4 Symmetry operations used in ECPInt.
 ECPInt:  NShTT=     105 NPrTT=     435 LenC2=     106 LenP2D=     416.
 LDataN:  DoStor=T MaxTD1= 5 Len=  102
 Calling FoFJK, ICntrl=      2127 FMM=F ISym2X=1 I1Cent= 0 IOpClX= 1 NMat=1 NMatS=1 NMatT=0.
 ***** Axes restored to original set *****
 -------------------------------------------------------------------
 Center     Atomic                   Forces (Hartrees/Bohr)
 Number     Number              X              Y              Z
 -------------------------------------------------------------------
      1        6          -0.015014171   -0.000000000   -0.000000000
      2        6           0.000225534   -0.000000000   -0.000000000
      3        1           0.014788637   -0.000000000   -0.000000000
 -------------------------------------------------------------------
 Cartesian Forces:  Max     0.015014171 RMS     0.007025192

 GradGradGradGradGradGradGradGradGradGradGradGradGradGradGradGradGradGrad
 Berny optimization.
 FormGI is forming the generalized inverse of G from B-inverse, IUseBI=4.
 Internal  Forces:  Max     0.015014171 RMS     0.010537185
 Search for a local minimum.
 Step number   1 out of a maximum of   20
 All quantities printed in internal units (Hartrees-Bohrs-Radians)
 Mixed Optimization -- RFO/linear search
 Second derivative matrix not updated -- first step.
 The second derivative matrix:
                          R1        R2        A1        A2
           R1           1.02170
           R2           0.00000   0.38730
           A1           0.00000   0.00000   0.00652
           A2           0.00000   0.00000   0.00000   0.00652
 ITU=  0
     Eigenvalues ---    0.00652   0.00652   0.38730   1.02170
 RFO step:  Lambda=-7.84009932D-04 EMin= 6.52308419D-03
 Linear search not attempted -- first point.
 Iteration  1 RMS(Cart)=  0.01926693 RMS(Int)=  0.00000000
 Iteration  2 RMS(Cart)=  0.00000000 RMS(Int)=  0.00000000
 ClnCor:  largest displacement from symmetrization is 6.81D-15 for atom     2.
 Variable       Old X    -DE/DX   Delta X   Delta X   Delta X     New X
                                 (Linear)    (Quad)   (Total)
    R1        2.27782   0.01501   0.00000   0.01468   0.01468   2.29250
    R2        2.00016   0.01479   0.00000   0.03811   0.03811   2.03827
    A1        3.14159  -0.00000   0.00000   0.00000   0.00000   3.14159
    A2        3.14159  -0.00000   0.00000   0.00000   0.00000   3.14159
         Item               Value     Threshold  Converged?
 Maximum Force            0.015014     0.000450     NO 
 RMS     Force            0.010537     0.000300     NO 
 Maximum Displacement     0.030299     0.001800     NO 
 RMS     Displacement     0.019267     0.001200     NO 
 Predicted change in Energy=-3.926598D-04
 GradGradGradGradGradGradGradGradGradGradGradGradGradGradGradGradGradGrad

                          Input orientation:                          
 ---------------------------------------------------------------------
 Center     Atomic      Atomic             Coordinates (Angstroms)
 Number     Number       Type             X           Y           Z
 ---------------------------------------------------------------------
      1          6           0        1.032028   -0.065340   -0.075700
      2          6           0        2.245168   -0.065340   -0.075700
      3          1           0        3.323774   -0.065340   -0.075700
 ---------------------------------------------------------------------
                    Distance matrix (angstroms):
                    1          2          3
     1  C    0.000000
     2  C    1.213140   0.000000
     3  H    2.291746   1.078605   0.000000
 Stoichiometry    C2H(2)
 Framework group  C*V[C*(HCC)]
 Deg. of freedom     2
 Full point group                 C*V     NOp   4
 Largest Abelian subgroup         C2V     NOp   4
 Largest concise Abelian subgroup C1      NOp   1
                         Standard orientation:                         
 ---------------------------------------------------------------------
 Center     Atomic      Atomic             Coordinates (Angstroms)
 Number     Number       Type             X           Y           Z
 ---------------------------------------------------------------------
      1          6           0        0.000000    0.000000    0.736199
      2          6           0        0.000000    0.000000   -0.476941
      3          1           0        0.000000    0.000000   -1.555546
 ---------------------------------------------------------------------
 Rotational constants (GHZ):           0.0000000          43.6538828          43.6538828
 Standard basis: def2SVPP (5D, 7F)
 There are    18 symmetry adapted cartesian basis functions of A1  symmetry.
 There are     2 symmetry adapted cartesian basis functions of A2  symmetry.
 There are     6 symmetry adapted cartesian basis functions of B1  symmetry.
 There are     6 symmetry adapted cartesian basis functions of B2  symmetry.
 There are    16 symmetry adapted basis functions of A1  symmetry.
 There are     2 symmetry adapted basis functions of A2  symmetry.
 There are     6 symmetry adapted basis functions of B1  symmetry.
 There are     6 symmetry adapted basis functions of B2  symmetry.
    30 basis functions,    54 primitive gaussians,    32 cartesian basis functions
     7 alpha electrons        6 beta electrons
       nuclear repulsion energy        20.0324688375 Hartrees.
 NAtoms=    3 NActive=    3 NUniq=    3 SFac= 1.00D+00 NAtFMM=   60 NAOKFM=F Big=F
 Integral buffers will be    131072 words long.
 Raffenetti 2 integral format.
 Two-electron integral symmetry is turned on.
 Nuclear repulsion after empirical dispersion term =       20.0306880266 Hartrees.
 One-electron integrals computed using PRISM.
   4 Symmetry operations used in ECPInt.
 ECPInt:  NShTT=     105 NPrTT=     435 LenC2=     106 LenP2D=     415.
 LDataN:  DoStor=T MaxTD1= 4 Len=   56
 NBasis=    30 RedAO= T EigKep=  2.22D-03  NBF=    16     2     6     6
 NBsUse=    30 1.00D-06 EigRej= -1.00D+00 NBFU=    16     2     6     6
 Initial guess from the checkpoint file:  "/home/software/g16tmp/Gau-123546.chk"
 B after Tr=     0.000000    0.000000   -0.000000
         Rot=    1.000000    0.000000    0.000000    0.000000 Ang=   0.00 deg.
 Initial guess orbital symmetries:
 Alpha Orbitals:
       Occupied  (SG) (SG) (SG) (SG) (SG) (PI) (PI)
       Virtual   (PI) (PI) (SG) (SG) (SG) (SG) (PI) (PI) (PI) (PI)
                 (SG) (SG) (SG) (PI) (PI) (DLTA) (DLTA) (DLTA)
                 (DLTA) (SG) (PI) (PI) (SG)
 Beta  Orbitals:
       Occupied  (SG) (SG) (SG) (SG) (PI) (PI)
       Virtual   (SG) (PI) (PI) (SG) (SG) (SG) (SG) (PI) (PI) (PI)
                 (PI) (SG) (SG) (SG) (PI) (PI) (DLTA) (DLTA) (DLTA)
                 (DLTA) (SG) (PI) (PI) (SG)
 Initial guess <Sx>= 0.0000 <Sy>= 0.0000 <Sz>= 0.5000 <S**2>= 0.7748 S= 0.5123
 ExpMin= 1.22D-01 ExpMax= 1.24D+03 ExpMxC= 1.86D+02 IAcc=3 IRadAn=         5 AccDes= 0.00D+00
 Harris functional with IExCor=  402 and IRadAn=       5 diagonalized for initial guess.
 HarFok:  IExCor=  402 AccDes= 0.00D+00 IRadAn=         5 IDoV= 1 UseB2=F ITyADJ=14
 ICtDFT=  3500011 ScaDFX=  1.000000  1.000000  1.000000  1.000000
 FoFCou: FMM=F IPFlag=           0 FMFlag=      100000 FMFlg1=           0
         NFxFlg=           0 DoJE=T BraDBF=F KetDBF=T FulRan=T
         wScrn=  0.000000 ICntrl=       500 IOpCl=  0 I1Cent=   200000004 NGrid=           0
         NMat0=    1 NMatS0=      1 NMatT0=    0 NMatD0=    1 NMtDS0=    0 NMtDT0=    0
 Petite list used in FoFCou.
 Keep R1 and R2 ints in memory in symmetry-blocked form, NReq=13931357.
 Requested convergence on RMS density matrix=1.00D-08 within 128 cycles.
 Requested convergence on MAX density matrix=1.00D-06.
 Requested convergence on             energy=1.00D-06.
 No special actions if energy rises.
 Integral accuracy reduced to 1.0D-05 until final iterations.
 Initial convergence to 1.0D-05 achieved.  Increase integral accuracy.
 SCF Done:  E(UB3LYP) =  -76.5488171584     A.U. after   12 cycles
            NFock= 12  Conv=0.47D-08     -V/T= 2.0101
 <Sx>= 0.0000 <Sy>= 0.0000 <Sz>= 0.5000 <S**2>= 0.7758 S= 0.5128
 <L.S>=  0.00000000000    
 Annihilation of the first spin contaminant:
 S**2 before annihilation     0.7758,   after     0.7504
   4 Symmetry operations used in ECPInt.
 ECPInt:  NShTT=     105 NPrTT=     435 LenC2=     106 LenP2D=     415.
 LDataN:  DoStor=T MaxTD1= 5 Len=  102
 Calling FoFJK, ICntrl=      2127 FMM=F ISym2X=1 I1Cent= 0 IOpClX= 1 NMat=1 NMatS=1 NMatT=0.
 ***** Axes restored to original set *****
 -------------------------------------------------------------------
 Center     Atomic                   Forces (Hartrees/Bohr)
 Number     Number              X              Y              Z
 -------------------------------------------------------------------
      1        6           0.000648664   -0.000000000   -0.000000000
      2        6           0.000647778   -0.000000000   -0.000000000
      3        1          -0.001296442   -0.000000000   -0.000000000
 -------------------------------------------------------------------
 Cartesian Forces:  Max     0.001296442 RMS     0.000529270

 GradGradGradGradGradGradGradGradGradGradGradGradGradGradGradGradGradGrad
 Berny optimization.
 Using GEDIIS/GDIIS optimizer.
 Internal  Forces:  Max     0.001296442 RMS     0.000724832
 Search for a local minimum.
 Step number   2 out of a maximum of   20
 All quantities printed in internal units (Hartrees-Bohrs-Radians)
 Mixed Optimization -- En-DIIS/RFO-DIIS
 Update second derivatives using D2CorX and points    1    2
 DE= -3.56D-04 DEPred=-3.93D-04 R= 9.06D-01
 TightC=F SS=  1.41D+00  RLast= 4.08D-02 DXNew= 5.0454D-01 1.2251D-01
 Trust test= 9.06D-01 RLast= 4.08D-02 DXMaxT set to 3.00D-01
 The second derivative matrix:
                          R1        R2        A1        A2
           R1           1.02517
           R2           0.01599   0.41595
           A1           0.00000   0.00000   0.00652
           A2           0.00000   0.00000   0.00000   0.00652
 ITU=  1  0
 Use linear search instead of GDIIS.
     Eigenvalues ---    0.00652   0.00652   0.41553   1.02559
 RFO step:  Lambda=-3.04609095D-07 EMin= 6.52308419D-03
 Quartic linear search produced a step of -0.07314.
 Iteration  1 RMS(Cart)=  0.00146332 RMS(Int)=  0.00000000
 Iteration  2 RMS(Cart)=  0.00000000 RMS(Int)=  0.00000001
 ClnCor:  largest displacement from symmetrization is 0.00D+00 for atom     0.
 Variable       Old X    -DE/DX   Delta X   Delta X   Delta X     New X
                                 (Linear)    (Quad)   (Total)
    R1        2.29250  -0.00065  -0.00107   0.00047  -0.00061   2.29190
    R2        2.03827  -0.00130  -0.00279  -0.00046  -0.00324   2.03503
    A1        3.14159  -0.00000   0.00000   0.00000  -0.00000   3.14159
    A2        3.14159  -0.00000   0.00000   0.00000  -0.00000   3.14159
         Item               Value     Threshold  Converged?
 Maximum Force            0.001296     0.000450     NO 
 RMS     Force            0.000725     0.000300     NO 
 Maximum Displacement     0.002364     0.001800     NO 
 RMS     Displacement     0.001463     0.001200     NO 
 Predicted change in Energy=-2.190534D-06
 GradGradGradGradGradGradGradGradGradGradGradGradGradGradGradGradGradGrad

                          Input orientation:                          
 ---------------------------------------------------------------------
 Center     Atomic      Atomic             Coordinates (Angstroms)
 Number     Number       Type             X           Y           Z
 ---------------------------------------------------------------------
      1          6           0        1.032814   -0.065340   -0.075700
      2          6           0        2.245634   -0.065340   -0.075700
      3          1           0        3.322523   -0.065340   -0.075700
 ---------------------------------------------------------------------
                    Distance matrix (angstroms):
                    1          2          3
     1  C    0.000000
     2  C    1.212820   0.000000
     3  H    2.289709   1.076889   0.000000
 Stoichiometry    C2H(2)
 Framework group  C*V[C*(HCC)]
 Deg. of freedom     2
 Full point group                 C*V     NOp   4
 Largest Abelian subgroup         C2V     NOp   4
 Largest concise Abelian subgroup C1      NOp   1
                         Standard orientation:                         
 ---------------------------------------------------------------------
 Center     Atomic      Atomic             Coordinates (Angstroms)
 Number     Number       Type             X           Y           Z
 ---------------------------------------------------------------------
      1          6           0        0.000000    0.000000    0.735895
      2          6           0        0.000000    0.000000   -0.476925
      3          1           0        0.000000    0.000000   -1.553814
 ---------------------------------------------------------------------
 Rotational constants (GHZ):           0.0000000          43.6945594          43.6945594
 Standard basis: def2SVPP (5D, 7F)
 There are    18 symmetry adapted cartesian basis functions of A1  symmetry.
 There are     2 symmetry adapted cartesian basis functions of A2  symmetry.
 There are     6 symmetry adapted cartesian basis functions of B1  symmetry.
 There are     6 symmetry adapted cartesian basis functions of B2  symmetry.
 There are    16 symmetry adapted basis functions of A1  symmetry.
 There are     2 symmetry adapted basis functions of A2  symmetry.
 There are     6 symmetry adapted basis functions of B1  symmetry.
 There are     6 symmetry adapted basis functions of B2  symmetry.
    30 basis functions,    54 primitive gaussians,    32 cartesian basis functions
     7 alpha electrons        6 beta electrons
       nuclear repulsion energy        20.0425410933 Hartrees.
 NAtoms=    3 NActive=    3 NUniq=    3 SFac= 1.00D+00 NAtFMM=   60 NAOKFM=F Big=F
 Integral buffers will be    131072 words long.
 Raffenetti 2 integral format.
 Two-electron integral symmetry is turned on.
 Nuclear repulsion after empirical dispersion term =       20.0407601091 Hartrees.
 One-electron integrals computed using PRISM.
   4 Symmetry operations used in ECPInt.
 ECPInt:  NShTT=     105 NPrTT=     435 LenC2=     106 LenP2D=     416.
 LDataN:  DoStor=T MaxTD1= 4 Len=   56
 NBasis=    30 RedAO= T EigKep=  2.21D-03  NBF=    16     2     6     6
 NBsUse=    30 1.00D-06 EigRej= -1.00D+00 NBFU=    16     2     6     6
 Initial guess from the checkpoint file:  "/home/software/g16tmp/Gau-123546.chk"
 B after Tr=     0.000000    0.000000    0.000000
         Rot=    1.000000    0.000000    0.000000    0.000000 Ang=   0.00 deg.
 Initial guess orbital symmetries:
 Alpha Orbitals:
       Occupied  (SG) (SG) (SG) (SG) (SG) (PI) (PI)
       Virtual   (PI) (PI) (SG) (SG) (SG) (SG) (PI) (PI) (PI) (PI)
                 (SG) (SG) (SG) (PI) (PI) (DLTA) (DLTA) (DLTA)
                 (DLTA) (SG) (PI) (PI) (SG)
 Beta  Orbitals:
       Occupied  (SG) (SG) (SG) (SG) (PI) (PI)
       Virtual   (SG) (PI) (PI) (SG) (SG) (SG) (SG) (PI) (PI) (PI)
                 (PI) (SG) (SG) (SG) (PI) (PI) (DLTA) (DLTA) (DLTA)
                 (DLTA) (SG) (PI) (PI) (SG)
 Initial guess <Sx>= 0.0000 <Sy>= 0.0000 <Sz>= 0.5000 <S**2>= 0.7758 S= 0.5128
 Keep R1 and R2 ints in memory in symmetry-blocked form, NReq=13931357.
 Requested convergence on RMS density matrix=1.00D-08 within 128 cycles.
 Requested convergence on MAX density matrix=1.00D-06.
 Requested convergence on             energy=1.00D-06.
 No special actions if energy rises.
 SCF Done:  E(UB3LYP) =  -76.5488194581     A.U. after    9 cycles
            NFock=  9  Conv=0.36D-08     -V/T= 2.0101
 <Sx>= 0.0000 <Sy>= 0.0000 <Sz>= 0.5000 <S**2>= 0.7757 S= 0.5128
 <L.S>=  0.00000000000    
 Annihilation of the first spin contaminant:
 S**2 before annihilation     0.7757,   after     0.7504
   4 Symmetry operations used in ECPInt.
 ECPInt:  NShTT=     105 NPrTT=     435 LenC2=     106 LenP2D=     416.
 LDataN:  DoStor=T MaxTD1= 5 Len=  102
 Calling FoFJK, ICntrl=      2127 FMM=F ISym2X=1 I1Cent= 0 IOpClX= 1 NMat=1 NMatS=1 NMatT=0.
 ***** Axes restored to original set *****
 -------------------------------------------------------------------
 Center     Atomic                   Forces (Hartrees/Bohr)
 Number     Number              X              Y              Z
 -------------------------------------------------------------------
      1        6           0.000031558   -0.000000000   -0.000000000
      2        6          -0.000038934   -0.000000000   -0.000000000
      3        1           0.000007376   -0.000000000   -0.000000000
 -------------------------------------------------------------------
 Cartesian Forces:  Max     0.000038934 RMS     0.000016886

 GradGradGradGradGradGradGradGradGradGradGradGradGradGradGradGradGradGrad
 Berny optimization.
 Using GEDIIS/GDIIS optimizer.
 Internal  Forces:  Max     0.000031558 RMS     0.000016204
 Search for a local minimum.
 Step number   3 out of a maximum of   20
 All quantities printed in internal units (Hartrees-Bohrs-Radians)
 Mixed Optimization -- En-DIIS/RFO-DIIS
 Swapping is turned off.
 Update second derivatives using D2CorX and points    1    2    3
 DE= -2.30D-06 DEPred=-2.19D-06 R= 1.05D+00
 TightC=F SS=  1.41D+00  RLast= 3.30D-03 DXNew= 5.0454D-01 9.8973D-03
 Trust test= 1.05D+00 RLast= 3.30D-03 DXMaxT set to 3.00D-01
 The second derivative matrix:
                          R1        R2        A1        A2
           R1           1.01418
           R2           0.00092   0.40186
           A1          -0.00000  -0.00000   0.00652
           A2          -0.00000  -0.00000  -0.00000   0.00652
 ITU=  1  1  0
     Eigenvalues ---    0.00652   0.00652   0.40186   1.01418
 En-DIIS/RFO-DIIS/Sim-DIIS IScMMF=       -3 using points:     3    2
 RFO step:  Lambda=-1.06471597D-09.
 DidBck=F Rises=F RFO-DIIS coefs:    0.99624    0.00376
 Iteration  1 RMS(Cart)=  0.00001107 RMS(Int)=  0.00000001
 Iteration  2 RMS(Cart)=  0.00000001 RMS(Int)=  0.00000000
 ClnCor:  largest displacement from symmetrization is 2.13D-08 for atom     2.
 Variable       Old X    -DE/DX   Delta X   Delta X   Delta X     New X
                                 (Linear)    (Quad)   (Total)
    R1        2.29190  -0.00003   0.00000  -0.00003  -0.00003   2.29187
    R2        2.03503   0.00001   0.00001   0.00001   0.00002   2.03504
    A1        3.14159  -0.00000   0.00000  -0.00000   0.00000   3.14159
    A2        3.14159  -0.00000   0.00000  -0.00000   0.00000   3.14159
         Item               Value     Threshold  Converged?
 Maximum Force            0.000032     0.000450     YES
 RMS     Force            0.000016     0.000300     YES
 Maximum Displacement     0.000017     0.001800     YES
 RMS     Displacement     0.000011     0.001200     YES
 Predicted change in Energy=-5.592214D-10
 Optimization completed.
    -- Stationary point found.
                           ----------------------------
                           !   Optimized Parameters   !
                           ! (Angstroms and Degrees)  !
 --------------------------                            --------------------------
 ! Name  Definition              Value          Derivative Info.                !
 --------------------------------------------------------------------------------
 ! R1    R(1,2)                  1.2128         -DE/DX =    0.0                 !
 ! R2    R(2,3)                  1.0769         -DE/DX =    0.0                 !
 ! A1    L(1,2,3,-2,-1)        180.0            -DE/DX =    0.0                 !
 ! A2    L(1,2,3,-3,-2)        180.0            -DE/DX =    0.0                 !
 --------------------------------------------------------------------------------
 GradGradGradGradGradGradGradGradGradGradGradGradGradGradGradGradGradGrad

                          Input orientation:                          
 ---------------------------------------------------------------------
 Center     Atomic      Atomic             Coordinates (Angstroms)
 Number     Number       Type             X           Y           Z
 ---------------------------------------------------------------------
      1          6           0        1.032814   -0.065340   -0.075700
      2          6           0        2.245634   -0.065340   -0.075700
      3          1           0        3.322523   -0.065340   -0.075700
 ---------------------------------------------------------------------
                    Distance matrix (angstroms):
                    1          2          3
     1  C    0.000000
     2  C    1.212820   0.000000
     3  H    2.289709   1.076889   0.000000
 Stoichiometry    C2H(2)
 Framework group  C*V[C*(HCC)]
 Deg. of freedom     2
 Full point group                 C*V     NOp   4
 Largest Abelian subgroup         C2V     NOp   4
 Largest concise Abelian subgroup C1      NOp   1
                         Standard orientation:                         
 ---------------------------------------------------------------------
 Center     Atomic      Atomic             Coordinates (Angstroms)
 Number     Number       Type             X           Y           Z
 ---------------------------------------------------------------------
      1          6           0        0.000000    0.000000    0.735895
      2          6           0        0.000000    0.000000   -0.476925
      3          1           0        0.000000    0.000000   -1.553814
 ---------------------------------------------------------------------
 Rotational constants (GHZ):           0.0000000          43.6945594          43.6945594

 **********************************************************************

            Population analysis using the SCF Density.

 **********************************************************************

 Orbital symmetries:
 Alpha Orbitals:
       Occupied  (SG) (SG) (SG) (SG) (SG) (PI) (PI)
       Virtual   (PI) (PI) (SG) (SG) (SG) (SG) (PI) (PI) (PI) (PI)
                 (SG) (SG) (SG) (PI) (PI) (DLTA) (DLTA) (DLTA)
                 (DLTA) (SG) (PI) (PI) (SG)
 Beta  Orbitals:
       Occupied  (SG) (SG) (SG) (SG) (PI) (PI)
       Virtual   (SG) (PI) (PI) (SG) (SG) (SG) (SG) (PI) (PI) (PI)
                 (PI) (SG) (SG) (SG) (PI) (PI) (DLTA) (DLTA) (DLTA)
                 (DLTA) (SG) (PI) (PI) (SG)
 The electronic state is 2-SG.
 Alpha  occ. eigenvalues --  -10.25263 -10.21270  -0.76195  -0.55236  -0.40123
 Alpha  occ. eigenvalues --   -0.31398  -0.31398
 Alpha virt. eigenvalues --    0.02054   0.02054   0.08383   0.26806   0.36858
 Alpha virt. eigenvalues --    0.39455   0.45901   0.45901   0.57556   0.57556
 Alpha virt. eigenvalues --    0.63876   0.92523   1.02450   1.46878   1.46878
 Alpha virt. eigenvalues --    1.51648   1.51648   1.90522   1.90522   2.17846
 Alpha virt. eigenvalues --    2.44525   2.44525   2.94019
  Beta  occ. eigenvalues --  -10.23039 -10.21279  -0.74344  -0.54373  -0.30013
  Beta  occ. eigenvalues --   -0.30013
  Beta virt. eigenvalues --   -0.19117   0.04441   0.04441   0.08417   0.27034
  Beta virt. eigenvalues --    0.40449   0.45306   0.46462   0.46462   0.58716
  Beta virt. eigenvalues --    0.58716   0.63715   0.95238   1.04028   1.50868
  Beta virt. eigenvalues --    1.50868   1.53019   1.53019   1.92134   1.92134
  Beta virt. eigenvalues --    2.23674   2.48717   2.48717   2.98656
          Condensed to atoms (all electrons):
               1          2          3
     1  C    5.314070   0.763807  -0.089974
     2  C    0.763807   4.939626   0.426285
     3  H   -0.089974   0.426285   0.546066
          Atomic-Atomic Spin Densities.
               1          2          3
     1  C    1.111744   0.046071  -0.005529
     2  C    0.046071  -0.227539   0.000150
     3  H   -0.005529   0.000150   0.034412
 Mulliken charges and spin densities:
               1          2
     1  C    0.012096   1.152286
     2  C   -0.129718  -0.181318
     3  H    0.117622   0.029032
 Sum of Mulliken charges =  -0.00000   1.00000
 Mulliken charges and spin densities with hydrogens summed into heavy atoms:
               1          2
     1  C    0.012096   1.152286
     2  C   -0.012096  -0.152286
 Electronic spatial extent (au):  <R**2>=             49.8882
 Charge=             -0.0000 electrons
 Dipole moment (field-independent basis, Debye):
    X=              0.0000    Y=              0.0000    Z=             -0.7555  Tot=              0.7555
 Quadrupole moment (field-independent basis, Debye-Ang):
   XX=            -12.5656   YY=            -12.5656   ZZ=             -8.2116
   XY=              0.0000   XZ=              0.0000   YZ=              0.0000
 Traceless Quadrupole moment (field-independent basis, Debye-Ang):
   XX=             -1.4514   YY=             -1.4514   ZZ=              2.9027
   XY=              0.0000   XZ=              0.0000   YZ=              0.0000
 Octapole moment (field-independent basis, Debye-Ang**2):
  XXX=              0.0000  YYY=              0.0000  ZZZ=             -4.2885  XYY=              0.0000
  XXY=              0.0000  XXZ=             -0.4668  XZZ=              0.0000  YZZ=              0.0000
  YYZ=             -0.4668  XYZ=              0.0000
 Hexadecapole moment (field-independent basis, Debye-Ang**3):
 XXXX=            -13.9546 YYYY=            -13.9546 ZZZZ=            -37.5840 XXXY=              0.0000
 XXXZ=              0.0000 YYYX=              0.0000 YYYZ=              0.0000 ZZZX=              0.0000
 ZZZY=              0.0000 XXYY=             -4.6515 XXZZ=             -9.8980 YYZZ=             -9.8980
 XXYZ=              0.0000 YYXZ=              0.0000 ZZXY=              0.0000
 N-N= 2.004076010906D+01 E-N=-2.173835249032D+02  KE= 7.578576317706D+01
 Symmetry A1   KE= 7.124456164965D+01
 Symmetry A2   KE=-1.031880474527D-51
 Symmetry B1   KE= 2.270600763705D+00
 Symmetry B2   KE= 2.270600763705D+00
 Symmetry A1   SP= 1.000000000000D+00
 Symmetry A2   SP= 3.685287409025D-52
 Symmetry B1   SP= 2.090992309856D-15
 Symmetry B2   SP= 1.111036176255D-15
                          Isotropic Fermi Contact Couplings
        Atom                 a.u.       MegaHertz       Gauss      10(-4) cm-1
     1  C(13)              1.25569    1411.63054     503.70488     470.86926
     2  C(13)              0.20361     228.89371      81.67497      76.35072
     3  H(1)               0.01050      46.93217      16.74656      15.65489
 --------------------------------------------------------
       Center         ----  Spin Dipole Couplings  ----
                      3XX-RR        3YY-RR        3ZZ-RR
 --------------------------------------------------------
     1   Atom       -0.330063     -0.330063      0.660127
     2   Atom       -0.166877     -0.166877      0.333755
     3   Atom       -0.004469     -0.004469      0.008938
 --------------------------------------------------------
                        XY            XZ            YZ
 --------------------------------------------------------
     1   Atom        0.000000      0.000000      0.000000
     2   Atom        0.000000      0.000000      0.000000
     3   Atom        0.000000      0.000000      0.000000
 --------------------------------------------------------


 ---------------------------------------------------------------------------------
              Anisotropic Spin Dipole Couplings in Principal Axis System
 ---------------------------------------------------------------------------------

       Atom             a.u.   MegaHertz   Gauss  10(-4) cm-1        Axes

              Baa    -0.3301   -44.291   -15.804   -14.774  1.0000  0.0000  0.0000
     1 C(13)  Bbb    -0.3301   -44.291   -15.804   -14.774 -0.0000  1.0000  0.0000
              Bcc     0.6601    88.583    31.609    29.548  0.0000  0.0000  1.0000
 
              Baa    -0.1669   -22.393    -7.991    -7.470 -0.0000  1.0000  0.0000
     2 C(13)  Bbb    -0.1669   -22.393    -7.991    -7.470  1.0000  0.0000  0.0000
              Bcc     0.3338    44.787    15.981    14.939  0.0000  0.0000  1.0000
 
              Baa    -0.0045    -2.384    -0.851    -0.795  1.0000  0.0000  0.0000
     3 H(1)   Bbb    -0.0045    -2.384    -0.851    -0.795 -0.0000  1.0000  0.0000
              Bcc     0.0089     4.769     1.702     1.591  0.0000  0.0000  1.0000
 

 ---------------------------------------------------------------------------------

 Unable to Open any file for archive entry.
 1\1\GINC-NODE02\FOpt\UB3LYP\def2SVPP\C2H1(2)\XUHJ\19-Dec-2023\0\\#N op
 t freq B3LYP/def2SVPP symm=veryloose em=gd3bj scale=0.961 press=0.987\
 \[C]#C_1\\0,2\C,1.0328136795,-0.06534,-0.0757\C,2.2456336602,-0.06534,
 -0.0757\H,3.3225226602,-0.06534,-0.0757\\Version=ES64L-G16RevC.01\Stat
 e=2-SG\HF=-76.5488195\S2=0.775716\S2-1=0.\S2A=0.750386\RMSD=3.645e-09\
 RMSF=1.689e-05\Dipole=0.2972252,0.,0.\Quadrupole=2.1580987,-1.0790493,
 -1.0790493,0.,0.,0.\PG=C*V [C*(H1C1C1)]\\@
 The archive entry for this job was punched.


 EDUCATION IS NOT TRAINING BUT RATHER THE PROCESS THAT EQUIPS YOU TO
 ENTERTAIN YOURSELF, A FRIEND, OR AN IDEA.  -- WALLACE STERLING
 Job cpu time:       0 days  0 hours  0 minutes 51.9 seconds.
 Elapsed time:       0 days  0 hours  0 minutes  4.6 seconds.
 File lengths (MBytes):  RWF=     17 Int=      0 D2E=      0 Chk=      2 Scr=      2
 Normal termination of Gaussian 16 at Tue Dec 19 12:56:51 2023.
 Link1:  Proceeding to internal job step number  2.
 --------------------------------------------------------------------
 #N Geom=AllCheck Guess=TCheck SCRF=Check GenChk UB3LYP/def2SVPP Freq
 --------------------------------------------------------------------
 1/10=4,29=7,30=1,38=1,40=1,113=-987000,114=961000/1,3;
 2/12=2,17=2,18=2,40=1/2;
 3/5=43,7=202,11=2,14=-4,25=1,30=1,70=2,71=2,74=-5,116=2,124=41,140=1/1,2,3;
 4/5=101/1;
 5/5=2,38=6,98=1/2;
 8/6=4,10=90,11=11/1;
 11/6=1,8=1,9=11,15=111,16=1/1,2,10;
 10/6=1/2;
 6/7=2,8=2,9=2,10=2,28=1/1;
 7/8=1,10=1,25=1/1,2,3,16;
 1/10=4,30=1/3;
 99//99;
 Structure from the checkpoint file:  "/home/software/g16tmp/Gau-123546.chk"
 -------
 [C]#C_1
 -------
 Charge =  0 Multiplicity = 2
 Redundant internal coordinates found in file.  (old form).
 C,0,1.0328136795,-0.06534,-0.0757
 C,0,2.2456336602,-0.06534,-0.0757
 H,0,3.3225226602,-0.06534,-0.0757
 Recover connectivity data from disk.

 GradGradGradGradGradGradGradGradGradGradGradGradGradGradGradGradGradGrad
 Berny optimization.
 Initialization pass.
                           ----------------------------
                           !    Initial Parameters    !
                           ! (Angstroms and Degrees)  !
 --------------------------                            --------------------------
 ! Name  Definition              Value          Derivative Info.                !
 --------------------------------------------------------------------------------
 ! R1    R(1,2)                  1.2128         calculate D2E/DX2 analytically  !
 ! R2    R(2,3)                  1.0769         calculate D2E/DX2 analytically  !
 ! A1    L(1,2,3,-2,-1)        180.0            calculate D2E/DX2 analytically  !
 ! A2    L(1,2,3,-3,-2)        180.0            calculate D2E/DX2 analytically  !
 --------------------------------------------------------------------------------
 Trust Radius=3.00D-01 FncErr=1.00D-07 GrdErr=1.00D-07 EigMax=2.50D+02 EigMin=1.00D-04
 Number of steps in this run=      2 maximum allowed number of steps=      2.
 GradGradGradGradGradGradGradGradGradGradGradGradGradGradGradGradGradGrad

                          Input orientation:                          
 ---------------------------------------------------------------------
 Center     Atomic      Atomic             Coordinates (Angstroms)
 Number     Number       Type             X           Y           Z
 ---------------------------------------------------------------------
      1          6           0        1.032814   -0.065340   -0.075700
      2          6           0        2.245634   -0.065340   -0.075700
      3          1           0        3.322523   -0.065340   -0.075700
 ---------------------------------------------------------------------
                    Distance matrix (angstroms):
                    1          2          3
     1  C    0.000000
     2  C    1.212820   0.000000
     3  H    2.289709   1.076889   0.000000
 Stoichiometry    C2H(2)
 Framework group  C*V[C*(HCC)]
 Deg. of freedom     2
 Full point group                 C*V     NOp   4
 Largest Abelian subgroup         C2V     NOp   4
 Largest concise Abelian subgroup C1      NOp   1
                         Standard orientation:                         
 ---------------------------------------------------------------------
 Center     Atomic      Atomic             Coordinates (Angstroms)
 Number     Number       Type             X           Y           Z
 ---------------------------------------------------------------------
      1          6           0        0.000000    0.000000    0.735895
      2          6           0        0.000000    0.000000   -0.476925
      3          1           0        0.000000    0.000000   -1.553814
 ---------------------------------------------------------------------
 Rotational constants (GHZ):           0.0000000          43.6945594          43.6945594
 Standard basis: def2SVPP (5D, 7F)
 There are    18 symmetry adapted cartesian basis functions of A1  symmetry.
 There are     2 symmetry adapted cartesian basis functions of A2  symmetry.
 There are     6 symmetry adapted cartesian basis functions of B1  symmetry.
 There are     6 symmetry adapted cartesian basis functions of B2  symmetry.
 There are    16 symmetry adapted basis functions of A1  symmetry.
 There are     2 symmetry adapted basis functions of A2  symmetry.
 There are     6 symmetry adapted basis functions of B1  symmetry.
 There are     6 symmetry adapted basis functions of B2  symmetry.
    30 basis functions,    54 primitive gaussians,    32 cartesian basis functions
     7 alpha electrons        6 beta electrons
       nuclear repulsion energy        20.0425410933 Hartrees.
 NAtoms=    3 NActive=    3 NUniq=    3 SFac= 1.00D+00 NAtFMM=   60 NAOKFM=F Big=F
 Integral buffers will be    131072 words long.
 Raffenetti 2 integral format.
 Two-electron integral symmetry is turned on.
 Nuclear repulsion after empirical dispersion term =       20.0407601091 Hartrees.
 One-electron integrals computed using PRISM.
   4 Symmetry operations used in ECPInt.
 ECPInt:  NShTT=     105 NPrTT=     435 LenC2=     106 LenP2D=     416.
 LDataN:  DoStor=T MaxTD1= 4 Len=   56
 NBasis=    30 RedAO= T EigKep=  2.21D-03  NBF=    16     2     6     6
 NBsUse=    30 1.00D-06 EigRej= -1.00D+00 NBFU=    16     2     6     6
 Initial guess from the checkpoint file:  "/home/software/g16tmp/Gau-123546.chk"
 B after Tr=     0.000000    0.000000    0.000000
         Rot=    1.000000    0.000000    0.000000    0.000000 Ang=   0.00 deg.
 Initial guess orbital symmetries:
 Alpha Orbitals:
       Occupied  (SG) (SG) (SG) (SG) (SG) (PI) (PI)
       Virtual   (PI) (PI) (SG) (SG) (SG) (SG) (PI) (PI) (PI) (PI)
                 (SG) (SG) (SG) (PI) (PI) (DLTA) (DLTA) (DLTA)
                 (DLTA) (SG) (PI) (PI) (SG)
 Beta  Orbitals:
       Occupied  (SG) (SG) (SG) (SG) (PI) (PI)
       Virtual   (SG) (PI) (PI) (SG) (SG) (SG) (SG) (PI) (PI) (PI)
                 (PI) (SG) (SG) (SG) (PI) (PI) (DLTA) (DLTA) (DLTA)
                 (DLTA) (SG) (PI) (PI) (SG)
 Initial guess <Sx>= 0.0000 <Sy>= 0.0000 <Sz>= 0.5000 <S**2>= 0.7757 S= 0.5128
 Keep R1 and R2 ints in memory in symmetry-blocked form, NReq=13931357.
 Requested convergence on RMS density matrix=1.00D-08 within 128 cycles.
 Requested convergence on MAX density matrix=1.00D-06.
 Requested convergence on             energy=1.00D-06.
 No special actions if energy rises.
 SCF Done:  E(UB3LYP) =  -76.5488194581     A.U. after    1 cycles
            NFock=  1  Conv=0.79D-09     -V/T= 2.0101
 <Sx>= 0.0000 <Sy>= 0.0000 <Sz>= 0.5000 <S**2>= 0.7757 S= 0.5128
 <L.S>=  0.00000000000    
 Annihilation of the first spin contaminant:
 S**2 before annihilation     0.7757,   after     0.7504
 DoSCS=F DFT=T ScalE2(SS,OS)=  1.000000  1.000000
 Range of M.O.s used for correlation:     1    30
 NBasis=    30 NAE=     7 NBE=     6 NFC=     0 NFV=     0
 NROrb=     30 NOA=     7 NOB=     6 NVA=    23 NVB=    24
   4 Symmetry operations used in ECPInt.
 ECPInt:  NShTT=     105 NPrTT=     435 LenC2=     106 LenP2D=     416.
 LDataN:  DoStor=T MaxTD1= 5 Len=  102
 Symmetrizing basis deriv contribution to polar:
 IMax=3 JMax=2 DiffMx= 0.00D+00
 G2DrvN: will do     4 centers at a time, making    1 passes.
 Calling FoFCou, ICntrl=  3107 FMM=F I1Cent=   0 AccDes= 0.00D+00.
 End of G2Drv F.D. properties file   721 does not exist.
 End of G2Drv F.D. properties file   722 does not exist.
 End of G2Drv F.D. properties file   788 does not exist.
          IDoAtm=111
          Differentiating once with respect to electric field.
                with respect to dipole field.
          Differentiating once with respect to nuclear coordinates.
 Keep R1 and R2 ints in memory in symmetry-blocked form, NReq=13878105.
          There are    12 degrees of freedom in the 1st order CPHF.  IDoFFX=6 NUNeed=     3.
      9 vectors produced by pass  0 Test12= 2.54D-15 8.33D-09 XBig12= 6.50D+01 3.79D+00.
 AX will form     9 AO Fock derivatives at one time.
      9 vectors produced by pass  1 Test12= 2.54D-15 8.33D-09 XBig12= 3.16D+01 1.92D+00.
      9 vectors produced by pass  2 Test12= 2.54D-15 8.33D-09 XBig12= 6.92D-01 3.30D-01.
      9 vectors produced by pass  3 Test12= 2.54D-15 8.33D-09 XBig12= 9.27D-03 5.66D-02.
      9 vectors produced by pass  4 Test12= 2.54D-15 8.33D-09 XBig12= 2.04D-05 1.71D-03.
      9 vectors produced by pass  5 Test12= 2.54D-15 8.33D-09 XBig12= 8.56D-08 7.36D-05.
      5 vectors produced by pass  6 Test12= 2.54D-15 8.33D-09 XBig12= 1.88D-10 4.29D-06.
      4 vectors produced by pass  7 Test12= 2.54D-15 8.33D-09 XBig12= 7.13D-13 3.13D-07.
      1 vectors produced by pass  8 Test12= 2.54D-15 8.33D-09 XBig12= 1.22D-15 1.14D-08.
 InvSVY:  IOpt=1 It=  1 EMax= 6.66D-16
 Solved reduced A of dimension    64 with     9 vectors.
 Isotropic polarizability for W=    0.000000       18.41 Bohr**3.
 End of Minotr F.D. properties file   721 does not exist.
 End of Minotr F.D. properties file   722 does not exist.
 End of Minotr F.D. properties file   788 does not exist.

 **********************************************************************

            Population analysis using the SCF Density.

 **********************************************************************

 Orbital symmetries:
 Alpha Orbitals:
       Occupied  (SG) (SG) (SG) (SG) (SG) (PI) (PI)
       Virtual   (PI) (PI) (SG) (SG) (SG) (SG) (PI) (PI) (PI) (PI)
                 (SG) (SG) (SG) (PI) (PI) (DLTA) (DLTA) (DLTA)
                 (DLTA) (SG) (PI) (PI) (SG)
 Beta  Orbitals:
       Occupied  (SG) (SG) (SG) (SG) (PI) (PI)
       Virtual   (SG) (PI) (PI) (SG) (SG) (SG) (SG) (PI) (PI) (PI)
                 (PI) (SG) (SG) (SG) (PI) (PI) (DLTA) (DLTA) (DLTA)
                 (DLTA) (SG) (PI) (PI) (SG)
 The electronic state is 2-SG.
 Alpha  occ. eigenvalues --  -10.25263 -10.21270  -0.76195  -0.55236  -0.40123
 Alpha  occ. eigenvalues --   -0.31398  -0.31398
 Alpha virt. eigenvalues --    0.02054   0.02054   0.08383   0.26806   0.36858
 Alpha virt. eigenvalues --    0.39455   0.45901   0.45901   0.57556   0.57556
 Alpha virt. eigenvalues --    0.63876   0.92523   1.02450   1.46878   1.46878
 Alpha virt. eigenvalues --    1.51648   1.51648   1.90522   1.90522   2.17846
 Alpha virt. eigenvalues --    2.44525   2.44525   2.94019
  Beta  occ. eigenvalues --  -10.23039 -10.21279  -0.74344  -0.54373  -0.30013
  Beta  occ. eigenvalues --   -0.30013
  Beta virt. eigenvalues --   -0.19117   0.04441   0.04441   0.08417   0.27034
  Beta virt. eigenvalues --    0.40449   0.45306   0.46462   0.46462   0.58716
  Beta virt. eigenvalues --    0.58716   0.63715   0.95238   1.04028   1.50868
  Beta virt. eigenvalues --    1.50868   1.53019   1.53019   1.92134   1.92134
  Beta virt. eigenvalues --    2.23674   2.48717   2.48717   2.98656
          Condensed to atoms (all electrons):
               1          2          3
     1  C    5.314070   0.763807  -0.089974
     2  C    0.763807   4.939626   0.426285
     3  H   -0.089974   0.426285   0.546066
          Atomic-Atomic Spin Densities.
               1          2          3
     1  C    1.111744   0.046071  -0.005529
     2  C    0.046071  -0.227539   0.000150
     3  H   -0.005529   0.000150   0.034412
 Mulliken charges and spin densities:
               1          2
     1  C    0.012096   1.152286
     2  C   -0.129719  -0.181318
     3  H    0.117622   0.029032
 Sum of Mulliken charges =   0.00000   1.00000
 Mulliken charges and spin densities with hydrogens summed into heavy atoms:
               1          2
     1  C    0.012096   1.152286
     2  C   -0.012096  -0.152286
 APT charges:
               1
     1  C   -0.144326
     2  C    0.084951
     3  H    0.059375
 Sum of APT charges =  -0.00000
 APT charges with hydrogens summed into heavy atoms:
               1
     1  C   -0.144326
     2  C    0.144326
 Electronic spatial extent (au):  <R**2>=             49.8882
 Charge=              0.0000 electrons
 Dipole moment (field-independent basis, Debye):
    X=              0.0000    Y=              0.0000    Z=             -0.7555  Tot=              0.7555
 Quadrupole moment (field-independent basis, Debye-Ang):
   XX=            -12.5656   YY=            -12.5656   ZZ=             -8.2116
   XY=              0.0000   XZ=              0.0000   YZ=              0.0000
 Traceless Quadrupole moment (field-independent basis, Debye-Ang):
   XX=             -1.4514   YY=             -1.4514   ZZ=              2.9027
   XY=              0.0000   XZ=              0.0000   YZ=              0.0000
 Octapole moment (field-independent basis, Debye-Ang**2):
  XXX=              0.0000  YYY=              0.0000  ZZZ=             -4.2885  XYY=              0.0000
  XXY=              0.0000  XXZ=             -0.4668  XZZ=              0.0000  YZZ=              0.0000
  YYZ=             -0.4668  XYZ=              0.0000
 Hexadecapole moment (field-independent basis, Debye-Ang**3):
 XXXX=            -13.9546 YYYY=            -13.9546 ZZZZ=            -37.5840 XXXY=              0.0000
 XXXZ=              0.0000 YYYX=              0.0000 YYYZ=              0.0000 ZZZX=              0.0000
 ZZZY=              0.0000 XXYY=             -4.6515 XXZZ=             -9.8980 YYZZ=             -9.8980
 XXYZ=              0.0000 YYXZ=              0.0000 ZZXY=              0.0000
 N-N= 2.004076010906D+01 E-N=-2.173835248875D+02  KE= 7.578576316155D+01
 Symmetry A1   KE= 7.124456164332D+01
 Symmetry A2   KE= 3.095641423581D-51
 Symmetry B1   KE= 2.270600759117D+00
 Symmetry B2   KE= 2.270600759117D+00
 Symmetry A1   SP= 1.000000000000D+00
 Symmetry A2   SP= 3.685287409025D-52
 Symmetry B1   SP= 1.687885942125D-15
 Symmetry B2   SP= 1.999702486932D-15
  Exact polarizability:      15.197       0.000      15.197       0.000       0.000      24.826
 Approx polarizability:      12.058      -0.000      12.058      -0.000      -0.000      48.462
                          Isotropic Fermi Contact Couplings
        Atom                 a.u.       MegaHertz       Gauss      10(-4) cm-1
     1  C(13)              1.25569    1411.63056     503.70488     470.86927
     2  C(13)              0.20361     228.89370      81.67496      76.35072
     3  H(1)               0.01050      46.93218      16.74657      15.65489
 --------------------------------------------------------
       Center         ----  Spin Dipole Couplings  ----
                      3XX-RR        3YY-RR        3ZZ-RR
 --------------------------------------------------------
     1   Atom       -0.330063     -0.330063      0.660127
     2   Atom       -0.166877     -0.166877      0.333755
     3   Atom       -0.004469     -0.004469      0.008938
 --------------------------------------------------------
                        XY            XZ            YZ
 --------------------------------------------------------
     1   Atom        0.000000      0.000000      0.000000
     2   Atom        0.000000      0.000000      0.000000
     3   Atom        0.000000      0.000000      0.000000
 --------------------------------------------------------


 ---------------------------------------------------------------------------------
              Anisotropic Spin Dipole Couplings in Principal Axis System
 ---------------------------------------------------------------------------------

       Atom             a.u.   MegaHertz   Gauss  10(-4) cm-1        Axes

              Baa    -0.3301   -44.291   -15.804   -14.774 -0.0000  1.0000  0.0000
     1 C(13)  Bbb    -0.3301   -44.291   -15.804   -14.774  1.0000  0.0000  0.0000
              Bcc     0.6601    88.583    31.609    29.548  0.0000  0.0000  1.0000
 
              Baa    -0.1669   -22.393    -7.991    -7.470  1.0000  0.0000  0.0000
     2 C(13)  Bbb    -0.1669   -22.393    -7.991    -7.470 -0.0000  1.0000  0.0000
              Bcc     0.3338    44.787    15.981    14.939  0.0000  0.0000  1.0000
 
              Baa    -0.0045    -2.384    -0.851    -0.795  1.0000  0.0000  0.0000
     3 H(1)   Bbb    -0.0045    -2.384    -0.851    -0.795 -0.0000  1.0000  0.0000
              Bcc     0.0089     4.769     1.702     1.591  0.0000  0.0000  1.0000
 

 ---------------------------------------------------------------------------------

   4 Symmetry operations used in ECPInt.
 ECPInt:  NShTT=     105 NPrTT=     435 LenC2=     106 LenP2D=     416.
 LDataN:  DoStor=T MaxTD1= 6 Len=  172
 Calling FoFJK, ICntrl=    100127 FMM=F ISym2X=1 I1Cent= 0 IOpClX= 1 NMat=1 NMatS=1 NMatT=0.
 Full mass-weighted force constant matrix:
 Low frequencies ---  -13.3622  -13.3622   -0.0006   -0.0006    0.0010  416.2787
 Low frequencies ---  416.2787 2092.7877 3447.4946
 Diagonal vibrational polarizability:
        0.5758725       0.5758725       0.1572739
 Harmonic frequencies (cm**-1), IR intensities (KM/Mole), Raman scattering
 activities (A**4/AMU), depolarization ratios for plane and unpolarized
 incident light, reduced masses (AMU), force constants (mDyne/A),
 and normal coordinates:
                      1                      2                      3
                     PI                     PI                     SG
 Frequencies --    416.2696               416.2696              2092.7877
 Red. masses --      1.3353                 1.3353                 5.6597
 Frc consts  --      0.1363                 0.1363                14.6048
 IR Inten    --      3.7080                 3.7080                 6.4417
  Atom  AN      X      Y      Z        X      Y      Z        X      Y      Z
     1   6     0.07   0.00   0.00     0.00   0.07   0.00     0.00   0.00   0.49
     2   6    -0.16   0.00   0.00     0.00  -0.16   0.00     0.00   0.00  -0.43
     3   1     0.98   0.00   0.00     0.00   0.98   0.00     0.00   0.00  -0.76
                      4
                     SG
 Frequencies --   3447.4946
 Red. masses --      1.1598
 Frc consts  --      8.1212
 IR Inten    --     51.9786
  Atom  AN      X      Y      Z
     1   6    -0.00  -0.00   0.03
     2   6    -0.00  -0.00  -0.11
     3   1    -0.00  -0.00   0.99

 -------------------
 - Thermochemistry -
 -------------------
 Temperature   298.150 Kelvin.  Pressure   0.98700 Atm.
 Thermochemistry will use frequencies scaled by 0.9610.
 Atom     1 has atomic number  6 and mass  12.00000
 Atom     2 has atomic number  6 and mass  12.00000
 Atom     3 has atomic number  1 and mass   1.00783
 Molecular mass:    25.00783 amu.
 Principal axes and moments of inertia in atomic units:
                           1         2         3
     Eigenvalues --     0.00000  41.30357  41.30357
           X            0.00000  -0.00000   1.00000
           Y            0.00000   1.00000   0.00000
           Z            1.00000   0.00000   0.00000
 This molecule is a prolate symmetric top.
 Rotational symmetry number  1.
 Rotational temperature (Kelvin)      2.09701
 Rotational constant (GHZ):          43.694559
 Zero-point vibrational energy      36631.3 (Joules/Mol)
                                    8.75510 (Kcal/Mol)
 Warning -- explicit consideration of   2 degrees of freedom as
           vibrations may cause significant error
 Vibrational temperatures:    575.56   575.56  2893.62  4766.73
          (Kelvin)
 
 Zero-point correction=                           0.013952 (Hartree/Particle)
 Thermal correction to Energy=                    0.016932
 Thermal correction to Enthalpy=                  0.017876
 Thermal correction to Gibbs Free Energy=        -0.006239
 Sum of electronic and zero-point Energies=            -76.534867
 Sum of electronic and thermal Energies=               -76.531888
 Sum of electronic and thermal Enthalpies=             -76.530943
 Sum of electronic and thermal Free Energies=          -76.555059
 
                     E (Thermal)             CV                S
                      KCal/Mol        Cal/Mol-Kelvin    Cal/Mol-Kelvin
 Total                   10.625              7.920             50.754
 Electronic               0.000              0.000              1.377
 Translational            0.889              2.981             35.613
 Rotational               0.592              1.987             11.838
 Vibrational              9.144              2.952              1.926
 Vibration     1          0.766              1.470              0.963
 Vibration     2          0.766              1.470              0.963
                       Q            Log10(Q)             Ln(Q)
 Total Bot       0.740904D+03          2.869762          6.607870
 Total V=0       0.193774D+10          9.287295         21.384787
 Vib (Bot)       0.523174D-06         -6.281354        -14.463351
 Vib (Bot)    1  0.445540D+00         -0.351114         -0.808469
 Vib (Bot)    2  0.445540D+00         -0.351114         -0.808469
 Vib (V=0)       0.136829D+01          0.136180          0.313565
 Vib (V=0)    1  0.116971D+01          0.068077          0.156752
 Vib (V=0)    2  0.116971D+01          0.068077          0.156752
 Electronic      0.200000D+01          0.301030          0.693147
 Translational   0.498024D+07          6.697251         15.420989
 Rotational      0.142179D+03          2.152835          4.957085
 ***** Axes restored to original set *****
 -------------------------------------------------------------------
 Center     Atomic                   Forces (Hartrees/Bohr)
 Number     Number              X              Y              Z
 -------------------------------------------------------------------
      1        6           0.000031563   -0.000000000   -0.000000000
      2        6          -0.000038945   -0.000000000   -0.000000000
      3        1           0.000007381   -0.000000000   -0.000000000
 -------------------------------------------------------------------
 Cartesian Forces:  Max     0.000038945 RMS     0.000016890
 FormGI is forming the generalized inverse of G from B-inverse, IUseBI=4.

 GradGradGradGradGradGradGradGradGradGradGradGradGradGradGradGradGradGrad
 Berny optimization.
 Internal  Forces:  Max     0.000031563 RMS     0.000016208
 Search for a local minimum.
 Step number   1 out of a maximum of    2
 All quantities printed in internal units (Hartrees-Bohrs-Radians)
 Second derivative matrix not updated -- analytic derivatives used.
 The second derivative matrix:
                          R1        R2        A1        A2
           R1           1.06674
           R2          -0.00871   0.40563
           A1           0.00000   0.00000   0.02031
           A2           0.00000   0.00000   0.00000   0.02031
 ITU=  0
     Eigenvalues ---    0.02031   0.02031   0.40551   1.06686
 Angle between quadratic step and forces=  17.66 degrees.
 Linear search not attempted -- first point.
 Iteration  1 RMS(Cart)=  0.00001047 RMS(Int)=  0.00000001
 Iteration  2 RMS(Cart)=  0.00000001 RMS(Int)=  0.00000000
 ClnCor:  largest displacement from symmetrization is 2.14D-08 for atom     2.
 Variable       Old X    -DE/DX   Delta X   Delta X   Delta X     New X
                                 (Linear)    (Quad)   (Total)
    R1        2.29190  -0.00003   0.00000  -0.00003  -0.00003   2.29187
    R2        2.03503   0.00001   0.00000   0.00002   0.00002   2.03504
    A1        3.14159  -0.00000   0.00000   0.00000   0.00000   3.14159
    A2        3.14159  -0.00000   0.00000   0.00000   0.00000   3.14159
         Item               Value     Threshold  Converged?
 Maximum Force            0.000032     0.000450     YES
 RMS     Force            0.000016     0.000300     YES
 Maximum Displacement     0.000016     0.001800     YES
 RMS     Displacement     0.000010     0.001200     YES
 Predicted change in Energy=-5.295250D-10
 Optimization completed.
    -- Stationary point found.
                           ----------------------------
                           !   Optimized Parameters   !
                           ! (Angstroms and Degrees)  !
 --------------------------                            --------------------------
 ! Name  Definition              Value          Derivative Info.                !
 --------------------------------------------------------------------------------
 ! R1    R(1,2)                  1.2128         -DE/DX =    0.0                 !
 ! R2    R(2,3)                  1.0769         -DE/DX =    0.0                 !
 ! A1    L(1,2,3,-2,-1)        180.0            -DE/DX =    0.0                 !
 ! A2    L(1,2,3,-3,-2)        180.0            -DE/DX =    0.0                 !
 --------------------------------------------------------------------------------
 GradGradGradGradGradGradGradGradGradGradGradGradGradGradGradGradGradGrad


 ----------------------------------------------------------------------

 Electric dipole moment (input orientation):
 (Debye = 10**-18 statcoulomb cm , SI units = C m)
                  (au)            (Debye)         (10**-30 SI)
   Tot        0.297225D+00      0.755471D+00      0.251998D+01
   x          0.297225D+00      0.755471D+00      0.251998D+01
   y          0.000000D+00      0.000000D+00      0.000000D+00
   z          0.000000D+00      0.000000D+00      0.000000D+00

 Dipole polarizability, Alpha (input orientation).
 (esu units = cm**3 , SI units = C**2 m**2 J**-1)
 Alpha(0;0):
               (au)            (10**-24 esu)      (10**-40 SI)
   iso        0.184070D+02      0.272764D+01      0.303491D+01
   aniso      0.962897D+01      0.142687D+01      0.158760D+01
   xx         0.248263D+02      0.367888D+01      0.409331D+01
   yx         0.000000D+00      0.000000D+00      0.000000D+00
   yy         0.151974D+02      0.225202D+01      0.250571D+01
   zx         0.000000D+00      0.000000D+00      0.000000D+00
   zy         0.000000D+00      0.000000D+00      0.000000D+00
   zz         0.151974D+02      0.225202D+01      0.250571D+01

 ----------------------------------------------------------------------

 Dipole orientation:
     6          0.14305227         -0.12347470          1.95173499
     6          0.14305227         -0.12347470          4.24363259
     1          0.14305227         -0.12347470          6.27865787

 Electric dipole moment (dipole orientation):
 (Debye = 10**-18 statcoulomb cm , SI units = C m)
                  (au)            (Debye)         (10**-30 SI)
   Tot        0.297225D+00      0.755471D+00      0.251998D+01
   x          0.000000D+00      0.000000D+00      0.000000D+00
   y          0.000000D+00      0.000000D+00      0.000000D+00
   z          0.297225D+00      0.755471D+00      0.251998D+01

 Dipole polarizability, Alpha (dipole orientation).
 (esu units = cm**3 , SI units = C**2 m**2 J**-1)
 Alpha(0;0):
               (au)            (10**-24 esu)      (10**-40 SI)
   iso        0.184070D+02      0.272764D+01      0.303491D+01
   aniso      0.962897D+01      0.142687D+01      0.158760D+01
   xx         0.151974D+02      0.225202D+01      0.250571D+01
   yx         0.000000D+00      0.000000D+00      0.000000D+00
   yy         0.151974D+02      0.225202D+01      0.250571D+01
   zx         0.000000D+00      0.000000D+00      0.000000D+00
   zy         0.000000D+00      0.000000D+00      0.000000D+00
   zz         0.248263D+02      0.367888D+01      0.409331D+01

 ----------------------------------------------------------------------
 Unable to Open any file for archive entry.
 1\1\GINC-NODE02\Freq\UB3LYP\def2SVPP\C2H1(2)\XUHJ\19-Dec-2023\0\\#N Ge
 om=AllCheck Guess=TCheck SCRF=Check GenChk UB3LYP/def2SVPP Freq\\[C]#C
 _1\\0,2\C,1.0328136795,-0.06534,-0.0757\C,2.2456336602,-0.06534,-0.075
 7\H,3.3225226602,-0.06534,-0.0757\\Version=ES64L-G16RevC.01\State=2-SG
 \HF=-76.5488195\S2=0.775716\S2-1=0.\S2A=0.750386\RMSD=7.857e-10\RMSF=1
 .689e-05\ZeroPoint=0.0139521\Thermal=0.0169318\ETot=-76.5318877\HTot=-
 76.5309435\GTot=-76.5550585\Dipole=0.2972251,0.,0.\DipoleDeriv=-0.1234
 975,0.,0.,0.,-0.15474,0.,0.,0.,-0.15474,-0.1172494,0.,0.,0.,0.1860515,
 0.,0.,0.,0.1860515,0.2407469,0.,0.,0.,-0.0313116,0.,0.,0.,-0.0313116\P
 olar=24.8263462,0.,15.197375,0.,0.,15.197375\Quadrupole=2.1580987,-1.0
 790494,-1.0790494,0.,0.,0.\PG=C*V [C*(H1C1C1)]\NImag=0\\1.06674282,0.,
 0.00393578,0.,0.,0.00393578,-1.07545416,0.,0.,1.48979414,0.,-0.0083129
 2,0.,0.,0.01749271,0.,0.,-0.00831292,0.,0.,0.01749271,0.00871134,0.,0.
 ,-0.41433999,0.,0.,0.40562864,0.,0.00437714,0.,0.,-0.00917979,0.,0.,0.
 00480265,0.,0.,0.00437714,0.,0.,-0.00917979,0.,0.,0.00480265\\-0.00003
 156,0.,0.,0.00003894,0.,0.,-0.00000738,0.,0.\\\@
 The archive entry for this job was punched.


 CHARLIE BROWN -- WHICH DO YOU THINK LASTS LONGER IN LIFE, THE GOOD THINGS 
                  OR THE BAD THINGS?
 LINUS --         GOOD THINGS LAST EIGHT SECONDS ..
                  BAD THINGS LAST THREE WEEKS
 CHARLIE BROWN -- WHAT ABOUT IN BETWEEN?
 SNOOPY --        IN BETWEEN YOU SHOULD TAKE A NAP ...
 Job cpu time:       0 days  0 hours  0 minutes 30.5 seconds.
 Elapsed time:       0 days  0 hours  0 minutes  2.6 seconds.
 File lengths (MBytes):  RWF=     17 Int=      0 D2E=      0 Chk=      2 Scr=      2
 Normal termination of Gaussian 16 at Tue Dec 19 12:56:54 2023.
