%nprocshared=16
%mem=1280MB
#N opt freq B3LYP/def2SVPP symm=veryloose em=gd3bj scale=0.961 press=0.987

CCOC_1

0 1
C          0.90820        0.01588        0.00340
C          2.42945        0.02323       -0.00207
O          2.89640       -1.06668        0.76294
C          4.30577       -1.06434        0.75959
H          0.52554        0.86921       -0.59556
H          0.53117        0.10845        1.04413
H          0.53090       -0.93142       -0.43718
H          2.76700        0.98975        0.43760
H          2.76658       -0.06188       -1.06061
H          4.65749       -1.92524        1.36435
H          4.71028       -0.14383        1.23644
H          4.70840       -1.20189       -0.26867

