 Entering Gaussian System, Link 0=g16
 Initial command:
 /home/software/g16/l1.exe "/home/software/g16tmp/Gau-139887.inp" -scrdir="/home/software/g16tmp/"
 Default is to use a total of   8 processors:
                                8 via shared-memory
                                1 via Linda
 Entering Link 1 = /home/software/g16/l1.exe PID=    139888.
  
 Copyright (c) 1988-2019, Gaussian, Inc.  All Rights Reserved.
  
 This is part of the Gaussian(R) 16 program.  It is based on
 the Gaussian(R) 09 system (copyright 2009, Gaussian, Inc.),
 the Gaussian(R) 03 system (copyright 2003, Gaussian, Inc.),
 the Gaussian(R) 98 system (copyright 1998, Gaussian, Inc.),
 the Gaussian(R) 94 system (copyright 1995, Gaussian, Inc.),
 the Gaussian 92(TM) system (copyright 1992, Gaussian, Inc.),
 the Gaussian 90(TM) system (copyright 1990, Gaussian, Inc.),
 the Gaussian 88(TM) system (copyright 1988, Gaussian, Inc.),
 the Gaussian 86(TM) system (copyright 1986, Carnegie Mellon
 University), and the Gaussian 82(TM) system (copyright 1983,
 Carnegie Mellon University). Gaussian is a federally registered
 trademark of Gaussian, Inc.
  
 This software contains proprietary and confidential information,
 including trade secrets, belonging to Gaussian, Inc.
  
 This software is provided under written license and may be
 used, copied, transmitted, or stored only in accord with that
 written license.
  
 The following legend is applicable only to US Government
 contracts under FAR:
  
                    RESTRICTED RIGHTS LEGEND
  
 Use, reproduction and disclosure by the US Government is
 subject to restrictions as set forth in subparagraphs (a)
 and (c) of the Commercial Computer Software - Restricted
 Rights clause in FAR 52.227-19.
  
 Gaussian, Inc.
 340 Quinnipiac St., Bldg. 40, Wallingford CT 06492
  
  
 ---------------------------------------------------------------
 Warning -- This program may not be used in any manner that
 competes with the business of Gaussian, Inc. or will provide
 assistance to any competitor of Gaussian, Inc.  The licensee
 of this program is prohibited from giving any competitor of
 Gaussian, Inc. access to this program.  By using this program,
 the user acknowledges that Gaussian, Inc. is engaged in the
 business of creating and licensing software in the field of
 computational chemistry and represents and warrants to the
 licensee that it is not a competitor of Gaussian, Inc. and that
 it will not use this program in any manner prohibited above.
 ---------------------------------------------------------------
  

 Cite this work as:
 Gaussian 16, Revision C.01,
 M. J. Frisch, G. W. Trucks, H. B. Schlegel, G. E. Scuseria, 
 M. A. Robb, J. R. Cheeseman, G. Scalmani, V. Barone, 
 G. A. Petersson, H. Nakatsuji, X. Li, M. Caricato, A. V. Marenich, 
 J. Bloino, B. G. Janesko, R. Gomperts, B. Mennucci, H. P. Hratchian, 
 J. V. Ortiz, A. F. Izmaylov, J. L. Sonnenberg, D. Williams-Young, 
 F. Ding, F. Lipparini, F. Egidi, J. Goings, B. Peng, A. Petrone, 
 T. Henderson, D. Ranasinghe, V. G. Zakrzewski, J. Gao, N. Rega, 
 G. Zheng, W. Liang, M. Hada, M. Ehara, K. Toyota, R. Fukuda, 
 J. Hasegawa, M. Ishida, T. Nakajima, Y. Honda, O. Kitao, H. Nakai, 
 T. Vreven, K. Throssell, J. A. Montgomery, Jr., J. E. Peralta, 
 F. Ogliaro, M. J. Bearpark, J. J. Heyd, E. N. Brothers, K. N. Kudin, 
 V. N. Staroverov, T. A. Keith, R. Kobayashi, J. Normand, 
 K. Raghavachari, A. P. Rendell, J. C. Burant, S. S. Iyengar, 
 J. Tomasi, M. Cossi, J. M. Millam, M. Klene, C. Adamo, R. Cammi, 
 J. W. Ochterski, R. L. Martin, K. Morokuma, O. Farkas, 
 J. B. Foresman, and D. J. Fox, Gaussian, Inc., Wallingford CT, 2019.
 
 ******************************************
 Gaussian 16:  ES64L-G16RevC.01  3-Jul-2019
                19-Dec-2023 
 ******************************************
 %nprocshared=16
 Will use up to   16 processors via shared memory.
 %mem=1280MB
 ----------------------------------------------------------------------
 #N opt freq B3LYP/def2SVPP symm=veryloose em=gd3bj scale=0.961 press=0
 .987
 ----------------------------------------------------------------------
 1/18=20,19=15,26=3,38=1,113=-987000,114=961000/1,3;
 2/9=110,12=2,17=2,18=2,40=1/2;
 3/5=43,7=202,11=2,25=1,30=1,71=1,74=-5,124=41/1,2,3;
 4//1;
 5/5=2,38=5/2;
 6/7=2,8=2,9=2,10=2,28=1/1;
 7//1,2,3,16;
 1/18=20,19=15,26=3/3(2);
 2/9=110/2;
 99//99;
 2/9=110/2;
 3/5=43,7=202,11=2,25=1,30=1,71=1,74=-5,124=41/1,2,3;
 4/5=5,16=3,69=1/1;
 5/5=2,38=5/2;
 7//1,2,3,16;
 1/18=20,19=15,26=3/3(-5);
 2/9=110/2;
 6/7=2,8=2,9=2,10=2,19=2,28=1/1;
 99/9=1/99;
 ------
 CCOC_1
 ------
 Symbolic Z-matrix:
 Charge =  0 Multiplicity = 1
 C                     0.9082    0.01588   0.0034 
 C                     2.42945   0.02323  -0.00207 
 O                     2.8964   -1.06668   0.76294 
 C                     4.30577  -1.06434   0.75959 
 H                     0.52554   0.86921  -0.59556 
 H                     0.53117   0.10845   1.04413 
 H                     0.5309   -0.93142  -0.43718 
 H                     2.767     0.98975   0.4376 
 H                     2.76658  -0.06188  -1.06061 
 H                     4.65749  -1.92524   1.36435 
 H                     4.71028  -0.14383   1.23644 
 H                     4.7084   -1.20189  -0.26867 
 

 GradGradGradGradGradGradGradGradGradGradGradGradGradGradGradGradGradGrad
 Berny optimization.
 Initialization pass.
                           ----------------------------
                           !    Initial Parameters    !
                           ! (Angstroms and Degrees)  !
 --------------------------                            --------------------------
 ! Name  Definition              Value          Derivative Info.                !
 --------------------------------------------------------------------------------
 ! R1    R(1,2)                  1.5213         estimate D2E/DX2                !
 ! R2    R(1,5)                  1.1106         estimate D2E/DX2                !
 ! R3    R(1,6)                  1.1108         estimate D2E/DX2                !
 ! R4    R(1,7)                  1.1108         estimate D2E/DX2                !
 ! R5    R(2,3)                  1.4111         estimate D2E/DX2                !
 ! R6    R(2,8)                  1.1142         estimate D2E/DX2                !
 ! R7    R(2,9)                  1.1142         estimate D2E/DX2                !
 ! R8    R(3,4)                  1.4094         estimate D2E/DX2                !
 ! R9    R(4,10)                 1.1093         estimate D2E/DX2                !
 ! R10   R(4,11)                 1.1128         estimate D2E/DX2                !
 ! R11   R(4,12)                 1.1128         estimate D2E/DX2                !
 ! A1    A(2,1,5)              109.8102         estimate D2E/DX2                !
 ! A2    A(2,1,6)              110.0224         estimate D2E/DX2                !
 ! A3    A(2,1,7)              110.0206         estimate D2E/DX2                !
 ! A4    A(5,1,6)              108.9248         estimate D2E/DX2                !
 ! A5    A(5,1,7)              108.9249         estimate D2E/DX2                !
 ! A6    A(6,1,7)              109.1112         estimate D2E/DX2                !
 ! A7    A(1,2,3)              108.9793         estimate D2E/DX2                !
 ! A8    A(1,2,8)              107.8017         estimate D2E/DX2                !
 ! A9    A(1,2,9)              107.7956         estimate D2E/DX2                !
 ! A10   A(3,2,8)              110.8445         estimate D2E/DX2                !
 ! A11   A(3,2,9)              110.8508         estimate D2E/DX2                !
 ! A12   A(8,2,9)              110.4566         estimate D2E/DX2                !
 ! A13   A(2,3,4)              109.1681         estimate D2E/DX2                !
 ! A14   A(3,4,10)             108.329          estimate D2E/DX2                !
 ! A15   A(3,4,11)             111.3372         estimate D2E/DX2                !
 ! A16   A(3,4,12)             111.3339         estimate D2E/DX2                !
 ! A17   A(10,4,11)            107.0432         estimate D2E/DX2                !
 ! A18   A(10,4,12)            107.0436         estimate D2E/DX2                !
 ! A19   A(11,4,12)            111.5108         estimate D2E/DX2                !
 ! D1    D(5,1,2,3)           -179.9996         estimate D2E/DX2                !
 ! D2    D(5,1,2,8)             59.6262         estimate D2E/DX2                !
 ! D3    D(5,1,2,9)            -59.6214         estimate D2E/DX2                !
 ! D4    D(6,1,2,3)             60.1212         estimate D2E/DX2                !
 ! D5    D(6,1,2,8)            -60.253          estimate D2E/DX2                !
 ! D6    D(6,1,2,9)           -179.5007         estimate D2E/DX2                !
 ! D7    D(7,1,2,3)            -60.1213         estimate D2E/DX2                !
 ! D8    D(7,1,2,8)            179.5045         estimate D2E/DX2                !
 ! D9    D(7,1,2,9)             60.2569         estimate D2E/DX2                !
 ! D10   D(1,2,3,4)            179.95           estimate D2E/DX2                !
 ! D11   D(8,2,3,4)            -61.5674         estimate D2E/DX2                !
 ! D12   D(9,2,3,4)             61.4712         estimate D2E/DX2                !
 ! D13   D(2,3,4,10)           179.979          estimate D2E/DX2                !
 ! D14   D(2,3,4,11)            62.5346         estimate D2E/DX2                !
 ! D15   D(2,3,4,12)           -62.578          estimate D2E/DX2                !
 --------------------------------------------------------------------------------
 Trust Radius=3.00D-01 FncErr=1.00D-07 GrdErr=1.00D-06 EigMax=2.50D+02 EigMin=1.00D-04
 Number of steps in this run=     55 maximum allowed number of steps=    100.
 GradGradGradGradGradGradGradGradGradGradGradGradGradGradGradGradGradGrad

                          Input orientation:                          
 ---------------------------------------------------------------------
 Center     Atomic      Atomic             Coordinates (Angstroms)
 Number     Number       Type             X           Y           Z
 ---------------------------------------------------------------------
      1          6           0        0.908200    0.015880    0.003400
      2          6           0        2.429450    0.023230   -0.002070
      3          8           0        2.896400   -1.066680    0.762940
      4          6           0        4.305770   -1.064340    0.759590
      5          1           0        0.525540    0.869210   -0.595560
      6          1           0        0.531170    0.108450    1.044130
      7          1           0        0.530900   -0.931420   -0.437180
      8          1           0        2.767000    0.989750    0.437600
      9          1           0        2.766580   -0.061880   -1.060610
     10          1           0        4.657490   -1.925240    1.364350
     11          1           0        4.710280   -0.143830    1.236440
     12          1           0        4.708400   -1.201890   -0.268670
 ---------------------------------------------------------------------
                    Distance matrix (angstroms):
                    1          2          3          4          5
     1  C    0.000000
     2  C    1.521278   0.000000
     3  O    2.387839   1.411094   0.000000
     4  C    3.644473   2.298589   1.409376   0.000000
     5  H    1.110565   2.166284   3.348756   4.457038   0.000000
     6  H    1.110783   2.169162   2.655995   3.962828   1.807587
     7  H    1.110785   2.169140   2.655969   3.962268   1.807590
     8  H    2.142916   1.114186   2.086024   2.586654   2.471051
     9  H    2.142835   1.114185   2.086099   2.585954   2.470923
    10  H    4.435911   3.260031   2.049453   1.109320   5.359404
    11  H    4.000213   2.600769   2.089501   1.112813   4.679158
    12  H    3.999813   2.601078   2.089460   1.112812   4.678956
                    6          7          8          9         10
     6  H    0.000000
     7  H    1.809864   0.000000
     8  H    2.478609   3.075106   0.000000
     9  H    3.075061   2.478514   1.830453   0.000000
    10  H    4.611394   4.611066   3.595829   3.595564   0.000000
    11  H    4.191132   4.570396   2.387360   3.010170   1.786776
    12  H    4.570524   4.189637   3.011833   2.386935   1.786780
                   11         12
    11  H    0.000000
    12  H    1.839796   0.000000
 Stoichiometry    C3H8O
 Framework group  CS[SG(C3H2O),X(H6)]
 Deg. of freedom    18
 Full point group                 CS      NOp   2
 Largest Abelian subgroup         CS      NOp   2
 Largest concise Abelian subgroup CS      NOp   2
                         Standard orientation:                         
 ---------------------------------------------------------------------
 Center     Atomic      Atomic             Coordinates (Angstroms)
 Number     Number       Type             X           Y           Z
 ---------------------------------------------------------------------
      1          6           0       -0.670199   -1.730270   -0.000000
      2          6           0        0.334643   -0.588090   -0.000000
      3          8           0       -0.364083    0.637866    0.000000
      4          6           0        0.563353    1.699092    0.000000
      5          1           0       -0.134334   -2.703000   -0.000000
      6          1           0       -1.311964   -1.672628   -0.904543
      7          1           0       -1.311964   -1.672628    0.904543
      8          1           0        0.962171   -0.686884   -0.915610
      9          1           0        0.962171   -0.686884    0.915610
     10          1           0       -0.000000    2.654720    0.000000
     11          1           0        1.190258    1.689553   -0.919104
     12          1           0        1.190258    1.689553    0.919104
 ---------------------------------------------------------------------
 Rotational constants (GHZ):          27.6812920           4.1882851           3.9225774
 Standard basis: def2SVPP (5D, 7F)
 There are    54 symmetry adapted cartesian basis functions of A'  symmetry.
 There are    22 symmetry adapted cartesian basis functions of A"  symmetry.
 There are    50 symmetry adapted basis functions of A'  symmetry.
 There are    22 symmetry adapted basis functions of A"  symmetry.
    72 basis functions,   132 primitive gaussians,    76 cartesian basis functions
    17 alpha electrons       17 beta electrons
       nuclear repulsion energy       133.3900353695 Hartrees.
 NAtoms=   12 NActive=   12 NUniq=    9 SFac= 1.78D+00 NAtFMM=   60 NAOKFM=F Big=F
 Integral buffers will be    131072 words long.
 Raffenetti 2 integral format.
 Two-electron integral symmetry is turned on.
 Nuclear repulsion after empirical dispersion term =      133.3791391857 Hartrees.
 One-electron integrals computed using PRISM.
   2 Symmetry operations used in ECPInt.
 ECPInt:  NShTT=     820 NPrTT=    3316 LenC2=     820 LenP2D=    2852.
 LDataN:  DoStor=T MaxTD1= 4 Len=   56
 NBasis=    72 RedAO= T EigKep=  3.81D-03  NBF=    50    22
 NBsUse=    72 1.00D-06 EigRej= -1.00D+00 NBFU=    50    22
 ExpMin= 1.22D-01 ExpMax= 2.27D+03 ExpMxC= 3.41D+02 IAcc=3 IRadAn=         5 AccDes= 0.00D+00
 Harris functional with IExCor=  402 and IRadAn=       5 diagonalized for initial guess.
 HarFok:  IExCor=  402 AccDes= 0.00D+00 IRadAn=         5 IDoV= 1 UseB2=F ITyADJ=14
 ICtDFT=  3500011 ScaDFX=  1.000000  1.000000  1.000000  1.000000
 FoFCou: FMM=F IPFlag=           0 FMFlag=      100000 FMFlg1=           0
         NFxFlg=           0 DoJE=T BraDBF=F KetDBF=T FulRan=T
         wScrn=  0.000000 ICntrl=       500 IOpCl=  0 I1Cent=   200000004 NGrid=           0
         NMat0=    1 NMatS0=      1 NMatT0=    0 NMatD0=    1 NMtDS0=    0 NMtDT0=    0
 Petite list used in FoFCou.
 Initial guess orbital symmetries:
       Occupied  (A') (A') (A') (A') (A') (A') (A') (A') (A') (A")
                 (A') (A") (A') (A') (A") (A') (A")
       Virtual   (A') (A') (A') (A") (A') (A') (A") (A') (A') (A")
                 (A') (A') (A") (A') (A') (A") (A') (A') (A") (A')
                 (A') (A") (A') (A') (A") (A') (A') (A") (A') (A')
                 (A') (A') (A") (A') (A') (A") (A") (A') (A') (A')
                 (A") (A') (A') (A') (A") (A") (A') (A") (A') (A')
                 (A") (A") (A') (A') (A')
 The electronic state of the initial guess is 1-A'.
 Keep R1 ints in memory in symmetry-blocked form, NReq=17890882.
 Requested convergence on RMS density matrix=1.00D-08 within 128 cycles.
 Requested convergence on MAX density matrix=1.00D-06.
 Requested convergence on             energy=1.00D-06.
 No special actions if energy rises.
 Integral accuracy reduced to 1.0D-05 until final iterations.
 Initial convergence to 1.0D-05 achieved.  Increase integral accuracy.
 SCF Done:  E(RB3LYP) =  -194.191579437     A.U. after   12 cycles
            NFock= 12  Conv=0.35D-08     -V/T= 2.0099

 **********************************************************************

            Population analysis using the SCF Density.

 **********************************************************************

 Orbital symmetries:
       Occupied  (A') (A') (A') (A') (A') (A') (A') (A') (A') (A")
                 (A') (A") (A') (A') (A") (A') (A")
       Virtual   (A') (A') (A") (A') (A') (A') (A') (A") (A") (A')
                 (A') (A') (A") (A') (A") (A') (A') (A') (A") (A')
                 (A") (A') (A') (A') (A') (A") (A') (A') (A") (A')
                 (A') (A') (A") (A') (A') (A") (A") (A') (A') (A')
                 (A") (A') (A') (A') (A") (A") (A') (A") (A') (A')
                 (A") (A") (A') (A') (A')
 The electronic state is 1-A'.
 Alpha  occ. eigenvalues --  -19.13064 -10.22590 -10.22241 -10.17296  -1.02333
 Alpha  occ. eigenvalues --   -0.75160  -0.66313  -0.59499  -0.48639  -0.48594
 Alpha  occ. eigenvalues --   -0.45026  -0.42306  -0.38232  -0.35695  -0.35499
 Alpha  occ. eigenvalues --   -0.31934  -0.25977
 Alpha virt. eigenvalues --    0.05647   0.07944   0.10876   0.11582   0.12690
 Alpha virt. eigenvalues --    0.14396   0.14639   0.14913   0.16425   0.22661
 Alpha virt. eigenvalues --    0.24291   0.41641   0.43734   0.45060   0.48718
 Alpha virt. eigenvalues --    0.49626   0.51494   0.60430   0.60970   0.64875
 Alpha virt. eigenvalues --    0.66162   0.66327   0.67386   0.69255   0.70250
 Alpha virt. eigenvalues --    0.70296   0.71383   0.71891   0.72548   0.87440
 Alpha virt. eigenvalues --    0.93725   1.08993   1.15170   1.33004   1.42480
 Alpha virt. eigenvalues --    1.50680   1.62942   1.65615   1.81222   1.88299
 Alpha virt. eigenvalues --    1.93975   1.95799   2.05171   2.07213   2.07566
 Alpha virt. eigenvalues --    2.12241   2.13420   2.21812   2.24110   2.52916
 Alpha virt. eigenvalues --    2.86200   2.92518   3.01211   3.20673   3.47568
          Condensed to atoms (all electrons):
               1          2          3          4          5          6
     1  C    4.839463   0.435953  -0.061763   0.011023   0.352119   0.369165
     2  C    0.435953   4.612865   0.327468  -0.058420  -0.009455  -0.019068
     3  O   -0.061763   0.327468   7.938387   0.322276   0.003717   0.004696
     4  C    0.011023  -0.058420   0.322276   4.672030  -0.000463  -0.000118
     5  H    0.352119  -0.009455   0.003717  -0.000463   0.608768  -0.020380
     6  H    0.369165  -0.019068   0.004696  -0.000118  -0.020380   0.594645
     7  H    0.369165  -0.019068   0.004696  -0.000118  -0.020380  -0.026930
     8  H   -0.030879   0.360189  -0.037130  -0.005719  -0.001461  -0.012384
     9  H   -0.030879   0.360189  -0.037130  -0.005719  -0.001461   0.009798
    10  H   -0.000490   0.009135  -0.025264   0.380194   0.000011  -0.000002
    11  H   -0.000014  -0.008658  -0.035141   0.375875   0.000035  -0.000265
    12  H   -0.000014  -0.008658  -0.035141   0.375875   0.000035   0.000203
               7          8          9         10         11         12
     1  C    0.369165  -0.030879  -0.030879  -0.000490  -0.000014  -0.000014
     2  C   -0.019068   0.360189   0.360189   0.009135  -0.008658  -0.008658
     3  O    0.004696  -0.037130  -0.037130  -0.025264  -0.035141  -0.035141
     4  C   -0.000118  -0.005719  -0.005719   0.380194   0.375875   0.375875
     5  H   -0.020380  -0.001461  -0.001461   0.000011   0.000035   0.000035
     6  H   -0.026930  -0.012384   0.009798  -0.000002  -0.000265   0.000203
     7  H    0.594645   0.009798  -0.012384  -0.000002   0.000203  -0.000265
     8  H    0.009798   0.697493  -0.055665  -0.000174   0.019732  -0.005654
     9  H   -0.012384  -0.055665   0.697493  -0.000174  -0.005654   0.019732
    10  H   -0.000002  -0.000174  -0.000174   0.593867  -0.029886  -0.029886
    11  H    0.000203   0.019732  -0.005654  -0.029886   0.651045  -0.044840
    12  H   -0.000265  -0.005654   0.019732  -0.029886  -0.044840   0.651045
 Mulliken charges:
               1
     1  C   -0.252850
     2  C    0.017527
     3  O   -0.369671
     4  C   -0.066716
     5  H    0.088915
     6  H    0.100639
     7  H    0.100639
     8  H    0.061854
     9  H    0.061854
    10  H    0.102672
    11  H    0.077569
    12  H    0.077569
 Sum of Mulliken charges =  -0.00000
 Mulliken charges with hydrogens summed into heavy atoms:
               1
     1  C    0.037342
     2  C    0.141236
     3  O   -0.369671
     4  C    0.191094
 Electronic spatial extent (au):  <R**2>=            368.0875
 Charge=             -0.0000 electrons
 Dipole moment (field-independent basis, Debye):
    X=              1.2204    Y=             -0.0962    Z=             -0.0000  Tot=              1.2242
 Quadrupole moment (field-independent basis, Debye-Ang):
   XX=            -27.5082   YY=            -24.6276   ZZ=            -26.5351
   XY=              0.8546   XZ=             -0.0000   YZ=             -0.0000
 Traceless Quadrupole moment (field-independent basis, Debye-Ang):
   XX=             -1.2845   YY=              1.5960   ZZ=             -0.3115
   XY=              0.8546   XZ=             -0.0000   YZ=             -0.0000
 Octapole moment (field-independent basis, Debye-Ang**2):
  XXX=             -1.7643  YYY=              8.5068  ZZZ=             -0.0000  XYY=              1.1328
  XXY=              1.0073  XXZ=             -0.0000  XZZ=             -0.4962  YZZ=              0.7646
  YYZ=             -0.0000  XYZ=             -0.0000
 Hexadecapole moment (field-independent basis, Debye-Ang**3):
 XXXX=            -98.7494 YYYY=           -343.5573 ZZZZ=            -48.6164 XXXY=            -43.8935
 XXXZ=             -0.0000 YYYX=            -48.0189 YYYZ=             -0.0000 ZZZX=             -0.0000
 ZZZY=             -0.0000 XXYY=            -76.0667 XXZZ=            -22.9638 YYZZ=            -67.8435
 XXYZ=             -0.0000 YYXZ=             -0.0000 ZZXY=            -13.4444
 N-N= 1.333791391857D+02 E-N=-7.186608342692D+02  KE= 1.922951320413D+02
 Symmetry A'   KE= 1.817372194106D+02
 Symmetry A"   KE= 1.055791263065D+01
   2 Symmetry operations used in ECPInt.
 ECPInt:  NShTT=     820 NPrTT=    3316 LenC2=     820 LenP2D=    2852.
 LDataN:  DoStor=T MaxTD1= 5 Len=  102
 Calling FoFJK, ICntrl=      2127 FMM=F ISym2X=1 I1Cent= 0 IOpClX= 0 NMat=1 NMatS=1 NMatT=0.
 ***** Axes restored to original set *****
 -------------------------------------------------------------------
 Center     Atomic                   Forces (Hartrees/Bohr)
 Number     Number              X              Y              Z
 -------------------------------------------------------------------
      1        6          -0.002457934   -0.000785640    0.000553035
      2        6          -0.017310996   -0.002670834    0.001885606
      3        8           0.011120216    0.009041901   -0.006354256
      4        6          -0.001431031   -0.013019957    0.009140858
      5        1           0.000193232   -0.003375097    0.002369190
      6        1          -0.000046227   -0.001076920   -0.004456728
      7        1          -0.000041916    0.003825727    0.002527126
      8        1           0.005415899   -0.002107002   -0.003901592
      9        1           0.005420347    0.002950460    0.003302796
     10        1          -0.003041714    0.001857460   -0.001302054
     11        1           0.001088181    0.000542721   -0.004926488
     12        1           0.001091941    0.004817179    0.001162506
 -------------------------------------------------------------------
 Cartesian Forces:  Max     0.017310996 RMS     0.005377968

 GradGradGradGradGradGradGradGradGradGradGradGradGradGradGradGradGradGrad
 Berny optimization.
 FormGI is forming the generalized inverse of G from B-inverse, IUseBI=4.
 Internal  Forces:  Max     0.020381265 RMS     0.003989697
 Search for a local minimum.
 Step number   1 out of a maximum of   55
 All quantities printed in internal units (Hartrees-Bohrs-Radians)
 Mixed Optimization -- RFO/linear search
 Second derivative matrix not updated -- first step.
 ITU=  0
     Eigenvalues ---    0.00484   0.01545   0.01568   0.05454   0.05774
     Eigenvalues ---    0.05808   0.06243   0.09986   0.10552   0.11031
     Eigenvalues ---    0.13664   0.16000   0.16000   0.16000   0.16000
     Eigenvalues ---    0.16000   0.16000   0.22128   0.25000   0.30244
     Eigenvalues ---    0.32138   0.32138   0.32327   0.32327   0.32539
     Eigenvalues ---    0.32539   0.32540   0.32672   0.43830   0.44101
 RFO step:  Lambda=-3.74537981D-03 EMin= 4.84486953D-03
 Linear search not attempted -- first point.
 Iteration  1 RMS(Cart)=  0.04259003 RMS(Int)=  0.00094264
 Iteration  2 RMS(Cart)=  0.00128160 RMS(Int)=  0.00026790
 Iteration  3 RMS(Cart)=  0.00000068 RMS(Int)=  0.00026789
 ClnCor:  largest displacement from symmetrization is 3.29D-08 for atom    12.
 Variable       Old X    -DE/DX   Delta X   Delta X   Delta X     New X
                                 (Linear)    (Quad)   (Total)
    R1        2.87480   0.00236   0.00000   0.00772   0.00772   2.88252
    R2        2.09866  -0.00394   0.00000  -0.01196  -0.01196   2.08670
    R3        2.09869  -0.00425   0.00000  -0.01291  -0.01291   2.08578
    R4        2.09869  -0.00425   0.00000  -0.01291  -0.01291   2.08578
    R5        2.66658  -0.00082   0.00000  -0.00185  -0.00185   2.66473
    R6        2.10591  -0.00173   0.00000  -0.00531  -0.00531   2.10060
    R7        2.10591  -0.00173   0.00000  -0.00531  -0.00531   2.10060
    R8        2.66333  -0.00231   0.00000  -0.00520  -0.00520   2.65814
    R9        2.09631  -0.00312   0.00000  -0.00943  -0.00943   2.08688
   R10        2.10249  -0.00127   0.00000  -0.00387  -0.00387   2.09862
   R11        2.10249  -0.00127   0.00000  -0.00387  -0.00387   2.09862
    A1        1.91655   0.00129   0.00000   0.00946   0.00939   1.92594
    A2        1.92061   0.00163   0.00000   0.00915   0.00911   1.92972
    A3        1.92061   0.00163   0.00000   0.00915   0.00911   1.92972
    A4        1.90106  -0.00129   0.00000  -0.00632  -0.00638   1.89468
    A5        1.90106  -0.00129   0.00000  -0.00632  -0.00638   1.89468
    A6        1.90366  -0.00205   0.00000  -0.01559  -0.01560   1.88806
    A7        1.90205  -0.00012   0.00000   0.00748   0.00735   1.90940
    A8        1.88114   0.00515   0.00000   0.04254   0.04233   1.92347
    A9        1.88114   0.00515   0.00000   0.04254   0.04233   1.92347
   A10        1.93462  -0.00231   0.00000  -0.01820  -0.01876   1.91587
   A11        1.93462  -0.00231   0.00000  -0.01820  -0.01876   1.91587
   A12        1.92848  -0.00506   0.00000  -0.05172  -0.05291   1.87557
   A13        1.90534   0.02038   0.00000   0.08032   0.08032   1.98566
   A14        1.89070  -0.00202   0.00000  -0.00617  -0.00621   1.88449
   A15        1.94371   0.00144   0.00000   0.00560   0.00555   1.94926
   A16        1.94371   0.00144   0.00000   0.00560   0.00555   1.94926
   A17        1.86872   0.00250   0.00000   0.02141   0.02138   1.89010
   A18        1.86872   0.00250   0.00000   0.02141   0.02138   1.89010
   A19        1.94429  -0.00569   0.00000  -0.04541  -0.04547   1.89881
    D1        3.14159   0.00000   0.00000   0.00000   0.00000   3.14159
    D2        1.04085  -0.00018   0.00000  -0.00734  -0.00729   1.03356
    D3       -1.04085   0.00018   0.00000   0.00734   0.00729  -1.03356
    D4        1.04913  -0.00024   0.00000  -0.00386  -0.00387   1.04526
    D5       -1.05162  -0.00041   0.00000  -0.01119  -0.01116  -1.06277
    D6       -3.13332  -0.00006   0.00000   0.00348   0.00342  -3.12989
    D7       -1.04913   0.00024   0.00000   0.00386   0.00387  -1.04526
    D8        3.13332   0.00006   0.00000  -0.00348  -0.00342   3.12989
    D9        1.05162   0.00041   0.00000   0.01119   0.01116   1.06277
   D10        3.14159   0.00000   0.00000   0.00000   0.00000   3.14159
   D11       -1.07410   0.00486   0.00000   0.04589   0.04516  -1.02894
   D12        1.07410  -0.00486   0.00000  -0.04589  -0.04516   1.02894
   D13        3.14159   0.00000   0.00000   0.00000   0.00000   3.14159
   D14        1.09094  -0.00265   0.00000  -0.02555  -0.02553   1.06542
   D15       -1.09094   0.00265   0.00000   0.02555   0.02553  -1.06542
         Item               Value     Threshold  Converged?
 Maximum Force            0.020381     0.000450     NO 
 RMS     Force            0.003990     0.000300     NO 
 Maximum Displacement     0.100537     0.001800     NO 
 RMS     Displacement     0.042463     0.001200     NO 
 Predicted change in Energy=-1.907322D-03
 GradGradGradGradGradGradGradGradGradGradGradGradGradGradGradGradGradGrad

                          Input orientation:                          
 ---------------------------------------------------------------------
 Center     Atomic      Atomic             Coordinates (Angstroms)
 Number     Number       Type             X           Y           Z
 ---------------------------------------------------------------------
      1          6           0        0.887069    0.011748    0.006622
      2          6           0        2.411750    0.048599   -0.020189
      3          8           0        2.919672   -1.028207    0.735412
      4          6           0        4.324784   -1.081999    0.772307
      5          1           0        0.472338    0.849477   -0.581206
      6          1           0        0.515467    0.091874    1.042839
      7          1           0        0.514564   -0.935386   -0.420499
      8          1           0        2.780032    1.009560    0.399995
      9          1           0        2.779126   -0.020302   -1.067051
     10          1           0        4.616477   -1.953838    1.384155
     11          1           0        4.758308   -0.170434    1.235346
     12          1           0        4.757395   -1.208026   -0.242712
 ---------------------------------------------------------------------
                    Distance matrix (angstroms):
                    1          2          3          4          5
     1  C    0.000000
     2  C    1.525362   0.000000
     3  O    2.396689   1.410116   0.000000
     4  C    3.687878   2.359238   1.406625   0.000000
     5  H    1.104234   2.171972   3.353897   4.517072   0.000000
     6  H    1.103746   2.174348   2.670074   3.995255   1.792581
     7  H    1.103746   2.174348   2.670074   3.995255   1.792581
     8  H    2.175703   1.111591   2.069903   2.626690   2.512734
     9  H    2.175703   1.111591   2.069903   2.626690   2.512734
    10  H    4.435044   3.292835   2.038825   1.104330   5.375417
    11  H    4.065642   2.670333   2.089567   1.110540   4.765460
    12  H    4.065642   2.670333   2.089567   1.110540   4.765460
                    6          7          8          9         10
     6  H    0.000000
     7  H    1.787910   0.000000
     8  H    2.526589   3.096510   0.000000
     9  H    3.096510   2.526589   1.792441   0.000000
    10  H    4.595619   4.595619   3.622545   3.622545   0.000000
    11  H    4.255298   4.619127   2.450260   3.039857   1.795213
    12  H    4.619127   4.255298   3.039857   2.450260   1.795213
                   11         12
    11  H    0.000000
    12  H    1.805894   0.000000
 Stoichiometry    C3H8O
 Framework group  CS[SG(C3H2O),X(H6)]
 Deg. of freedom    18
 Full point group                 CS      NOp   2
 Largest Abelian subgroup         CS      NOp   2
 Largest concise Abelian subgroup CS      NOp   2
                         Standard orientation:                         
 ---------------------------------------------------------------------
 Center     Atomic      Atomic             Coordinates (Angstroms)
 Number     Number       Type             X           Y           Z
 ---------------------------------------------------------------------
      1          6           0       -1.445730   -1.189239   -0.000000
      2          6           0        0.000000   -0.702831   -0.000000
      3          8           0        0.019821    0.707146    0.000000
      4          6           0        1.314964    1.255963    0.000000
      5          1           0       -1.479515   -2.292956   -0.000000
      6          1           0       -1.978522   -0.821501   -0.893955
      7          1           0       -1.978522   -0.821501    0.893955
      8          1           0        0.534141   -1.086388   -0.896220
      9          1           0        0.534141   -1.086388    0.896220
     10          1           0        1.218880    2.356105    0.000000
     11          1           0        1.887713    0.956055   -0.902947
     12          1           0        1.887713    0.956055    0.902947
 ---------------------------------------------------------------------
 Rotational constants (GHZ):          28.3377807           4.0973990           3.8452586
 Standard basis: def2SVPP (5D, 7F)
 There are    54 symmetry adapted cartesian basis functions of A'  symmetry.
 There are    22 symmetry adapted cartesian basis functions of A"  symmetry.
 There are    50 symmetry adapted basis functions of A'  symmetry.
 There are    22 symmetry adapted basis functions of A"  symmetry.
    72 basis functions,   132 primitive gaussians,    76 cartesian basis functions
    17 alpha electrons       17 beta electrons
       nuclear repulsion energy       132.9628851193 Hartrees.
 NAtoms=   12 NActive=   12 NUniq=    9 SFac= 1.78D+00 NAtFMM=   60 NAOKFM=F Big=F
 Integral buffers will be    131072 words long.
 Raffenetti 2 integral format.
 Two-electron integral symmetry is turned on.
 Nuclear repulsion after empirical dispersion term =      132.9520848566 Hartrees.
 One-electron integrals computed using PRISM.
   2 Symmetry operations used in ECPInt.
 ECPInt:  NShTT=     820 NPrTT=    3316 LenC2=     820 LenP2D=    2847.
 LDataN:  DoStor=T MaxTD1= 4 Len=   56
 NBasis=    72 RedAO= T EigKep=  3.99D-03  NBF=    50    22
 NBsUse=    72 1.00D-06 EigRej= -1.00D+00 NBFU=    50    22
 Initial guess from the checkpoint file:  "/home/software/g16tmp/Gau-139888.chk"
 B after Tr=    -0.000011    0.000062    0.000000
         Rot=    0.968484   -0.000000   -0.000000    0.249077 Ang=  28.85 deg.
 Initial guess orbital symmetries:
       Occupied  (A') (A') (A') (A') (A') (A') (A') (A') (A') (A")
                 (A') (A") (A') (A') (A") (A') (A")
       Virtual   (A') (A') (A") (A') (A') (A') (A') (A") (A") (A')
                 (A') (A') (A") (A') (A") (A') (A') (A') (A") (A')
                 (A") (A') (A') (A') (A') (A") (A') (A') (A") (A')
                 (A') (A') (A") (A') (A') (A") (A") (A') (A') (A')
                 (A") (A') (A') (A') (A") (A") (A') (A") (A') (A')
                 (A") (A") (A') (A') (A')
 ExpMin= 1.22D-01 ExpMax= 2.27D+03 ExpMxC= 3.41D+02 IAcc=3 IRadAn=         5 AccDes= 0.00D+00
 Harris functional with IExCor=  402 and IRadAn=       5 diagonalized for initial guess.
 HarFok:  IExCor=  402 AccDes= 0.00D+00 IRadAn=         5 IDoV= 1 UseB2=F ITyADJ=14
 ICtDFT=  3500011 ScaDFX=  1.000000  1.000000  1.000000  1.000000
 FoFCou: FMM=F IPFlag=           0 FMFlag=      100000 FMFlg1=           0
         NFxFlg=           0 DoJE=T BraDBF=F KetDBF=T FulRan=T
         wScrn=  0.000000 ICntrl=       500 IOpCl=  0 I1Cent=   200000004 NGrid=           0
         NMat0=    1 NMatS0=      1 NMatT0=    0 NMatD0=    1 NMtDS0=    0 NMtDT0=    0
 Petite list used in FoFCou.
 Keep R1 ints in memory in symmetry-blocked form, NReq=17890882.
 Requested convergence on RMS density matrix=1.00D-08 within 128 cycles.
 Requested convergence on MAX density matrix=1.00D-06.
 Requested convergence on             energy=1.00D-06.
 No special actions if energy rises.
 Integral accuracy reduced to 1.0D-05 until final iterations.
 Initial convergence to 1.0D-05 achieved.  Increase integral accuracy.
 SCF Done:  E(RB3LYP) =  -194.193416260     A.U. after   10 cycles
            NFock= 10  Conv=0.49D-08     -V/T= 2.0098
   2 Symmetry operations used in ECPInt.
 ECPInt:  NShTT=     820 NPrTT=    3316 LenC2=     820 LenP2D=    2847.
 LDataN:  DoStor=T MaxTD1= 5 Len=  102
 Calling FoFJK, ICntrl=      2127 FMM=F ISym2X=1 I1Cent= 0 IOpClX= 0 NMat=1 NMatS=1 NMatT=0.
 ***** Axes restored to original set *****
 -------------------------------------------------------------------
 Center     Atomic                   Forces (Hartrees/Bohr)
 Number     Number              X              Y              Z
 -------------------------------------------------------------------
      1        6           0.003599779   -0.000217670    0.000150582
      2        6          -0.001621599   -0.003169165    0.002225746
      3        8           0.002442048   -0.000232755    0.000161886
      4        6          -0.006031110   -0.001328763    0.000936512
      5        1           0.000095781    0.000001886   -0.000001383
      6        1           0.000256977   -0.000138113    0.000135129
      7        1           0.000256946   -0.000174166    0.000083772
      8        1           0.000277389    0.001242774   -0.000913856
      9        1           0.000277423    0.001281580   -0.000858576
     10        1          -0.001359064    0.000533390   -0.000373599
     11        1           0.000902733    0.001121803   -0.000742761
     12        1           0.000902696    0.001079199   -0.000803451
 -------------------------------------------------------------------
 Cartesian Forces:  Max     0.006031110 RMS     0.001566727

 GradGradGradGradGradGradGradGradGradGradGradGradGradGradGradGradGradGrad
 Berny optimization.
 Using GEDIIS/GDIIS optimizer.
 FormGI is forming the generalized inverse of G from B-inverse, IUseBI=4.
 Internal  Forces:  Max     0.005658313 RMS     0.001379252
 Search for a local minimum.
 Step number   2 out of a maximum of   55
 All quantities printed in internal units (Hartrees-Bohrs-Radians)
 Mixed Optimization -- RFO/linear search
 Update second derivatives using D2CorX and points    1    2
 DE= -1.84D-03 DEPred=-1.91D-03 R= 9.63D-01
 TightC=F SS=  1.41D+00  RLast= 1.54D-01 DXNew= 5.0454D-01 4.6267D-01
 Trust test= 9.63D-01 RLast= 1.54D-01 DXMaxT set to 4.63D-01
 ITU=  1  0
 Use linear search instead of GDIIS.
     Eigenvalues ---    0.00484   0.01545   0.01568   0.05219   0.05664
     Eigenvalues ---    0.05698   0.05776   0.09593   0.10484   0.11318
     Eigenvalues ---    0.13774   0.15350   0.16000   0.16000   0.16000
     Eigenvalues ---    0.16000   0.16128   0.21491   0.26185   0.31332
     Eigenvalues ---    0.32138   0.32203   0.32258   0.32327   0.32539
     Eigenvalues ---    0.32540   0.32604   0.33885   0.43872   0.45554
 RFO step:  Lambda=-3.01619184D-04 EMin= 4.84486953D-03
 Quartic linear search produced a step of -0.00579.
 Iteration  1 RMS(Cart)=  0.01271048 RMS(Int)=  0.00003822
 Iteration  2 RMS(Cart)=  0.00004834 RMS(Int)=  0.00000706
 Iteration  3 RMS(Cart)=  0.00000000 RMS(Int)=  0.00000706
 ClnCor:  largest displacement from symmetrization is 1.31D-08 for atom    12.
 Variable       Old X    -DE/DX   Delta X   Delta X   Delta X     New X
                                 (Linear)    (Quad)   (Total)
    R1        2.88252  -0.00419  -0.00004  -0.01310  -0.01314   2.86937
    R2        2.08670  -0.00003   0.00007  -0.00112  -0.00105   2.08565
    R3        2.08578   0.00003   0.00007  -0.00100  -0.00093   2.08485
    R4        2.08578   0.00003   0.00007  -0.00100  -0.00093   2.08485
    R5        2.66473  -0.00247   0.00001  -0.00575  -0.00574   2.65900
    R6        2.10060   0.00082   0.00003   0.00209   0.00212   2.10272
    R7        2.10060   0.00082   0.00003   0.00209   0.00212   2.10272
    R8        2.65814  -0.00566   0.00003  -0.01318  -0.01315   2.64498
    R9        2.08688  -0.00099   0.00005  -0.00380  -0.00374   2.08314
   R10        2.09862   0.00096   0.00002   0.00263   0.00265   2.10127
   R11        2.09862   0.00096   0.00002   0.00263   0.00265   2.10127
    A1        1.92594   0.00005  -0.00005   0.00183   0.00177   1.92772
    A2        1.92972  -0.00035  -0.00005  -0.00178  -0.00183   1.92789
    A3        1.92972  -0.00035  -0.00005  -0.00178  -0.00183   1.92789
    A4        1.89468   0.00023   0.00004   0.00157   0.00161   1.89629
    A5        1.89468   0.00023   0.00004   0.00157   0.00161   1.89629
    A6        1.88806   0.00021   0.00009  -0.00136  -0.00128   1.88678
    A7        1.90940  -0.00280  -0.00004  -0.01035  -0.01038   1.89902
    A8        1.92347   0.00053  -0.00024   0.00420   0.00397   1.92744
    A9        1.92347   0.00053  -0.00024   0.00420   0.00397   1.92744
   A10        1.91587   0.00140   0.00011   0.00817   0.00829   1.92416
   A11        1.91587   0.00140   0.00011   0.00817   0.00829   1.92416
   A12        1.87557  -0.00098   0.00031  -0.01419  -0.01388   1.86169
   A13        1.98566  -0.00205  -0.00046  -0.00136  -0.00182   1.98384
   A14        1.88449  -0.00150   0.00004  -0.00867  -0.00862   1.87587
   A15        1.94926   0.00067  -0.00003   0.00402   0.00399   1.95326
   A16        1.94926   0.00067  -0.00003   0.00402   0.00399   1.95326
   A17        1.89010   0.00085  -0.00012   0.00819   0.00807   1.89817
   A18        1.89010   0.00085  -0.00012   0.00819   0.00807   1.89817
   A19        1.89881  -0.00149   0.00026  -0.01517  -0.01491   1.88391
    D1        3.14159   0.00000   0.00000   0.00000   0.00000   3.14159
    D2        1.03356  -0.00028   0.00004  -0.00614  -0.00610   1.02746
    D3       -1.03356   0.00028  -0.00004   0.00614   0.00610  -1.02746
    D4        1.04526  -0.00010   0.00002  -0.00200  -0.00197   1.04329
    D5       -1.06277  -0.00037   0.00006  -0.00814  -0.00807  -1.07085
    D6       -3.12989   0.00018  -0.00002   0.00415   0.00413  -3.12577
    D7       -1.04526   0.00010  -0.00002   0.00200   0.00197  -1.04329
    D8        3.12989  -0.00018   0.00002  -0.00415  -0.00413   3.12577
    D9        1.06277   0.00037  -0.00006   0.00814   0.00807   1.07085
   D10        3.14159  -0.00000   0.00000  -0.00000   0.00000   3.14159
   D11       -1.02894  -0.00024  -0.00026   0.00377   0.00349  -1.02545
   D12        1.02894   0.00024   0.00026  -0.00377  -0.00349   1.02545
   D13        3.14159   0.00000   0.00000  -0.00000   0.00000   3.14159
   D14        1.06542  -0.00048   0.00015  -0.00693  -0.00678   1.05864
   D15       -1.06542   0.00048  -0.00015   0.00693   0.00678  -1.05864
         Item               Value     Threshold  Converged?
 Maximum Force            0.005658     0.000450     NO 
 RMS     Force            0.001379     0.000300     NO 
 Maximum Displacement     0.046911     0.001800     NO 
 RMS     Displacement     0.012696     0.001200     NO 
 Predicted change in Energy=-1.512389D-04
 GradGradGradGradGradGradGradGradGradGradGradGradGradGradGradGradGradGrad

                          Input orientation:                          
 ---------------------------------------------------------------------
 Center     Atomic      Atomic             Coordinates (Angstroms)
 Number     Number       Type             X           Y           Z
 ---------------------------------------------------------------------
      1          6           0        0.896916    0.007414    0.009658
      2          6           0        2.414369    0.051014   -0.021886
      3          8           0        2.914881   -1.025454    0.733483
      4          6           0        4.312840   -1.082395    0.772592
      5          1           0        0.474895    0.842212   -0.576108
      6          1           0        0.530399    0.083900    1.047439
      7          1           0        0.529496   -0.942430   -0.414575
      8          1           0        2.783951    1.015917    0.391026
      9          1           0        2.783049   -0.009709   -1.069986
     10          1           0        4.591653   -1.955373    1.385248
     11          1           0        4.752721   -0.169350    1.230059
     12          1           0        4.751812   -1.202683   -0.241930
 ---------------------------------------------------------------------
                    Distance matrix (angstroms):
                    1          2          3          4          5
     1  C    0.000000
     2  C    1.518407   0.000000
     3  O    2.379689   1.407080   0.000000
     4  C    3.665827   2.349468   1.399665   0.000000
     5  H    1.103680   2.166730   3.340169   4.500324   0.000000
     6  H    1.103256   2.166537   2.648582   3.967700   1.792769
     7  H    1.103256   2.166537   2.648582   3.967700   1.792769
     8  H    2.173343   1.112711   2.074034   2.624120   2.509434
     9  H    2.173343   1.112711   2.074034   2.624120   2.509434
    10  H    4.404074   3.278136   2.025120   1.102350   5.349868
    11  H    4.048192   2.661543   2.087381   1.111945   4.752398
    12  H    4.048192   2.661543   2.087381   1.111945   4.752398
                    6          7          8          9         10
     6  H    0.000000
     7  H    1.786292   0.000000
     8  H    2.525477   3.093005   0.000000
     9  H    3.093005   2.525477   1.785067   0.000000
    10  H    4.557031   4.557031   3.617296   3.617296   0.000000
    11  H    4.233850   4.597618   2.446403   3.032375   1.799973
    12  H    4.597618   4.233850   3.032375   2.446403   1.799973
                   11         12
    11  H    0.000000
    12  H    1.798479   0.000000
 Stoichiometry    C3H8O
 Framework group  CS[SG(C3H2O),X(H6)]
 Deg. of freedom    18
 Full point group                 CS      NOp   2
 Largest Abelian subgroup         CS      NOp   2
 Largest concise Abelian subgroup CS      NOp   2
                         Standard orientation:                         
 ---------------------------------------------------------------------
 Center     Atomic      Atomic             Coordinates (Angstroms)
 Number     Number       Type             X           Y           Z
 ---------------------------------------------------------------------
      1          6           0       -1.408183   -1.215201   -0.000000
      2          6           0        0.021513   -0.703799   -0.000000
      3          8           0        0.000000    0.703117    0.000000
      4          6           0        1.273218    1.284475    0.000000
      5          1           0       -1.422975   -2.318782   -0.000000
      6          1           0       -1.946547   -0.855162   -0.893146
      7          1           0       -1.946547   -0.855162    0.893146
      8          1           0        0.568853   -1.080533   -0.892533
      9          1           0        0.568853   -1.080533    0.892533
     10          1           0        1.137688    2.378461    0.000000
     11          1           0        1.860693    0.996964   -0.899240
     12          1           0        1.860693    0.996964    0.899240
 ---------------------------------------------------------------------
 Rotational constants (GHZ):          28.2297386           4.1454297           3.8837172
 Standard basis: def2SVPP (5D, 7F)
 There are    54 symmetry adapted cartesian basis functions of A'  symmetry.
 There are    22 symmetry adapted cartesian basis functions of A"  symmetry.
 There are    50 symmetry adapted basis functions of A'  symmetry.
 There are    22 symmetry adapted basis functions of A"  symmetry.
    72 basis functions,   132 primitive gaussians,    76 cartesian basis functions
    17 alpha electrons       17 beta electrons
       nuclear repulsion energy       133.3930917913 Hartrees.
 NAtoms=   12 NActive=   12 NUniq=    9 SFac= 1.78D+00 NAtFMM=   60 NAOKFM=F Big=F
 Integral buffers will be    131072 words long.
 Raffenetti 2 integral format.
 Two-electron integral symmetry is turned on.
 Nuclear repulsion after empirical dispersion term =      133.3822581903 Hartrees.
 One-electron integrals computed using PRISM.
   2 Symmetry operations used in ECPInt.
 ECPInt:  NShTT=     820 NPrTT=    3316 LenC2=     820 LenP2D=    2851.
 LDataN:  DoStor=T MaxTD1= 4 Len=   56
 NBasis=    72 RedAO= T EigKep=  3.93D-03  NBF=    50    22
 NBsUse=    72 1.00D-06 EigRej= -1.00D+00 NBFU=    50    22
 Initial guess from the checkpoint file:  "/home/software/g16tmp/Gau-139888.chk"
 B after Tr=     0.000000   -0.000000    0.000000
         Rot=    0.999920    0.000000    0.000000   -0.012622 Ang=  -1.45 deg.
 Initial guess orbital symmetries:
       Occupied  (A') (A') (A') (A') (A') (A') (A') (A') (A') (A")
                 (A') (A") (A') (A') (A") (A') (A")
       Virtual   (A') (A') (A") (A') (A') (A') (A') (A") (A") (A')
                 (A') (A') (A") (A') (A") (A') (A') (A') (A") (A')
                 (A") (A') (A') (A') (A') (A") (A') (A') (A") (A')
                 (A') (A') (A") (A') (A') (A") (A") (A') (A') (A')
                 (A") (A') (A') (A") (A') (A") (A') (A") (A') (A')
                 (A") (A") (A') (A') (A')
 ExpMin= 1.22D-01 ExpMax= 2.27D+03 ExpMxC= 3.41D+02 IAcc=3 IRadAn=         5 AccDes= 0.00D+00
 Harris functional with IExCor=  402 and IRadAn=       5 diagonalized for initial guess.
 HarFok:  IExCor=  402 AccDes= 0.00D+00 IRadAn=         5 IDoV= 1 UseB2=F ITyADJ=14
 ICtDFT=  3500011 ScaDFX=  1.000000  1.000000  1.000000  1.000000
 FoFCou: FMM=F IPFlag=           0 FMFlag=      100000 FMFlg1=           0
         NFxFlg=           0 DoJE=T BraDBF=F KetDBF=T FulRan=T
         wScrn=  0.000000 ICntrl=       500 IOpCl=  0 I1Cent=   200000004 NGrid=           0
         NMat0=    1 NMatS0=      1 NMatT0=    0 NMatD0=    1 NMtDS0=    0 NMtDT0=    0
 Petite list used in FoFCou.
 Keep R1 ints in memory in symmetry-blocked form, NReq=17890882.
 Requested convergence on RMS density matrix=1.00D-08 within 128 cycles.
 Requested convergence on MAX density matrix=1.00D-06.
 Requested convergence on             energy=1.00D-06.
 No special actions if energy rises.
 Integral accuracy reduced to 1.0D-05 until final iterations.
 Initial convergence to 1.0D-05 achieved.  Increase integral accuracy.
 SCF Done:  E(RB3LYP) =  -194.193566042     A.U. after    9 cycles
            NFock=  9  Conv=0.97D-08     -V/T= 2.0097
   2 Symmetry operations used in ECPInt.
 ECPInt:  NShTT=     820 NPrTT=    3316 LenC2=     820 LenP2D=    2851.
 LDataN:  DoStor=T MaxTD1= 5 Len=  102
 Calling FoFJK, ICntrl=      2127 FMM=F ISym2X=1 I1Cent= 0 IOpClX= 0 NMat=1 NMatS=1 NMatT=0.
 ***** Axes restored to original set *****
 -------------------------------------------------------------------
 Center     Atomic                   Forces (Hartrees/Bohr)
 Number     Number              X              Y              Z
 -------------------------------------------------------------------
      1        6           0.000404896    0.000638088   -0.000448186
      2        6          -0.000347670   -0.001218618    0.000855681
      3        8           0.000648233    0.000626329   -0.000440081
      4        6          -0.001749708   -0.000437633    0.000308297
      5        1          -0.000410053    0.000187959   -0.000131694
      6        1          -0.000026844    0.000020515    0.000374295
      7        1          -0.000027166   -0.000345042   -0.000146444
      8        1           0.000114000    0.000364090    0.000166850
      9        1           0.000113650   -0.000033286   -0.000399215
     10        1           0.000598807   -0.000091264    0.000063698
     11        1           0.000341068    0.000303621    0.000125169
     12        1           0.000340788   -0.000014761   -0.000328369
 -------------------------------------------------------------------
 Cartesian Forces:  Max     0.001749708 RMS     0.000503700

 GradGradGradGradGradGradGradGradGradGradGradGradGradGradGradGradGradGrad
 Berny optimization.
 Using GEDIIS/GDIIS optimizer.
 FormGI is forming the generalized inverse of G from B-inverse, IUseBI=4.
 Internal  Forces:  Max     0.000794932 RMS     0.000278717
 Search for a local minimum.
 Step number   3 out of a maximum of   55
 All quantities printed in internal units (Hartrees-Bohrs-Radians)
 Mixed Optimization -- En-DIIS/RFO-DIIS
 Update second derivatives using D2CorX and points    1    2    3
 DE= -1.50D-04 DEPred=-1.51D-04 R= 9.90D-01
 TightC=F SS=  1.41D+00  RLast= 4.16D-02 DXNew= 7.7811D-01 1.2477D-01
 Trust test= 9.90D-01 RLast= 4.16D-02 DXMaxT set to 4.63D-01
 ITU=  1  1  0
 Use linear search instead of GDIIS.
     Eigenvalues ---    0.00484   0.01545   0.01568   0.05242   0.05441
     Eigenvalues ---    0.05689   0.05785   0.09214   0.10491   0.11332
     Eigenvalues ---    0.13743   0.15251   0.16000   0.16000   0.16000
     Eigenvalues ---    0.16086   0.16979   0.23011   0.25937   0.31953
     Eigenvalues ---    0.32138   0.32231   0.32327   0.32444   0.32539
     Eigenvalues ---    0.32543   0.33225   0.33464   0.43203   0.44095
 RFO step:  Lambda=-1.60087735D-05 EMin= 4.84486953D-03
 Quartic linear search produced a step of -0.01343.
 Iteration  1 RMS(Cart)=  0.00178591 RMS(Int)=  0.00000440
 Iteration  2 RMS(Cart)=  0.00000450 RMS(Int)=  0.00000143
 Iteration  3 RMS(Cart)=  0.00000000 RMS(Int)=  0.00000143
 ClnCor:  largest displacement from symmetrization is 1.67D-08 for atom    12.
 Variable       Old X    -DE/DX   Delta X   Delta X   Delta X     New X
                                 (Linear)    (Quad)   (Total)
    R1        2.86937   0.00004   0.00018  -0.00068  -0.00050   2.86887
    R2        2.08565   0.00037   0.00001   0.00101   0.00102   2.08668
    R3        2.08485   0.00036   0.00001   0.00100   0.00101   2.08586
    R4        2.08485   0.00036   0.00001   0.00100   0.00101   2.08586
    R5        2.65900  -0.00038   0.00008  -0.00121  -0.00114   2.65786
    R6        2.10272   0.00042  -0.00003   0.00139   0.00136   2.10408
    R7        2.10272   0.00042  -0.00003   0.00139   0.00136   2.10408
    R8        2.64498  -0.00045   0.00018  -0.00185  -0.00167   2.64331
    R9        2.08314   0.00026   0.00005   0.00051   0.00056   2.08370
   R10        2.10127   0.00044  -0.00004   0.00148   0.00144   2.10271
   R11        2.10127   0.00044  -0.00004   0.00148   0.00144   2.10271
    A1        1.92772   0.00050  -0.00002   0.00368   0.00365   1.93137
    A2        1.92789  -0.00020   0.00002  -0.00157  -0.00155   1.92635
    A3        1.92789  -0.00020   0.00002  -0.00157  -0.00155   1.92635
    A4        1.89629  -0.00010  -0.00002  -0.00011  -0.00013   1.89615
    A5        1.89629  -0.00010  -0.00002  -0.00011  -0.00013   1.89615
    A6        1.88678   0.00011   0.00002  -0.00036  -0.00035   1.88644
    A7        1.89902   0.00064   0.00014   0.00244   0.00258   1.90160
    A8        1.92744  -0.00018  -0.00005  -0.00046  -0.00052   1.92692
    A9        1.92744  -0.00018  -0.00005  -0.00046  -0.00052   1.92692
   A10        1.92416  -0.00020  -0.00011  -0.00011  -0.00023   1.92393
   A11        1.92416  -0.00020  -0.00011  -0.00011  -0.00023   1.92393
   A12        1.86169   0.00008   0.00019  -0.00138  -0.00119   1.86050
   A13        1.98384   0.00001   0.00002   0.00019   0.00021   1.98405
   A14        1.87587   0.00079   0.00012   0.00463   0.00475   1.88062
   A15        1.95326   0.00007  -0.00005   0.00052   0.00047   1.95373
   A16        1.95326   0.00007  -0.00005   0.00052   0.00047   1.95373
   A17        1.89817  -0.00034  -0.00011  -0.00122  -0.00133   1.89685
   A18        1.89817  -0.00034  -0.00011  -0.00122  -0.00133   1.89685
   A19        1.88391  -0.00028   0.00020  -0.00332  -0.00313   1.88078
    D1        3.14159   0.00000   0.00000   0.00000  -0.00000   3.14159
    D2        1.02746  -0.00006   0.00008  -0.00113  -0.00105   1.02641
    D3       -1.02746   0.00006  -0.00008   0.00113   0.00105  -1.02641
    D4        1.04329  -0.00006   0.00003  -0.00123  -0.00120   1.04208
    D5       -1.07085  -0.00012   0.00011  -0.00236  -0.00225  -1.07310
    D6       -3.12577  -0.00001  -0.00006  -0.00010  -0.00015  -3.12592
    D7       -1.04329   0.00006  -0.00003   0.00123   0.00120  -1.04208
    D8        3.12577   0.00001   0.00006   0.00010   0.00015   3.12592
    D9        1.07085   0.00012  -0.00011   0.00236   0.00225   1.07310
   D10        3.14159   0.00000   0.00000   0.00000  -0.00000   3.14159
   D11       -1.02545   0.00007  -0.00005   0.00091   0.00087  -1.02458
   D12        1.02545  -0.00007   0.00005  -0.00091  -0.00087   1.02458
   D13       -3.14159  -0.00000  -0.00000   0.00000  -0.00000   3.14159
   D14        1.05864  -0.00013   0.00009  -0.00177  -0.00169   1.05695
   D15       -1.05864   0.00013  -0.00009   0.00177   0.00169  -1.05695
         Item               Value     Threshold  Converged?
 Maximum Force            0.000795     0.000450     NO 
 RMS     Force            0.000279     0.000300     YES
 Maximum Displacement     0.007645     0.001800     NO 
 RMS     Displacement     0.001785     0.001200     NO 
 Predicted change in Energy=-8.027358D-06
 GradGradGradGradGradGradGradGradGradGradGradGradGradGradGradGradGradGrad

                          Input orientation:                          
 ---------------------------------------------------------------------
 Center     Atomic      Atomic             Coordinates (Angstroms)
 Number     Number       Type             X           Y           Z
 ---------------------------------------------------------------------
      1          6           0        0.896604    0.008751    0.008720
      2          6           0        2.413911    0.049502   -0.020824
      3          8           0        2.914588   -1.026387    0.734138
      4          6           0        4.311668   -1.083204    0.773161
      5          1           0        0.472982    0.843486   -0.577001
      6          1           0        0.530334    0.084817    1.047187
      7          1           0        0.529431   -0.941881   -0.415352
      8          1           0        2.784422    1.014946    0.391928
      9          1           0        2.783520   -0.010888   -1.069379
     10          1           0        4.595698   -1.955309    1.385201
     11          1           0        4.752366   -0.168951    1.229282
     12          1           0        4.751458   -1.201817   -0.242042
 ---------------------------------------------------------------------
                    Distance matrix (angstroms):
                    1          2          3          4          5
     1  C    0.000000
     2  C    1.518143   0.000000
     3  O    2.381177   1.406478   0.000000
     4  C    3.665978   2.348385   1.398779   0.000000
     5  H    1.104222   2.169551   3.343195   4.502286   0.000000
     6  H    1.103790   2.165585   2.649045   3.967095   1.793559
     7  H    1.103790   2.165585   2.649045   3.967095   1.793559
     8  H    2.173278   1.113430   2.073908   2.622985   2.512166
     9  H    2.173278   1.113430   2.073908   2.622985   2.512166
    10  H    4.408575   3.279690   2.028031   1.102648   5.355397
    11  H    4.048241   2.660612   2.087533   1.112709   4.754032
    12  H    4.048241   2.660612   2.087533   1.112709   4.754032
                    6          7          8          9         10
     6  H    0.000000
     7  H    1.786933   0.000000
     8  H    2.524959   3.092872   0.000000
     9  H    3.092872   2.524959   1.785428   0.000000
    10  H    4.561091   4.561091   3.617973   3.617973   0.000000
    11  H    4.233569   4.597327   2.444499   3.030707   1.799981
    12  H    4.597327   4.233569   3.030707   2.444499   1.799981
                   11         12
    11  H    0.000000
    12  H    1.797668   0.000000
 Stoichiometry    C3H8O
 Framework group  CS[SG(C3H2O),X(H6)]
 Deg. of freedom    18
 Full point group                 CS      NOp   2
 Largest Abelian subgroup         CS      NOp   2
 Largest concise Abelian subgroup CS      NOp   2
                         Standard orientation:                         
 ---------------------------------------------------------------------
 Center     Atomic      Atomic             Coordinates (Angstroms)
 Number     Number       Type             X           Y           Z
 ---------------------------------------------------------------------
      1          6           0       -1.442928   -1.174743    0.000000
      2          6           0       -0.000000   -0.702817   -0.000000
      3          8           0        0.020687    0.703509    0.000000
      4          6           0        1.309839    1.246346   -0.000000
      5          1           0       -1.492029   -2.277873   -0.000000
      6          1           0       -1.970380   -0.798092   -0.893466
      7          1           0       -1.970380   -0.798092    0.893466
      8          1           0        0.536963   -1.095828   -0.892714
      9          1           0        0.536963   -1.095828    0.892714
     10          1           0        1.212134    2.344657    0.000000
     11          1           0        1.889885    0.940135   -0.898834
     12          1           0        1.889885    0.940135    0.898834
 ---------------------------------------------------------------------
 Rotational constants (GHZ):          28.2646359           4.1439645           3.8831104
 Standard basis: def2SVPP (5D, 7F)
 There are    54 symmetry adapted cartesian basis functions of A'  symmetry.
 There are    22 symmetry adapted cartesian basis functions of A"  symmetry.
 There are    50 symmetry adapted basis functions of A'  symmetry.
 There are    22 symmetry adapted basis functions of A"  symmetry.
    72 basis functions,   132 primitive gaussians,    76 cartesian basis functions
    17 alpha electrons       17 beta electrons
       nuclear repulsion energy       133.3935597293 Hartrees.
 NAtoms=   12 NActive=   12 NUniq=    9 SFac= 1.78D+00 NAtFMM=   60 NAOKFM=F Big=F
 Integral buffers will be    131072 words long.
 Raffenetti 2 integral format.
 Two-electron integral symmetry is turned on.
 Nuclear repulsion after empirical dispersion term =      133.3827265942 Hartrees.
 One-electron integrals computed using PRISM.
   2 Symmetry operations used in ECPInt.
 ECPInt:  NShTT=     820 NPrTT=    3316 LenC2=     820 LenP2D=    2851.
 LDataN:  DoStor=T MaxTD1= 4 Len=   56
 NBasis=    72 RedAO= T EigKep=  3.94D-03  NBF=    50    22
 NBsUse=    72 1.00D-06 EigRej= -1.00D+00 NBFU=    50    22
 Initial guess from the checkpoint file:  "/home/software/g16tmp/Gau-139888.chk"
 B after Tr=     0.000000   -0.000000   -0.000000
         Rot=    0.999892    0.000000    0.000000    0.014700 Ang=   1.68 deg.
 Initial guess orbital symmetries:
       Occupied  (A') (A') (A') (A') (A') (A') (A') (A') (A') (A")
                 (A') (A") (A') (A') (A") (A') (A")
       Virtual   (A') (A') (A") (A') (A') (A') (A') (A") (A") (A')
                 (A') (A') (A") (A') (A") (A') (A') (A') (A") (A')
                 (A") (A') (A') (A') (A') (A") (A') (A') (A") (A')
                 (A') (A') (A") (A') (A') (A") (A") (A') (A') (A')
                 (A") (A') (A') (A") (A') (A") (A') (A") (A') (A')
                 (A") (A") (A') (A') (A')
 Keep R1 ints in memory in symmetry-blocked form, NReq=17890882.
 Requested convergence on RMS density matrix=1.00D-08 within 128 cycles.
 Requested convergence on MAX density matrix=1.00D-06.
 Requested convergence on             energy=1.00D-06.
 No special actions if energy rises.
 SCF Done:  E(RB3LYP) =  -194.193574164     A.U. after    8 cycles
            NFock=  8  Conv=0.38D-08     -V/T= 2.0097
   2 Symmetry operations used in ECPInt.
 ECPInt:  NShTT=     820 NPrTT=    3316 LenC2=     820 LenP2D=    2851.
 LDataN:  DoStor=T MaxTD1= 5 Len=  102
 Calling FoFJK, ICntrl=      2127 FMM=F ISym2X=1 I1Cent= 0 IOpClX= 0 NMat=1 NMatS=1 NMatT=0.
 ***** Axes restored to original set *****
 -------------------------------------------------------------------
 Center     Atomic                   Forces (Hartrees/Bohr)
 Number     Number              X              Y              Z
 -------------------------------------------------------------------
      1        6          -0.000036092    0.000042223   -0.000029618
      2        6           0.000219440   -0.000108177    0.000075804
      3        8           0.000155106    0.000111366   -0.000078274
      4        6          -0.000455904    0.000170841   -0.000119648
      5        1           0.000038197   -0.000038548    0.000027037
      6        1          -0.000054881    0.000000622    0.000045162
      7        1          -0.000054918   -0.000042232   -0.000015884
      8        1          -0.000003261    0.000020220    0.000052983
      9        1          -0.000003316   -0.000042960   -0.000037016
     10        1           0.000070400   -0.000026766    0.000018746
     11        1           0.000062648   -0.000005040    0.000084850
     12        1           0.000062581   -0.000081551   -0.000024141
 -------------------------------------------------------------------
 Cartesian Forces:  Max     0.000455904 RMS     0.000106986

 GradGradGradGradGradGradGradGradGradGradGradGradGradGradGradGradGradGrad
 Berny optimization.
 Using GEDIIS/GDIIS optimizer.
 FormGI is forming the generalized inverse of G from B-inverse, IUseBI=4.
 Internal  Forces:  Max     0.000263615 RMS     0.000067908
 Search for a local minimum.
 Step number   4 out of a maximum of   55
 All quantities printed in internal units (Hartrees-Bohrs-Radians)
 Mixed Optimization -- En-DIIS/RFO-DIIS
 Swapping is turned off.
 Update second derivatives using D2CorX and points    1    2    3    4
 DE= -8.12D-06 DEPred=-8.03D-06 R= 1.01D+00
 TightC=F SS=  1.41D+00  RLast= 1.01D-02 DXNew= 7.7811D-01 3.0206D-02
 Trust test= 1.01D+00 RLast= 1.01D-02 DXMaxT set to 4.63D-01
 ITU=  1  1  1  0
     Eigenvalues ---    0.00484   0.01545   0.01568   0.05225   0.05670
     Eigenvalues ---    0.05674   0.05799   0.09765   0.10458   0.11339
     Eigenvalues ---    0.13754   0.14417   0.15874   0.16000   0.16000
     Eigenvalues ---    0.16151   0.17103   0.22810   0.26016   0.30395
     Eigenvalues ---    0.32138   0.32217   0.32327   0.32414   0.32476
     Eigenvalues ---    0.32539   0.32906   0.33770   0.42231   0.44086
 En-DIIS/RFO-DIIS/Sim-DIIS IScMMF=       -3 using points:     4    3
 RFO step:  Lambda=-8.36631109D-07.
 DidBck=F Rises=F RFO-DIIS coefs:    1.01050   -0.01050
 Iteration  1 RMS(Cart)=  0.00033615 RMS(Int)=  0.00000013
 Iteration  2 RMS(Cart)=  0.00000010 RMS(Int)=  0.00000009
 ClnCor:  largest displacement from symmetrization is 1.80D-08 for atom    12.
 Variable       Old X    -DE/DX   Delta X   Delta X   Delta X     New X
                                 (Linear)    (Quad)   (Total)
    R1        2.86887   0.00011  -0.00001   0.00035   0.00035   2.86922
    R2        2.08668  -0.00006   0.00001  -0.00016  -0.00015   2.08653
    R3        2.08586   0.00006   0.00001   0.00022   0.00023   2.08609
    R4        2.08586   0.00006   0.00001   0.00022   0.00023   2.08609
    R5        2.65786  -0.00023  -0.00001  -0.00059  -0.00060   2.65726
    R6        2.10408   0.00004   0.00001   0.00016   0.00018   2.10425
    R7        2.10408   0.00004   0.00001   0.00016   0.00018   2.10425
    R8        2.64331  -0.00026  -0.00002  -0.00069  -0.00071   2.64260
    R9        2.08370   0.00005   0.00001   0.00017   0.00018   2.08388
   R10        2.10271   0.00006   0.00002   0.00023   0.00024   2.10296
   R11        2.10271   0.00006   0.00002   0.00023   0.00024   2.10296
    A1        1.93137  -0.00005   0.00004  -0.00021  -0.00018   1.93120
    A2        1.92635   0.00005  -0.00002   0.00031   0.00030   1.92664
    A3        1.92635   0.00005  -0.00002   0.00031   0.00030   1.92664
    A4        1.89615  -0.00001  -0.00000  -0.00012  -0.00012   1.89603
    A5        1.89615  -0.00001  -0.00000  -0.00012  -0.00012   1.89603
    A6        1.88644  -0.00004  -0.00000  -0.00018  -0.00018   1.88626
    A7        1.90160   0.00000   0.00003   0.00002   0.00005   1.90165
    A8        1.92692  -0.00001  -0.00001  -0.00005  -0.00005   1.92687
    A9        1.92692  -0.00001  -0.00001  -0.00005  -0.00005   1.92687
   A10        1.92393  -0.00001  -0.00000  -0.00015  -0.00015   1.92378
   A11        1.92393  -0.00001  -0.00000  -0.00015  -0.00015   1.92378
   A12        1.86050   0.00003  -0.00001   0.00037   0.00035   1.86086
   A13        1.98405  -0.00007   0.00000  -0.00023  -0.00023   1.98382
   A14        1.88062   0.00003   0.00005   0.00018   0.00023   1.88085
   A15        1.95373   0.00007   0.00000   0.00053   0.00053   1.95426
   A16        1.95373   0.00007   0.00000   0.00053   0.00053   1.95426
   A17        1.89685  -0.00009  -0.00001  -0.00078  -0.00079   1.89606
   A18        1.89685  -0.00009  -0.00001  -0.00078  -0.00079   1.89606
   A19        1.88078   0.00002  -0.00003   0.00023   0.00019   1.88098
    D1        3.14159   0.00000  -0.00000  -0.00000  -0.00000   3.14159
    D2        1.02641   0.00001  -0.00001   0.00020   0.00019   1.02659
    D3       -1.02641  -0.00001   0.00001  -0.00020  -0.00019  -1.02659
    D4        1.04208   0.00001  -0.00001   0.00009   0.00008   1.04216
    D5       -1.07310   0.00002  -0.00002   0.00029   0.00026  -1.07284
    D6       -3.12592  -0.00001  -0.00000  -0.00011  -0.00011  -3.12603
    D7       -1.04208  -0.00001   0.00001  -0.00009  -0.00008  -1.04216
    D8        3.12592   0.00001   0.00000   0.00011   0.00011   3.12603
    D9        1.07310  -0.00002   0.00002  -0.00029  -0.00026   1.07284
   D10        3.14159  -0.00000  -0.00000  -0.00000   0.00000   3.14159
   D11       -1.02458  -0.00001   0.00001  -0.00013  -0.00013  -1.02471
   D12        1.02458   0.00001  -0.00001   0.00013   0.00013   1.02471
   D13       -3.14159   0.00000   0.00000   0.00000  -0.00000   3.14159
   D14        1.05695   0.00006  -0.00002   0.00052   0.00051   1.05746
   D15       -1.05695  -0.00006   0.00002  -0.00052  -0.00051  -1.05746
         Item               Value     Threshold  Converged?
 Maximum Force            0.000264     0.000450     YES
 RMS     Force            0.000068     0.000300     YES
 Maximum Displacement     0.000792     0.001800     YES
 RMS     Displacement     0.000336     0.001200     YES
 Predicted change in Energy=-4.183562D-07
 Optimization completed.
    -- Stationary point found.
                           ----------------------------
                           !   Optimized Parameters   !
                           ! (Angstroms and Degrees)  !
 --------------------------                            --------------------------
 ! Name  Definition              Value          Derivative Info.                !
 --------------------------------------------------------------------------------
 ! R1    R(1,2)                  1.5181         -DE/DX =    0.0001              !
 ! R2    R(1,5)                  1.1042         -DE/DX =   -0.0001              !
 ! R3    R(1,6)                  1.1038         -DE/DX =    0.0001              !
 ! R4    R(1,7)                  1.1038         -DE/DX =    0.0001              !
 ! R5    R(2,3)                  1.4065         -DE/DX =   -0.0002              !
 ! R6    R(2,8)                  1.1134         -DE/DX =    0.0                 !
 ! R7    R(2,9)                  1.1134         -DE/DX =    0.0                 !
 ! R8    R(3,4)                  1.3988         -DE/DX =   -0.0003              !
 ! R9    R(4,10)                 1.1026         -DE/DX =    0.0                 !
 ! R10   R(4,11)                 1.1127         -DE/DX =    0.0001              !
 ! R11   R(4,12)                 1.1127         -DE/DX =    0.0001              !
 ! A1    A(2,1,5)              110.6595         -DE/DX =    0.0                 !
 ! A2    A(2,1,6)              110.3715         -DE/DX =    0.0001              !
 ! A3    A(2,1,7)              110.3715         -DE/DX =    0.0001              !
 ! A4    A(5,1,6)              108.6417         -DE/DX =    0.0                 !
 ! A5    A(5,1,7)              108.6417         -DE/DX =    0.0                 !
 ! A6    A(6,1,7)              108.085          -DE/DX =    0.0                 !
 ! A7    A(1,2,3)              108.9537         -DE/DX =    0.0                 !
 ! A8    A(1,2,8)              110.4043         -DE/DX =    0.0                 !
 ! A9    A(1,2,9)              110.4043         -DE/DX =    0.0                 !
 ! A10   A(3,2,8)              110.2332         -DE/DX =    0.0                 !
 ! A11   A(3,2,9)              110.2332         -DE/DX =    0.0                 !
 ! A12   A(8,2,9)              106.5989         -DE/DX =    0.0                 !
 ! A13   A(2,3,4)              113.6778         -DE/DX =   -0.0001              !
 ! A14   A(3,4,10)             107.7514         -DE/DX =    0.0                 !
 ! A15   A(3,4,11)             111.9402         -DE/DX =    0.0001              !
 ! A16   A(3,4,12)             111.9402         -DE/DX =    0.0001              !
 ! A17   A(10,4,11)            108.6812         -DE/DX =   -0.0001              !
 ! A18   A(10,4,12)            108.6812         -DE/DX =   -0.0001              !
 ! A19   A(11,4,12)            107.7609         -DE/DX =    0.0                 !
 ! D1    D(5,1,2,3)            180.0            -DE/DX =    0.0                 !
 ! D2    D(5,1,2,8)             58.8088         -DE/DX =    0.0                 !
 ! D3    D(5,1,2,9)            -58.8088         -DE/DX =    0.0                 !
 ! D4    D(6,1,2,3)             59.707          -DE/DX =    0.0                 !
 ! D5    D(6,1,2,8)            -61.4841         -DE/DX =    0.0                 !
 ! D6    D(6,1,2,9)           -179.1018         -DE/DX =    0.0                 !
 ! D7    D(7,1,2,3)            -59.707          -DE/DX =    0.0                 !
 ! D8    D(7,1,2,8)            179.1018         -DE/DX =    0.0                 !
 ! D9    D(7,1,2,9)             61.4841         -DE/DX =    0.0                 !
 ! D10   D(1,2,3,4)            180.0            -DE/DX =    0.0                 !
 ! D11   D(8,2,3,4)            -58.7044         -DE/DX =    0.0                 !
 ! D12   D(9,2,3,4)             58.7044         -DE/DX =    0.0                 !
 ! D13   D(2,3,4,10)           180.0            -DE/DX =    0.0                 !
 ! D14   D(2,3,4,11)            60.5589         -DE/DX =    0.0001              !
 ! D15   D(2,3,4,12)           -60.5589         -DE/DX =   -0.0001              !
 --------------------------------------------------------------------------------
 GradGradGradGradGradGradGradGradGradGradGradGradGradGradGradGradGradGrad

                          Input orientation:                          
 ---------------------------------------------------------------------
 Center     Atomic      Atomic             Coordinates (Angstroms)
 Number     Number       Type             X           Y           Z
 ---------------------------------------------------------------------
      1          6           0        0.896604    0.008751    0.008720
      2          6           0        2.413911    0.049502   -0.020824
      3          8           0        2.914588   -1.026387    0.734138
      4          6           0        4.311668   -1.083204    0.773161
      5          1           0        0.472982    0.843486   -0.577001
      6          1           0        0.530334    0.084817    1.047187
      7          1           0        0.529431   -0.941881   -0.415352
      8          1           0        2.784422    1.014946    0.391928
      9          1           0        2.783520   -0.010888   -1.069379
     10          1           0        4.595698   -1.955309    1.385201
     11          1           0        4.752366   -0.168951    1.229282
     12          1           0        4.751458   -1.201817   -0.242042
 ---------------------------------------------------------------------
                    Distance matrix (angstroms):
                    1          2          3          4          5
     1  C    0.000000
     2  C    1.518143   0.000000
     3  O    2.381177   1.406478   0.000000
     4  C    3.665978   2.348385   1.398779   0.000000
     5  H    1.104222   2.169551   3.343195   4.502286   0.000000
     6  H    1.103790   2.165585   2.649045   3.967095   1.793559
     7  H    1.103790   2.165585   2.649045   3.967095   1.793559
     8  H    2.173278   1.113430   2.073908   2.622985   2.512166
     9  H    2.173278   1.113430   2.073908   2.622985   2.512166
    10  H    4.408575   3.279690   2.028031   1.102648   5.355397
    11  H    4.048241   2.660612   2.087533   1.112709   4.754032
    12  H    4.048241   2.660612   2.087533   1.112709   4.754032
                    6          7          8          9         10
     6  H    0.000000
     7  H    1.786933   0.000000
     8  H    2.524959   3.092872   0.000000
     9  H    3.092872   2.524959   1.785428   0.000000
    10  H    4.561091   4.561091   3.617973   3.617973   0.000000
    11  H    4.233569   4.597327   2.444499   3.030707   1.799981
    12  H    4.597327   4.233569   3.030707   2.444499   1.799981
                   11         12
    11  H    0.000000
    12  H    1.797668   0.000000
 Stoichiometry    C3H8O
 Framework group  CS[SG(C3H2O),X(H6)]
 Deg. of freedom    18
 Full point group                 CS      NOp   2
 Largest Abelian subgroup         CS      NOp   2
 Largest concise Abelian subgroup CS      NOp   2
                         Standard orientation:                         
 ---------------------------------------------------------------------
 Center     Atomic      Atomic             Coordinates (Angstroms)
 Number     Number       Type             X           Y           Z
 ---------------------------------------------------------------------
      1          6           0       -1.442928   -1.174743   -0.000000
      2          6           0        0.000000   -0.702817   -0.000000
      3          8           0        0.020687    0.703509    0.000000
      4          6           0        1.309839    1.246346    0.000000
      5          1           0       -1.492029   -2.277873   -0.000000
      6          1           0       -1.970380   -0.798092   -0.893466
      7          1           0       -1.970380   -0.798092    0.893466
      8          1           0        0.536963   -1.095828   -0.892714
      9          1           0        0.536963   -1.095828    0.892714
     10          1           0        1.212134    2.344657    0.000000
     11          1           0        1.889885    0.940135   -0.898834
     12          1           0        1.889885    0.940135    0.898834
 ---------------------------------------------------------------------
 Rotational constants (GHZ):          28.2646359           4.1439645           3.8831104

 **********************************************************************

            Population analysis using the SCF Density.

 **********************************************************************

 Orbital symmetries:
       Occupied  (A') (A') (A') (A') (A') (A') (A') (A') (A') (A")
                 (A') (A") (A') (A') (A") (A') (A")
       Virtual   (A') (A') (A") (A') (A') (A') (A') (A") (A") (A')
                 (A') (A') (A") (A') (A") (A') (A') (A') (A") (A')
                 (A") (A') (A') (A') (A') (A") (A') (A') (A") (A')
                 (A') (A') (A") (A') (A') (A") (A") (A') (A') (A')
                 (A") (A') (A') (A") (A') (A") (A') (A") (A') (A')
                 (A") (A") (A') (A') (A')
 The electronic state is 1-A'.
 Alpha  occ. eigenvalues --  -19.12800 -10.22630 -10.22188 -10.17222  -1.02374
 Alpha  occ. eigenvalues --   -0.75433  -0.66519  -0.59696  -0.49121  -0.48128
 Alpha  occ. eigenvalues --   -0.45327  -0.41955  -0.38461  -0.36627  -0.35392
 Alpha  occ. eigenvalues --   -0.31496  -0.25587
 Alpha virt. eigenvalues --    0.05828   0.08037   0.11023   0.11511   0.12952
 Alpha virt. eigenvalues --    0.14325   0.14831   0.14837   0.16472   0.22860
 Alpha virt. eigenvalues --    0.24992   0.42084   0.42819   0.45474   0.47557
 Alpha virt. eigenvalues --    0.49328   0.51316   0.60368   0.61137   0.64947
 Alpha virt. eigenvalues --    0.65836   0.66770   0.67560   0.69156   0.69989
 Alpha virt. eigenvalues --    0.70135   0.70969   0.72055   0.72564   0.87830
 Alpha virt. eigenvalues --    0.96612   1.09982   1.14719   1.32282   1.43511
 Alpha virt. eigenvalues --    1.50861   1.64367   1.65405   1.81749   1.88100
 Alpha virt. eigenvalues --    1.92044   1.95715   2.06051   2.07676   2.08385
 Alpha virt. eigenvalues --    2.12557   2.13151   2.23538   2.24531   2.52646
 Alpha virt. eigenvalues --    2.85392   2.94668   2.98669   3.25681   3.46779
          Condensed to atoms (all electrons):
               1          2          3          4          5          6
     1  C    4.825756   0.438476  -0.062557   0.009747   0.352923   0.370208
     2  C    0.438476   4.593968   0.327358  -0.051043  -0.008862  -0.018629
     3  O   -0.062557   0.327358   7.938266   0.327152   0.003718   0.005023
     4  C    0.009747  -0.051043   0.327152   4.653748  -0.000414  -0.000081
     5  H    0.352923  -0.008862   0.003718  -0.000414   0.606436  -0.020350
     6  H    0.370208  -0.018629   0.005023  -0.000081  -0.020350   0.593897
     7  H    0.370208  -0.018629   0.005023  -0.000081  -0.020350  -0.027944
     8  H   -0.029246   0.360517  -0.037792  -0.004678  -0.001340  -0.012074
     9  H   -0.029246   0.360517  -0.037792  -0.004678  -0.001340   0.009618
    10  H   -0.000406   0.008478  -0.026932   0.385609   0.000008  -0.000015
    11  H   -0.000127  -0.008121  -0.035363   0.373890   0.000037  -0.000252
    12  H   -0.000127  -0.008121  -0.035363   0.373890   0.000037   0.000208
               7          8          9         10         11         12
     1  C    0.370208  -0.029246  -0.029246  -0.000406  -0.000127  -0.000127
     2  C   -0.018629   0.360517   0.360517   0.008478  -0.008121  -0.008121
     3  O    0.005023  -0.037792  -0.037792  -0.026932  -0.035363  -0.035363
     4  C   -0.000081  -0.004678  -0.004678   0.385609   0.373890   0.373890
     5  H   -0.020350  -0.001340  -0.001340   0.000008   0.000037   0.000037
     6  H   -0.027944  -0.012074   0.009618  -0.000015  -0.000252   0.000208
     7  H    0.593897   0.009618  -0.012074  -0.000015   0.000208  -0.000252
     8  H    0.009618   0.704898  -0.061103  -0.000287   0.019819  -0.005729
     9  H   -0.012074  -0.061103   0.704898  -0.000287  -0.005729   0.019819
    10  H   -0.000015  -0.000287  -0.000287   0.587172  -0.029065  -0.029065
    11  H    0.000208   0.019819  -0.005729  -0.029065   0.661884  -0.049903
    12  H   -0.000252  -0.005729   0.019819  -0.029065  -0.049903   0.661884
 Mulliken charges:
               1
     1  C   -0.245610
     2  C    0.024091
     3  O   -0.370740
     4  C   -0.063062
     5  H    0.089495
     6  H    0.100390
     7  H    0.100390
     8  H    0.057397
     9  H    0.057397
    10  H    0.104804
    11  H    0.072724
    12  H    0.072724
 Sum of Mulliken charges =  -0.00000
 Mulliken charges with hydrogens summed into heavy atoms:
               1
     1  C    0.044667
     2  C    0.138884
     3  O   -0.370740
     4  C    0.187189
 Electronic spatial extent (au):  <R**2>=            370.4950
 Charge=              0.0000 electrons
 Dipole moment (field-independent basis, Debye):
    X=              0.9179    Y=             -0.6374    Z=              0.0000  Tot=              1.1176
 Quadrupole moment (field-independent basis, Debye-Ang):
   XX=            -25.8683   YY=            -25.7620   ZZ=            -26.7584
   XY=              1.6457   XZ=              0.0000   YZ=              0.0000
 Traceless Quadrupole moment (field-independent basis, Debye-Ang):
   XX=              0.2613   YY=              0.3676   ZZ=             -0.6288
   XY=              1.6457   XZ=              0.0000   YZ=              0.0000
 Octapole moment (field-independent basis, Debye-Ang**2):
  XXX=              1.2931  YYY=              5.5002  ZZZ=              0.0000  XYY=              2.1832
  XXY=              2.8814  XXZ=             -0.0000  XZZ=             -0.2613  YZZ=              0.8833
  YYZ=              0.0000  XYZ=             -0.0000
 Hexadecapole moment (field-independent basis, Debye-Ang**3):
 XXXX=           -236.1707 YYYY=           -209.0052 ZZZZ=            -48.3371 XXXY=            -79.2322
 XXXZ=              0.0000 YYYX=            -74.1496 YYYZ=              0.0000 ZZZX=              0.0000
 ZZZY=              0.0000 XXYY=            -75.6848 XXZZ=            -45.5504 YYZZ=            -46.2956
 XXYZ=              0.0000 YYXZ=              0.0000 ZZXY=            -26.6554
 N-N= 1.333827265942D+02 E-N=-7.186896933618D+02  KE= 1.923319385090D+02
 Symmetry A'   KE= 1.817592147772D+02
 Symmetry A"   KE= 1.057272373174D+01
 Unable to Open any file for archive entry.
 1\1\GINC-NODE02\FOpt\RB3LYP\def2SVPP\C3H8O1\XUHJ\19-Dec-2023\0\\#N opt
  freq B3LYP/def2SVPP symm=veryloose em=gd3bj scale=0.961 press=0.987\\
 CCOC_1\\0,1\C,0.8966035544,0.0087508998,0.0087197742\C,2.413911482,0.0
 495015794,-0.0208238572\O,2.9145875868,-1.0263873525,0.7341382129\C,4.
 3116675414,-1.0832040333,0.773160837\H,0.4729818091,0.8434861496,-0.57
 70006222\H,0.5303344406,0.0848169712,1.0471868076\H,0.5294314922,-0.94
 18810541,-0.4153515117\H,2.7844221285,1.0149460489,0.3919280516\H,2.78
 35199402,-0.0108876763,-1.0693790663\H,4.5956982287,-1.9553090551,1.38
 52008956\H,4.7523659152,-0.168950819,1.2292824978\H,4.7514575424,-1.20
 1816703,-0.2420419781\\Version=ES64L-G16RevC.01\State=1-A'\HF=-194.193
 5742\RMSD=3.772e-09\RMSF=1.070e-04\Dipole=0.2535272,0.2939411,-0.20650
 24\Quadrupole=0.9902947,-0.5040748,-0.4862198,-0.7880965,0.5523416,0.0
 261437\PG=CS [SG(C3H2O1),X(H6)]\\@
 The archive entry for this job was punched.


 THE MORE PROGRESS PHYSICAL SCIENCES MAKE, THE MORE THEY TEND TO ENTER
 THE DOMAIN OF MATHEMATICS, WHICH IS A KIND OF CENTRE TO WHICH THEY ALL
 CONVERGE.  WE MAY EVEN JUDGE THE DEGREE OF PERFECTION TO WHICH A 
 SCIENCE HAS ARRIVED BY THE FACILITY WITH WHICH IT MAY BE SUBMITTED
 TO CALCULATION.

                               -- ADOLPHE QUETELET, 1796-1874
 Job cpu time:       0 days  0 hours  1 minutes 54.1 seconds.
 Elapsed time:       0 days  0 hours  0 minutes  9.0 seconds.
 File lengths (MBytes):  RWF=     17 Int=      0 D2E=      0 Chk=      2 Scr=      2
 Normal termination of Gaussian 16 at Tue Dec 19 12:58:35 2023.
 Link1:  Proceeding to internal job step number  2.
 --------------------------------------------------------------------
 #N Geom=AllCheck Guess=TCheck SCRF=Check GenChk RB3LYP/def2SVPP Freq
 --------------------------------------------------------------------
 1/10=4,29=7,30=1,38=1,40=1,113=-987000,114=961000/1,3;
 2/12=2,17=2,18=2,40=1/2;
 3/5=43,7=202,11=2,14=-4,25=1,30=1,70=2,71=2,74=-5,116=1,124=41,140=1/1,2,3;
 4/5=101/1;
 5/5=2,38=6,98=1/2;
 8/6=4,10=90,11=11/1;
 11/6=1,8=1,9=11,15=111,16=1/1,2,10;
 10/6=1/2;
 6/7=2,8=2,9=2,10=2,28=1/1;
 7/8=1,10=1,25=1/1,2,3,16;
 1/10=4,30=1/3;
 99//99;
 Structure from the checkpoint file:  "/home/software/g16tmp/Gau-139888.chk"
 ------
 CCOC_1
 ------
 Charge =  0 Multiplicity = 1
 Redundant internal coordinates found in file.  (old form).
 C,0,0.8966035544,0.0087508998,0.0087197742
 C,0,2.413911482,0.0495015794,-0.0208238572
 O,0,2.9145875868,-1.0263873525,0.7341382129
 C,0,4.3116675414,-1.0832040333,0.773160837
 H,0,0.4729818091,0.8434861496,-0.5770006222
 H,0,0.5303344406,0.0848169712,1.0471868076
 H,0,0.5294314922,-0.9418810541,-0.4153515117
 H,0,2.7844221285,1.0149460489,0.3919280516
 H,0,2.7835199402,-0.0108876763,-1.0693790663
 H,0,4.5956982287,-1.9553090551,1.3852008956
 H,0,4.7523659152,-0.168950819,1.2292824978
 H,0,4.7514575424,-1.201816703,-0.2420419781
 Recover connectivity data from disk.

 GradGradGradGradGradGradGradGradGradGradGradGradGradGradGradGradGradGrad
 Berny optimization.
 Initialization pass.
                           ----------------------------
                           !    Initial Parameters    !
                           ! (Angstroms and Degrees)  !
 --------------------------                            --------------------------
 ! Name  Definition              Value          Derivative Info.                !
 --------------------------------------------------------------------------------
 ! R1    R(1,2)                  1.5181         calculate D2E/DX2 analytically  !
 ! R2    R(1,5)                  1.1042         calculate D2E/DX2 analytically  !
 ! R3    R(1,6)                  1.1038         calculate D2E/DX2 analytically  !
 ! R4    R(1,7)                  1.1038         calculate D2E/DX2 analytically  !
 ! R5    R(2,3)                  1.4065         calculate D2E/DX2 analytically  !
 ! R6    R(2,8)                  1.1134         calculate D2E/DX2 analytically  !
 ! R7    R(2,9)                  1.1134         calculate D2E/DX2 analytically  !
 ! R8    R(3,4)                  1.3988         calculate D2E/DX2 analytically  !
 ! R9    R(4,10)                 1.1026         calculate D2E/DX2 analytically  !
 ! R10   R(4,11)                 1.1127         calculate D2E/DX2 analytically  !
 ! R11   R(4,12)                 1.1127         calculate D2E/DX2 analytically  !
 ! A1    A(2,1,5)              110.6595         calculate D2E/DX2 analytically  !
 ! A2    A(2,1,6)              110.3715         calculate D2E/DX2 analytically  !
 ! A3    A(2,1,7)              110.3715         calculate D2E/DX2 analytically  !
 ! A4    A(5,1,6)              108.6417         calculate D2E/DX2 analytically  !
 ! A5    A(5,1,7)              108.6417         calculate D2E/DX2 analytically  !
 ! A6    A(6,1,7)              108.085          calculate D2E/DX2 analytically  !
 ! A7    A(1,2,3)              108.9537         calculate D2E/DX2 analytically  !
 ! A8    A(1,2,8)              110.4043         calculate D2E/DX2 analytically  !
 ! A9    A(1,2,9)              110.4043         calculate D2E/DX2 analytically  !
 ! A10   A(3,2,8)              110.2332         calculate D2E/DX2 analytically  !
 ! A11   A(3,2,9)              110.2332         calculate D2E/DX2 analytically  !
 ! A12   A(8,2,9)              106.5989         calculate D2E/DX2 analytically  !
 ! A13   A(2,3,4)              113.6778         calculate D2E/DX2 analytically  !
 ! A14   A(3,4,10)             107.7514         calculate D2E/DX2 analytically  !
 ! A15   A(3,4,11)             111.9402         calculate D2E/DX2 analytically  !
 ! A16   A(3,4,12)             111.9402         calculate D2E/DX2 analytically  !
 ! A17   A(10,4,11)            108.6812         calculate D2E/DX2 analytically  !
 ! A18   A(10,4,12)            108.6812         calculate D2E/DX2 analytically  !
 ! A19   A(11,4,12)            107.7609         calculate D2E/DX2 analytically  !
 ! D1    D(5,1,2,3)            180.0            calculate D2E/DX2 analytically  !
 ! D2    D(5,1,2,8)             58.8088         calculate D2E/DX2 analytically  !
 ! D3    D(5,1,2,9)            -58.8088         calculate D2E/DX2 analytically  !
 ! D4    D(6,1,2,3)             59.707          calculate D2E/DX2 analytically  !
 ! D5    D(6,1,2,8)            -61.4841         calculate D2E/DX2 analytically  !
 ! D6    D(6,1,2,9)           -179.1018         calculate D2E/DX2 analytically  !
 ! D7    D(7,1,2,3)            -59.707          calculate D2E/DX2 analytically  !
 ! D8    D(7,1,2,8)            179.1018         calculate D2E/DX2 analytically  !
 ! D9    D(7,1,2,9)             61.4841         calculate D2E/DX2 analytically  !
 ! D10   D(1,2,3,4)            180.0            calculate D2E/DX2 analytically  !
 ! D11   D(8,2,3,4)            -58.7044         calculate D2E/DX2 analytically  !
 ! D12   D(9,2,3,4)             58.7044         calculate D2E/DX2 analytically  !
 ! D13   D(2,3,4,10)           180.0            calculate D2E/DX2 analytically  !
 ! D14   D(2,3,4,11)            60.5589         calculate D2E/DX2 analytically  !
 ! D15   D(2,3,4,12)           -60.5589         calculate D2E/DX2 analytically  !
 --------------------------------------------------------------------------------
 Trust Radius=3.00D-01 FncErr=1.00D-07 GrdErr=1.00D-07 EigMax=2.50D+02 EigMin=1.00D-04
 Number of steps in this run=      2 maximum allowed number of steps=      2.
 GradGradGradGradGradGradGradGradGradGradGradGradGradGradGradGradGradGrad

                          Input orientation:                          
 ---------------------------------------------------------------------
 Center     Atomic      Atomic             Coordinates (Angstroms)
 Number     Number       Type             X           Y           Z
 ---------------------------------------------------------------------
      1          6           0        0.896604    0.008751    0.008720
      2          6           0        2.413911    0.049502   -0.020824
      3          8           0        2.914588   -1.026387    0.734138
      4          6           0        4.311668   -1.083204    0.773161
      5          1           0        0.472982    0.843486   -0.577001
      6          1           0        0.530334    0.084817    1.047187
      7          1           0        0.529431   -0.941881   -0.415352
      8          1           0        2.784422    1.014946    0.391928
      9          1           0        2.783520   -0.010888   -1.069379
     10          1           0        4.595698   -1.955309    1.385201
     11          1           0        4.752366   -0.168951    1.229282
     12          1           0        4.751458   -1.201817   -0.242042
 ---------------------------------------------------------------------
                    Distance matrix (angstroms):
                    1          2          3          4          5
     1  C    0.000000
     2  C    1.518143   0.000000
     3  O    2.381177   1.406478   0.000000
     4  C    3.665978   2.348385   1.398779   0.000000
     5  H    1.104222   2.169551   3.343195   4.502286   0.000000
     6  H    1.103790   2.165585   2.649045   3.967095   1.793559
     7  H    1.103790   2.165585   2.649045   3.967095   1.793559
     8  H    2.173278   1.113430   2.073908   2.622985   2.512166
     9  H    2.173278   1.113430   2.073908   2.622985   2.512166
    10  H    4.408575   3.279690   2.028031   1.102648   5.355397
    11  H    4.048241   2.660612   2.087533   1.112709   4.754032
    12  H    4.048241   2.660612   2.087533   1.112709   4.754032
                    6          7          8          9         10
     6  H    0.000000
     7  H    1.786933   0.000000
     8  H    2.524959   3.092872   0.000000
     9  H    3.092872   2.524959   1.785428   0.000000
    10  H    4.561091   4.561091   3.617973   3.617973   0.000000
    11  H    4.233569   4.597327   2.444499   3.030707   1.799981
    12  H    4.597327   4.233569   3.030707   2.444499   1.799981
                   11         12
    11  H    0.000000
    12  H    1.797668   0.000000
 Stoichiometry    C3H8O
 Framework group  CS[SG(C3H2O),X(H6)]
 Deg. of freedom    18
 Full point group                 CS      NOp   2
 Largest Abelian subgroup         CS      NOp   2
 Largest concise Abelian subgroup CS      NOp   2
                         Standard orientation:                         
 ---------------------------------------------------------------------
 Center     Atomic      Atomic             Coordinates (Angstroms)
 Number     Number       Type             X           Y           Z
 ---------------------------------------------------------------------
      1          6           0       -1.442928   -1.174743   -0.000000
      2          6           0       -0.000000   -0.702817   -0.000000
      3          8           0        0.020687    0.703509    0.000000
      4          6           0        1.309839    1.246346    0.000000
      5          1           0       -1.492029   -2.277873   -0.000000
      6          1           0       -1.970380   -0.798092   -0.893466
      7          1           0       -1.970380   -0.798092    0.893466
      8          1           0        0.536963   -1.095828   -0.892714
      9          1           0        0.536963   -1.095828    0.892714
     10          1           0        1.212134    2.344657    0.000000
     11          1           0        1.889885    0.940135   -0.898834
     12          1           0        1.889885    0.940135    0.898834
 ---------------------------------------------------------------------
 Rotational constants (GHZ):          28.2646359           4.1439645           3.8831104
 Standard basis: def2SVPP (5D, 7F)
 There are    54 symmetry adapted cartesian basis functions of A'  symmetry.
 There are    22 symmetry adapted cartesian basis functions of A"  symmetry.
 There are    50 symmetry adapted basis functions of A'  symmetry.
 There are    22 symmetry adapted basis functions of A"  symmetry.
    72 basis functions,   132 primitive gaussians,    76 cartesian basis functions
    17 alpha electrons       17 beta electrons
       nuclear repulsion energy       133.3935597293 Hartrees.
 NAtoms=   12 NActive=   12 NUniq=    9 SFac= 1.78D+00 NAtFMM=   60 NAOKFM=F Big=F
 Integral buffers will be    131072 words long.
 Raffenetti 2 integral format.
 Two-electron integral symmetry is turned on.
 Nuclear repulsion after empirical dispersion term =      133.3827265942 Hartrees.
 One-electron integrals computed using PRISM.
   2 Symmetry operations used in ECPInt.
 ECPInt:  NShTT=     820 NPrTT=    3316 LenC2=     820 LenP2D=    2851.
 LDataN:  DoStor=T MaxTD1= 4 Len=   56
 NBasis=    72 RedAO= T EigKep=  3.94D-03  NBF=    50    22
 NBsUse=    72 1.00D-06 EigRej= -1.00D+00 NBFU=    50    22
 Initial guess from the checkpoint file:  "/home/software/g16tmp/Gau-139888.chk"
 B after Tr=    -0.000000    0.000000    0.000000
         Rot=    1.000000   -0.000000   -0.000000    0.000000 Ang=   0.00 deg.
 Initial guess orbital symmetries:
       Occupied  (A') (A') (A') (A') (A') (A') (A') (A') (A') (A")
                 (A') (A") (A') (A') (A") (A') (A")
       Virtual   (A') (A') (A") (A') (A') (A') (A') (A") (A") (A')
                 (A') (A') (A") (A') (A") (A') (A') (A') (A") (A')
                 (A") (A') (A') (A') (A') (A") (A') (A') (A") (A')
                 (A') (A') (A") (A') (A') (A") (A") (A') (A') (A')
                 (A") (A') (A') (A") (A') (A") (A') (A") (A') (A')
                 (A") (A") (A') (A') (A')
 Keep R1 ints in memory in symmetry-blocked form, NReq=17890882.
 Requested convergence on RMS density matrix=1.00D-08 within 128 cycles.
 Requested convergence on MAX density matrix=1.00D-06.
 Requested convergence on             energy=1.00D-06.
 No special actions if energy rises.
 SCF Done:  E(RB3LYP) =  -194.193574164     A.U. after    1 cycles
            NFock=  1  Conv=0.68D-09     -V/T= 2.0097
 DoSCS=F DFT=T ScalE2(SS,OS)=  1.000000  1.000000
 Range of M.O.s used for correlation:     1    72
 NBasis=    72 NAE=    17 NBE=    17 NFC=     0 NFV=     0
 NROrb=     72 NOA=    17 NOB=    17 NVA=    55 NVB=    55
   2 Symmetry operations used in ECPInt.
 ECPInt:  NShTT=     820 NPrTT=    3316 LenC2=     820 LenP2D=    2851.
 LDataN:  DoStor=T MaxTD1= 5 Len=  102
 Symmetrizing basis deriv contribution to polar:
 IMax=3 JMax=2 DiffMx= 0.00D+00
 G2DrvN: will do    13 centers at a time, making    1 passes.
 Calling FoFCou, ICntrl=  3107 FMM=F I1Cent=   0 AccDes= 0.00D+00.
 End of G2Drv F.D. properties file   721 does not exist.
 End of G2Drv F.D. properties file   722 does not exist.
 End of G2Drv F.D. properties file   788 does not exist.
          IDoAtm=111111111111
          Differentiating once with respect to electric field.
                with respect to dipole field.
          Differentiating once with respect to nuclear coordinates.
 Keep R1 ints in memory in symmetry-blocked form, NReq=17846628.
          There are    30 degrees of freedom in the 1st order CPHF.  IDoFFX=4 NUNeed=    30.
     30 vectors produced by pass  0 Test12= 3.12D-15 3.33D-09 XBig12= 2.13D+01 1.62D+00.
 AX will form    30 AO Fock derivatives at one time.
     30 vectors produced by pass  1 Test12= 3.12D-15 3.33D-09 XBig12= 1.48D+00 2.87D-01.
     30 vectors produced by pass  2 Test12= 3.12D-15 3.33D-09 XBig12= 2.21D-02 3.01D-02.
     30 vectors produced by pass  3 Test12= 3.12D-15 3.33D-09 XBig12= 3.20D-05 8.32D-04.
     30 vectors produced by pass  4 Test12= 3.12D-15 3.33D-09 XBig12= 3.01D-08 2.75D-05.
     14 vectors produced by pass  5 Test12= 3.12D-15 3.33D-09 XBig12= 1.64D-11 5.95D-07.
      3 vectors produced by pass  6 Test12= 3.12D-15 3.33D-09 XBig12= 9.70D-15 1.28D-08.
 InvSVY:  IOpt=1 It=  1 EMax= 4.44D-15
 Solved reduced A of dimension   167 with    30 vectors.
 Isotropic polarizability for W=    0.000000       38.01 Bohr**3.
 End of Minotr F.D. properties file   721 does not exist.
 End of Minotr F.D. properties file   722 does not exist.
 End of Minotr F.D. properties file   788 does not exist.

 **********************************************************************

            Population analysis using the SCF Density.

 **********************************************************************

 Orbital symmetries:
       Occupied  (A') (A') (A') (A') (A') (A') (A') (A') (A') (A")
                 (A') (A") (A') (A') (A") (A') (A")
       Virtual   (A') (A') (A") (A') (A') (A') (A') (A") (A") (A')
                 (A') (A') (A") (A') (A") (A') (A') (A') (A") (A')
                 (A") (A') (A') (A') (A') (A") (A') (A') (A") (A')
                 (A') (A') (A") (A') (A') (A") (A") (A') (A') (A')
                 (A") (A') (A') (A") (A') (A") (A') (A") (A') (A')
                 (A") (A") (A') (A') (A')
 The electronic state is 1-A'.
 Alpha  occ. eigenvalues --  -19.12800 -10.22630 -10.22188 -10.17222  -1.02374
 Alpha  occ. eigenvalues --   -0.75433  -0.66519  -0.59696  -0.49121  -0.48128
 Alpha  occ. eigenvalues --   -0.45327  -0.41955  -0.38461  -0.36627  -0.35392
 Alpha  occ. eigenvalues --   -0.31496  -0.25587
 Alpha virt. eigenvalues --    0.05828   0.08037   0.11023   0.11511   0.12952
 Alpha virt. eigenvalues --    0.14325   0.14831   0.14837   0.16472   0.22860
 Alpha virt. eigenvalues --    0.24992   0.42084   0.42819   0.45474   0.47557
 Alpha virt. eigenvalues --    0.49328   0.51316   0.60368   0.61137   0.64947
 Alpha virt. eigenvalues --    0.65836   0.66770   0.67560   0.69156   0.69989
 Alpha virt. eigenvalues --    0.70135   0.70969   0.72055   0.72564   0.87830
 Alpha virt. eigenvalues --    0.96612   1.09982   1.14719   1.32282   1.43511
 Alpha virt. eigenvalues --    1.50861   1.64367   1.65405   1.81749   1.88100
 Alpha virt. eigenvalues --    1.92044   1.95715   2.06051   2.07676   2.08385
 Alpha virt. eigenvalues --    2.12557   2.13151   2.23538   2.24531   2.52646
 Alpha virt. eigenvalues --    2.85392   2.94668   2.98669   3.25681   3.46779
          Condensed to atoms (all electrons):
               1          2          3          4          5          6
     1  C    4.825756   0.438476  -0.062557   0.009747   0.352923   0.370208
     2  C    0.438476   4.593968   0.327358  -0.051043  -0.008862  -0.018629
     3  O   -0.062557   0.327358   7.938266   0.327152   0.003718   0.005023
     4  C    0.009747  -0.051043   0.327152   4.653748  -0.000414  -0.000081
     5  H    0.352923  -0.008862   0.003718  -0.000414   0.606436  -0.020350
     6  H    0.370208  -0.018629   0.005023  -0.000081  -0.020350   0.593897
     7  H    0.370208  -0.018629   0.005023  -0.000081  -0.020350  -0.027944
     8  H   -0.029246   0.360517  -0.037792  -0.004678  -0.001340  -0.012074
     9  H   -0.029246   0.360517  -0.037792  -0.004678  -0.001340   0.009618
    10  H   -0.000406   0.008478  -0.026932   0.385609   0.000008  -0.000015
    11  H   -0.000127  -0.008121  -0.035363   0.373890   0.000037  -0.000252
    12  H   -0.000127  -0.008121  -0.035363   0.373890   0.000037   0.000208
               7          8          9         10         11         12
     1  C    0.370208  -0.029246  -0.029246  -0.000406  -0.000127  -0.000127
     2  C   -0.018629   0.360517   0.360517   0.008478  -0.008121  -0.008121
     3  O    0.005023  -0.037792  -0.037792  -0.026932  -0.035363  -0.035363
     4  C   -0.000081  -0.004678  -0.004678   0.385609   0.373890   0.373890
     5  H   -0.020350  -0.001340  -0.001340   0.000008   0.000037   0.000037
     6  H   -0.027944  -0.012074   0.009618  -0.000015  -0.000252   0.000208
     7  H    0.593897   0.009618  -0.012074  -0.000015   0.000208  -0.000252
     8  H    0.009618   0.704898  -0.061103  -0.000287   0.019819  -0.005729
     9  H   -0.012074  -0.061103   0.704898  -0.000287  -0.005729   0.019819
    10  H   -0.000015  -0.000287  -0.000287   0.587172  -0.029065  -0.029065
    11  H    0.000208   0.019819  -0.005729  -0.029065   0.661884  -0.049903
    12  H   -0.000252  -0.005729   0.019819  -0.029065  -0.049903   0.661884
 Mulliken charges:
               1
     1  C   -0.245610
     2  C    0.024091
     3  O   -0.370740
     4  C   -0.063062
     5  H    0.089496
     6  H    0.100390
     7  H    0.100390
     8  H    0.057397
     9  H    0.057397
    10  H    0.104804
    11  H    0.072724
    12  H    0.072724
 Sum of Mulliken charges =  -0.00000
 Mulliken charges with hydrogens summed into heavy atoms:
               1
     1  C    0.044667
     2  C    0.138884
     3  O   -0.370740
     4  C    0.187189
 APT charges:
               1
     1  C    0.030411
     2  C    0.618834
     3  O   -0.807370
     4  C    0.572290
     5  H   -0.013988
     6  H   -0.007458
     7  H   -0.007458
     8  H   -0.102646
     9  H   -0.102646
    10  H   -0.023931
    11  H   -0.078019
    12  H   -0.078019
 Sum of APT charges =   0.00000
 APT charges with hydrogens summed into heavy atoms:
               1
     1  C    0.001508
     2  C    0.413542
     3  O   -0.807370
     4  C    0.392320
 Electronic spatial extent (au):  <R**2>=            370.4950
 Charge=              0.0000 electrons
 Dipole moment (field-independent basis, Debye):
    X=              0.9179    Y=             -0.6374    Z=              0.0000  Tot=              1.1176
 Quadrupole moment (field-independent basis, Debye-Ang):
   XX=            -25.8683   YY=            -25.7620   ZZ=            -26.7584
   XY=              1.6457   XZ=              0.0000   YZ=             -0.0000
 Traceless Quadrupole moment (field-independent basis, Debye-Ang):
   XX=              0.2613   YY=              0.3676   ZZ=             -0.6288
   XY=              1.6457   XZ=              0.0000   YZ=             -0.0000
 Octapole moment (field-independent basis, Debye-Ang**2):
  XXX=              1.2931  YYY=              5.5002  ZZZ=              0.0000  XYY=              2.1832
  XXY=              2.8814  XXZ=              0.0000  XZZ=             -0.2613  YZZ=              0.8833
  YYZ=              0.0000  XYZ=              0.0000
 Hexadecapole moment (field-independent basis, Debye-Ang**3):
 XXXX=           -236.1706 YYYY=           -209.0052 ZZZZ=            -48.3371 XXXY=            -79.2322
 XXXZ=             -0.0000 YYYX=            -74.1496 YYYZ=             -0.0000 ZZZX=             -0.0000
 ZZZY=             -0.0000 XXYY=            -75.6848 XXZZ=            -45.5504 YYZZ=            -46.2956
 XXYZ=             -0.0000 YYXZ=             -0.0000 ZZXY=            -26.6554
 N-N= 1.333827265942D+02 E-N=-7.186896937817D+02  KE= 1.923319386362D+02
 Symmetry A'   KE= 1.817592148595D+02
 Symmetry A"   KE= 1.057272377665D+01
  Exact polarizability:      39.469       4.781      39.844      -0.000       0.000      34.711
 Approx polarizability:      47.286       0.868      48.627       0.000       0.000      45.448
   2 Symmetry operations used in ECPInt.
 ECPInt:  NShTT=     820 NPrTT=    3316 LenC2=     820 LenP2D=    2851.
 LDataN:  DoStor=T MaxTD1= 6 Len=  172
 Calling FoFJK, ICntrl=    100127 FMM=F ISym2X=1 I1Cent= 0 IOpClX= 0 NMat=1 NMatS=1 NMatT=0.
 Full mass-weighted force constant matrix:
 Low frequencies ---  -11.8138   -1.4535   -0.0012   -0.0010   -0.0006    5.4183
 Low frequencies ---  116.7120  218.6250  276.5831
 Diagonal vibrational polarizability:
        2.8720681       4.4052681       7.6813394
 Harmonic frequencies (cm**-1), IR intensities (KM/Mole), Raman scattering
 activities (A**4/AMU), depolarization ratios for plane and unpolarized
 incident light, reduced masses (AMU), force constants (mDyne/A),
 and normal coordinates:
                      1                      2                      3
                     A"                     A"                     A"
 Frequencies --    116.7079               218.6245               276.5821
 Red. masses --      2.3646                 1.0691                 1.2227
 Frc consts  --      0.0190                 0.0301                 0.0551
 IR Inten    --      2.6090                 1.2963                 2.4080
  Atom  AN      X      Y      Z        X      Y      Z        X      Y      Z
     1   6    -0.00   0.00  -0.15    -0.00   0.00   0.02    -0.00   0.00  -0.01
     2   6    -0.00  -0.00   0.15     0.00  -0.00  -0.01     0.00  -0.00  -0.09
     3   8     0.00  -0.00   0.19     0.00  -0.00  -0.05     0.00  -0.00   0.09
     4   6     0.00   0.00  -0.17    -0.00   0.00   0.03    -0.00   0.00   0.00
     5   1    -0.00  -0.00  -0.13    -0.00   0.00   0.37    -0.00   0.00   0.50
     6   1     0.20  -0.02  -0.27     0.05  -0.28  -0.13     0.03  -0.41  -0.20
     7   1    -0.20   0.02  -0.27    -0.05   0.28  -0.13    -0.03   0.41  -0.20
     8   1     0.15   0.03   0.23     0.01  -0.05   0.02    -0.07   0.11  -0.18
     9   1    -0.15  -0.03   0.23    -0.01   0.05   0.02     0.07  -0.11  -0.18
    10   1    -0.00   0.00  -0.04    -0.00   0.00   0.52    -0.00   0.00  -0.30
    11   1    -0.30   0.08  -0.39    -0.10   0.39  -0.16     0.03  -0.24   0.10
    12   1     0.30  -0.08  -0.39     0.10  -0.39  -0.16    -0.03   0.24   0.10
                      4                      5                      6
                     A'                     A'                     A"
 Frequencies --    289.9509               471.5958               830.3106
 Red. masses --      2.4249                 2.8301                 1.0812
 Frc consts  --      0.1201                 0.3708                 0.4392
 IR Inten    --      2.5889                 0.5762                 0.1956
  Atom  AN      X      Y      Z        X      Y      Z        X      Y      Z
     1   6     0.03  -0.15  -0.00    -0.17  -0.16   0.00    -0.00  -0.00   0.05
     2   6    -0.07   0.16  -0.00    -0.14  -0.02  -0.00     0.00  -0.00   0.06
     3   8    -0.07   0.17   0.00     0.17   0.01  -0.00    -0.00   0.00  -0.02
     4   6     0.08  -0.14  -0.00     0.14   0.18   0.00     0.00   0.00  -0.00
     5   1     0.38  -0.17   0.00     0.11  -0.17   0.00    -0.00  -0.00  -0.18
     6   1    -0.09  -0.33  -0.01    -0.28  -0.32  -0.01     0.44   0.07  -0.19
     7   1    -0.09  -0.33   0.01    -0.28  -0.32   0.01    -0.44  -0.07  -0.19
     8   1    -0.03   0.21   0.01    -0.21  -0.11   0.00    -0.44   0.03  -0.22
     9   1    -0.03   0.21  -0.01    -0.21  -0.11  -0.00     0.44  -0.03  -0.22
    10   1     0.40  -0.12   0.00    -0.10   0.16   0.00     0.00  -0.00   0.02
    11   1    -0.01  -0.32   0.00     0.20   0.32  -0.01     0.03   0.02   0.01
    12   1    -0.01  -0.32  -0.00     0.20   0.32   0.01    -0.03  -0.02   0.01
                      7                      8                      9
                     A'                     A'                     A'
 Frequencies --    882.4743              1050.3189              1124.9843
 Red. masses --      2.0400                 2.8895                 1.7217
 Frc consts  --      0.9360                 1.8781                 1.2838
 IR Inten    --     11.7473                17.5108                 6.2681
  Atom  AN      X      Y      Z        X      Y      Z        X      Y      Z
     1   6     0.08   0.14   0.00    -0.19  -0.07   0.00    -0.11   0.11  -0.00
     2   6    -0.08   0.13   0.00     0.19   0.19  -0.00     0.15  -0.10   0.00
     3   8     0.08  -0.13  -0.00     0.15  -0.04   0.00    -0.04   0.02   0.00
     4   6    -0.09  -0.07  -0.00    -0.14  -0.09  -0.00    -0.02   0.07  -0.00
     5   1     0.77   0.11  -0.00    -0.38  -0.07  -0.00     0.40   0.07   0.00
     6   1    -0.11  -0.23  -0.05    -0.24  -0.05   0.04    -0.29  -0.32  -0.07
     7   1    -0.11  -0.23   0.05    -0.24  -0.05  -0.04    -0.29  -0.32   0.07
     8   1    -0.18  -0.04   0.00     0.35   0.33   0.02     0.11  -0.16  -0.00
     9   1    -0.18  -0.04  -0.00     0.35   0.33  -0.02     0.11  -0.16   0.00
    10   1    -0.31  -0.09   0.00    -0.26  -0.10   0.00     0.44   0.11   0.00
    11   1    -0.04   0.04  -0.01    -0.10  -0.04  -0.00    -0.10  -0.20   0.04
    12   1    -0.04   0.04   0.01    -0.10  -0.04   0.00    -0.10  -0.20  -0.04
                     10                     11                     12
                     A"                     A'                     A"
 Frequencies --   1172.6981              1191.8582              1208.1499
 Red. masses --      1.3320                 3.9722                 1.5226
 Frc consts  --      1.0793                 3.3246                 1.3094
 IR Inten    --      0.1876               132.6937                11.2409
  Atom  AN      X      Y      Z        X      Y      Z        X      Y      Z
     1   6     0.00  -0.00  -0.07     0.07  -0.04   0.00     0.00  -0.00  -0.09
     2   6    -0.00   0.00   0.11    -0.10  -0.14  -0.00     0.00  -0.00   0.14
     3   8     0.00  -0.00   0.02     0.27   0.19   0.00     0.00   0.00  -0.08
     4   6    -0.00   0.00  -0.11    -0.30  -0.00  -0.00    -0.00  -0.00   0.10
     5   1    -0.00  -0.00   0.14    -0.08  -0.03  -0.00    -0.00  -0.00   0.18
     6   1    -0.23  -0.01   0.06     0.17   0.09   0.00    -0.28  -0.02   0.07
     7   1     0.23   0.01   0.06     0.17   0.09  -0.00     0.28   0.02   0.07
     8   1    -0.13   0.30  -0.09    -0.21  -0.21  -0.01    -0.22   0.30  -0.13
     9   1     0.13  -0.30  -0.09    -0.21  -0.21   0.01     0.22  -0.30  -0.13
    10   1     0.00   0.00   0.24     0.38   0.07   0.00    -0.00  -0.00  -0.19
    11   1     0.48   0.14   0.15    -0.29  -0.30   0.07    -0.42  -0.11  -0.13
    12   1    -0.48  -0.14   0.15    -0.29  -0.30  -0.07     0.42   0.11  -0.13
                     13                     14                     15
                     A'                     A"                     A'
 Frequencies --   1247.6196              1302.3009              1394.5879
 Red. masses --      2.0733                 1.0962                 1.2293
 Frc consts  --      1.9014                 1.0953                 1.4087
 IR Inten    --     81.9507                 2.0857                 2.5676
  Atom  AN      X      Y      Z        X      Y      Z        X      Y      Z
     1   6    -0.02   0.05   0.00     0.00  -0.00   0.08    -0.12  -0.02   0.00
     2   6     0.04  -0.14  -0.00    -0.00   0.00  -0.01    -0.04  -0.05  -0.00
     3   8    -0.00   0.18   0.00     0.00  -0.00  -0.04     0.01  -0.01  -0.00
     4   6    -0.01  -0.17  -0.00    -0.00   0.00   0.01    -0.01   0.01   0.00
     5   1     0.13   0.04  -0.00    -0.00  -0.00  -0.10     0.56  -0.05   0.00
     6   1    -0.07  -0.15  -0.05     0.22   0.01  -0.05     0.36   0.22  -0.18
     7   1    -0.07  -0.15   0.05    -0.22  -0.01  -0.05     0.36   0.22   0.18
     8   1     0.07  -0.02  -0.01     0.36   0.56  -0.02     0.23   0.25   0.03
     9   1     0.07  -0.02   0.01    -0.36  -0.56  -0.02     0.23   0.25  -0.03
    10   1    -0.62  -0.22   0.00     0.00   0.00  -0.01     0.08   0.02   0.00
    11   1     0.16   0.40  -0.10    -0.02   0.01  -0.01     0.06   0.01   0.03
    12   1     0.16   0.40   0.10     0.02  -0.01  -0.01     0.06   0.01  -0.03
                     16                     17                     18
                     A'                     A"                     A"
 Frequencies --   1436.0699              1465.3030              1468.3461
 Red. masses --      1.3718                 1.0387                 1.0419
 Frc consts  --      1.6669                 1.3140                 1.3235
 IR Inten    --     51.4048                 5.8465                 7.2139
  Atom  AN      X      Y      Z        X      Y      Z        X      Y      Z
     1   6     0.08   0.07   0.00     0.00   0.00  -0.05     0.00   0.00  -0.00
     2   6    -0.11  -0.08   0.00    -0.00  -0.00  -0.02    -0.00  -0.00  -0.00
     3   8     0.01  -0.03  -0.00    -0.00  -0.00   0.00     0.00   0.00  -0.01
     4   6    -0.04   0.01   0.00    -0.00  -0.00   0.00     0.00   0.00  -0.05
     5   1    -0.31   0.08  -0.00    -0.00   0.00   0.71    -0.00   0.00   0.04
     6   1    -0.13  -0.27  -0.02     0.19   0.45   0.04     0.01   0.03   0.00
     7   1    -0.13  -0.27   0.02    -0.19  -0.45   0.04    -0.01  -0.03   0.00
     8   1     0.29   0.42   0.03     0.05  -0.01   0.00     0.01   0.00  -0.00
     9   1     0.29   0.42  -0.03    -0.05   0.01   0.00    -0.01  -0.00  -0.00
    10   1     0.24   0.04   0.00     0.00   0.00  -0.04    -0.00  -0.00   0.72
    11   1     0.19   0.05   0.11     0.01   0.03  -0.00    -0.12  -0.47   0.05
    12   1     0.19   0.05  -0.11    -0.01  -0.03  -0.00     0.12   0.47   0.05
                     19                     20                     21
                     A'                     A'                     A'
 Frequencies --   1475.4122              1488.1209              1496.3949
 Red. masses --      1.1171                 1.0722                 1.0907
 Frc consts  --      1.4328                 1.3990                 1.4389
 IR Inten    --      1.4229                 2.0342                 8.8934
  Atom  AN      X      Y      Z        X      Y      Z        X      Y      Z
     1   6     0.00  -0.03   0.00     0.04  -0.03   0.00    -0.01  -0.02   0.00
     2   6     0.02   0.02   0.00    -0.05  -0.03  -0.00     0.06  -0.01   0.00
     3   8    -0.01  -0.02  -0.00     0.00   0.01   0.00    -0.02   0.00   0.00
     4   6    -0.06  -0.07  -0.00     0.01   0.02   0.00    -0.06   0.01  -0.00
     5   1     0.11  -0.03  -0.00     0.28  -0.03   0.00     0.08  -0.02  -0.00
     6   1    -0.12   0.16   0.14    -0.35   0.31   0.36    -0.05   0.09   0.07
     7   1    -0.12   0.16  -0.14    -0.35   0.31  -0.36    -0.05   0.09  -0.07
     8   1    -0.08  -0.01  -0.04     0.25  -0.03   0.16    -0.25   0.08  -0.21
     9   1    -0.08  -0.01   0.04     0.25  -0.03  -0.16    -0.25   0.08   0.21
    10   1     0.64   0.01   0.00    -0.17  -0.00  -0.00    -0.07  -0.00   0.00
    11   1     0.06   0.45  -0.10    -0.00  -0.12   0.03     0.46  -0.13   0.36
    12   1     0.06   0.45   0.10    -0.00  -0.12  -0.03     0.46  -0.13  -0.36
                     22                     23                     24
                     A'                     A'                     A'
 Frequencies --   1528.6367              2930.6029              2946.6197
 Red. masses --      1.1110                 1.0504                 1.0453
 Frc consts  --      1.5296                 5.3150                 5.3475
 IR Inten    --      1.3872                36.7494                97.8589
  Atom  AN      X      Y      Z        X      Y      Z        X      Y      Z
     1   6     0.01  -0.00  -0.00    -0.00   0.00  -0.00    -0.00   0.00   0.00
     2   6     0.03  -0.07   0.00     0.05  -0.03  -0.00     0.03  -0.02  -0.00
     3   8     0.01  -0.01  -0.00    -0.00  -0.00   0.00     0.00  -0.00   0.00
     4   6     0.05   0.01   0.00    -0.03   0.01   0.00     0.04  -0.01  -0.00
     5   1     0.10  -0.01   0.00     0.00  -0.03   0.00     0.00  -0.03   0.00
     6   1    -0.11   0.07   0.10     0.00  -0.00   0.01    -0.00  -0.00   0.00
     7   1    -0.11   0.07  -0.10     0.00  -0.00  -0.01    -0.00  -0.00  -0.00
     8   1    -0.24   0.41  -0.35    -0.27   0.19   0.48    -0.18   0.14   0.32
     9   1    -0.24   0.41   0.35    -0.27   0.19  -0.48    -0.18   0.14  -0.32
    10   1    -0.09   0.01  -0.00    -0.02   0.14   0.00     0.02  -0.20   0.00
    11   1    -0.27  -0.04  -0.18     0.19  -0.11  -0.32    -0.29   0.15   0.46
    12   1    -0.27  -0.04   0.18     0.19  -0.11   0.32    -0.29   0.15  -0.46
                     25                     26                     27
                     A"                     A"                     A'
 Frequencies --   2965.0371              2991.1194              3023.9201
 Red. masses --      1.1080                 1.1065                 1.0367
 Frc consts  --      5.7393                 5.8329                 5.5854
 IR Inten    --     88.7700                65.1255                15.7353
  Atom  AN      X      Y      Z        X      Y      Z        X      Y      Z
     1   6     0.00   0.00   0.01    -0.00  -0.00  -0.00    -0.05  -0.02  -0.00
     2   6    -0.00   0.00  -0.09     0.00  -0.00   0.01     0.00   0.00  -0.00
     3   8    -0.00  -0.00   0.00     0.00   0.00   0.00    -0.00  -0.00   0.00
     4   6    -0.00   0.00  -0.01    -0.00   0.00  -0.09     0.00  -0.00   0.00
     5   1     0.00  -0.00   0.00    -0.00   0.00  -0.00     0.02   0.59   0.00
     6   1    -0.03   0.02  -0.05     0.00  -0.00   0.00     0.27  -0.20   0.46
     7   1     0.03  -0.02  -0.05    -0.00   0.00   0.00     0.27  -0.20  -0.46
     8   1    -0.34   0.24   0.56     0.03  -0.01  -0.05    -0.01   0.00   0.01
     9   1     0.34  -0.24   0.56    -0.03   0.01  -0.05    -0.01   0.00  -0.01
    10   1     0.00  -0.00   0.00    -0.00   0.00  -0.02    -0.00   0.00   0.00
    11   1    -0.03   0.01   0.04    -0.36   0.21   0.57    -0.00   0.00   0.01
    12   1     0.03  -0.01   0.04     0.36  -0.21   0.57    -0.00   0.00  -0.01
                     28                     29                     30
                     A'                     A'                     A"
 Frequencies --   3108.0375              3109.0397              3110.9534
 Red. masses --      1.0983                 1.1049                 1.1055
 Frc consts  --      6.2510                 6.2928                 6.3039
 IR Inten    --     32.5583                19.7144                24.1248
  Atom  AN      X      Y      Z        X      Y      Z        X      Y      Z
     1   6     0.00  -0.01  -0.00     0.03  -0.09  -0.00    -0.00   0.00  -0.09
     2   6     0.00   0.00  -0.00     0.00  -0.00  -0.00    -0.00   0.00  -0.01
     3   8    -0.00  -0.00   0.00    -0.00   0.00   0.00    -0.00  -0.00   0.00
     4   6     0.02  -0.09   0.00    -0.00   0.01  -0.00     0.00  -0.00   0.00
     5   1     0.00   0.05  -0.00     0.04   0.80  -0.00    -0.00  -0.00  -0.01
     6   1    -0.01   0.01  -0.02    -0.19   0.13  -0.34     0.34  -0.24   0.57
     7   1    -0.01   0.01   0.02    -0.19   0.13   0.34    -0.34   0.24   0.57
     8   1     0.00   0.00  -0.00    -0.01   0.01   0.02    -0.03   0.02   0.05
     9   1     0.00   0.00   0.00    -0.01   0.01  -0.02     0.03  -0.02   0.05
    10   1    -0.10   0.96  -0.00     0.01  -0.06   0.00    -0.00   0.00   0.00
    11   1    -0.07   0.04   0.13     0.00  -0.00  -0.01    -0.00  -0.00  -0.00
    12   1    -0.07   0.04  -0.13     0.00  -0.00   0.01     0.00   0.00  -0.00

 -------------------
 - Thermochemistry -
 -------------------
 Temperature   298.150 Kelvin.  Pressure   0.98700 Atm.
 Thermochemistry will use frequencies scaled by 0.9610.
 Atom     1 has atomic number  6 and mass  12.00000
 Atom     2 has atomic number  6 and mass  12.00000
 Atom     3 has atomic number  8 and mass  15.99491
 Atom     4 has atomic number  6 and mass  12.00000
 Atom     5 has atomic number  1 and mass   1.00783
 Atom     6 has atomic number  1 and mass   1.00783
 Atom     7 has atomic number  1 and mass   1.00783
 Atom     8 has atomic number  1 and mass   1.00783
 Atom     9 has atomic number  1 and mass   1.00783
 Atom    10 has atomic number  1 and mass   1.00783
 Atom    11 has atomic number  1 and mass   1.00783
 Atom    12 has atomic number  1 and mass   1.00783
 Molecular mass:    60.05751 amu.
 Principal axes and moments of inertia in atomic units:
                           1         2         3
     Eigenvalues --    63.85156 435.51078 464.76691
           X            0.70595   0.70827   0.00000
           Y            0.70827  -0.70595  -0.00000
           Z            0.00000  -0.00000   1.00000
 This molecule is an asymmetric top.
 Rotational symmetry number  1.
 Rotational temperatures (Kelvin)      1.35649     0.19888     0.18636
 Rotational constants (GHZ):          28.26464     4.14396     3.88311
 Zero-point vibrational energy     272011.7 (Joules/Mol)
                                   65.01236 (Kcal/Mol)
 Warning -- explicit consideration of   5 degrees of freedom as
           vibrations may cause significant error
 Vibrational temperatures:    161.37   302.28   382.42   400.90   652.06
          (Kelvin)           1148.04  1220.17  1452.24  1555.48  1621.45
                             1647.94  1670.47  1725.04  1800.65  1928.25
                             1985.60  2026.02  2030.23  2040.00  2057.57
                             2069.01  2113.59  4052.04  4074.19  4099.65
                             4135.72  4181.07  4297.37  4298.76  4301.41
 
 Zero-point correction=                           0.103604 (Hartree/Particle)
 Thermal correction to Energy=                    0.109224
 Thermal correction to Enthalpy=                  0.110168
 Thermal correction to Gibbs Free Energy=         0.075754
 Sum of electronic and zero-point Energies=           -194.089970
 Sum of electronic and thermal Energies=              -194.084350
 Sum of electronic and thermal Enthalpies=            -194.083406
 Sum of electronic and thermal Free Energies=         -194.117820
 
                     E (Thermal)             CV                S
                      KCal/Mol        Cal/Mol-Kelvin    Cal/Mol-Kelvin
 Total                   68.539             18.355             72.430
 Electronic               0.000              0.000              0.000
 Translational            0.889              2.981             38.224
 Rotational               0.889              2.981             24.073
 Vibrational             66.762             12.393             10.133
 Vibration     1          0.607              1.939              3.231
 Vibration     2          0.642              1.825              2.043
 Vibration     3          0.672              1.736              1.623
 Vibration     4          0.679              1.713              1.542
 Vibration     5          0.812              1.354              0.786
                       Q            Log10(Q)             Ln(Q)
 Total Bot       0.143043D-34        -34.844533        -80.232502
 Total V=0       0.645443D+13         12.809858         29.495787
 Vib (Bot)       0.189640D-46        -46.722069       -107.581540
 Vib (Bot)    1  0.182528D+01          0.261330          0.601735
 Vib (Bot)    2  0.945312D+00         -0.024425         -0.056241
 Vib (Bot)    3  0.728654D+00         -0.137479         -0.316557
 Vib (Bot)    4  0.690486D+00         -0.160845         -0.370360
 Vib (Bot)    5  0.377403D+00         -0.423195         -0.974441
 Vib (V=0)       0.855700D+01          0.932321          2.146750
 Vib (V=0)    1  0.239253D+01          0.378857          0.872350
 Vib (V=0)    2  0.156940D+01          0.195733          0.450693
 Vib (V=0)    3  0.138371D+01          0.141044          0.324765
 Vib (V=0)    4  0.135251D+01          0.131140          0.301961
 Vib (V=0)    5  0.112644D+01          0.051710          0.119066
 Electronic      0.100000D+01          0.000000          0.000000
 Translational   0.185348D+08          7.267988         16.735160
 Rotational      0.406957D+05          4.609548         10.613877
 ***** Axes restored to original set *****
 -------------------------------------------------------------------
 Center     Atomic                   Forces (Hartrees/Bohr)
 Number     Number              X              Y              Z
 -------------------------------------------------------------------
      1        6          -0.000036108    0.000042224   -0.000029619
      2        6           0.000219456   -0.000108178    0.000075805
      3        8           0.000155107    0.000111367   -0.000078275
      4        6          -0.000455906    0.000170847   -0.000119652
      5        1           0.000038197   -0.000038548    0.000027037
      6        1          -0.000054881    0.000000623    0.000045164
      7        1          -0.000054918   -0.000042234   -0.000015885
      8        1          -0.000003261    0.000020221    0.000052984
      9        1          -0.000003317   -0.000042959   -0.000037017
     10        1           0.000070401   -0.000026770    0.000018749
     11        1           0.000062648   -0.000005041    0.000084849
     12        1           0.000062580   -0.000081551   -0.000024140
 -------------------------------------------------------------------
 Cartesian Forces:  Max     0.000455906 RMS     0.000106988
 FormGI is forming the generalized inverse of G from B-inverse, IUseBI=4.

 GradGradGradGradGradGradGradGradGradGradGradGradGradGradGradGradGradGrad
 Berny optimization.
 Internal  Forces:  Max     0.000263618 RMS     0.000067909
 Search for a local minimum.
 Step number   1 out of a maximum of    2
 All quantities printed in internal units (Hartrees-Bohrs-Radians)
 Second derivative matrix not updated -- analytic derivatives used.
 ITU=  0
     Eigenvalues ---    0.00271   0.00613   0.00648   0.04419   0.04498
     Eigenvalues ---    0.05072   0.06337   0.08731   0.08834   0.10352
     Eigenvalues ---    0.12318   0.12547   0.13352   0.13908   0.16677
     Eigenvalues ---    0.18470   0.19023   0.22561   0.24358   0.30498
     Eigenvalues ---    0.30656   0.31010   0.31169   0.31921   0.33527
     Eigenvalues ---    0.33622   0.33873   0.34042   0.39241   0.42674
 Angle between quadratic step and forces=  33.31 degrees.
 Linear search not attempted -- first point.
 Iteration  1 RMS(Cart)=  0.00036811 RMS(Int)=  0.00000018
 Iteration  2 RMS(Cart)=  0.00000015 RMS(Int)=  0.00000011
 ClnCor:  largest displacement from symmetrization is 2.70D-08 for atom    12.
 Variable       Old X    -DE/DX   Delta X   Delta X   Delta X     New X
                                 (Linear)    (Quad)   (Total)
    R1        2.86887   0.00011   0.00000   0.00039   0.00039   2.86926
    R2        2.08668  -0.00006   0.00000  -0.00016  -0.00016   2.08652
    R3        2.08586   0.00006   0.00000   0.00018   0.00018   2.08604
    R4        2.08586   0.00006   0.00000   0.00018   0.00018   2.08604
    R5        2.65786  -0.00023   0.00000  -0.00060  -0.00060   2.65726
    R6        2.10408   0.00004   0.00000   0.00011   0.00011   2.10419
    R7        2.10408   0.00004   0.00000   0.00011   0.00011   2.10419
    R8        2.64331  -0.00026   0.00000  -0.00094  -0.00094   2.64237
    R9        2.08370   0.00005   0.00000   0.00023   0.00023   2.08394
   R10        2.10271   0.00006   0.00000   0.00022   0.00022   2.10294
   R11        2.10271   0.00006   0.00000   0.00022   0.00022   2.10294
    A1        1.93137  -0.00005   0.00000  -0.00038  -0.00038   1.93099
    A2        1.92635   0.00005   0.00000   0.00037   0.00037   1.92672
    A3        1.92635   0.00005   0.00000   0.00037   0.00037   1.92672
    A4        1.89615  -0.00001   0.00000  -0.00011  -0.00011   1.89605
    A5        1.89615  -0.00001   0.00000  -0.00011  -0.00011   1.89605
    A6        1.88644  -0.00004   0.00000  -0.00015  -0.00015   1.88629
    A7        1.90160   0.00000   0.00000   0.00015   0.00015   1.90175
    A8        1.92692  -0.00001   0.00000  -0.00025  -0.00025   1.92667
    A9        1.92692  -0.00001   0.00000  -0.00025  -0.00025   1.92667
   A10        1.92393  -0.00001   0.00000  -0.00005  -0.00005   1.92388
   A11        1.92393  -0.00001   0.00000  -0.00005  -0.00005   1.92388
   A12        1.86050   0.00003   0.00000   0.00046   0.00046   1.86096
   A13        1.98405  -0.00007   0.00000  -0.00002  -0.00002   1.98403
   A14        1.88062   0.00003   0.00000   0.00037   0.00037   1.88098
   A15        1.95373   0.00007   0.00000   0.00056   0.00056   1.95428
   A16        1.95373   0.00007   0.00000   0.00056   0.00056   1.95428
   A17        1.89685  -0.00009   0.00000  -0.00096  -0.00096   1.89589
   A18        1.89685  -0.00009   0.00000  -0.00096  -0.00096   1.89589
   A19        1.88078   0.00002   0.00000   0.00033   0.00033   1.88111
    D1        3.14159  -0.00000   0.00000  -0.00000   0.00000   3.14159
    D2        1.02641   0.00001   0.00000   0.00013   0.00013   1.02654
    D3       -1.02641  -0.00001   0.00000  -0.00013  -0.00013  -1.02654
    D4        1.04208   0.00001   0.00000   0.00014   0.00014   1.04223
    D5       -1.07310   0.00002   0.00000   0.00027   0.00027  -1.07283
    D6       -3.12592  -0.00001   0.00000   0.00001   0.00001  -3.12590
    D7       -1.04208  -0.00001   0.00000  -0.00014  -0.00014  -1.04223
    D8        3.12592   0.00001   0.00000  -0.00001  -0.00001   3.12590
    D9        1.07310  -0.00002   0.00000  -0.00027  -0.00027   1.07283
   D10        3.14159   0.00000   0.00000  -0.00000   0.00000   3.14159
   D11       -1.02458  -0.00001   0.00000  -0.00025  -0.00025  -1.02484
   D12        1.02458   0.00001   0.00000   0.00025   0.00025   1.02484
   D13        3.14159  -0.00000   0.00000  -0.00000  -0.00000   3.14159
   D14        1.05695   0.00006   0.00000   0.00061   0.00061   1.05756
   D15       -1.05695  -0.00006   0.00000  -0.00061  -0.00061  -1.05756
         Item               Value     Threshold  Converged?
 Maximum Force            0.000264     0.000450     YES
 RMS     Force            0.000068     0.000300     YES
 Maximum Displacement     0.000931     0.001800     YES
 RMS     Displacement     0.000368     0.001200     YES
 Predicted change in Energy=-4.773018D-07
 Optimization completed.
    -- Stationary point found.
                           ----------------------------
                           !   Optimized Parameters   !
                           ! (Angstroms and Degrees)  !
 --------------------------                            --------------------------
 ! Name  Definition              Value          Derivative Info.                !
 --------------------------------------------------------------------------------
 ! R1    R(1,2)                  1.5181         -DE/DX =    0.0001              !
 ! R2    R(1,5)                  1.1042         -DE/DX =   -0.0001              !
 ! R3    R(1,6)                  1.1038         -DE/DX =    0.0001              !
 ! R4    R(1,7)                  1.1038         -DE/DX =    0.0001              !
 ! R5    R(2,3)                  1.4065         -DE/DX =   -0.0002              !
 ! R6    R(2,8)                  1.1134         -DE/DX =    0.0                 !
 ! R7    R(2,9)                  1.1134         -DE/DX =    0.0                 !
 ! R8    R(3,4)                  1.3988         -DE/DX =   -0.0003              !
 ! R9    R(4,10)                 1.1026         -DE/DX =    0.0                 !
 ! R10   R(4,11)                 1.1127         -DE/DX =    0.0001              !
 ! R11   R(4,12)                 1.1127         -DE/DX =    0.0001              !
 ! A1    A(2,1,5)              110.6595         -DE/DX =    0.0                 !
 ! A2    A(2,1,6)              110.3715         -DE/DX =    0.0001              !
 ! A3    A(2,1,7)              110.3715         -DE/DX =    0.0001              !
 ! A4    A(5,1,6)              108.6417         -DE/DX =    0.0                 !
 ! A5    A(5,1,7)              108.6417         -DE/DX =    0.0                 !
 ! A6    A(6,1,7)              108.085          -DE/DX =    0.0                 !
 ! A7    A(1,2,3)              108.9537         -DE/DX =    0.0                 !
 ! A8    A(1,2,8)              110.4043         -DE/DX =    0.0                 !
 ! A9    A(1,2,9)              110.4043         -DE/DX =    0.0                 !
 ! A10   A(3,2,8)              110.2332         -DE/DX =    0.0                 !
 ! A11   A(3,2,9)              110.2332         -DE/DX =    0.0                 !
 ! A12   A(8,2,9)              106.5989         -DE/DX =    0.0                 !
 ! A13   A(2,3,4)              113.6778         -DE/DX =   -0.0001              !
 ! A14   A(3,4,10)             107.7514         -DE/DX =    0.0                 !
 ! A15   A(3,4,11)             111.9402         -DE/DX =    0.0001              !
 ! A16   A(3,4,12)             111.9402         -DE/DX =    0.0001              !
 ! A17   A(10,4,11)            108.6812         -DE/DX =   -0.0001              !
 ! A18   A(10,4,12)            108.6812         -DE/DX =   -0.0001              !
 ! A19   A(11,4,12)            107.7609         -DE/DX =    0.0                 !
 ! D1    D(5,1,2,3)            180.0            -DE/DX =    0.0                 !
 ! D2    D(5,1,2,8)             58.8088         -DE/DX =    0.0                 !
 ! D3    D(5,1,2,9)            -58.8088         -DE/DX =    0.0                 !
 ! D4    D(6,1,2,3)             59.707          -DE/DX =    0.0                 !
 ! D5    D(6,1,2,8)            -61.4841         -DE/DX =    0.0                 !
 ! D6    D(6,1,2,9)           -179.1018         -DE/DX =    0.0                 !
 ! D7    D(7,1,2,3)            -59.707          -DE/DX =    0.0                 !
 ! D8    D(7,1,2,8)            179.1018         -DE/DX =    0.0                 !
 ! D9    D(7,1,2,9)             61.4841         -DE/DX =    0.0                 !
 ! D10   D(1,2,3,4)            180.0            -DE/DX =    0.0                 !
 ! D11   D(8,2,3,4)            -58.7044         -DE/DX =    0.0                 !
 ! D12   D(9,2,3,4)             58.7044         -DE/DX =    0.0                 !
 ! D13   D(2,3,4,10)           180.0            -DE/DX =    0.0                 !
 ! D14   D(2,3,4,11)            60.5589         -DE/DX =    0.0001              !
 ! D15   D(2,3,4,12)           -60.5589         -DE/DX =   -0.0001              !
 --------------------------------------------------------------------------------
 GradGradGradGradGradGradGradGradGradGradGradGradGradGradGradGradGradGrad


 ----------------------------------------------------------------------

 Electric dipole moment (input orientation):
 (Debye = 10**-18 statcoulomb cm , SI units = C m)
                  (au)            (Debye)         (10**-30 SI)
   Tot        0.439683D+00      0.111756D+01      0.372778D+01
   x          0.253527D+00      0.644402D+00      0.214949D+01
   y          0.293941D+00      0.747124D+00      0.249214D+01
   z         -0.206502D+00     -0.524877D+00     -0.175080D+01

 Dipole polarizability, Alpha (input orientation).
 (esu units = cm**3 , SI units = C**2 m**2 J**-1)
 Alpha(0;0):
               (au)            (10**-24 esu)      (10**-40 SI)
   iso        0.380080D+02      0.563221D+01      0.626668D+01
   aniso      0.965136D+01      0.143018D+01      0.159129D+01
   xx         0.425876D+02      0.631083D+01      0.702174D+01
   yx        -0.309789D+01     -0.459060D+00     -0.510773D+00
   yy         0.360624D+02      0.534389D+01      0.594588D+01
   zx         0.216985D+01      0.321538D+00      0.357760D+00
   zy        -0.946960D+00     -0.140325D+00     -0.156133D+00
   zz         0.353741D+02      0.524190D+01      0.583240D+01

 ----------------------------------------------------------------------

 Dipole orientation:
     6          1.31618720          0.42189061          0.98029394
     6          3.48242033          1.15770070          2.71132063
     8          5.57043320          1.86694151          1.22761132
     6          7.68394112          2.58484228          2.64351687
     1         -0.35521168         -0.14583783          2.09309828
     1          1.87447955         -1.17162315         -0.24438590
     1          0.78841251          2.02577038         -0.24438590
     1          3.99540062         -0.44970323          3.96839790
     1          2.91024785          2.74499866          3.96839790
     1          9.19843037          3.09927282          1.30803782
     1          8.37218188          1.02475621          3.87390963
     1          7.27959032          4.24135800          3.87390963

 Electric dipole moment (dipole orientation):
 (Debye = 10**-18 statcoulomb cm , SI units = C m)
                  (au)            (Debye)         (10**-30 SI)
   Tot        0.439683D+00      0.111756D+01      0.372778D+01
   x          0.000000D+00      0.000000D+00      0.000000D+00
   y          0.000000D+00      0.000000D+00      0.000000D+00
   z          0.439683D+00      0.111756D+01      0.372778D+01

 Dipole polarizability, Alpha (dipole orientation).
 (esu units = cm**3 , SI units = C**2 m**2 J**-1)
 Alpha(0;0):
               (au)            (10**-24 esu)      (10**-40 SI)
   iso        0.380080D+02      0.563221D+01      0.626668D+01
   aniso      0.965136D+01      0.143018D+01      0.159129D+01
   xx         0.432204D+02      0.640461D+01      0.712608D+01
   yx         0.289052D+01      0.428331D+00      0.476583D+00
   yy         0.356925D+02      0.528909D+01      0.588490D+01
   zx         0.141494D+01      0.209673D+00      0.233293D+00
   zy         0.480617D+00      0.712201D-01      0.792431D-01
   zz         0.351111D+02      0.520293D+01      0.578904D+01

 ----------------------------------------------------------------------
 Unable to Open any file for archive entry.
 1\1\GINC-NODE02\Freq\RB3LYP\def2SVPP\C3H8O1\XUHJ\19-Dec-2023\0\\#N Geo
 m=AllCheck Guess=TCheck SCRF=Check GenChk RB3LYP/def2SVPP Freq\\CCOC_1
 \\0,1\C,0.8966035544,0.0087508998,0.0087197742\C,2.413911482,0.0495015
 794,-0.0208238572\O,2.9145875868,-1.0263873525,0.7341382129\C,4.311667
 5414,-1.0832040333,0.773160837\H,0.4729818091,0.8434861496,-0.57700062
 22\H,0.5303344406,0.0848169712,1.0471868076\H,0.5294314922,-0.94188105
 41,-0.4153515117\H,2.7844221285,1.0149460489,0.3919280516\H,2.78351994
 02,-0.0108876763,-1.0693790663\H,4.5956982287,-1.9553090551,1.38520089
 56\H,4.7523659152,-0.168950819,1.2292824978\H,4.7514575424,-1.20181670
 3,-0.2420419781\\Version=ES64L-G16RevC.01\State=1-A'\HF=-194.1935742\R
 MSD=6.829e-10\RMSF=1.070e-04\ZeroPoint=0.1036038\Thermal=0.109224\ETot
 =-194.0843502\HTot=-194.083406\GTot=-194.1178199\Dipole=0.2535272,0.29
 39412,-0.2065025\DipoleDeriv=-0.0520183,0.0355777,-0.0249017,0.0218936
 ,0.0730173,-0.0038991,-0.0152955,-0.0039075,0.0702348,0.5475756,-0.149
 3928,0.1048434,-0.3095517,0.7073906,-0.1460434,0.2172745,-0.1461423,0.
 6015359,-1.1467904,0.2449101,-0.1714906,0.3061547,-0.7045963,0.1847678
 ,-0.2144841,0.1848056,-0.5707247,0.9742048,-0.1392334,0.0974135,0.0141
 802,0.3470317,0.0673332,-0.0102824,0.067428,0.3956329,-0.0058682,0.035
 8237,-0.0250979,0.0727662,-0.0498783,0.0880006,-0.0510314,0.0880234,0.
 0137825,0.0085575,-0.0022258,0.0311273,-0.0178051,0.0724203,-0.012167,
 0.0849303,-0.0164089,-0.1033508,0.0084731,-0.0301335,-0.0084943,-0.086
 0325,-0.073861,-0.069202,-0.0121196,-0.0650042,0.0430149,-0.0707267,-0
 .0948151,-0.0447819,-0.005662,-0.1944382,-0.0354995,-0.0767484,-0.0905
 45,-0.0427726,-0.0705679,0.0099553,0.1042526,0.0702655,-0.0200497,-0.0
 276482,0.0312962,0.0274896,-0.2173199,-0.0134178,0.0375267,-0.0262914,
 0.0747771,-0.06332,0.0943702,-0.0524411,0.0943932,0.0049454,-0.0897828
 ,0.0049235,-0.0482555,-0.1314135,-0.1302095,-0.1173793,-0.0372379,-0.0
 828644,-0.0140659,-0.0896387,0.0470836,0.0116764,-0.0095723,0.036493,-
 0.0226334,0.1361394,-0.0572674,-0.1809125\Polar=42.5875675,-3.0978917,
 36.0623662,2.1698487,-0.9469602,35.3741144\Quadrupole=0.9902949,-0.504
 075,-0.4862199,-0.7880964,0.5523415,0.0261438\PG=CS [SG(C3H2O1),X(H6)]
 \NImag=0\\0.49845237,-0.00512188,0.58526076,0.00364538,-0.00427885,0.5
 8216250,-0.21656113,-0.02084346,0.01471292,0.54344445,-0.01005618,-0.0
 8195793,-0.00253221,0.02868754,0.53120368,0.00714028,-0.00252555,-0.08
 380540,-0.02011326,0.03736447,0.55823752,-0.02189491,0.03981726,-0.027
 93643,-0.10263277,0.04776473,-0.03351215,0.46889744,0.00844369,-0.0041
 4437,0.00479028,0.01358544,-0.17615735,0.07271531,-0.07241153,0.296202
 92,-0.00591227,0.00477091,-0.00065868,-0.00951838,0.07269421,-0.123587
 22,0.05060760,-0.13467492,0.19880409,-0.00037752,0.00059107,-0.0004149
 5,-0.03388982,0.01459445,-0.01022735,-0.25428666,0.01916030,-0.0133355
 0,0.49223289,0.00119512,-0.00402330,0.00254369,0.03723580,-0.00985925,
 0.00347699,-0.01535721,-0.08505365,0.01193872,-0.01270064,0.59675707,-
 0.00083899,0.00254406,-0.00218415,-0.02612152,0.00349097,-0.00730803,0
 .01089570,0.01191741,-0.07643308,0.00895177,-0.03248817,0.57326736,-0.
 08713304,0.07361865,-0.05165568,-0.00526068,0.02635053,-0.01849630,-0.
 00918664,-0.00029311,0.00021191,0.00049020,0.00132284,-0.00092843,0.09
 176810,0.07707516,-0.20037141,0.10720544,-0.00226522,0.00048760,-0.002
 09976,0.00026601,0.00094213,-0.00012426,-0.00068068,0.00057203,0.00016
 862,-0.08328317,0.21111129,-0.05408214,0.10720757,-0.12281479,0.001591
 88,-0.00211743,-0.00102007,-0.00018059,-0.00012392,0.00085246,0.000478
 03,0.00016738,0.00069384,0.05843528,-0.11702752,0.12644848,-0.07459938
 ,0.00566415,0.07774846,-0.01252711,0.00223756,0.03568581,0.00347241,-0
 .00097625,-0.00078531,-0.00034582,-0.00002593,-0.00000669,0.00420009,-
 0.00268714,-0.01224609,0.08108601,0.00533480,-0.05096816,-0.01903245,-
 0.00051604,-0.00055049,0.00241088,-0.00019903,0.00027341,-0.00075281,0
 .00040065,-0.00009274,0.00006719,-0.00951330,0.00335048,0.02188922,-0.
 00479650,0.04678033,0.08171951,-0.01864692,-0.28610610,-0.00046336,0.0
 0055833,-0.00026275,0.00010145,-0.00058702,0.00128801,-0.00033902,-0.0
 0013091,0.00024733,0.00453966,-0.00230296,-0.01216997,-0.08883934,0.01
 983244,0.30364888,-0.07473783,-0.07137305,-0.03180802,-0.01255723,-0.0
 3279428,-0.01421828,0.00347366,0.00040558,0.00118202,-0.00034575,-0.00
 000204,0.00002688,0.00421355,0.01060461,0.00668552,0.00324632,0.009826
 10,0.00299768,0.08123871,-0.07521944,-0.24683636,-0.08935535,0.0002672
 9,-0.00122589,0.00031556,-0.00016422,0.00159889,-0.00010869,0.00045530
 ,0.00022817,-0.00001527,-0.00752185,-0.01663892,-0.00952125,0.00051770
 ,0.00019625,0.00032096,0.08210973,0.26122587,-0.03284770,-0.08974346,-
 0.09009946,0.00065477,0.00218681,0.00044277,0.00014965,-0.00027434,-0.
 00003871,-0.00026130,0.00018337,-0.00007365,0.00741644,0.01465553,0.00
 780596,-0.01028479,-0.02537721,-0.00884864,0.03475861,0.09724831,0.089
 05065,-0.01148014,-0.02857711,-0.01423412,-0.08055315,-0.06749271,-0.0
 3159133,0.00274126,0.01471297,0.00212473,0.00406275,0.00350064,0.00158
 102,0.00094622,0.00047238,-0.00019851,0.00165467,0.00017462,0.00041197
 ,-0.00666783,-0.00003801,0.00055330,0.08370719,-0.00040949,0.00179620,
 -0.00030350,-0.06704057,-0.21114934,-0.08114248,0.00275443,-0.03925304
 ,0.00414295,-0.00747272,0.00105228,-0.00056128,-0.00071669,0.00041909,
 -0.00018922,-0.00008210,0.00000191,0.00032451,0.00069106,0.00117789,0.
 00004837,0.07059892,0.24540837,0.00125821,0.00096710,0.00076368,-0.033
 07658,-0.08479889,-0.09605782,0.00284687,0.02637015,0.00946697,0.00303
 295,0.00143355,0.00100058,-0.00031993,-0.00013558,-0.00001049,-0.00025
 384,0.00084559,0.00091562,0.00006420,0.00057113,0.00134706,0.03643124,
 0.08113022,0.09418641,-0.01145256,0.00368433,0.03172467,-0.08042168,0.
 00677355,0.07405344,0.00272701,0.00300898,-0.01455931,0.00406124,-0.00
 030007,-0.00383106,0.00094679,0.00034650,-0.00037753,-0.00666871,-0.00
 052875,-0.00014525,0.00165448,-0.00032844,-0.00030460,0.00504673,-0.00
 189205,-0.00989281,0.08356508,-0.00131499,0.00066944,0.00054323,0.0083
 2105,-0.05632586,-0.02891494,-0.00171489,-0.00590849,0.03842618,-0.005
 39233,0.00073111,0.00132302,0.00005673,0.00014266,-0.00023519,0.000179
 40,0.00112978,0.00055361,0.00021096,0.00043630,0.00100250,0.00863763,-
 0.00065259,-0.02479062,-0.01027918,0.05980475,-0.00003174,-0.00071307,
 0.00186285,0.07413496,-0.02525730,-0.25101277,-0.00357044,0.01618867,-
 0.02386332,0.00599503,-0.00068173,0.00132326,0.00078202,-0.00028974,0.
 00026537,-0.00066507,0.00003174,0.00139606,0.00016277,0.00048159,0.000
 48141,0.00512519,-0.00387658,-0.01100431,-0.07860656,0.01412992,0.2799
 3214,-0.00015659,0.00159348,-0.00111818,-0.00498716,-0.00193292,0.0013
 6026,-0.02172312,0.03370905,-0.02365012,-0.05891112,0.03855106,-0.0270
 5790,-0.00064520,-0.00004710,0.00003346,0.00007183,-0.00000256,0.00010
 157,0.00007185,-0.00009645,-0.00003217,0.00004147,0.00053246,0.0001620
 9,0.00004112,0.00002825,-0.00055539,0.07756513,-0.00015744,0.00010008,
 0.00031164,0.00006603,0.00200946,-0.00110457,0.00364947,0.00161123,-0.
 00097940,0.04955973,-0.22275055,0.12048848,0.00007605,-0.00001832,0.00
 000892,0.00001348,0.00000635,-0.00003408,0.00012210,0.00001129,-0.0000
 0683,-0.00018199,0.00042191,-0.00001171,-0.00008335,-0.00006395,0.0001
 8059,-0.05582708,0.23060892,0.00011096,0.00031056,0.00032580,-0.000043
 01,-0.00110333,0.00121062,-0.00254837,-0.00099796,0.00092141,-0.034785
 96,0.12049527,-0.13563620,-0.00005299,0.00000900,-0.00001183,-0.000124
 99,-0.00000854,-0.00000344,0.00002971,-0.00003223,-0.00000839,0.000022
 97,0.00035573,-0.00000311,0.00016362,-0.00018735,0.00048311,0.03917054
 ,-0.13006031,0.13656584,-0.00002948,0.00060623,-0.00014313,0.00297305,
 -0.00815197,0.00341397,-0.03581330,-0.02719341,-0.01814329,-0.07641014
 ,-0.06269632,-0.03252194,-0.00016969,0.00017343,0.00003589,0.00008370,
 -0.00009465,0.00002357,0.00032641,0.00007273,0.00011687,0.00073759,0.0
 0225942,0.00031869,-0.00023658,0.00080105,-0.00053746,0.00431991,0.004
 98302,0.00415848,0.09740738,0.00016612,0.00054209,-0.00006311,0.002232
 11,0.00259401,0.00242098,-0.00680596,0.00693956,0.00287404,-0.06718969
 ,-0.22081069,-0.08331913,-0.00012500,0.00000415,-0.00005932,0.00002393
 ,-0.00005543,0.00003409,0.00024997,-0.00016500,0.00007786,-0.00165792,
 0.00090279,-0.00139967,0.00002552,-0.00023740,-0.00049538,-0.00730307,
 -0.01730168,-0.01128136,0.08057059,0.22929953,-0.00000848,0.00039090,-
 0.00002785,0.00051542,-0.00231104,0.00075035,-0.00498598,0.00325305,0.
 00464810,-0.03350448,-0.08283940,-0.09535358,-0.00007516,0.00000245,-0
 .00002195,0.00006253,-0.00001784,0.00000345,0.00016273,0.00004414,-0.0
 0001553,-0.00014491,0.00052669,-0.00012312,0.00016801,-0.00022230,-0.0
 0036972,0.00716952,0.01430321,0.00940755,0.03995381,0.09196070,0.09214
 356,-0.00002981,0.00034033,-0.00052093,0.00297323,-0.00598030,0.006504
 92,-0.03577438,0.00784829,0.03177791,-0.07628025,0.00927675,0.06985116
 ,-0.00016969,0.00002522,-0.00017518,0.00032599,-0.00008535,-0.00010843
 ,0.00008367,-0.00005434,0.00008091,-0.00023676,0.00077734,-0.00057110,
 0.00073709,0.00046632,-0.00223331,0.00431189,-0.00222000,-0.00610096,0
 .00681117,-0.00018660,-0.00931300,0.09724785,0.00006454,-0.00006704,0.
 00017119,0.00027004,0.00093137,-0.00291688,0.00240094,0.00294876,0.001
 79308,0.00867456,-0.05675048,-0.02361590,0.00002832,-0.00000079,0.0000
 0075,-0.00006828,-0.00007168,0.00007794,-0.00005074,-0.00000848,-0.000
 00091,-0.00014943,-0.00012547,-0.00018128,-0.00042703,0.00027425,0.000
 30129,-0.00920511,0.00536525,0.02250052,0.00866987,-0.00171194,-0.0250
 9056,-0.01020767,0.04921625,-0.00015302,-0.00028327,0.00058160,-0.0022
 7385,0.00182541,0.00241281,0.00813270,0.00142330,0.00859998,0.07441078
 ,-0.02409877,-0.25954367,0.00014319,-0.00006120,-0.00001701,-0.0002906
 8,0.00011178,-0.00010843,-0.00004382,0.00005110,-0.00004348,-0.0000815
 5,-0.00045541,-0.00048147,0.00160739,-0.00162804,0.00050592,0.00441634
 ,-0.00309595,-0.01325136,0.00332452,-0.00074970,-0.01104128,-0.0891920
 0,0.02696076,0.27238637\\0.00003611,-0.00004222,0.00002962,-0.00021946
 ,0.00010818,-0.00007581,-0.00015511,-0.00011137,0.00007827,0.00045591,
 -0.00017085,0.00011965,-0.00003820,0.00003855,-0.00002704,0.00005488,-
 0.00000062,-0.00004516,0.00005492,0.00004223,0.00001589,0.00000326,-0.
 00002022,-0.00005298,0.00000332,0.00004296,0.00003702,-0.00007040,0.00
 002677,-0.00001875,-0.00006265,0.00000504,-0.00008485,-0.00006258,0.00
 008155,0.00002414\\\@
 The archive entry for this job was punched.


 THOSE WITH THE GOLD MAKE THE RULES.

             -- PETER'S GOLDEN RULE
 Job cpu time:       0 days  0 hours  1 minutes 43.6 seconds.
 Elapsed time:       0 days  0 hours  0 minutes  7.2 seconds.
 File lengths (MBytes):  RWF=     87 Int=      0 D2E=      0 Chk=      2 Scr=      2
 Normal termination of Gaussian 16 at Tue Dec 19 12:58:43 2023.
