 Entering Gaussian System, Link 0=g16
 Initial command:
 /opt/g16/l1.exe "/tmp/scratch/Gau-2125811.inp" -scrdir="/tmp/scratch/"
 Entering Link 1 = /opt/g16/l1.exe PID=   2125813.
  
 Copyright (c) 1988-2019, Gaussian, Inc.  All Rights Reserved.
  
 This is part of the Gaussian(R) 16 program.  It is based on
 the Gaussian(R) 09 system (copyright 2009, Gaussian, Inc.),
 the Gaussian(R) 03 system (copyright 2003, Gaussian, Inc.),
 the Gaussian(R) 98 system (copyright 1998, Gaussian, Inc.),
 the Gaussian(R) 94 system (copyright 1995, Gaussian, Inc.),
 the Gaussian 92(TM) system (copyright 1992, Gaussian, Inc.),
 the Gaussian 90(TM) system (copyright 1990, Gaussian, Inc.),
 the Gaussian 88(TM) system (copyright 1988, Gaussian, Inc.),
 the Gaussian 86(TM) system (copyright 1986, Carnegie Mellon
 University), and the Gaussian 82(TM) system (copyright 1983,
 Carnegie Mellon University). Gaussian is a federally registered
 trademark of Gaussian, Inc.
  
 This software contains proprietary and confidential information,
 including trade secrets, belonging to Gaussian, Inc.
  
 This software is provided under written license and may be
 used, copied, transmitted, or stored only in accord with that
 written license.
  
 The following legend is applicable only to US Government
 contracts under FAR:
  
                    RESTRICTED RIGHTS LEGEND
  
 Use, reproduction and disclosure by the US Government is
 subject to restrictions as set forth in subparagraphs (a)
 and (c) of the Commercial Computer Software - Restricted
 Rights clause in FAR 52.227-19.
  
 Gaussian, Inc.
 340 Quinnipiac St., Bldg. 40, Wallingford CT 06492
  
  
 ---------------------------------------------------------------
 Warning -- This program may not be used in any manner that
 competes with the business of Gaussian, Inc. or will provide
 assistance to any competitor of Gaussian, Inc.  The licensee
 of this program is prohibited from giving any competitor of
 Gaussian, Inc. access to this program.  By using this program,
 the user acknowledges that Gaussian, Inc. is engaged in the
 business of creating and licensing software in the field of
 computational chemistry and represents and warrants to the
 licensee that it is not a competitor of Gaussian, Inc. and that
 it will not use this program in any manner prohibited above.
 ---------------------------------------------------------------
  

 Cite this work as:
 Gaussian 16, Revision C.01,
 M. J. Frisch, G. W. Trucks, H. B. Schlegel, G. E. Scuseria, 
 M. A. Robb, J. R. Cheeseman, G. Scalmani, V. Barone, 
 G. A. Petersson, H. Nakatsuji, X. Li, M. Caricato, A. V. Marenich, 
 J. Bloino, B. G. Janesko, R. Gomperts, B. Mennucci, H. P. Hratchian, 
 J. V. Ortiz, A. F. Izmaylov, J. L. Sonnenberg, D. Williams-Young, 
 F. Ding, F. Lipparini, F. Egidi, J. Goings, B. Peng, A. Petrone, 
 T. Henderson, D. Ranasinghe, V. G. Zakrzewski, J. Gao, N. Rega, 
 G. Zheng, W. Liang, M. Hada, M. Ehara, K. Toyota, R. Fukuda, 
 J. Hasegawa, M. Ishida, T. Nakajima, Y. Honda, O. Kitao, H. Nakai, 
 T. Vreven, K. Throssell, J. A. Montgomery, Jr., J. E. Peralta, 
 F. Ogliaro, M. J. Bearpark, J. J. Heyd, E. N. Brothers, K. N. Kudin, 
 V. N. Staroverov, T. A. Keith, R. Kobayashi, J. Normand, 
 K. Raghavachari, A. P. Rendell, J. C. Burant, S. S. Iyengar, 
 J. Tomasi, M. Cossi, J. M. Millam, M. Klene, C. Adamo, R. Cammi, 
 J. W. Ochterski, R. L. Martin, K. Morokuma, O. Farkas, 
 J. B. Foresman, and D. J. Fox, Gaussian, Inc., Wallingford CT, 2019.
 
 ******************************************
 Gaussian 16:  ES64L-G16RevC.01  3-Jul-2019
                25-Aug-2024 
 ******************************************
 %nprocshared=4
 Will use up to    4 processors via shared memory.
 %mem=1440MB
 ----------------------------------------------------------------------
 #N opt freq B3LYP/def2SVPP symm=veryloose em=gd3bj scale=0.961 press=0
 .987
 ----------------------------------------------------------------------
 1/18=20,19=15,26=3,38=1,113=-987000,114=961000/1,3;
 2/9=110,12=2,17=2,18=2,40=1/2;
 3/5=43,7=202,11=2,25=1,30=1,71=1,74=-5,124=41/1,2,3;
 4//1;
 5/5=2,38=5/2;
 6/7=2,8=2,9=2,10=2,28=1/1;
 7//1,2,3,16;
 1/18=20,19=15,26=3/3(2);
 2/9=110/2;
 99//99;
 2/9=110/2;
 3/5=43,7=202,11=2,25=1,30=1,71=1,74=-5,124=41/1,2,3;
 4/5=5,16=3,69=1/1;
 5/5=2,38=5/2;
 7//1,2,3,16;
 1/18=20,19=15,26=3/3(-5);
 2/9=110/2;
 6/7=2,8=2,9=2,10=2,19=2,28=1/1;
 99/9=1/99;
 ----------------
 C1=Cc2ccccc2C1_1
 ----------------
 Symbolic Z-matrix:
 Charge =  0 Multiplicity = 1
 C                     2.27169   0.576     0.00064 
 C                     1.34158   1.54418  -0.0183 
 C                     0.03856   0.90293  -0.05477 
 C                    -1.2246    1.46589  -0.08162 
 C                    -2.32867   0.60807  -0.09543 
 C                    -2.1547   -0.7868   -0.08231 
 C                    -0.87486  -1.34671  -0.06301 
 C                     0.21064  -0.48728  -0.05127 
 C                     1.67226  -0.81061  -0.03182 
 H                     3.33764   0.75353   0.03771 
 H                     1.50201   2.6097    0.00205 
 H                    -1.36006   2.54181  -0.08972 
 H                    -3.33335   1.02343  -0.11353 
 H                    -3.02737  -1.43589  -0.08703 
 H                    -0.74029  -2.42302  -0.05385 
 H                     1.97525  -1.3434   -0.93723 
 H                     1.94531  -1.3766    0.8633 
 

 GradGradGradGradGradGradGradGradGradGradGradGradGradGradGradGradGradGrad
 Berny optimization.
 Initialization pass.
                           ----------------------------
                           !    Initial Parameters    !
                           ! (Angstroms and Degrees)  !
 --------------------------                            --------------------------
 ! Name  Definition              Value          Derivative Info.                !
 --------------------------------------------------------------------------------
 ! R1    R(1,2)                  1.3427         estimate D2E/DX2                !
 ! R2    R(1,9)                  1.511          estimate D2E/DX2                !
 ! R3    R(1,10)                 1.0813         estimate D2E/DX2                !
 ! R4    R(2,3)                  1.4527         estimate D2E/DX2                !
 ! R5    R(2,11)                 1.0777         estimate D2E/DX2                !
 ! R6    R(3,4)                  1.3832         estimate D2E/DX2                !
 ! R7    R(3,8)                  1.4008         estimate D2E/DX2                !
 ! R8    R(4,5)                  1.3982         estimate D2E/DX2                !
 ! R9    R(4,12)                 1.0844         estimate D2E/DX2                !
 ! R10   R(5,6)                  1.4057         estimate D2E/DX2                !
 ! R11   R(5,13)                 1.0873         estimate D2E/DX2                !
 ! R12   R(6,7)                  1.3971         estimate D2E/DX2                !
 ! R13   R(6,14)                 1.0876         estimate D2E/DX2                !
 ! R14   R(7,8)                  1.3846         estimate D2E/DX2                !
 ! R15   R(7,15)                 1.0847         estimate D2E/DX2                !
 ! R16   R(8,9)                  1.4971         estimate D2E/DX2                !
 ! R17   R(9,16)                 1.0934         estimate D2E/DX2                !
 ! R18   R(9,17)                 1.0937         estimate D2E/DX2                !
 ! A1    A(2,1,9)              112.7434         estimate D2E/DX2                !
 ! A2    A(2,1,10)             124.4021         estimate D2E/DX2                !
 ! A3    A(9,1,10)             122.8543         estimate D2E/DX2                !
 ! A4    A(1,2,3)              107.6618         estimate D2E/DX2                !
 ! A5    A(1,2,11)             127.555          estimate D2E/DX2                !
 ! A6    A(3,2,11)             124.7789         estimate D2E/DX2                !
 ! A7    A(2,3,4)              129.7879         estimate D2E/DX2                !
 ! A8    A(2,3,8)              109.1367         estimate D2E/DX2                !
 ! A9    A(4,3,8)              121.0742         estimate D2E/DX2                !
 ! A10   A(3,4,5)              118.138          estimate D2E/DX2                !
 ! A11   A(3,4,12)             121.1995         estimate D2E/DX2                !
 ! A12   A(5,4,12)             120.6624         estimate D2E/DX2                !
 ! A13   A(4,5,6)              120.7273         estimate D2E/DX2                !
 ! A14   A(4,5,13)             119.6975         estimate D2E/DX2                !
 ! A15   A(6,5,13)             119.575          estimate D2E/DX2                !
 ! A16   A(5,6,7)              120.7418         estimate D2E/DX2                !
 ! A17   A(5,6,14)             119.5281         estimate D2E/DX2                !
 ! A18   A(7,6,14)             119.7301         estimate D2E/DX2                !
 ! A19   A(6,7,8)              118.005          estimate D2E/DX2                !
 ! A20   A(6,7,15)             120.7586         estimate D2E/DX2                !
 ! A21   A(8,7,15)             121.236          estimate D2E/DX2                !
 ! A22   A(3,8,7)              121.311          estimate D2E/DX2                !
 ! A23   A(3,8,9)              109.5301         estimate D2E/DX2                !
 ! A24   A(7,8,9)              129.1589         estimate D2E/DX2                !
 ! A25   A(1,9,8)              100.9179         estimate D2E/DX2                !
 ! A26   A(1,9,16)             110.7958         estimate D2E/DX2                !
 ! A27   A(1,9,17)             110.9949         estimate D2E/DX2                !
 ! A28   A(8,9,16)             111.41           estimate D2E/DX2                !
 ! A29   A(8,9,17)             111.4783         estimate D2E/DX2                !
 ! A30   A(16,9,17)            110.8786         estimate D2E/DX2                !
 ! D1    D(9,1,2,3)              0.4214         estimate D2E/DX2                !
 ! D2    D(9,1,2,11)           179.6872         estimate D2E/DX2                !
 ! D3    D(10,1,2,3)          -179.4246         estimate D2E/DX2                !
 ! D4    D(10,1,2,11)           -0.1589         estimate D2E/DX2                !
 ! D5    D(2,1,9,8)             -0.872          estimate D2E/DX2                !
 ! D6    D(2,1,9,16)           117.2229         estimate D2E/DX2                !
 ! D7    D(2,1,9,17)          -119.1298         estimate D2E/DX2                !
 ! D8    D(10,1,9,8)           178.9768         estimate D2E/DX2                !
 ! D9    D(10,1,9,16)          -62.9283         estimate D2E/DX2                !
 ! D10   D(10,1,9,17)           60.719          estimate D2E/DX2                !
 ! D11   D(1,2,3,4)            179.8592         estimate D2E/DX2                !
 ! D12   D(1,2,3,8)              0.2605         estimate D2E/DX2                !
 ! D13   D(11,2,3,4)             0.5679         estimate D2E/DX2                !
 ! D14   D(11,2,3,8)          -179.0308         estimate D2E/DX2                !
 ! D15   D(2,3,4,5)           -179.1011         estimate D2E/DX2                !
 ! D16   D(2,3,4,12)             0.7726         estimate D2E/DX2                !
 ! D17   D(8,3,4,5)              0.4563         estimate D2E/DX2                !
 ! D18   D(8,3,4,12)          -179.6701         estimate D2E/DX2                !
 ! D19   D(2,3,8,7)            179.0833         estimate D2E/DX2                !
 ! D20   D(2,3,8,9)             -0.8333         estimate D2E/DX2                !
 ! D21   D(4,3,8,7)             -0.5566         estimate D2E/DX2                !
 ! D22   D(4,3,8,9)            179.5267         estimate D2E/DX2                !
 ! D23   D(3,4,5,6)             -0.0002         estimate D2E/DX2                !
 ! D24   D(3,4,5,13)           179.8166         estimate D2E/DX2                !
 ! D25   D(12,4,5,6)          -179.8745         estimate D2E/DX2                !
 ! D26   D(12,4,5,13)           -0.0578         estimate D2E/DX2                !
 ! D27   D(4,5,6,7)             -0.3734         estimate D2E/DX2                !
 ! D28   D(4,5,6,14)           179.6124         estimate D2E/DX2                !
 ! D29   D(13,5,6,7)           179.8097         estimate D2E/DX2                !
 ! D30   D(13,5,6,14)           -0.2046         estimate D2E/DX2                !
 ! D31   D(5,6,7,8)              0.2808         estimate D2E/DX2                !
 ! D32   D(5,6,7,15)          -179.9405         estimate D2E/DX2                !
 ! D33   D(14,6,7,8)          -179.705          estimate D2E/DX2                !
 ! D34   D(14,6,7,15)            0.0737         estimate D2E/DX2                !
 ! D35   D(6,7,8,3)              0.1751         estimate D2E/DX2                !
 ! D36   D(6,7,8,9)           -179.9262         estimate D2E/DX2                !
 ! D37   D(15,7,8,3)          -179.6025         estimate D2E/DX2                !
 ! D38   D(15,7,8,9)             0.2962         estimate D2E/DX2                !
 ! D39   D(3,8,9,1)              0.998          estimate D2E/DX2                !
 ! D40   D(3,8,9,16)          -116.6487         estimate D2E/DX2                !
 ! D41   D(3,8,9,17)           118.9037         estimate D2E/DX2                !
 ! D42   D(7,8,9,1)           -178.9102         estimate D2E/DX2                !
 ! D43   D(7,8,9,16)            63.4431         estimate D2E/DX2                !
 ! D44   D(7,8,9,17)           -61.0044         estimate D2E/DX2                !
 --------------------------------------------------------------------------------
 Trust Radius=3.00D-01 FncErr=1.00D-07 GrdErr=1.00D-06 EigMax=2.50D+02 EigMin=1.00D-04
 Number of steps in this run=    102 maximum allowed number of steps=    102.
 GradGradGradGradGradGradGradGradGradGradGradGradGradGradGradGradGradGrad

                          Input orientation:                          
 ---------------------------------------------------------------------
 Center     Atomic      Atomic             Coordinates (Angstroms)
 Number     Number       Type             X           Y           Z
 ---------------------------------------------------------------------
      1          6           0        2.271690    0.576000    0.000640
      2          6           0        1.341580    1.544180   -0.018300
      3          6           0        0.038560    0.902930   -0.054770
      4          6           0       -1.224600    1.465890   -0.081620
      5          6           0       -2.328670    0.608070   -0.095430
      6          6           0       -2.154700   -0.786800   -0.082310
      7          6           0       -0.874860   -1.346710   -0.063010
      8          6           0        0.210640   -0.487280   -0.051270
      9          6           0        1.672260   -0.810610   -0.031820
     10          1           0        3.337640    0.753530    0.037710
     11          1           0        1.502010    2.609700    0.002050
     12          1           0       -1.360060    2.541810   -0.089720
     13          1           0       -3.333350    1.023430   -0.113530
     14          1           0       -3.027370   -1.435890   -0.087030
     15          1           0       -0.740290   -2.423020   -0.053850
     16          1           0        1.975250   -1.343400   -0.937230
     17          1           0        1.945310   -1.376600    0.863300
 ---------------------------------------------------------------------
                    Distance matrix (angstroms):
                    1          2          3          4          5
     1  C    0.000000
     2  C    1.342697   0.000000
     3  C    2.257614   1.452719   0.000000
     4  C    3.608700   2.568155   1.383191   0.000000
     5  C    4.601475   3.788533   2.385870   1.398219   0.000000
     6  C    4.632174   4.202563   2.768815   2.437150   1.405738
     7  C    3.688040   3.643055   2.428021   2.834322   2.436346
     8  C    2.319738   2.325283   1.400824   2.423986   2.765834
     9  C    1.510979   2.377934   2.367641   3.684661   4.245485
    10  H    1.081268   2.147678   3.303756   4.619062   5.669740
    11  H    2.174476   1.077722   2.248995   2.957990   4.323209
    12  H    4.130639   2.880838   2.154829   1.084444   2.162773
    13  H    5.624029   4.704808   3.374574   2.154905   1.087306
    14  H    5.668812   5.288976   3.856300   3.416187   2.160098
    15  H    4.250778   4.480415   3.415926   3.919049   3.422307
    16  H    2.156751   3.095818   3.094431   4.343181   4.800061
    17  H    2.159480   3.110091   3.110435   4.361302   4.808844
                    6          7          8          9         10
     6  C    0.000000
     7  C    1.397091   0.000000
     8  C    2.384431   1.384582   0.000000
     9  C    3.827367   2.603113   1.497082   0.000000
    10  H    5.705508   4.708111   3.365361   2.285795   0.000000
    11  H    4.991478   4.615942   3.355855   3.424712   2.610781
    12  H    3.422156   3.918765   3.412325   4.520734   5.028178
    13  H    2.160353   3.415302   3.853049   5.331652   6.678160
    14  H    1.087609   2.154491   3.374292   4.741365   6.732197
    15  H    2.163003   1.084729   2.156702   2.901853   5.169948
    16  H    4.254078   2.981174   2.152142   1.093360   2.683977
    17  H    4.248779   2.968552   2.153232   1.093682   2.675376
                   11         12         13         14         15
    11  H    0.000000
    12  H    2.864346   0.000000
    13  H    5.090218   2.489963   0.000000
    14  H    6.073715   4.313007   2.478423   0.000000
    15  H    5.509928   5.003493   4.313414   2.491237   0.000000
    16  H    4.090624   5.190127   5.870400   5.075195   3.052883
    17  H    4.102299   5.214178   5.880356   5.063022   3.024666
                   16         17
    16  H    0.000000
    17  H    1.801085   0.000000
 Stoichiometry    C9H8
 Framework group  C1[X(C9H8)]
 Deg. of freedom    45
 Full point group                 C1      NOp   1
 Largest Abelian subgroup         C1      NOp   1
 Largest concise Abelian subgroup C1      NOp   1
                         Standard orientation:                         
 ---------------------------------------------------------------------
 Center     Atomic      Atomic             Coordinates (Angstroms)
 Number     Number       Type             X           Y           Z
 ---------------------------------------------------------------------
      1          6           0       -2.400137    0.135303   -0.008901
      2          6           0       -1.586784    1.203615   -0.006942
      3          6           0       -0.218473    0.715792    0.005147
      4          6           0        0.972217    1.419684    0.008713
      5          6           0        2.167294    0.693901    0.001775
      6          6           0        2.153933   -0.711736   -0.008527
      7          6           0        0.946466   -1.414492   -0.004234
      8          6           0       -0.230312   -0.684981    0.004430
      9          6           0       -1.645418   -1.173520    0.012017
     10          1           0       -3.479904    0.189588   -0.026127
     11          1           0       -1.868484    2.243730   -0.023995
     12          1           0        0.983746    2.504050    0.014616
     13          1           0        3.117982    1.221561    0.001346
     14          1           0        3.095109   -1.256663   -0.020197
     15          1           0        0.935846   -2.499146   -0.011213
     16          1           0       -1.868647   -1.735830    0.922738
     17          1           0       -1.868370   -1.768682   -0.878048
 ---------------------------------------------------------------------
 Rotational constants (GHZ):           3.7550848           1.6151723           1.1377437
 Standard basis: def2SVPP (5D, 7F)
 There are   151 symmetry adapted cartesian basis functions of A   symmetry.
 There are   142 symmetry adapted basis functions of A   symmetry.
   142 basis functions,   257 primitive gaussians,   151 cartesian basis functions
    31 alpha electrons       31 beta electrons
       nuclear repulsion energy       396.2457582752 Hartrees.
 NAtoms=   17 NActive=   17 NUniq=   17 SFac= 1.00D+00 NAtFMM=   60 NAOKFM=F Big=F
 Integral buffers will be    131072 words long.
 Raffenetti 2 integral format.
 Two-electron integral symmetry is turned on.
 Nuclear repulsion after empirical dispersion term =      396.2137834412 Hartrees.
 One-electron integrals computed using PRISM.
   1 Symmetry operations used in ECPInt.
 ECPInt:  NShTT=    2485 NPrTT=   10011 LenC2=    2476 LenP2D=    7918.
 LDataN:  DoStor=T MaxTD1= 4 Len=   56
 NBasis=   142 RedAO= T EigKep=  2.74D-04  NBF=   142
 NBsUse=   142 1.00D-06 EigRej= -1.00D+00 NBFU=   142
 ExpMin= 1.22D-01 ExpMax= 1.24D+03 ExpMxC= 1.86D+02 IAcc=3 IRadAn=         5 AccDes= 0.00D+00
 Harris functional with IExCor=  402 and IRadAn=       5 diagonalized for initial guess.
 HarFok:  IExCor=  402 AccDes= 0.00D+00 IRadAn=         5 IDoV= 1 UseB2=F ITyADJ=14
 ICtDFT=  3500011 ScaDFX=  1.000000  1.000000  1.000000  1.000000
 FoFCou: FMM=F IPFlag=           0 FMFlag=      100000 FMFlg1=           0
         NFxFlg=           0 DoJE=T BraDBF=F KetDBF=T FulRan=T
         wScrn=  0.000000 ICntrl=       500 IOpCl=  0 I1Cent=   200000004 NGrid=           0
         NMat0=    1 NMatS0=      1 NMatT0=    0 NMatD0=    1 NMtDS0=    0 NMtDT0=    0
 Petite list used in FoFCou.
 Keep R1 ints in memory in canonical form, NReq=55455963.
 Requested convergence on RMS density matrix=1.00D-08 within 128 cycles.
 Requested convergence on MAX density matrix=1.00D-06.
 Requested convergence on             energy=1.00D-06.
 No special actions if energy rises.
 Integral accuracy reduced to 1.0D-05 until final iterations.
 Initial convergence to 1.0D-05 achieved.  Increase integral accuracy.
 SCF Done:  E(RB3LYP) =  -347.525922918     A.U. after   14 cycles
            NFock= 14  Conv=0.30D-08     -V/T= 2.0102

 **********************************************************************

            Population analysis using the SCF Density.

 **********************************************************************

 Orbital symmetries:
       Occupied  (A) (A) (A) (A) (A) (A) (A) (A) (A) (A) (A) (A)
                 (A) (A) (A) (A) (A) (A) (A) (A) (A) (A) (A) (A)
                 (A) (A) (A) (A) (A) (A) (A)
       Virtual   (A) (A) (A) (A) (A) (A) (A) (A) (A) (A) (A) (A)
                 (A) (A) (A) (A) (A) (A) (A) (A) (A) (A) (A) (A)
                 (A) (A) (A) (A) (A) (A) (A) (A) (A) (A) (A) (A)
                 (A) (A) (A) (A) (A) (A) (A) (A) (A) (A) (A) (A)
                 (A) (A) (A) (A) (A) (A) (A) (A) (A) (A) (A) (A)
                 (A) (A) (A) (A) (A) (A) (A) (A) (A) (A) (A) (A)
                 (A) (A) (A) (A) (A) (A) (A) (A) (A) (A) (A) (A)
                 (A) (A) (A) (A) (A) (A) (A) (A) (A) (A) (A) (A)
                 (A) (A) (A) (A) (A) (A) (A) (A) (A) (A) (A) (A)
                 (A) (A) (A)
 The electronic state is 1-A.
 Alpha  occ. eigenvalues --  -10.18918 -10.18462 -10.18388 -10.18269 -10.18248
 Alpha  occ. eigenvalues --  -10.18215 -10.18214 -10.18136 -10.18013  -0.87457
 Alpha  occ. eigenvalues --   -0.80900  -0.75093  -0.70418  -0.68801  -0.60209
 Alpha  occ. eigenvalues --   -0.57369  -0.55476  -0.51011  -0.46638  -0.45311
 Alpha  occ. eigenvalues --   -0.45070  -0.42306  -0.41961  -0.38698  -0.36352
 Alpha  occ. eigenvalues --   -0.36302  -0.34858  -0.33602  -0.29986  -0.24791
 Alpha  occ. eigenvalues --   -0.22008
 Alpha virt. eigenvalues --   -0.02578  -0.00448   0.04829   0.07045   0.08033
 Alpha virt. eigenvalues --    0.09323   0.11429   0.12064   0.13070   0.14397
 Alpha virt. eigenvalues --    0.15484   0.18120   0.20747   0.22206   0.26208
 Alpha virt. eigenvalues --    0.28659   0.30416   0.32130   0.34446   0.37319
 Alpha virt. eigenvalues --    0.38170   0.39411   0.41412   0.43304   0.45772
 Alpha virt. eigenvalues --    0.46697   0.47071   0.47516   0.49244   0.50061
 Alpha virt. eigenvalues --    0.50309   0.53157   0.54005   0.55595   0.55759
 Alpha virt. eigenvalues --    0.58976   0.63135   0.64398   0.64507   0.66613
 Alpha virt. eigenvalues --    0.66945   0.67612   0.68237   0.69248   0.69473
 Alpha virt. eigenvalues --    0.71923   0.72568   0.73454   0.74028   0.74633
 Alpha virt. eigenvalues --    0.76505   0.77098   0.78297   0.82981   0.87455
 Alpha virt. eigenvalues --    0.87753   0.89791   0.94702   1.02481   1.09284
 Alpha virt. eigenvalues --    1.13386   1.15999   1.25043   1.26796   1.27584
 Alpha virt. eigenvalues --    1.34844   1.35110   1.37065   1.43689   1.46951
 Alpha virt. eigenvalues --    1.49054   1.49445   1.50007   1.67515   1.75753
 Alpha virt. eigenvalues --    1.76797   1.77260   1.80734   1.83900   1.86897
 Alpha virt. eigenvalues --    1.90466   1.92703   1.95452   1.96675   1.98506
 Alpha virt. eigenvalues --    2.02654   2.06099   2.11791   2.15952   2.16643
 Alpha virt. eigenvalues --    2.18212   2.21041   2.25201   2.26610   2.29229
 Alpha virt. eigenvalues --    2.37877   2.38157   2.46294   2.48231   2.50325
 Alpha virt. eigenvalues --    2.56538   2.59835   2.67249   2.67606   2.69661
 Alpha virt. eigenvalues --    2.76123   2.80120   2.88367   2.93458   3.14257
 Alpha virt. eigenvalues --    3.41263
          Condensed to atoms (all electrons):
               1          2          3          4          5          6
     1  C    5.103963   0.460348   0.097169   0.006790  -0.000762  -0.001294
     2  C    0.460348   5.149882   0.221230  -0.125200   0.014119   0.001485
     3  C    0.097169   0.221230   5.268013   0.227021   0.144558  -0.174738
     4  C    0.006790  -0.125200   0.227021   5.423927   0.224065   0.127294
     5  C   -0.000762   0.014119   0.144558   0.224065   5.189456   0.229773
     6  C   -0.001294   0.001485  -0.174738   0.127294   0.229773   5.207159
     7  C    0.009912   0.020200   0.090223  -0.153310   0.130213   0.216106
     8  C   -0.092099  -0.043439   0.264665   0.033599  -0.171591   0.152303
     9  C    0.231313   0.008742  -0.187260   0.033617  -0.000257   0.014488
    10  H    0.411893  -0.060708   0.013378  -0.000670   0.000019   0.000010
    11  H   -0.086719   0.436656  -0.068515  -0.008679  -0.000287   0.000077
    12  H    0.000342  -0.016687  -0.076966   0.432871  -0.083801   0.014725
    13  H    0.000016  -0.000441   0.016083  -0.080034   0.431520  -0.078761
    14  H    0.000023   0.000019  -0.001585   0.014977  -0.078471   0.431499
    15  H    0.000969  -0.000926   0.018625  -0.002164   0.014944  -0.085071
    16  H    0.007936  -0.004379   0.003269  -0.000701   0.000096  -0.000419
    17  H    0.006303  -0.003683   0.004027  -0.000698   0.000095  -0.000410
               7          8          9         10         11         12
     1  C    0.009912  -0.092099   0.231313   0.411893  -0.086719   0.000342
     2  C    0.020200  -0.043439   0.008742  -0.060708   0.436656  -0.016687
     3  C    0.090223   0.264665  -0.187260   0.013378  -0.068515  -0.076966
     4  C   -0.153310   0.033599   0.033617  -0.000670  -0.008679   0.432871
     5  C    0.130213  -0.171591  -0.000257   0.000019  -0.000287  -0.083801
     6  C    0.216106   0.152303   0.014488   0.000010   0.000077   0.014725
     7  C    5.324283   0.228215  -0.110582  -0.000494  -0.000650  -0.002140
     8  C    0.228215   5.366695   0.298756   0.008607   0.012184   0.018907
     9  C   -0.110582   0.298756   5.173768  -0.066112   0.015669  -0.000785
    10  H   -0.000494   0.008607  -0.066112   0.646724  -0.007912   0.000004
    11  H   -0.000650   0.012184   0.015669  -0.007912   0.663652   0.004244
    12  H   -0.002140   0.018907  -0.000785   0.000004   0.004244   0.689147
    13  H    0.014973  -0.001664   0.000038  -0.000000  -0.000002  -0.011978
    14  H   -0.080967   0.016011  -0.000472  -0.000000  -0.000001  -0.000257
    15  H    0.440331  -0.081448  -0.020310   0.000008   0.000006   0.000045
    16  H   -0.001417   0.015168   0.291714   0.000445  -0.000361   0.000017
    17  H   -0.001453   0.012979   0.294504   0.000250  -0.000352   0.000017
              13         14         15         16         17
     1  C    0.000016   0.000023   0.000969   0.007936   0.006303
     2  C   -0.000441   0.000019  -0.000926  -0.004379  -0.003683
     3  C    0.016083  -0.001585   0.018625   0.003269   0.004027
     4  C   -0.080034   0.014977  -0.002164  -0.000701  -0.000698
     5  C    0.431520  -0.078471   0.014944   0.000096   0.000095
     6  C   -0.078761   0.431499  -0.085071  -0.000419  -0.000410
     7  C    0.014973  -0.080967   0.440331  -0.001417  -0.001453
     8  C   -0.001664   0.016011  -0.081448   0.015168   0.012979
     9  C    0.000038  -0.000472  -0.020310   0.291714   0.294504
    10  H   -0.000000  -0.000000   0.000008   0.000445   0.000250
    11  H   -0.000002  -0.000001   0.000006  -0.000361  -0.000352
    12  H   -0.011978  -0.000257   0.000045   0.000017   0.000017
    13  H    0.674861  -0.012420  -0.000260  -0.000001  -0.000001
    14  H   -0.012420   0.675611  -0.011781   0.000008   0.000008
    15  H   -0.000260  -0.011781   0.693201   0.002470   0.002700
    16  H   -0.000001   0.000008   0.002470   0.599695  -0.018902
    17  H   -0.000001   0.000008   0.002700  -0.018902   0.601089
 Mulliken charges:
               1
     1  C   -0.156103
     2  C   -0.057216
     3  C    0.140802
     4  C   -0.152706
     5  C   -0.043687
     6  C   -0.054227
     7  C   -0.123440
     8  C   -0.037849
     9  C    0.023170
    10  H    0.054560
    11  H    0.040989
    12  H    0.032295
    13  H    0.048070
    14  H    0.047797
    15  H    0.028660
    16  H    0.105361
    17  H    0.103526
 Sum of Mulliken charges =  -0.00000
 Mulliken charges with hydrogens summed into heavy atoms:
               1
     1  C   -0.101543
     2  C   -0.016227
     3  C    0.140802
     4  C   -0.120411
     5  C    0.004382
     6  C   -0.006429
     7  C   -0.094780
     8  C   -0.037849
     9  C    0.232056
 Electronic spatial extent (au):  <R**2>=           1037.4764
 Charge=              0.0000 electrons
 Dipole moment (field-independent basis, Debye):
    X=             -0.5832    Y=             -0.3510    Z=             -0.0074  Tot=              0.6807
 Quadrupole moment (field-independent basis, Debye-Ang):
   XX=            -48.7849   YY=            -47.7353   ZZ=            -56.2299
   XY=              0.7294   XZ=             -0.0043   YZ=             -0.0072
 Traceless Quadrupole moment (field-independent basis, Debye-Ang):
   XX=              2.1318   YY=              3.1814   ZZ=             -5.3132
   XY=              0.7294   XZ=             -0.0043   YZ=             -0.0072
 Octapole moment (field-independent basis, Debye-Ang**2):
  XXX=              1.4698  YYY=              2.0443  ZZZ=              0.0758  XYY=             -0.3675
  XXY=             -1.1902  XXZ=             -0.2248  XZZ=             -2.9352  YZZ=             -2.4478
  YYZ=             -0.0947  XYZ=              0.1653
 Hexadecapole moment (field-independent basis, Debye-Ang**3):
 XXXX=           -881.2786 YYYY=           -415.0053 ZZZZ=            -68.2565 XXXY=              1.8669
 XXXZ=              0.2688 YYYX=             -4.2163 YYYZ=              0.1163 ZZZX=             -0.1760
 ZZZY=             -0.1321 XXYY=           -217.2335 XXZZ=           -180.5201 YYZZ=            -88.9826
 XXYZ=             -0.0647 YYXZ=              0.1230 ZZXY=              4.7600
 N-N= 3.962137834412D+02 E-N=-1.596361948748D+03  KE= 3.440116401798D+02
   1 Symmetry operations used in ECPInt.
 ECPInt:  NShTT=    2485 NPrTT=   10011 LenC2=    2476 LenP2D=    7918.
 LDataN:  DoStor=T MaxTD1= 5 Len=  102
 Calling FoFJK, ICntrl=      2127 FMM=F ISym2X=0 I1Cent= 0 IOpClX= 0 NMat=1 NMatS=1 NMatT=0.
 ***** Axes restored to original set *****
 -------------------------------------------------------------------
 Center     Atomic                   Forces (Hartrees/Bohr)
 Number     Number              X              Y              Z
 -------------------------------------------------------------------
      1        6           0.015436847   -0.000980729    0.000090239
      2        6          -0.001642985   -0.011395046    0.000119622
      3        6          -0.002711900    0.008389923    0.000014479
      4        6          -0.012360669   -0.004294516   -0.000115107
      5        6           0.001517439   -0.005429955    0.000140405
      6        6          -0.003921916    0.006407560   -0.000220370
      7        6          -0.002997849    0.006012140   -0.000090744
      8        6          -0.002633048   -0.012117288   -0.000685605
      9        6          -0.002795085    0.020571223    0.001563355
     10        1           0.009268438    0.000256320   -0.000009168
     11        1           0.002522817    0.009720258   -0.000119919
     12        1          -0.000739029    0.006698760    0.000079103
     13        1          -0.004730561    0.001424724   -0.000092338
     14        1          -0.004065553   -0.002473801   -0.000150701
     15        1           0.000853144   -0.006616196   -0.000067015
     16        1           0.004513920   -0.008129931   -0.003968960
     17        1           0.004485991   -0.008043448    0.003512722
 -------------------------------------------------------------------
 Cartesian Forces:  Max     0.020571223 RMS     0.006047442

 GradGradGradGradGradGradGradGradGradGradGradGradGradGradGradGradGradGrad
 Berny optimization.
 FormGI is forming the generalized inverse of G from B-inverse, IUseBI=4.
 Internal  Forces:  Max     0.015671500 RMS     0.004640106
 Search for a local minimum.
 Step number   1 out of a maximum of  102
 All quantities printed in internal units (Hartrees-Bohrs-Radians)
 Mixed Optimization -- RFO/linear search
 Second derivative matrix not updated -- first step.
 ITU=  0
     Eigenvalues ---    0.00993   0.01406   0.01634   0.01865   0.01928
     Eigenvalues ---    0.02054   0.02083   0.02091   0.02211   0.02215
     Eigenvalues ---    0.02225   0.02260   0.05586   0.07413   0.08123
     Eigenvalues ---    0.09137   0.15998   0.16000   0.16000   0.16000
     Eigenvalues ---    0.16000   0.16000   0.22000   0.22151   0.22670
     Eigenvalues ---    0.24061   0.24661   0.30252   0.31609   0.34391
     Eigenvalues ---    0.34427   0.35090   0.35126   0.35429   0.35463
     Eigenvalues ---    0.35842   0.36271   0.36706   0.39699   0.42693
     Eigenvalues ---    0.44156   0.45737   0.47451   0.48029   0.54116
 RFO step:  Lambda=-6.49921001D-03 EMin= 9.92843924D-03
 Linear search not attempted -- first point.
 Iteration  1 RMS(Cart)=  0.02918893 RMS(Int)=  0.00027823
 Iteration  2 RMS(Cart)=  0.00026681 RMS(Int)=  0.00012858
 Iteration  3 RMS(Cart)=  0.00000009 RMS(Int)=  0.00012858
 Variable       Old X    -DE/DX   Delta X   Delta X   Delta X     New X
                                 (Linear)    (Quad)   (Total)
    R1        2.53733   0.01099   0.00000   0.01993   0.01989   2.55722
    R2        2.85534   0.00317   0.00000   0.00762   0.00769   2.86303
    R3        2.04330   0.00918   0.00000   0.02515   0.02515   2.06845
    R4        2.74524   0.01394   0.00000   0.03892   0.03882   2.78406
    R5        2.03660   0.00998   0.00000   0.02704   0.02704   2.06364
    R6        2.61385   0.01567   0.00000   0.03271   0.03272   2.64658
    R7        2.64717   0.00812   0.00000   0.01913   0.01915   2.66632
    R8        2.64225   0.00336   0.00000   0.00710   0.00706   2.64931
    R9        2.04930   0.00674   0.00000   0.01866   0.01866   2.06796
   R10        2.65646  -0.00298   0.00000  -0.00758  -0.00762   2.64884
   R11        2.05471   0.00492   0.00000   0.01374   0.01374   2.06845
   R12        2.64012   0.00749   0.00000   0.01514   0.01513   2.65525
   R13        2.05528   0.00474   0.00000   0.01326   0.01326   2.06854
   R14        2.61648   0.00754   0.00000   0.01553   0.01557   2.63205
   R15        2.04984   0.00667   0.00000   0.01849   0.01849   2.06833
   R16        2.82907   0.01411   0.00000   0.03965   0.03974   2.86881
   R17        2.06615   0.00850   0.00000   0.02423   0.02423   2.09038
   R18        2.06676   0.00816   0.00000   0.02328   0.02328   2.09004
    A1        1.96774  -0.00881   0.00000  -0.04285  -0.04272   1.92502
    A2        2.17123   0.00571   0.00000   0.02922   0.02916   2.20039
    A3        2.14421   0.00311   0.00000   0.01362   0.01356   2.15777
    A4        1.87905   0.00835   0.00000   0.04028   0.04023   1.91928
    A5        2.22625  -0.00523   0.00000  -0.02645  -0.02644   2.19981
    A6        2.17780  -0.00311   0.00000  -0.01372  -0.01371   2.16409
    A7        2.26523   0.00803   0.00000   0.02881   0.02879   2.29401
    A8        1.90479  -0.00522   0.00000  -0.01947  -0.01952   1.88528
    A9        2.11314  -0.00281   0.00000  -0.00932  -0.00925   2.10389
   A10        2.06190   0.00226   0.00000   0.01090   0.01089   2.07278
   A11        2.11533  -0.00124   0.00000  -0.00610  -0.00610   2.10923
   A12        2.10596  -0.00102   0.00000  -0.00480  -0.00479   2.10117
   A13        2.10709   0.00023   0.00000  -0.00193  -0.00200   2.10509
   A14        2.08911   0.00039   0.00000   0.00399   0.00403   2.09314
   A15        2.08698  -0.00062   0.00000  -0.00206  -0.00202   2.08495
   A16        2.10734   0.00050   0.00000  -0.00238  -0.00243   2.10491
   A17        2.08616  -0.00071   0.00000  -0.00155  -0.00152   2.08463
   A18        2.08968   0.00021   0.00000   0.00393   0.00395   2.09363
   A19        2.05958   0.00413   0.00000   0.01586   0.01589   2.07547
   A20        2.10763  -0.00204   0.00000  -0.00778  -0.00780   2.09984
   A21        2.11597  -0.00209   0.00000  -0.00807  -0.00809   2.10788
   A22        2.11728  -0.00431   0.00000  -0.01306  -0.01305   2.10422
   A23        1.91166  -0.00199   0.00000  -0.01327  -0.01315   1.89851
   A24        2.25425   0.00629   0.00000   0.02633   0.02620   2.28045
   A25        1.76135   0.00768   0.00000   0.03560   0.03533   1.79668
   A26        1.93375  -0.00123   0.00000   0.00252   0.00201   1.93576
   A27        1.93723  -0.00105   0.00000   0.00649   0.00598   1.94321
   A28        1.94447  -0.00102   0.00000   0.00512   0.00484   1.94931
   A29        1.94566  -0.00051   0.00000   0.01147   0.01092   1.95659
   A30        1.93520  -0.00302   0.00000  -0.05253  -0.05246   1.88273
    D1        0.00736  -0.00022   0.00000  -0.00696  -0.00689   0.00047
    D2        3.13613   0.00005   0.00000   0.00264   0.00264   3.13877
    D3       -3.13155  -0.00021   0.00000  -0.00694  -0.00693  -3.13849
    D4       -0.00277   0.00007   0.00000   0.00265   0.00260  -0.00018
    D5       -0.01522   0.00037   0.00000   0.01313   0.01309  -0.00213
    D6        2.04593   0.00278   0.00000   0.03907   0.03910   2.08502
    D7       -2.07921  -0.00273   0.00000  -0.02205  -0.02227  -2.10148
    D8        3.12373   0.00036   0.00000   0.01314   0.01316   3.13690
    D9       -1.09831   0.00277   0.00000   0.03909   0.03917  -1.05913
   D10        1.05975  -0.00274   0.00000  -0.02204  -0.02220   1.03755
   D11        3.13914   0.00004   0.00000   0.00124   0.00125   3.14038
   D12        0.00455  -0.00006   0.00000  -0.00300  -0.00298   0.00157
   D13        0.00991  -0.00020   0.00000  -0.00788  -0.00792   0.00199
   D14       -3.12468  -0.00030   0.00000  -0.01213  -0.01215  -3.13682
   D15       -3.12590  -0.00025   0.00000  -0.00994  -0.00994  -3.13584
   D16        0.01348  -0.00019   0.00000  -0.00723  -0.00722   0.00626
   D17        0.00796  -0.00014   0.00000  -0.00526  -0.00528   0.00268
   D18       -3.13583  -0.00008   0.00000  -0.00255  -0.00256  -3.13840
   D19        3.12559   0.00033   0.00000   0.00993   0.00975   3.13534
   D20       -0.01454   0.00035   0.00000   0.01183   0.01163  -0.00291
   D21       -0.00972   0.00018   0.00000   0.00593   0.00588  -0.00383
   D22        3.13333   0.00021   0.00000   0.00783   0.00776   3.14110
   D23       -0.00000   0.00001   0.00000  -0.00005  -0.00004  -0.00005
   D24        3.13839   0.00008   0.00000   0.00298   0.00299   3.14138
   D25       -3.13940  -0.00006   0.00000  -0.00274  -0.00275   3.14103
   D26       -0.00101   0.00002   0.00000   0.00029   0.00028  -0.00073
   D27       -0.00652   0.00013   0.00000   0.00502   0.00501  -0.00151
   D28        3.13483   0.00011   0.00000   0.00377   0.00375   3.13858
   D29        3.13827   0.00005   0.00000   0.00198   0.00198   3.14025
   D30       -0.00357   0.00003   0.00000   0.00073   0.00073  -0.00284
   D31        0.00490  -0.00012   0.00000  -0.00448  -0.00450   0.00040
   D32       -3.14055  -0.00002   0.00000  -0.00170  -0.00173   3.14090
   D33       -3.13644  -0.00009   0.00000  -0.00323  -0.00324  -3.13968
   D34        0.00129   0.00000   0.00000  -0.00045  -0.00047   0.00082
   D35        0.00306  -0.00001   0.00000  -0.00081  -0.00081   0.00224
   D36       -3.14031  -0.00005   0.00000  -0.00316  -0.00321   3.13967
   D37       -3.13466  -0.00010   0.00000  -0.00360  -0.00360  -3.13825
   D38        0.00517  -0.00014   0.00000  -0.00595  -0.00599  -0.00082
   D39        0.01742  -0.00031   0.00000  -0.01411  -0.01436   0.00306
   D40       -2.03590  -0.00263   0.00000  -0.03854  -0.03878  -2.07469
   D41        2.07526   0.00246   0.00000   0.01778   0.01792   2.09318
   D42       -3.12257  -0.00027   0.00000  -0.01197  -0.01218  -3.13475
   D43        1.10729  -0.00260   0.00000  -0.03640  -0.03660   1.07069
   D44       -1.06473   0.00250   0.00000   0.01992   0.02010  -1.04462
         Item               Value     Threshold  Converged?
 Maximum Force            0.015671     0.000450     NO 
 RMS     Force            0.004640     0.000300     NO 
 Maximum Displacement     0.123968     0.001800     NO 
 RMS     Displacement     0.029145     0.001200     NO 
 Predicted change in Energy=-3.357854D-03
 GradGradGradGradGradGradGradGradGradGradGradGradGradGradGradGradGradGrad

                          Input orientation:                          
 ---------------------------------------------------------------------
 Center     Atomic      Atomic             Coordinates (Angstroms)
 Number     Number       Type             X           Y           Z
 ---------------------------------------------------------------------
      1          6           0        2.322692    0.582621   -0.003362
      2          6           0        1.363382    1.536904   -0.020024
      3          6           0        0.030539    0.909906   -0.050071
      4          6           0       -1.254815    1.465543   -0.073678
      5          6           0       -2.361447    0.605041   -0.093132
      6          6           0       -2.184568   -0.785453   -0.089084
      7          6           0       -0.894747   -1.342394   -0.067276
      8          6           0        0.206649   -0.490016   -0.049235
      9          6           0        1.693466   -0.795459   -0.022030
     10          1           0        3.403241    0.755375    0.022561
     11          1           0        1.530374    2.616043   -0.009825
     12          1           0       -1.397147    2.550558   -0.077441
     13          1           0       -3.374661    1.018756   -0.111521
     14          1           0       -3.062215   -1.439504   -0.101659
     15          1           0       -0.762158   -2.428839   -0.063551
     16          1           0        2.010790   -1.362279   -0.917384
     17          1           0        1.981664   -1.381572    0.870523
 ---------------------------------------------------------------------
                    Distance matrix (angstroms):
                    1          2          3          4          5
     1  C    0.000000
     2  C    1.353221   0.000000
     3  C    2.315871   1.473261   0.000000
     4  C    3.685518   2.619719   1.400508   0.000000
     5  C    4.685052   3.840321   2.411720   1.401955   0.000000
     6  C    4.711089   4.240997   2.789707   2.435500   1.401705
     7  C    3.749890   3.659472   2.435017   2.830936   2.438110
     8  C    2.372823   2.333942   1.410956   2.441451   2.792166
     9  C    1.515050   2.355604   2.382096   3.715797   4.290544
    10  H    1.094579   2.184862   3.377021   4.712863   5.767808
    11  H    2.182341   1.092031   2.272009   3.014134   4.381477
    12  H    4.208975   2.941312   2.175035   1.094317   2.171441
    13  H    5.715045   4.767170   3.407494   2.166749   1.094578
    14  H    5.752901   5.334002   3.884266   3.421517   2.161322
    15  H    4.311474   4.499659   3.431584   3.925432   3.429727
    16  H    2.171487   3.103168   3.136312   4.401430   4.864791
    17  H    2.176702   3.113334   3.147261   4.412751   4.872153
                    6          7          8          9         10
     6  C    0.000000
     7  C    1.405097   0.000000
     8  C    2.409728   1.392820   0.000000
     9  C    3.878626   2.645757   1.518110   0.000000
    10  H    5.797432   4.783451   3.431378   2.308767   0.000000
    11  H    5.037583   4.642600   3.376596   3.415419   2.640221
    12  H    3.427701   3.925250   3.437739   4.555303   5.126052
    13  H    2.161480   3.424465   3.886651   5.383799   6.784343
    14  H    1.094626   2.169915   3.404372   4.799753   6.828985
    15  H    2.173619   1.094512   2.167447   2.949532   5.243775
    16  H    4.315071   3.027412   2.183907   1.106182   2.703123
    17  H    4.316676   3.025680   2.188951   1.106002   2.703047
                   11         12         13         14         15
    11  H    0.000000
    12  H    2.929034   0.000000
    13  H    5.159558   2.501628   0.000000
    14  H    6.127623   4.323613   2.478056   0.000000
    15  H    5.541608   5.019741   4.325897   2.504096   0.000000
    16  H    4.108711   5.256409   5.943217   5.138750   3.091249
    17  H    4.118204   5.270356   5.951152   5.137043   3.081853
                   16         17
    16  H    0.000000
    17  H    1.788249   0.000000
 Stoichiometry    C9H8
 Framework group  C1[X(C9H8)]
 Deg. of freedom    45
 Full point group                 C1      NOp   1
 Largest Abelian subgroup         C1      NOp   1
 Largest concise Abelian subgroup C1      NOp   1
                         Standard orientation:                         
 ---------------------------------------------------------------------
 Center     Atomic      Atomic             Coordinates (Angstroms)
 Number     Number       Type             X           Y           Z
 ---------------------------------------------------------------------
      1          6           0       -2.453290    0.141962   -0.002585
      2          6           0       -1.605995    1.197091   -0.002442
      3          6           0       -0.211328    0.722346    0.001960
      4          6           0        1.004422    1.417597    0.002437
      5          6           0        2.200112    0.685615    0.000130
      6          6           0        2.179030   -0.715929   -0.002546
      7          6           0        0.959020   -1.412972   -0.001143
      8          6           0       -0.230537   -0.688479    0.002468
      9          6           0       -1.674373   -1.157515    0.002484
     10          1           0       -3.546647    0.193367   -0.008180
     11          1           0       -1.892204    2.250934   -0.008047
     12          1           0        1.025169    2.511715    0.005049
     13          1           0        3.161157    1.209536    0.000254
     14          1           0        3.124093   -1.268232   -0.007189
     15          1           0        0.948114   -2.507426   -0.003901
     16          1           0       -1.909915   -1.755505    0.902799
     17          1           0       -1.912130   -1.772685   -0.885366
 ---------------------------------------------------------------------
 Rotational constants (GHZ):           3.7681123           1.5630040           1.1125965
 Standard basis: def2SVPP (5D, 7F)
 There are   151 symmetry adapted cartesian basis functions of A   symmetry.
 There are   142 symmetry adapted basis functions of A   symmetry.
   142 basis functions,   257 primitive gaussians,   151 cartesian basis functions
    31 alpha electrons       31 beta electrons
       nuclear repulsion energy       392.8093048664 Hartrees.
 NAtoms=   17 NActive=   17 NUniq=   17 SFac= 1.00D+00 NAtFMM=   60 NAOKFM=F Big=F
 Integral buffers will be    131072 words long.
 Raffenetti 2 integral format.
 Two-electron integral symmetry is turned on.
 Nuclear repulsion after empirical dispersion term =      392.7774864503 Hartrees.
 One-electron integrals computed using PRISM.
   1 Symmetry operations used in ECPInt.
 ECPInt:  NShTT=    2485 NPrTT=   10011 LenC2=    2476 LenP2D=    7899.
 LDataN:  DoStor=T MaxTD1= 4 Len=   56
 NBasis=   142 RedAO= T EigKep=  2.87D-04  NBF=   142
 NBsUse=   142 1.00D-06 EigRej= -1.00D+00 NBFU=   142
 Initial guess from the checkpoint file:  "/tmp/scratch/Gau-2125813.chk"
 B after Tr=    -0.000000    0.000000    0.000000
         Rot=    0.999999   -0.000167   -0.000021    0.001616 Ang=  -0.19 deg.
 ExpMin= 1.22D-01 ExpMax= 1.24D+03 ExpMxC= 1.86D+02 IAcc=3 IRadAn=         5 AccDes= 0.00D+00
 Harris functional with IExCor=  402 and IRadAn=       5 diagonalized for initial guess.
 HarFok:  IExCor=  402 AccDes= 0.00D+00 IRadAn=         5 IDoV= 1 UseB2=F ITyADJ=14
 ICtDFT=  3500011 ScaDFX=  1.000000  1.000000  1.000000  1.000000
 FoFCou: FMM=F IPFlag=           0 FMFlag=      100000 FMFlg1=           0
         NFxFlg=           0 DoJE=T BraDBF=F KetDBF=T FulRan=T
         wScrn=  0.000000 ICntrl=       500 IOpCl=  0 I1Cent=   200000004 NGrid=           0
         NMat0=    1 NMatS0=      1 NMatT0=    0 NMatD0=    1 NMtDS0=    0 NMtDT0=    0
 Petite list used in FoFCou.
 Keep R1 ints in memory in canonical form, NReq=55455963.
 Requested convergence on RMS density matrix=1.00D-08 within 128 cycles.
 Requested convergence on MAX density matrix=1.00D-06.
 Requested convergence on             energy=1.00D-06.
 No special actions if energy rises.
 Integral accuracy reduced to 1.0D-05 until final iterations.
 Initial convergence to 1.0D-05 achieved.  Increase integral accuracy.
 SCF Done:  E(RB3LYP) =  -347.528843688     A.U. after   12 cycles
            NFock= 12  Conv=0.32D-08     -V/T= 2.0112
   1 Symmetry operations used in ECPInt.
 ECPInt:  NShTT=    2485 NPrTT=   10011 LenC2=    2476 LenP2D=    7899.
 LDataN:  DoStor=T MaxTD1= 5 Len=  102
 Calling FoFJK, ICntrl=      2127 FMM=F ISym2X=0 I1Cent= 0 IOpClX= 0 NMat=1 NMatS=1 NMatT=0.
 ***** Axes restored to original set *****
 -------------------------------------------------------------------
 Center     Atomic                   Forces (Hartrees/Bohr)
 Number     Number              X              Y              Z
 -------------------------------------------------------------------
      1        6          -0.004054749    0.000780138    0.000335366
      2        6          -0.001155482   -0.001659540   -0.000020051
      3        6           0.001961727    0.003912701    0.000103115
      4        6          -0.000099099   -0.001136563   -0.000080753
      5        6           0.001995136    0.000085683   -0.000027930
      6        6           0.001071826   -0.000054032    0.000089071
      7        6          -0.000082530    0.001320035   -0.000086302
      8        6           0.001907414   -0.003427027    0.000483653
      9        6          -0.002087956    0.004759881   -0.000636880
     10        1          -0.001527096   -0.000420560   -0.000138115
     11        1           0.000106556    0.000640733   -0.000143364
     12        1           0.000277201   -0.000014798    0.000100183
     13        1           0.000363579    0.000311870    0.000033505
     14        1           0.000574907   -0.000273658   -0.000066027
     15        1          -0.000154634   -0.000118256   -0.000041875
     16        1           0.000520617   -0.002543707    0.000738798
     17        1           0.000382582   -0.002162899   -0.000642395
 -------------------------------------------------------------------
 Cartesian Forces:  Max     0.004759881 RMS     0.001454765

 GradGradGradGradGradGradGradGradGradGradGradGradGradGradGradGradGradGrad
 Berny optimization.
 Using GEDIIS/GDIIS optimizer.
 FormGI is forming the generalized inverse of G from B-inverse, IUseBI=4.
 Internal  Forces:  Max     0.004213765 RMS     0.000990736
 Search for a local minimum.
 Step number   2 out of a maximum of  102
 All quantities printed in internal units (Hartrees-Bohrs-Radians)
 Mixed Optimization -- En-DIIS/RFO-DIIS
 Update second derivatives using D2CorX and points    1    2
 DE= -2.92D-03 DEPred=-3.36D-03 R= 8.70D-01
 TightC=F SS=  1.41D+00  RLast= 1.76D-01 DXNew= 5.0454D-01 5.2734D-01
 Trust test= 8.70D-01 RLast= 1.76D-01 DXMaxT set to 5.05D-01
 ITU=  1  0
 Use linear search instead of GDIIS.
     Eigenvalues ---    0.00990   0.01411   0.01631   0.01860   0.01929
     Eigenvalues ---    0.02054   0.02083   0.02091   0.02211   0.02215
     Eigenvalues ---    0.02224   0.02255   0.05263   0.06764   0.08544
     Eigenvalues ---    0.09517   0.15962   0.16000   0.16000   0.16000
     Eigenvalues ---    0.16000   0.16031   0.21989   0.22412   0.23907
     Eigenvalues ---    0.24097   0.24651   0.30270   0.32005   0.33596
     Eigenvalues ---    0.34408   0.35076   0.35112   0.35315   0.35450
     Eigenvalues ---    0.35905   0.36071   0.38491   0.40099   0.42671
     Eigenvalues ---    0.44194   0.45982   0.47405   0.50287   0.55404
 RFO step:  Lambda=-2.54261043D-04 EMin= 9.89635698D-03
 Quartic linear search produced a step of -0.08163.
 Iteration  1 RMS(Cart)=  0.00577941 RMS(Int)=  0.00002600
 Iteration  2 RMS(Cart)=  0.00002438 RMS(Int)=  0.00001020
 Iteration  3 RMS(Cart)=  0.00000000 RMS(Int)=  0.00001020
 Variable       Old X    -DE/DX   Delta X   Delta X   Delta X     New X
                                 (Linear)    (Quad)   (Total)
    R1        2.55722  -0.00234  -0.00162  -0.00175  -0.00337   2.55385
    R2        2.86303  -0.00078  -0.00063  -0.00214  -0.00277   2.86026
    R3        2.06845  -0.00158  -0.00205  -0.00112  -0.00318   2.06528
    R4        2.78406  -0.00421  -0.00317  -0.00537  -0.00853   2.77553
    R5        2.06364   0.00065  -0.00221   0.00477   0.00257   2.06620
    R6        2.64658  -0.00231  -0.00267  -0.00049  -0.00316   2.64342
    R7        2.66632   0.00227  -0.00156   0.00751   0.00594   2.67226
    R8        2.64931  -0.00184  -0.00058  -0.00297  -0.00355   2.64576
    R9        2.06796  -0.00005  -0.00152   0.00203   0.00051   2.06847
   R10        2.64884  -0.00006   0.00062  -0.00120  -0.00057   2.64827
   R11        2.06845  -0.00022  -0.00112   0.00102  -0.00010   2.06835
   R12        2.65525  -0.00196  -0.00123  -0.00224  -0.00347   2.65178
   R13        2.06854  -0.00030  -0.00108   0.00076  -0.00032   2.06822
   R14        2.63205  -0.00191  -0.00127  -0.00173  -0.00300   2.62905
   R15        2.06833   0.00010  -0.00151   0.00240   0.00089   2.06921
   R16        2.86881  -0.00358  -0.00324  -0.00538  -0.00863   2.86018
   R17        2.09038   0.00085  -0.00198   0.00508   0.00311   2.09349
   R18        2.09004   0.00073  -0.00190   0.00464   0.00274   2.09278
    A1        1.92502   0.00246   0.00349   0.00321   0.00669   1.93172
    A2        2.20039  -0.00105  -0.00238   0.00033  -0.00205   2.19834
    A3        2.15777  -0.00141  -0.00111  -0.00353  -0.00464   2.15313
    A4        1.91928  -0.00135  -0.00328  -0.00160  -0.00488   1.91440
    A5        2.19981   0.00067   0.00216   0.00004   0.00220   2.20201
    A6        2.16409   0.00068   0.00112   0.00156   0.00268   2.16677
    A7        2.29401  -0.00029  -0.00235   0.00144  -0.00091   2.29311
    A8        1.88528   0.00043   0.00159   0.00002   0.00161   1.88689
    A9        2.10389  -0.00014   0.00076  -0.00145  -0.00070   2.10319
   A10        2.07278  -0.00043  -0.00089  -0.00044  -0.00133   2.07145
   A11        2.10923  -0.00007   0.00050  -0.00148  -0.00099   2.10825
   A12        2.10117   0.00050   0.00039   0.00193   0.00232   2.10348
   A13        2.10509   0.00069   0.00016   0.00218   0.00235   2.10744
   A14        2.09314  -0.00079  -0.00033  -0.00327  -0.00360   2.08954
   A15        2.08495   0.00010   0.00017   0.00109   0.00125   2.08621
   A16        2.10491   0.00018   0.00020   0.00007   0.00027   2.10519
   A17        2.08463   0.00049   0.00012   0.00298   0.00310   2.08774
   A18        2.09363  -0.00067  -0.00032  -0.00305  -0.00338   2.09026
   A19        2.07547  -0.00038  -0.00130   0.00044  -0.00086   2.07461
   A20        2.09984   0.00002   0.00064  -0.00120  -0.00056   2.09927
   A21        2.10788   0.00037   0.00066   0.00076   0.00143   2.10931
   A22        2.10422   0.00009   0.00107  -0.00079   0.00027   2.10450
   A23        1.89851   0.00011   0.00107  -0.00088   0.00018   1.89869
   A24        2.28045  -0.00019  -0.00214   0.00168  -0.00045   2.28000
   A25        1.79668  -0.00165  -0.00288  -0.00075  -0.00361   1.79307
   A26        1.93576   0.00142  -0.00016   0.01282   0.01268   1.94845
   A27        1.94321   0.00126  -0.00049   0.00998   0.00953   1.95274
   A28        1.94931   0.00056  -0.00040   0.00382   0.00342   1.95274
   A29        1.95659   0.00038  -0.00089   0.00137   0.00051   1.95710
   A30        1.88273  -0.00181   0.00428  -0.02501  -0.02075   1.86199
    D1        0.00047   0.00011   0.00056   0.00183   0.00239   0.00285
    D2        3.13877   0.00011  -0.00022   0.00495   0.00474  -3.13967
    D3       -3.13849   0.00002   0.00057  -0.00296  -0.00240  -3.14088
    D4       -0.00018   0.00002  -0.00021   0.00016  -0.00004  -0.00022
    D5       -0.00213  -0.00012  -0.00107  -0.00053  -0.00160  -0.00373
    D6        2.08502   0.00028  -0.00319   0.00969   0.00650   2.09153
    D7       -2.10148  -0.00022   0.00182  -0.00663  -0.00479  -2.10627
    D8        3.13690  -0.00003  -0.00107   0.00413   0.00304   3.13994
    D9       -1.05913   0.00037  -0.00320   0.01435   0.01115  -1.04799
   D10        1.03755  -0.00013   0.00181  -0.00198  -0.00015   1.03740
   D11        3.14038  -0.00005  -0.00010  -0.00045  -0.00055   3.13983
   D12        0.00157  -0.00006   0.00024  -0.00250  -0.00225  -0.00068
   D13        0.00199  -0.00005   0.00065  -0.00350  -0.00284  -0.00085
   D14       -3.13682  -0.00006   0.00099  -0.00554  -0.00454  -3.14137
   D15       -3.13584  -0.00004   0.00081  -0.00445  -0.00364  -3.13948
   D16        0.00626  -0.00007   0.00059  -0.00458  -0.00399   0.00227
   D17        0.00268  -0.00003   0.00043  -0.00219  -0.00176   0.00092
   D18       -3.13840  -0.00005   0.00021  -0.00232  -0.00211  -3.14051
   D19        3.13534   0.00004  -0.00080   0.00488   0.00410   3.13945
   D20       -0.00291  -0.00002  -0.00095   0.00210   0.00117  -0.00175
   D21       -0.00383   0.00003  -0.00048   0.00310   0.00262  -0.00121
   D22        3.14110  -0.00003  -0.00063   0.00031  -0.00031   3.14078
   D23       -0.00005   0.00000   0.00000  -0.00011  -0.00010  -0.00015
   D24        3.14138  -0.00000  -0.00024   0.00043   0.00019   3.14157
   D25        3.14103   0.00003   0.00022   0.00002   0.00025   3.14128
   D26       -0.00073   0.00002  -0.00002   0.00056   0.00054  -0.00019
   D27       -0.00151   0.00001  -0.00041   0.00154   0.00114  -0.00037
   D28        3.13858   0.00004  -0.00031   0.00268   0.00238   3.14096
   D29        3.14025   0.00002  -0.00016   0.00101   0.00085   3.14110
   D30       -0.00284   0.00005  -0.00006   0.00215   0.00209  -0.00075
   D31        0.00040  -0.00001   0.00037  -0.00067  -0.00030   0.00010
   D32        3.14090   0.00003   0.00014   0.00091   0.00105  -3.14124
   D33       -3.13968  -0.00004   0.00026  -0.00181  -0.00154  -3.14123
   D34        0.00082   0.00000   0.00004  -0.00024  -0.00020   0.00062
   D35        0.00224  -0.00001   0.00007  -0.00163  -0.00156   0.00068
   D36        3.13967   0.00007   0.00026   0.00184   0.00210  -3.14141
   D37       -3.13825  -0.00006   0.00029  -0.00321  -0.00292  -3.14117
   D38       -0.00082   0.00002   0.00049   0.00026   0.00075  -0.00007
   D39        0.00306   0.00007   0.00117  -0.00103   0.00016   0.00322
   D40       -2.07469  -0.00090   0.00317  -0.01756  -0.01438  -2.08907
   D41        2.09318   0.00076  -0.00146   0.01106   0.00958   2.10276
   D42       -3.13475   0.00000   0.00099  -0.00419  -0.00317  -3.13792
   D43        1.07069  -0.00097   0.00299  -0.02072  -0.01771   1.05298
   D44       -1.04462   0.00069  -0.00164   0.00790   0.00624  -1.03838
         Item               Value     Threshold  Converged?
 Maximum Force            0.004214     0.000450     NO 
 RMS     Force            0.000991     0.000300     NO 
 Maximum Displacement     0.023888     0.001800     NO 
 RMS     Displacement     0.005779     0.001200     NO 
 Predicted change in Energy=-1.524168D-04
 GradGradGradGradGradGradGradGradGradGradGradGradGradGradGradGradGradGrad

                          Input orientation:                          
 ---------------------------------------------------------------------
 Center     Atomic      Atomic             Coordinates (Angstroms)
 Number     Number       Type             X           Y           Z
 ---------------------------------------------------------------------
      1          6           0        2.314098    0.584676   -0.003010
      2          6           0        1.359024    1.540657   -0.021021
      3          6           0        0.031329    0.913194   -0.048182
      4          6           0       -1.252988    1.467035   -0.071349
      5          6           0       -2.356209    0.605244   -0.092236
      6          6           0       -2.179525   -0.784975   -0.090194
      7          6           0       -0.891633   -1.341716   -0.067592
      8          6           0        0.208079   -0.489815   -0.047097
      9          6           0        1.690442   -0.794335   -0.020988
     10          1           0        3.393241    0.756065    0.019327
     11          1           0        1.527282    2.621008   -0.015670
     12          1           0       -1.395275    2.552331   -0.073314
     13          1           0       -3.368799    1.020349   -0.110492
     14          1           0       -3.055036   -1.441525   -0.106141
     15          1           0       -0.760003   -2.428756   -0.066450
     16          1           0        2.008414   -1.374920   -0.909297
     17          1           0        1.978598   -1.389288    0.867518
 ---------------------------------------------------------------------
                    Distance matrix (angstroms):
                    1          2          3          4          5
     1  C    0.000000
     2  C    1.351440   0.000000
     3  C    2.306730   1.468749   0.000000
     4  C    3.675232   2.613534   1.398837   0.000000
     5  C    4.671205   3.831844   2.407719   1.400078   0.000000
     6  C    4.698531   4.234936   2.788085   2.435236   1.401403
     7  C    3.740571   3.657281   2.436566   2.831903   2.436440
     8  C    2.364696   2.334131   1.414099   2.442246   2.788685
     9  C    1.513586   2.358395   2.380977   3.712157   4.282439
    10  H    1.092897   2.180654   3.366260   4.701186   5.752510
    11  H    2.183091   1.093388   2.270586   3.010756   4.376148
    12  H    4.199531   2.934686   2.173154   1.094585   2.171383
    13  H    5.700586   4.757209   3.402386   2.162803   1.094524
    14  H    5.739662   5.327718   3.882487   3.421741   2.162826
    15  H    4.305217   4.499842   3.434410   3.926862   3.428366
    16  H    2.180554   3.116301   3.144178   4.406315   4.861952
    17  H    2.183326   3.123772   3.151474   4.413978   4.867220
                    6          7          8          9         10
     6  C    0.000000
     7  C    1.403259   0.000000
     8  C    2.406166   1.391231   0.000000
     9  C    3.870597   2.639870   1.513543   0.000000
    10  H    5.782951   4.771624   3.420802   2.303235   0.000000
    11  H    5.034550   4.642955   3.379127   3.419242   2.638379
    12  H    3.428257   3.926486   3.438908   4.552424   5.115178
    13  H    2.161938   3.423089   3.883126   5.375593   6.768448
    14  H    1.094455   2.166047   3.399582   4.790163   6.813620
    15  H    2.172009   1.094981   2.167268   2.945858   5.234490
    16  H    4.307877   3.019909   2.183577   1.107826   2.705769
    17  H    4.309570   3.019092   2.186392   1.107450   2.706138
                   11         12         13         14         15
    11  H    0.000000
    12  H    2.923932   0.000000
    13  H    5.151961   2.498629   0.000000
    14  H    6.124541   4.325133   2.481792   0.000000
    15  H    5.543859   5.021439   4.324821   2.498675   0.000000
    16  H    4.122802   5.263770   5.940524   5.127185   3.079789
    17  H    4.131123   5.273001   5.946217   5.127203   3.074528
                   16         17
    16  H    0.000000
    17  H    1.777124   0.000000
 Stoichiometry    C9H8
 Framework group  C1[X(C9H8)]
 Deg. of freedom    45
 Full point group                 C1      NOp   1
 Largest Abelian subgroup         C1      NOp   1
 Largest concise Abelian subgroup C1      NOp   1
                         Standard orientation:                         
 ---------------------------------------------------------------------
 Center     Atomic      Atomic             Coordinates (Angstroms)
 Number     Number       Type             X           Y           Z
 ---------------------------------------------------------------------
      1          6           0       -2.444826    0.142452   -0.002467
      2          6           0       -1.602534    1.199301   -0.000611
      3          6           0       -0.212700    0.724347    0.000811
      4          6           0        1.001797    1.418423    0.001028
      5          6           0        2.194705    0.685493   -0.000044
      6          6           0        2.174660   -0.715766   -0.001132
      7          6           0        0.956946   -1.413124   -0.000722
      8          6           0       -0.231363   -0.689629    0.000659
      9          6           0       -1.670577   -1.158111    0.001601
     10          1           0       -3.536597    0.192008   -0.004452
     11          1           0       -1.890675    2.254039   -0.001022
     12          1           0        1.021781    2.512826    0.002168
     13          1           0        3.154659    1.211298    0.000081
     14          1           0        3.118273   -1.270225   -0.002564
     15          1           0        0.947761   -2.508067   -0.001240
     16          1           0       -1.904965   -1.770261    0.894693
     17          1           0       -1.906890   -1.781937   -0.882392
 ---------------------------------------------------------------------
 Rotational constants (GHZ):           3.7608286           1.5708649           1.1158323
 Standard basis: def2SVPP (5D, 7F)
 There are   151 symmetry adapted cartesian basis functions of A   symmetry.
 There are   142 symmetry adapted basis functions of A   symmetry.
   142 basis functions,   257 primitive gaussians,   151 cartesian basis functions
    31 alpha electrons       31 beta electrons
       nuclear repulsion energy       393.1978880289 Hartrees.
 NAtoms=   17 NActive=   17 NUniq=   17 SFac= 1.00D+00 NAtFMM=   60 NAOKFM=F Big=F
 Integral buffers will be    131072 words long.
 Raffenetti 2 integral format.
 Two-electron integral symmetry is turned on.
 Nuclear repulsion after empirical dispersion term =      393.1660574364 Hartrees.
 One-electron integrals computed using PRISM.
   1 Symmetry operations used in ECPInt.
 ECPInt:  NShTT=    2485 NPrTT=   10011 LenC2=    2476 LenP2D=    7901.
 LDataN:  DoStor=T MaxTD1= 4 Len=   56
 NBasis=   142 RedAO= T EigKep=  2.86D-04  NBF=   142
 NBsUse=   142 1.00D-06 EigRej= -1.00D+00 NBFU=   142
 Initial guess from the checkpoint file:  "/tmp/scratch/Gau-2125813.chk"
 B after Tr=    -0.000000   -0.000000   -0.000000
         Rot=    1.000000   -0.000063    0.000002   -0.000098 Ang=  -0.01 deg.
 ExpMin= 1.22D-01 ExpMax= 1.24D+03 ExpMxC= 1.86D+02 IAcc=3 IRadAn=         5 AccDes= 0.00D+00
 Harris functional with IExCor=  402 and IRadAn=       5 diagonalized for initial guess.
 HarFok:  IExCor=  402 AccDes= 0.00D+00 IRadAn=         5 IDoV= 1 UseB2=F ITyADJ=14
 ICtDFT=  3500011 ScaDFX=  1.000000  1.000000  1.000000  1.000000
 FoFCou: FMM=F IPFlag=           0 FMFlag=      100000 FMFlg1=           0
         NFxFlg=           0 DoJE=T BraDBF=F KetDBF=T FulRan=T
         wScrn=  0.000000 ICntrl=       500 IOpCl=  0 I1Cent=   200000004 NGrid=           0
         NMat0=    1 NMatS0=      1 NMatT0=    0 NMatD0=    1 NMtDS0=    0 NMtDT0=    0
 Petite list used in FoFCou.
 Keep R1 ints in memory in canonical form, NReq=55455963.
 Requested convergence on RMS density matrix=1.00D-08 within 128 cycles.
 Requested convergence on MAX density matrix=1.00D-06.
 Requested convergence on             energy=1.00D-06.
 No special actions if energy rises.
 Integral accuracy reduced to 1.0D-05 until final iterations.
 Initial convergence to 1.0D-05 achieved.  Increase integral accuracy.
 SCF Done:  E(RB3LYP) =  -347.529020376     A.U. after   10 cycles
            NFock= 10  Conv=0.73D-08     -V/T= 2.0112
   1 Symmetry operations used in ECPInt.
 ECPInt:  NShTT=    2485 NPrTT=   10011 LenC2=    2476 LenP2D=    7901.
 LDataN:  DoStor=T MaxTD1= 5 Len=  102
 Calling FoFJK, ICntrl=      2127 FMM=F ISym2X=0 I1Cent= 0 IOpClX= 0 NMat=1 NMatS=1 NMatT=0.
 ***** Axes restored to original set *****
 -------------------------------------------------------------------
 Center     Atomic                   Forces (Hartrees/Bohr)
 Number     Number              X              Y              Z
 -------------------------------------------------------------------
      1        6          -0.000109014   -0.000552987   -0.000086282
      2        6          -0.000645257   -0.000311530    0.000075490
      3        6           0.000312973    0.000987133    0.000006913
      4        6           0.000368945   -0.000211710   -0.000025943
      5        6          -0.000109939   -0.000165071   -0.000030818
      6        6          -0.000305075    0.000088663    0.000017089
      7        6           0.000348395    0.000298808   -0.000063913
      8        6           0.000461381   -0.001084026    0.000137372
      9        6          -0.000955201    0.002430776   -0.000248325
     10        1          -0.000248647   -0.000078529   -0.000030331
     11        1           0.000035164   -0.000419052    0.000009256
     12        1           0.000105445   -0.000216294    0.000033093
     13        1           0.000125422    0.000020071    0.000014234
     14        1           0.000188041    0.000028529   -0.000009997
     15        1          -0.000050690    0.000185123    0.000009420
     16        1           0.000271421   -0.000534856    0.000493894
     17        1           0.000206637   -0.000465050   -0.000301153
 -------------------------------------------------------------------
 Cartesian Forces:  Max     0.002430776 RMS     0.000486924

 GradGradGradGradGradGradGradGradGradGradGradGradGradGradGradGradGradGrad
 Berny optimization.
 Using GEDIIS/GDIIS optimizer.
 FormGI is forming the generalized inverse of G from B-inverse, IUseBI=4.
 Internal  Forces:  Max     0.000941077 RMS     0.000217404
 Search for a local minimum.
 Step number   3 out of a maximum of  102
 All quantities printed in internal units (Hartrees-Bohrs-Radians)
 Mixed Optimization -- En-DIIS/RFO-DIIS
 Swapping is turned off.
 Update second derivatives using D2CorX and points    1    2    3
 DE= -1.77D-04 DEPred=-1.52D-04 R= 1.16D+00
 TightC=F SS=  1.41D+00  RLast= 4.66D-02 DXNew= 8.4853D-01 1.3991D-01
 Trust test= 1.16D+00 RLast= 4.66D-02 DXMaxT set to 5.05D-01
 ITU=  1  1  0
     Eigenvalues ---    0.00982   0.01414   0.01635   0.01865   0.01930
     Eigenvalues ---    0.02053   0.02083   0.02091   0.02212   0.02215
     Eigenvalues ---    0.02222   0.02256   0.05182   0.05592   0.08610
     Eigenvalues ---    0.09525   0.15876   0.16000   0.16000   0.16000
     Eigenvalues ---    0.16002   0.16035   0.21987   0.22332   0.24008
     Eigenvalues ---    0.24613   0.25221   0.29637   0.31926   0.34153
     Eigenvalues ---    0.34431   0.35097   0.35125   0.35436   0.35489
     Eigenvalues ---    0.35906   0.36483   0.37491   0.39739   0.42680
     Eigenvalues ---    0.44247   0.46456   0.47393   0.49199   0.54815
 En-DIIS/RFO-DIIS/Sim-DIIS IScMMF=       -3 using points:     3    2
 RFO step:  Lambda=-3.11056699D-05.
 DidBck=F Rises=F RFO-DIIS coefs:    1.38770   -0.38770
 Iteration  1 RMS(Cart)=  0.00234648 RMS(Int)=  0.00000947
 Iteration  2 RMS(Cart)=  0.00000832 RMS(Int)=  0.00000350
 Iteration  3 RMS(Cart)=  0.00000000 RMS(Int)=  0.00000350
 Variable       Old X    -DE/DX   Delta X   Delta X   Delta X     New X
                                 (Linear)    (Quad)   (Total)
    R1        2.55385  -0.00031  -0.00130   0.00063  -0.00067   2.55318
    R2        2.86026  -0.00094  -0.00107  -0.00297  -0.00404   2.85622
    R3        2.06528  -0.00026  -0.00123   0.00038  -0.00085   2.06442
    R4        2.77553  -0.00086  -0.00331   0.00061  -0.00270   2.77283
    R5        2.06620  -0.00041   0.00099  -0.00194  -0.00095   2.06525
    R6        2.64342  -0.00055  -0.00122  -0.00008  -0.00130   2.64212
    R7        2.67226   0.00018   0.00230  -0.00119   0.00111   2.67337
    R8        2.64576  -0.00000  -0.00138   0.00122  -0.00016   2.64560
    R9        2.06847  -0.00023   0.00020  -0.00077  -0.00058   2.06789
   R10        2.64827  -0.00020  -0.00022  -0.00040  -0.00062   2.64765
   R11        2.06835  -0.00011  -0.00004  -0.00022  -0.00026   2.06810
   R12        2.65178   0.00003  -0.00135   0.00136   0.00001   2.65179
   R13        2.06822  -0.00017  -0.00013  -0.00035  -0.00048   2.06774
   R14        2.62905  -0.00043  -0.00116   0.00001  -0.00115   2.62789
   R15        2.06921  -0.00019   0.00034  -0.00077  -0.00042   2.06879
   R16        2.86018  -0.00079  -0.00335   0.00002  -0.00333   2.85685
   R17        2.09349  -0.00004   0.00120  -0.00091   0.00030   2.09378
   R18        2.09278   0.00006   0.00106  -0.00044   0.00062   2.09339
    A1        1.93172  -0.00003   0.00260  -0.00344  -0.00084   1.93087
    A2        2.19834   0.00006  -0.00080   0.00168   0.00088   2.19922
    A3        2.15313  -0.00002  -0.00180   0.00177  -0.00004   2.15309
    A4        1.91440   0.00007  -0.00189   0.00233   0.00044   1.91484
    A5        2.20201  -0.00014   0.00085  -0.00193  -0.00107   2.20094
    A6        2.16677   0.00007   0.00104  -0.00040   0.00064   2.16740
    A7        2.29311   0.00012  -0.00035   0.00112   0.00077   2.29388
    A8        1.88689  -0.00008   0.00062  -0.00086  -0.00024   1.88665
    A9        2.10319  -0.00004  -0.00027  -0.00026  -0.00053   2.10266
   A10        2.07145   0.00014  -0.00052   0.00128   0.00076   2.07222
   A11        2.10825  -0.00015  -0.00038  -0.00072  -0.00110   2.10714
   A12        2.10348   0.00001   0.00090  -0.00056   0.00034   2.10382
   A13        2.10744  -0.00007   0.00091  -0.00107  -0.00016   2.10728
   A14        2.08954  -0.00004  -0.00140   0.00082  -0.00058   2.08896
   A15        2.08621   0.00010   0.00049   0.00025   0.00074   2.08694
   A16        2.10519  -0.00010   0.00011  -0.00056  -0.00046   2.10473
   A17        2.08774   0.00014   0.00120  -0.00008   0.00112   2.08886
   A18        2.09026  -0.00004  -0.00131   0.00065  -0.00066   2.08960
   A19        2.07461   0.00012  -0.00033   0.00105   0.00071   2.07532
   A20        2.09927  -0.00009  -0.00022  -0.00042  -0.00064   2.09863
   A21        2.10931  -0.00003   0.00055  -0.00062  -0.00007   2.10923
   A22        2.10450  -0.00006   0.00011  -0.00044  -0.00033   2.10416
   A23        1.89869  -0.00020   0.00007  -0.00148  -0.00141   1.89728
   A24        2.28000   0.00026  -0.00017   0.00191   0.00174   2.28174
   A25        1.79307   0.00024  -0.00140   0.00347   0.00206   1.79513
   A26        1.94845   0.00008   0.00492  -0.00172   0.00318   1.95163
   A27        1.95274   0.00006   0.00369  -0.00170   0.00199   1.95473
   A28        1.95274   0.00010   0.00133   0.00150   0.00280   1.95554
   A29        1.95710   0.00001   0.00020   0.00057   0.00077   1.95786
   A30        1.86199  -0.00046  -0.00804  -0.00200  -0.01005   1.85194
    D1        0.00285  -0.00003   0.00093  -0.00474  -0.00381  -0.00096
    D2       -3.13967  -0.00002   0.00184  -0.00331  -0.00147  -3.14114
    D3       -3.14088   0.00001  -0.00093  -0.00038  -0.00130   3.14100
    D4       -0.00022   0.00002  -0.00002   0.00105   0.00103   0.00081
    D5       -0.00373   0.00002  -0.00062   0.00482   0.00419   0.00046
    D6        2.09153   0.00031   0.00252   0.00779   0.01032   2.10184
    D7       -2.10627  -0.00017  -0.00186   0.00290   0.00104  -2.10523
    D8        3.13994  -0.00001   0.00118   0.00058   0.00176  -3.14148
    D9       -1.04799   0.00028   0.00432   0.00356   0.00788  -1.04010
   D10        1.03740  -0.00020  -0.00006  -0.00133  -0.00139   1.03601
   D11        3.13983   0.00001  -0.00021   0.00236   0.00215  -3.14120
   D12       -0.00068   0.00002  -0.00087   0.00265   0.00178   0.00109
   D13       -0.00085   0.00000  -0.00110   0.00097  -0.00013  -0.00098
   D14       -3.14137   0.00001  -0.00176   0.00125  -0.00051   3.14131
   D15       -3.13948  -0.00000  -0.00141   0.00020  -0.00121  -3.14069
   D16        0.00227  -0.00001  -0.00155  -0.00002  -0.00157   0.00071
   D17        0.00092  -0.00001  -0.00068  -0.00011  -0.00080   0.00013
   D18       -3.14051  -0.00002  -0.00082  -0.00034  -0.00115   3.14152
   D19        3.13945   0.00000   0.00159  -0.00029   0.00130   3.14075
   D20       -0.00175  -0.00001   0.00045   0.00053   0.00098  -0.00077
   D21       -0.00121   0.00001   0.00102  -0.00004   0.00097  -0.00023
   D22        3.14078   0.00000  -0.00012   0.00077   0.00065   3.14143
   D23       -0.00015   0.00001  -0.00004   0.00024   0.00020   0.00006
   D24        3.14157  -0.00000   0.00007  -0.00027  -0.00020   3.14137
   D25        3.14128   0.00002   0.00010   0.00046   0.00056  -3.14134
   D26       -0.00019   0.00001   0.00021  -0.00005   0.00016  -0.00003
   D27       -0.00037  -0.00000   0.00044  -0.00021   0.00023  -0.00014
   D28        3.14096   0.00000   0.00092  -0.00056   0.00036   3.14132
   D29        3.14110   0.00001   0.00033   0.00030   0.00063  -3.14145
   D30       -0.00075   0.00001   0.00081  -0.00005   0.00076   0.00001
   D31        0.00010  -0.00000  -0.00011   0.00005  -0.00007   0.00003
   D32       -3.14124  -0.00000   0.00041  -0.00077  -0.00037   3.14158
   D33       -3.14123  -0.00000  -0.00060   0.00040  -0.00020  -3.14143
   D34        0.00062  -0.00001  -0.00008  -0.00042  -0.00050   0.00012
   D35        0.00068  -0.00000  -0.00061   0.00008  -0.00053   0.00015
   D36       -3.14141   0.00001   0.00082  -0.00094  -0.00012  -3.14154
   D37       -3.14117  -0.00000  -0.00113   0.00090  -0.00023  -3.14140
   D38       -0.00007   0.00001   0.00029  -0.00012   0.00017   0.00010
   D39        0.00322  -0.00001   0.00006  -0.00307  -0.00300   0.00022
   D40       -2.08907  -0.00029  -0.00557  -0.00382  -0.00940  -2.09847
   D41        2.10276   0.00022   0.00371  -0.00270   0.00101   2.10377
   D42       -3.13792  -0.00002  -0.00123  -0.00214  -0.00337  -3.14129
   D43        1.05298  -0.00030  -0.00687  -0.00290  -0.00977   1.04321
   D44       -1.03838   0.00021   0.00242  -0.00178   0.00064  -1.03774
         Item               Value     Threshold  Converged?
 Maximum Force            0.000941     0.000450     NO 
 RMS     Force            0.000217     0.000300     YES
 Maximum Displacement     0.012282     0.001800     NO 
 RMS     Displacement     0.002348     0.001200     NO 
 Predicted change in Energy=-1.557177D-05
 GradGradGradGradGradGradGradGradGradGradGradGradGradGradGradGradGradGrad

                          Input orientation:                          
 ---------------------------------------------------------------------
 Center     Atomic      Atomic             Coordinates (Angstroms)
 Number     Number       Type             X           Y           Z
 ---------------------------------------------------------------------
      1          6           0        2.312952    0.584986   -0.005650
      2          6           0        1.357832    1.540471   -0.020651
      3          6           0        0.031305    0.913867   -0.047374
      4          6           0       -1.252710    1.466682   -0.070155
      5          6           0       -2.355997    0.605140   -0.092179
      6          6           0       -2.179362   -0.784756   -0.091385
      7          6           0       -0.891223   -1.340936   -0.068633
      8          6           0        0.208219   -0.489715   -0.046824
      9          6           0        1.689289   -0.791714   -0.020120
     10          1           0        3.391800    0.755626    0.014537
     11          1           0        1.526905    2.620187   -0.015473
     12          1           0       -1.394424    2.551747   -0.070609
     13          1           0       -3.368156    1.020959   -0.109961
     14          1           0       -3.053924   -1.442117   -0.108539
     15          1           0       -0.759832   -2.427780   -0.068128
     16          1           0        2.009771   -1.379759   -0.902798
     17          1           0        1.978594   -1.387659    0.867754
 ---------------------------------------------------------------------
                    Distance matrix (angstroms):
                    1          2          3          4          5
     1  C    0.000000
     2  C    1.351085   0.000000
     3  C    2.305606   1.467318   0.000000
     4  C    3.673622   2.612054   1.398148   0.000000
     5  C    4.669795   3.830469   2.407599   1.399994   0.000000
     6  C    4.697279   4.233607   2.788244   2.434770   1.401075
     7  C    3.738968   3.655552   2.436319   2.830793   2.435842
     8  C    2.363594   2.333227   1.414688   2.441791   2.788543
     9  C    1.511446   2.355621   2.378794   3.709206   4.280273
    10  H    1.092446   2.180423   3.364788   4.699388   5.750757
    11  H    2.181744   1.092885   2.269221   3.009954   4.375298
    12  H    4.197262   2.932590   2.171611   1.094281   2.171260
    13  H    5.698767   4.755296   3.401723   2.162259   1.094389
    14  H    5.737865   5.326082   3.882401   3.421542   2.163014
    15  H    4.303797   4.498197   3.434085   3.925528   3.427379
    16  H    2.181059   3.119448   3.147507   4.409003   4.863832
    17  H    2.183108   3.122267   3.150621   4.412285   4.866354
                    6          7          8          9         10
     6  C    0.000000
     7  C    1.403265   0.000000
     8  C    2.406154   1.390621   0.000000
     9  C    3.869313   2.638758   1.511782   0.000000
    10  H    5.781162   4.769359   3.419039   2.300871   0.000000
    11  H    5.033469   4.641192   3.378077   3.415766   2.637294
    12  H    3.427654   3.925073   3.437953   4.548688   5.112850
    13  H    2.161986   3.422784   3.882857   5.373230   6.766307
    14  H    1.094202   2.165434   3.398891   4.788415   6.811210
    15  H    2.171436   1.094758   2.166489   2.945711   5.232300
    16  H    4.308277   3.018793   2.184138   1.107983   2.703956
    17  H    4.309528   3.019082   2.185631   1.107777   2.705328
                   11         12         13         14         15
    11  H    0.000000
    12  H    2.922650   0.000000
    13  H    5.150542   2.498096   0.000000
    14  H    6.123313   4.325081   2.483039   0.000000
    15  H    5.542013   5.019802   4.324223   2.497204   0.000000
    16  H    4.125539   5.266671   5.942570   5.125987   3.076641
    17  H    4.128794   5.270360   5.945175   5.126632   3.075175
                   16         17
    16  H    0.000000
    17  H    1.770844   0.000000
 Stoichiometry    C9H8
 Framework group  C1[X(C9H8)]
 Deg. of freedom    45
 Full point group                 C1      NOp   1
 Largest Abelian subgroup         C1      NOp   1
 Largest concise Abelian subgroup C1      NOp   1
                         Standard orientation:                         
 ---------------------------------------------------------------------
 Center     Atomic      Atomic             Coordinates (Angstroms)
 Number     Number       Type             X           Y           Z
 ---------------------------------------------------------------------
      1          6           0       -2.443845    0.142188   -0.000035
      2          6           0       -1.601661    1.198671   -0.000746
      3          6           0       -0.213023    0.724641    0.000162
      4          6           0        1.001182    1.417840    0.000325
      5          6           0        2.194255    0.685338    0.000182
      6          6           0        2.174449   -0.715597   -0.000186
      7          6           0        0.956525   -1.412601   -0.000251
      8          6           0       -0.231568   -0.689925    0.000014
      9          6           0       -1.669723   -1.155966    0.000086
     10          1           0       -3.535205    0.190876    0.000080
     11          1           0       -1.890690    2.252645   -0.000590
     12          1           0        1.020434    2.511951    0.000375
     13          1           0        3.153616    1.211945    0.000094
     14          1           0        3.117314   -1.270829   -0.000550
     15          1           0        0.947727   -2.507324   -0.000547
     16          1           0       -1.905835   -1.776180    0.887336
     17          1           0       -1.906915   -1.780610   -0.883503
 ---------------------------------------------------------------------
 Rotational constants (GHZ):           3.7641587           1.5719146           1.1165987
 Standard basis: def2SVPP (5D, 7F)
 There are   151 symmetry adapted cartesian basis functions of A   symmetry.
 There are   142 symmetry adapted basis functions of A   symmetry.
   142 basis functions,   257 primitive gaussians,   151 cartesian basis functions
    31 alpha electrons       31 beta electrons
       nuclear repulsion energy       393.3414334523 Hartrees.
 NAtoms=   17 NActive=   17 NUniq=   17 SFac= 1.00D+00 NAtFMM=   60 NAOKFM=F Big=F
 Integral buffers will be    131072 words long.
 Raffenetti 2 integral format.
 Two-electron integral symmetry is turned on.
 Nuclear repulsion after empirical dispersion term =      393.3095988184 Hartrees.
 One-electron integrals computed using PRISM.
   1 Symmetry operations used in ECPInt.
 ECPInt:  NShTT=    2485 NPrTT=   10011 LenC2=    2476 LenP2D=    7901.
 LDataN:  DoStor=T MaxTD1= 4 Len=   56
 NBasis=   142 RedAO= T EigKep=  2.86D-04  NBF=   142
 NBsUse=   142 1.00D-06 EigRej= -1.00D+00 NBFU=   142
 Initial guess from the checkpoint file:  "/tmp/scratch/Gau-2125813.chk"
 B after Tr=    -0.000000    0.000000    0.000000
         Rot=    1.000000   -0.000079    0.000004   -0.000013 Ang=  -0.01 deg.
 Keep R1 ints in memory in canonical form, NReq=55455963.
 Requested convergence on RMS density matrix=1.00D-08 within 128 cycles.
 Requested convergence on MAX density matrix=1.00D-06.
 Requested convergence on             energy=1.00D-06.
 No special actions if energy rises.
 SCF Done:  E(RB3LYP) =  -347.529036489     A.U. after    9 cycles
            NFock=  9  Conv=0.56D-08     -V/T= 2.0111
   1 Symmetry operations used in ECPInt.
 ECPInt:  NShTT=    2485 NPrTT=   10011 LenC2=    2476 LenP2D=    7901.
 LDataN:  DoStor=T MaxTD1= 5 Len=  102
 Calling FoFJK, ICntrl=      2127 FMM=F ISym2X=0 I1Cent= 0 IOpClX= 0 NMat=1 NMatS=1 NMatT=0.
 ***** Axes restored to original set *****
 -------------------------------------------------------------------
 Center     Atomic                   Forces (Hartrees/Bohr)
 Number     Number              X              Y              Z
 -------------------------------------------------------------------
      1        6           0.000234554   -0.000329796    0.000214152
      2        6          -0.000191510    0.000294637   -0.000156368
      3        6          -0.000055953    0.000090977    0.000099825
      4        6           0.000158321    0.000068328    0.000001579
      5        6          -0.000200674   -0.000049960    0.000002378
      6        6          -0.000127306    0.000052720   -0.000002262
      7        6           0.000133762   -0.000035144   -0.000008084
      8        6           0.000068004   -0.000245908    0.000079817
      9        6          -0.000129133    0.000194877   -0.000358195
     10        1           0.000025311    0.000036741    0.000002800
     11        1           0.000017385   -0.000051372    0.000009993
     12        1          -0.000026193   -0.000002569   -0.000000519
     13        1           0.000017350    0.000000026   -0.000006488
     14        1           0.000008677    0.000000559   -0.000004808
     15        1          -0.000014251    0.000013826    0.000000783
     16        1           0.000040361   -0.000070270    0.000068535
     17        1           0.000041295    0.000032327    0.000056860
 -------------------------------------------------------------------
 Cartesian Forces:  Max     0.000358195 RMS     0.000122705

 GradGradGradGradGradGradGradGradGradGradGradGradGradGradGradGradGradGrad
 Berny optimization.
 Using GEDIIS/GDIIS optimizer.
 FormGI is forming the generalized inverse of G from B-inverse, IUseBI=4.
 Internal  Forces:  Max     0.000284942 RMS     0.000051348
 Search for a local minimum.
 Step number   4 out of a maximum of  102
 All quantities printed in internal units (Hartrees-Bohrs-Radians)
 Mixed Optimization -- En-DIIS/RFO-DIIS
 Swapping is turned off.
 Update second derivatives using D2CorX and points    1    2    3    4
 DE= -1.61D-05 DEPred=-1.56D-05 R= 1.03D+00
 TightC=F SS=  1.41D+00  RLast= 2.50D-02 DXNew= 8.4853D-01 7.4885D-02
 Trust test= 1.03D+00 RLast= 2.50D-02 DXMaxT set to 5.05D-01
 ITU=  1  1  1  0
     Eigenvalues ---    0.00996   0.01418   0.01630   0.01865   0.01945
     Eigenvalues ---    0.02053   0.02083   0.02091   0.02212   0.02215
     Eigenvalues ---    0.02218   0.02256   0.04502   0.05956   0.08669
     Eigenvalues ---    0.09568   0.15860   0.16000   0.16000   0.16002
     Eigenvalues ---    0.16025   0.16045   0.22011   0.22275   0.24006
     Eigenvalues ---    0.24591   0.24840   0.29298   0.31871   0.34246
     Eigenvalues ---    0.34457   0.35102   0.35134   0.35442   0.35552
     Eigenvalues ---    0.35908   0.36697   0.37690   0.39927   0.42679
     Eigenvalues ---    0.44253   0.46367   0.47408   0.49278   0.56397
 En-DIIS/RFO-DIIS/Sim-DIIS IScMMF=       -3 using points:     4    3    2
 RFO step:  Lambda=-1.72112950D-06.
 DidBck=F Rises=F RFO-DIIS coefs:    0.88578    0.22583   -0.11162
 Iteration  1 RMS(Cart)=  0.00044897 RMS(Int)=  0.00000106
 Iteration  2 RMS(Cart)=  0.00000033 RMS(Int)=  0.00000102
 Variable       Old X    -DE/DX   Delta X   Delta X   Delta X     New X
                                 (Linear)    (Quad)   (Total)
    R1        2.55318   0.00028  -0.00030   0.00068   0.00038   2.55356
    R2        2.85622  -0.00006   0.00015  -0.00054  -0.00039   2.85583
    R3        2.06442   0.00003  -0.00026   0.00028   0.00003   2.06445
    R4        2.77283   0.00004  -0.00064   0.00061  -0.00004   2.77279
    R5        2.06525  -0.00005   0.00039  -0.00050  -0.00010   2.06515
    R6        2.64212   0.00002  -0.00020   0.00018  -0.00003   2.64209
    R7        2.67337   0.00015   0.00054  -0.00015   0.00038   2.67376
    R8        2.64560   0.00015  -0.00038   0.00061   0.00023   2.64584
    R9        2.06789   0.00000   0.00012  -0.00013  -0.00000   2.06789
   R10        2.64765   0.00001   0.00001  -0.00003  -0.00002   2.64762
   R11        2.06810  -0.00002   0.00002  -0.00005  -0.00004   2.06806
   R12        2.65179   0.00017  -0.00039   0.00066   0.00027   2.65206
   R13        2.06774  -0.00001   0.00002  -0.00005  -0.00003   2.06771
   R14        2.62789   0.00001  -0.00020   0.00015  -0.00006   2.62783
   R15        2.06879  -0.00002   0.00015  -0.00018  -0.00003   2.06876
   R16        2.85685  -0.00001  -0.00058   0.00033  -0.00025   2.85660
   R17        2.09378  -0.00001   0.00031  -0.00026   0.00005   2.09384
   R18        2.09339   0.00004   0.00024  -0.00007   0.00017   2.09356
    A1        1.93087  -0.00004   0.00084  -0.00101  -0.00017   1.93071
    A2        2.19922  -0.00001  -0.00033   0.00029  -0.00004   2.19918
    A3        2.15309   0.00005  -0.00051   0.00072   0.00021   2.15330
    A4        1.91484  -0.00003  -0.00059   0.00059  -0.00000   1.91484
    A5        2.20094  -0.00001   0.00037  -0.00055  -0.00018   2.20076
    A6        2.16740   0.00004   0.00023  -0.00004   0.00018   2.16759
    A7        2.29388  -0.00001  -0.00019   0.00020   0.00001   2.29389
    A8        1.88665  -0.00000   0.00021  -0.00022  -0.00001   1.88664
    A9        2.10266   0.00002  -0.00002   0.00002  -0.00000   2.10266
   A10        2.07222   0.00003  -0.00024   0.00038   0.00014   2.07236
   A11        2.10714   0.00001   0.00002  -0.00000   0.00002   2.10716
   A12        2.10382  -0.00004   0.00022  -0.00037  -0.00016   2.10367
   A13        2.10728  -0.00004   0.00028  -0.00042  -0.00014   2.10714
   A14        2.08896   0.00002  -0.00034   0.00032  -0.00001   2.08895
   A15        2.08694   0.00003   0.00006   0.00010   0.00016   2.08710
   A16        2.10473   0.00002   0.00008  -0.00005   0.00004   2.10477
   A17        2.08886  -0.00000   0.00022  -0.00015   0.00007   2.08893
   A18        2.08960  -0.00001  -0.00030   0.00019  -0.00011   2.08949
   A19        2.07532   0.00003  -0.00018   0.00030   0.00012   2.07545
   A20        2.09863  -0.00003   0.00001  -0.00016  -0.00015   2.09848
   A21        2.10923  -0.00000   0.00017  -0.00014   0.00003   2.10926
   A22        2.10416  -0.00005   0.00007  -0.00022  -0.00015   2.10401
   A23        1.89728  -0.00001   0.00018  -0.00038  -0.00020   1.89708
   A24        2.28174   0.00006  -0.00025   0.00060   0.00035   2.28209
   A25        1.79513   0.00009  -0.00064   0.00102   0.00038   1.79551
   A26        1.95163   0.00002   0.00105  -0.00013   0.00092   1.95255
   A27        1.95473  -0.00009   0.00084  -0.00164  -0.00080   1.95393
   A28        1.95554   0.00004   0.00006   0.00086   0.00092   1.95646
   A29        1.95786  -0.00004  -0.00003  -0.00031  -0.00034   1.95752
   A30        1.85194  -0.00001  -0.00117   0.00017  -0.00100   1.85094
    D1       -0.00096   0.00007   0.00070   0.00147   0.00218   0.00122
    D2       -3.14114   0.00002   0.00070  -0.00012   0.00058  -3.14057
    D3        3.14100   0.00004  -0.00012   0.00098   0.00086  -3.14132
    D4        0.00081  -0.00001  -0.00012  -0.00061  -0.00074   0.00008
    D5        0.00046  -0.00007  -0.00066  -0.00117  -0.00182  -0.00136
    D6        2.10184   0.00003  -0.00045   0.00040  -0.00005   2.10180
    D7       -2.10523  -0.00003  -0.00065  -0.00058  -0.00124  -2.10647
    D8       -3.14148  -0.00004   0.00014  -0.00069  -0.00055   3.14115
    D9       -1.04010   0.00006   0.00034   0.00088   0.00122  -1.03888
   D10        1.03601  -0.00000   0.00014  -0.00011   0.00003   1.03604
   D11       -3.14120  -0.00004  -0.00031  -0.00066  -0.00097   3.14101
   D12        0.00109  -0.00004  -0.00045  -0.00119  -0.00164  -0.00055
   D13       -0.00098   0.00002  -0.00030   0.00090   0.00059  -0.00039
   D14        3.14131   0.00001  -0.00045   0.00037  -0.00008   3.14123
   D15       -3.14069  -0.00000  -0.00027  -0.00051  -0.00077  -3.14146
   D16        0.00071  -0.00000  -0.00027  -0.00032  -0.00058   0.00013
   D17        0.00013   0.00000  -0.00011   0.00007  -0.00003   0.00010
   D18        3.14152   0.00001  -0.00010   0.00026   0.00016  -3.14150
   D19        3.14075  -0.00000   0.00031   0.00035   0.00066   3.14141
   D20       -0.00077  -0.00000   0.00002   0.00041   0.00043  -0.00034
   D21       -0.00023  -0.00001   0.00018  -0.00011   0.00007  -0.00016
   D22        3.14143  -0.00001  -0.00011  -0.00005  -0.00016   3.14128
   D23        0.00006   0.00000  -0.00003  -0.00001  -0.00004   0.00002
   D24        3.14137   0.00000   0.00004   0.00016   0.00020   3.14157
   D25       -3.14134  -0.00000  -0.00004  -0.00019  -0.00023  -3.14157
   D26       -0.00003   0.00000   0.00004  -0.00003   0.00001  -0.00002
   D27       -0.00014  -0.00000   0.00010  -0.00003   0.00007  -0.00007
   D28        3.14132   0.00000   0.00022  -0.00000   0.00022   3.14154
   D29       -3.14145  -0.00000   0.00002  -0.00019  -0.00017   3.14157
   D30        0.00001  -0.00000   0.00015  -0.00016  -0.00002  -0.00001
   D31        0.00003  -0.00000  -0.00003  -0.00000  -0.00003   0.00001
   D32        3.14158   0.00000   0.00016  -0.00010   0.00005  -3.14155
   D33       -3.14143  -0.00001  -0.00015  -0.00003  -0.00018   3.14158
   D34        0.00012  -0.00000   0.00004  -0.00013  -0.00010   0.00003
   D35        0.00015   0.00001  -0.00011   0.00007  -0.00004   0.00011
   D36       -3.14154   0.00001   0.00025  -0.00000   0.00025  -3.14129
   D37       -3.14140   0.00000  -0.00030   0.00017  -0.00013  -3.14153
   D38        0.00010   0.00000   0.00006   0.00010   0.00016   0.00026
   D39        0.00022   0.00004   0.00036   0.00041   0.00077   0.00099
   D40       -2.09847  -0.00005  -0.00053  -0.00048  -0.00101  -2.09948
   D41        2.10377  -0.00003   0.00095  -0.00108  -0.00013   2.10364
   D42       -3.14129   0.00004   0.00003   0.00048   0.00051  -3.14078
   D43        1.04321  -0.00005  -0.00086  -0.00042  -0.00128   1.04193
   D44       -1.03774  -0.00004   0.00062  -0.00101  -0.00039  -1.03813
         Item               Value     Threshold  Converged?
 Maximum Force            0.000285     0.000450     YES
 RMS     Force            0.000051     0.000300     YES
 Maximum Displacement     0.002076     0.001800     NO 
 RMS     Displacement     0.000449     0.001200     YES
 Predicted change in Energy=-8.209557D-07
 GradGradGradGradGradGradGradGradGradGradGradGradGradGradGradGradGradGrad

                          Input orientation:                          
 ---------------------------------------------------------------------
 Center     Atomic      Atomic             Coordinates (Angstroms)
 Number     Number       Type             X           Y           Z
 ---------------------------------------------------------------------
      1          6           0        2.313042    0.584929   -0.005067
      2          6           0        1.357785    1.540541   -0.021467
      3          6           0        0.031275    0.913909   -0.047276
      4          6           0       -1.252752    1.466669   -0.069852
      5          6           0       -2.356225    0.605165   -0.091869
      6          6           0       -2.179528   -0.784710   -0.091314
      7          6           0       -0.891251   -1.340940   -0.068728
      8          6           0        0.208267   -0.489868   -0.046879
      9          6           0        1.689284   -0.791491   -0.020607
     10          1           0        3.391882    0.755639    0.015636
     11          1           0        1.527023    2.620176   -0.016451
     12          1           0       -1.394522    2.551726   -0.070336
     13          1           0       -3.368317    1.021095   -0.109679
     14          1           0       -3.053999   -1.442161   -0.108666
     15          1           0       -0.760014   -2.427788   -0.068465
     16          1           0        2.010435   -1.380294   -0.902570
     17          1           0        1.978655   -1.387369    0.867402
 ---------------------------------------------------------------------
                    Distance matrix (angstroms):
                    1          2          3          4          5
     1  C    0.000000
     2  C    1.351288   0.000000
     3  C    2.305747   1.467298   0.000000
     4  C    3.673765   2.612030   1.398134   0.000000
     5  C    4.670117   3.830633   2.407792   1.400116   0.000000
     6  C    4.697503   4.233704   2.788349   2.434765   1.401062
     7  C    3.739053   3.655589   2.436362   2.830787   2.435982
     8  C    2.363687   2.333366   1.414891   2.441955   2.788860
     9  C    1.511240   2.355475   2.378675   3.709082   4.280405
    10  H    1.092459   2.180597   3.364921   4.699522   5.751081
    11  H    2.181784   1.092831   2.269264   3.010080   4.375565
    12  H    4.197449   2.932589   2.171606   1.094279   2.171275
    13  H    5.699037   4.755381   3.401854   2.162346   1.094370
    14  H    5.738027   5.326157   3.882493   3.421592   2.163034
    15  H    4.303970   4.498323   3.434170   3.925505   3.427425
    16  H    2.181556   3.119867   3.148329   4.409877   4.864874
    17  H    2.182424   3.122214   3.150366   4.412026   4.866372
                    6          7          8          9         10
     6  C    0.000000
     7  C    1.403410   0.000000
     8  C    2.406340   1.390590   0.000000
     9  C    3.869464   2.638820   1.511647   0.000000
    10  H    5.781412   4.769485   3.419152   2.300818   0.000000
    11  H    5.033624   4.641252   3.378227   3.415525   2.637277
    12  H    3.427605   3.925065   3.438136   4.548564   5.113022
    13  H    2.162056   3.422973   3.883157   5.373335   6.766570
    14  H    1.094186   2.165484   3.398979   4.788513   6.811399
    15  H    2.171462   1.094742   2.166464   2.945984   5.232544
    16  H    4.309135   3.019375   2.184691   1.108010   2.704387
    17  H    4.309619   3.019082   2.185336   1.107865   2.704662
                   11         12         13         14         15
    11  H    0.000000
    12  H    2.922844   0.000000
    13  H    5.150739   2.498049   0.000000
    14  H    6.123467   4.325097   2.483229   0.000000
    15  H    5.542128   5.019777   4.324319   2.497087   0.000000
    16  H    4.125852   5.267555   5.943595   5.126656   3.077070
    17  H    4.128629   5.270118   5.945208   5.126726   3.075488
                   16         17
    16  H    0.000000
    17  H    1.770272   0.000000
 Stoichiometry    C9H8
 Framework group  C1[X(C9H8)]
 Deg. of freedom    45
 Full point group                 C1      NOp   1
 Largest Abelian subgroup         C1      NOp   1
 Largest concise Abelian subgroup C1      NOp   1
                         Standard orientation:                         
 ---------------------------------------------------------------------
 Center     Atomic      Atomic             Coordinates (Angstroms)
 Number     Number       Type             X           Y           Z
 ---------------------------------------------------------------------
      1          6           0       -2.443966    0.142160   -0.000747
      2          6           0       -1.601609    1.198765    0.000039
      3          6           0       -0.213013    0.724673    0.000083
      4          6           0        1.001222    1.417791    0.000142
      5          6           0        2.194457    0.685320    0.000015
      6          6           0        2.174560   -0.715601   -0.000188
      7          6           0        0.956491   -1.412643   -0.000185
      8          6           0       -0.231645   -0.690095    0.000015
      9          6           0       -1.669792   -1.155723    0.000416
     10          1           0       -3.535335    0.190943   -0.001203
     11          1           0       -1.890767    2.252646    0.000400
     12          1           0        1.020557    2.511899    0.000280
     13          1           0        3.153753    1.212006    0.000036
     14          1           0        3.117334   -1.270956   -0.000331
     15          1           0        0.947825   -2.507351   -0.000300
     16          1           0       -1.906560   -1.776806    0.886917
     17          1           0       -1.907027   -1.780256   -0.883351
 ---------------------------------------------------------------------
 Rotational constants (GHZ):           3.7641852           1.5717693           1.1165227
 Standard basis: def2SVPP (5D, 7F)
 There are   151 symmetry adapted cartesian basis functions of A   symmetry.
 There are   142 symmetry adapted basis functions of A   symmetry.
   142 basis functions,   257 primitive gaussians,   151 cartesian basis functions
    31 alpha electrons       31 beta electrons
       nuclear repulsion energy       393.3310802664 Hartrees.
 NAtoms=   17 NActive=   17 NUniq=   17 SFac= 1.00D+00 NAtFMM=   60 NAOKFM=F Big=F
 Integral buffers will be    131072 words long.
 Raffenetti 2 integral format.
 Two-electron integral symmetry is turned on.
 Nuclear repulsion after empirical dispersion term =      393.2992462589 Hartrees.
 One-electron integrals computed using PRISM.
   1 Symmetry operations used in ECPInt.
 ECPInt:  NShTT=    2485 NPrTT=   10011 LenC2=    2476 LenP2D=    7901.
 LDataN:  DoStor=T MaxTD1= 4 Len=   56
 NBasis=   142 RedAO= T EigKep=  2.86D-04  NBF=   142
 NBsUse=   142 1.00D-06 EigRej= -1.00D+00 NBFU=   142
 Initial guess from the checkpoint file:  "/tmp/scratch/Gau-2125813.chk"
 B after Tr=     0.000000    0.000000   -0.000000
         Rot=    1.000000   -0.000011    0.000003    0.000014 Ang=  -0.00 deg.
 Keep R1 ints in memory in canonical form, NReq=55455963.
 Requested convergence on RMS density matrix=1.00D-08 within 128 cycles.
 Requested convergence on MAX density matrix=1.00D-06.
 Requested convergence on             energy=1.00D-06.
 No special actions if energy rises.
 SCF Done:  E(RB3LYP) =  -347.529037130     A.U. after    8 cycles
            NFock=  8  Conv=0.43D-08     -V/T= 2.0111
   1 Symmetry operations used in ECPInt.
 ECPInt:  NShTT=    2485 NPrTT=   10011 LenC2=    2476 LenP2D=    7901.
 LDataN:  DoStor=T MaxTD1= 5 Len=  102
 Calling FoFJK, ICntrl=      2127 FMM=F ISym2X=0 I1Cent= 0 IOpClX= 0 NMat=1 NMatS=1 NMatT=0.
 ***** Axes restored to original set *****
 -------------------------------------------------------------------
 Center     Atomic                   Forces (Hartrees/Bohr)
 Number     Number              X              Y              Z
 -------------------------------------------------------------------
      1        6           0.000077249   -0.000107386   -0.000048624
      2        6          -0.000045028    0.000130671    0.000050094
      3        6          -0.000051899   -0.000012995   -0.000027406
      4        6           0.000092405    0.000039524   -0.000003714
      5        6          -0.000079373   -0.000038040    0.000001621
      6        6          -0.000036181    0.000038318   -0.000000599
      7        6           0.000057071   -0.000015203   -0.000007892
      8        6           0.000002024   -0.000054812    0.000009979
      9        6          -0.000015443   -0.000048108   -0.000053916
     10        1           0.000012313    0.000026337   -0.000009623
     11        1           0.000006804   -0.000013500    0.000016366
     12        1          -0.000018294    0.000001250    0.000000439
     13        1           0.000007065   -0.000001814    0.000000474
     14        1          -0.000000742   -0.000003135    0.000001635
     15        1          -0.000009309    0.000002476   -0.000000569
     16        1           0.000001616    0.000025404    0.000020575
     17        1          -0.000000278    0.000031013    0.000051157
 -------------------------------------------------------------------
 Cartesian Forces:  Max     0.000130671 RMS     0.000040688

 GradGradGradGradGradGradGradGradGradGradGradGradGradGradGradGradGradGrad
 Berny optimization.
 Using GEDIIS/GDIIS optimizer.
 FormGI is forming the generalized inverse of G from B-inverse, IUseBI=4.
 Internal  Forces:  Max     0.000098496 RMS     0.000018935
 Search for a local minimum.
 Step number   5 out of a maximum of  102
 All quantities printed in internal units (Hartrees-Bohrs-Radians)
 Mixed Optimization -- En-DIIS/RFO-DIIS
 Swapping is turned off.
 Update second derivatives using D2CorX and points    1    2    3    4    5
 DE= -6.42D-07 DEPred=-8.21D-07 R= 7.81D-01
 Trust test= 7.81D-01 RLast= 5.23D-03 DXMaxT set to 5.05D-01
 ITU=  0  1  1  1  0
     Eigenvalues ---    0.00964   0.01415   0.01671   0.01879   0.02053
     Eigenvalues ---    0.02081   0.02090   0.02192   0.02211   0.02215
     Eigenvalues ---    0.02236   0.02422   0.05359   0.05937   0.08606
     Eigenvalues ---    0.09568   0.15724   0.15949   0.16000   0.16002
     Eigenvalues ---    0.16003   0.16035   0.21952   0.22246   0.23924
     Eigenvalues ---    0.24354   0.24995   0.29232   0.31898   0.34160
     Eigenvalues ---    0.34451   0.35104   0.35121   0.35437   0.35542
     Eigenvalues ---    0.35906   0.36613   0.37824   0.39771   0.42683
     Eigenvalues ---    0.43821   0.45634   0.47401   0.49290   0.54225
 En-DIIS/RFO-DIIS/Sim-DIIS IScMMF=       -3 using points:     5    4    3    2
 RFO step:  Lambda=-3.18228673D-07.
 DidBck=F Rises=F RFO-DIIS coefs:    0.89268    0.26002   -0.19524    0.04254
 Iteration  1 RMS(Cart)=  0.00039116 RMS(Int)=  0.00000034
 Iteration  2 RMS(Cart)=  0.00000016 RMS(Int)=  0.00000030
 Variable       Old X    -DE/DX   Delta X   Delta X   Delta X     New X
                                 (Linear)    (Quad)   (Total)
    R1        2.55356   0.00010  -0.00000   0.00022   0.00022   2.55379
    R2        2.85583   0.00001  -0.00046   0.00044  -0.00002   2.85581
    R3        2.06445   0.00002   0.00000   0.00003   0.00003   2.06448
    R4        2.77279   0.00004  -0.00005   0.00012   0.00007   2.77286
    R5        2.06515  -0.00001  -0.00024   0.00019  -0.00005   2.06510
    R6        2.64209  -0.00001  -0.00006   0.00003  -0.00003   2.64206
    R7        2.67376   0.00004  -0.00012   0.00026   0.00013   2.67389
    R8        2.64584   0.00006   0.00010   0.00006   0.00016   2.64599
    R9        2.06789   0.00000  -0.00011   0.00011   0.00000   2.06789
   R10        2.64762  -0.00001  -0.00007   0.00005  -0.00002   2.64761
   R11        2.06806  -0.00001  -0.00003   0.00000  -0.00003   2.06803
   R12        2.65206   0.00005   0.00012   0.00002   0.00014   2.65220
   R13        2.06771   0.00000  -0.00006   0.00005  -0.00000   2.06771
   R14        2.62783  -0.00000  -0.00004   0.00002  -0.00002   2.62781
   R15        2.06876  -0.00000  -0.00010   0.00008  -0.00002   2.06874
   R16        2.85660   0.00001  -0.00011   0.00009  -0.00003   2.85657
   R17        2.09384  -0.00003  -0.00009   0.00002  -0.00007   2.09376
   R18        2.09356   0.00002  -0.00004   0.00012   0.00008   2.09364
    A1        1.93071  -0.00001  -0.00040   0.00040   0.00000   1.93071
    A2        2.19918  -0.00002   0.00023  -0.00039  -0.00016   2.19901
    A3        2.15330   0.00003   0.00017  -0.00001   0.00016   2.15346
    A4        1.91484  -0.00002   0.00027  -0.00036  -0.00008   1.91475
    A5        2.20076   0.00000  -0.00024   0.00020  -0.00004   2.20072
    A6        2.16759   0.00002  -0.00004   0.00015   0.00012   2.16771
    A7        2.29389  -0.00002   0.00016  -0.00025  -0.00009   2.29380
    A8        1.88664   0.00001  -0.00010   0.00014   0.00004   1.88668
    A9        2.10266   0.00001  -0.00005   0.00011   0.00005   2.10271
   A10        2.07236   0.00000   0.00016  -0.00014   0.00002   2.07238
   A11        2.10716   0.00002  -0.00013   0.00024   0.00011   2.10727
   A12        2.10367  -0.00002  -0.00003  -0.00010  -0.00013   2.10354
   A13        2.10714  -0.00002  -0.00011   0.00003  -0.00008   2.10706
   A14        2.08895   0.00001   0.00007  -0.00005   0.00002   2.08896
   A15        2.08710   0.00001   0.00004   0.00002   0.00006   2.08716
   A16        2.10477   0.00001  -0.00009   0.00014   0.00005   2.10482
   A17        2.08893  -0.00000   0.00003  -0.00003  -0.00000   2.08893
   A18        2.08949  -0.00001   0.00005  -0.00011  -0.00005   2.08943
   A19        2.07545   0.00000   0.00013  -0.00011   0.00002   2.07546
   A20        2.09848  -0.00001  -0.00006  -0.00002  -0.00008   2.09840
   A21        2.10926   0.00001  -0.00007   0.00013   0.00006   2.10932
   A22        2.10401  -0.00001  -0.00005  -0.00002  -0.00007   2.10394
   A23        1.89708  -0.00000  -0.00020   0.00017  -0.00003   1.89705
   A24        2.28209   0.00001   0.00025  -0.00015   0.00010   2.28219
   A25        1.79551   0.00002   0.00043  -0.00036   0.00007   1.79558
   A26        1.95255  -0.00002  -0.00015   0.00027   0.00012   1.95267
   A27        1.95393  -0.00003  -0.00001  -0.00042  -0.00044   1.95349
   A28        1.95646  -0.00000   0.00018   0.00010   0.00028   1.95674
   A29        1.95752  -0.00000   0.00013  -0.00030  -0.00017   1.95735
   A30        1.85094   0.00002  -0.00054   0.00066   0.00012   1.85106
    D1        0.00122  -0.00002  -0.00092  -0.00000  -0.00092   0.00030
    D2       -3.14057  -0.00002  -0.00049  -0.00019  -0.00068  -3.14124
    D3       -3.14132  -0.00001  -0.00019  -0.00001  -0.00020  -3.14152
    D4        0.00008   0.00000   0.00024  -0.00019   0.00004   0.00012
    D5       -0.00136   0.00002   0.00090   0.00003   0.00093  -0.00043
    D6        2.10180   0.00002   0.00130   0.00007   0.00137   2.10317
    D7       -2.10647   0.00002   0.00050   0.00081   0.00131  -2.10516
    D8        3.14115   0.00000   0.00020   0.00003   0.00023   3.14138
    D9       -1.03888   0.00000   0.00060   0.00008   0.00067  -1.03821
   D10        1.03604   0.00001  -0.00021   0.00082   0.00061   1.03665
   D11        3.14101   0.00001   0.00046   0.00000   0.00046   3.14147
   D12       -0.00055   0.00002   0.00054  -0.00002   0.00052  -0.00003
   D13       -0.00039   0.00000   0.00004   0.00018   0.00022  -0.00017
   D14        3.14123   0.00001   0.00012   0.00016   0.00028   3.14151
   D15       -3.14146   0.00001   0.00005   0.00001   0.00006  -3.14140
   D16        0.00013   0.00001  -0.00001   0.00003   0.00002   0.00015
   D17        0.00010   0.00000  -0.00004   0.00004  -0.00001   0.00009
   D18       -3.14150  -0.00000  -0.00010   0.00006  -0.00004  -3.14155
   D19        3.14141  -0.00001  -0.00005   0.00003  -0.00002   3.14139
   D20       -0.00034  -0.00001   0.00005   0.00004   0.00009  -0.00025
   D21       -0.00016   0.00000   0.00003   0.00001   0.00003  -0.00013
   D22        3.14128   0.00000   0.00013   0.00002   0.00015   3.14142
   D23        0.00002   0.00000   0.00004  -0.00007  -0.00003  -0.00001
   D24        3.14157  -0.00000  -0.00006   0.00006   0.00000   3.14157
   D25       -3.14157   0.00000   0.00010  -0.00009   0.00001  -3.14156
   D26       -0.00002   0.00000   0.00000   0.00004   0.00004   0.00002
   D27       -0.00007  -0.00000  -0.00002   0.00005   0.00003  -0.00004
   D28        3.14154  -0.00000  -0.00007   0.00007   0.00000   3.14154
   D29        3.14157   0.00000   0.00008  -0.00008   0.00000   3.14157
   D30       -0.00001   0.00000   0.00003  -0.00006  -0.00003  -0.00004
   D31        0.00001   0.00000   0.00001  -0.00001  -0.00001   0.00000
   D32       -3.14155  -0.00000  -0.00011   0.00005  -0.00006   3.14158
   D33        3.14158   0.00000   0.00005  -0.00003   0.00003  -3.14158
   D34        0.00003   0.00000  -0.00006   0.00003  -0.00002   0.00000
   D35        0.00011  -0.00000  -0.00001  -0.00002  -0.00003   0.00008
   D36       -3.14129  -0.00000  -0.00014  -0.00003  -0.00017  -3.14146
   D37       -3.14153   0.00000   0.00010  -0.00008   0.00002  -3.14150
   D38        0.00026  -0.00000  -0.00002  -0.00009  -0.00012   0.00015
   D39        0.00099  -0.00001  -0.00055  -0.00004  -0.00059   0.00040
   D40       -2.09948   0.00000  -0.00072  -0.00020  -0.00092  -2.10040
   D41        2.10364  -0.00003  -0.00024  -0.00092  -0.00115   2.10248
   D42       -3.14078  -0.00000  -0.00043  -0.00003  -0.00046  -3.14124
   D43        1.04193   0.00000  -0.00060  -0.00019  -0.00079   1.04114
   D44       -1.03813  -0.00002  -0.00013  -0.00090  -0.00103  -1.03916
         Item               Value     Threshold  Converged?
 Maximum Force            0.000098     0.000450     YES
 RMS     Force            0.000019     0.000300     YES
 Maximum Displacement     0.001654     0.001800     YES
 RMS     Displacement     0.000391     0.001200     YES
 Predicted change in Energy=-1.560751D-07
 Optimization completed.
    -- Stationary point found.
                           ----------------------------
                           !   Optimized Parameters   !
                           ! (Angstroms and Degrees)  !
 --------------------------                            --------------------------
 ! Name  Definition              Value          Derivative Info.                !
 --------------------------------------------------------------------------------
 ! R1    R(1,2)                  1.3513         -DE/DX =    0.0001              !
 ! R2    R(1,9)                  1.5112         -DE/DX =    0.0                 !
 ! R3    R(1,10)                 1.0925         -DE/DX =    0.0                 !
 ! R4    R(2,3)                  1.4673         -DE/DX =    0.0                 !
 ! R5    R(2,11)                 1.0928         -DE/DX =    0.0                 !
 ! R6    R(3,4)                  1.3981         -DE/DX =    0.0                 !
 ! R7    R(3,8)                  1.4149         -DE/DX =    0.0                 !
 ! R8    R(4,5)                  1.4001         -DE/DX =    0.0001              !
 ! R9    R(4,12)                 1.0943         -DE/DX =    0.0                 !
 ! R10   R(5,6)                  1.4011         -DE/DX =    0.0                 !
 ! R11   R(5,13)                 1.0944         -DE/DX =    0.0                 !
 ! R12   R(6,7)                  1.4034         -DE/DX =    0.0001              !
 ! R13   R(6,14)                 1.0942         -DE/DX =    0.0                 !
 ! R14   R(7,8)                  1.3906         -DE/DX =    0.0                 !
 ! R15   R(7,15)                 1.0947         -DE/DX =    0.0                 !
 ! R16   R(8,9)                  1.5116         -DE/DX =    0.0                 !
 ! R17   R(9,16)                 1.108          -DE/DX =    0.0                 !
 ! R18   R(9,17)                 1.1079         -DE/DX =    0.0                 !
 ! A1    A(2,1,9)              110.6214         -DE/DX =    0.0                 !
 ! A2    A(2,1,10)             126.0035         -DE/DX =    0.0                 !
 ! A3    A(9,1,10)             123.375          -DE/DX =    0.0                 !
 ! A4    A(1,2,3)              109.712          -DE/DX =    0.0                 !
 ! A5    A(1,2,11)             126.0942         -DE/DX =    0.0                 !
 ! A6    A(3,2,11)             124.1937         -DE/DX =    0.0                 !
 ! A7    A(2,3,4)              131.4303         -DE/DX =    0.0                 !
 ! A8    A(2,3,8)              108.0963         -DE/DX =    0.0                 !
 ! A9    A(4,3,8)              120.4734         -DE/DX =    0.0                 !
 ! A10   A(3,4,5)              118.7373         -DE/DX =    0.0                 !
 ! A11   A(3,4,12)             120.7313         -DE/DX =    0.0                 !
 ! A12   A(5,4,12)             120.5314         -DE/DX =    0.0                 !
 ! A13   A(4,5,6)              120.7301         -DE/DX =    0.0                 !
 ! A14   A(4,5,13)             119.6879         -DE/DX =    0.0                 !
 ! A15   A(6,5,13)             119.582          -DE/DX =    0.0                 !
 ! A16   A(5,6,7)              120.5942         -DE/DX =    0.0                 !
 ! A17   A(5,6,14)             119.6871         -DE/DX =    0.0                 !
 ! A18   A(7,6,14)             119.7187         -DE/DX =    0.0                 !
 ! A19   A(6,7,8)              118.9143         -DE/DX =    0.0                 !
 ! A20   A(6,7,15)             120.234          -DE/DX =    0.0                 !
 ! A21   A(8,7,15)             120.8517         -DE/DX =    0.0                 !
 ! A22   A(3,8,7)              120.5508         -DE/DX =    0.0                 !
 ! A23   A(3,8,9)              108.6949         -DE/DX =    0.0                 !
 ! A24   A(7,8,9)              130.7544         -DE/DX =    0.0                 !
 ! A25   A(1,9,8)              102.8752         -DE/DX =    0.0                 !
 ! A26   A(1,9,16)             111.873          -DE/DX =    0.0                 !
 ! A27   A(1,9,17)             111.9519         -DE/DX =    0.0                 !
 ! A28   A(8,9,16)             112.0967         -DE/DX =    0.0                 !
 ! A29   A(8,9,17)             112.1576         -DE/DX =    0.0                 !
 ! A30   A(16,9,17)            106.0511         -DE/DX =    0.0                 !
 ! D1    D(9,1,2,3)              0.0698         -DE/DX =    0.0                 !
 ! D2    D(9,1,2,11)          -179.9412         -DE/DX =    0.0                 !
 ! D3    D(10,1,2,3)          -179.9845         -DE/DX =    0.0                 !
 ! D4    D(10,1,2,11)            0.0044         -DE/DX =    0.0                 !
 ! D5    D(2,1,9,8)             -0.0779         -DE/DX =    0.0                 !
 ! D6    D(2,1,9,16)           120.424          -DE/DX =    0.0                 !
 ! D7    D(2,1,9,17)          -120.692          -DE/DX =    0.0                 !
 ! D8    D(10,1,9,8)           179.9747         -DE/DX =    0.0                 !
 ! D9    D(10,1,9,16)          -59.5234         -DE/DX =    0.0                 !
 ! D10   D(10,1,9,17)           59.3606         -DE/DX =    0.0                 !
 ! D11   D(1,2,3,4)            179.9669         -DE/DX =    0.0                 !
 ! D12   D(1,2,3,8)             -0.0313         -DE/DX =    0.0                 !
 ! D13   D(11,2,3,4)            -0.0223         -DE/DX =    0.0                 !
 ! D14   D(11,2,3,8)           179.9794         -DE/DX =    0.0                 !
 ! D15   D(2,3,4,5)           -179.9926         -DE/DX =    0.0                 !
 ! D16   D(2,3,4,12)             0.0072         -DE/DX =    0.0                 !
 ! D17   D(8,3,4,5)              0.0055         -DE/DX =    0.0                 !
 ! D18   D(8,3,4,12)          -179.9948         -DE/DX =    0.0                 !
 ! D19   D(2,3,8,7)            179.9894         -DE/DX =    0.0                 !
 ! D20   D(2,3,8,9)             -0.0197         -DE/DX =    0.0                 !
 ! D21   D(4,3,8,7)             -0.0091         -DE/DX =    0.0                 !
 ! D22   D(4,3,8,9)            179.9818         -DE/DX =    0.0                 !
 ! D23   D(3,4,5,6)              0.001          -DE/DX =    0.0                 !
 ! D24   D(3,4,5,13)           179.9986         -DE/DX =    0.0                 !
 ! D25   D(12,4,5,6)          -179.9988         -DE/DX =    0.0                 !
 ! D26   D(12,4,5,13)           -0.0011         -DE/DX =    0.0                 !
 ! D27   D(4,5,6,7)             -0.0039         -DE/DX =    0.0                 !
 ! D28   D(4,5,6,14)           179.9972         -DE/DX =    0.0                 !
 ! D29   D(13,5,6,7)           179.9984         -DE/DX =    0.0                 !
 ! D30   D(13,5,6,14)           -0.0005         -DE/DX =    0.0                 !
 ! D31   D(5,6,7,8)              0.0003         -DE/DX =    0.0                 !
 ! D32   D(5,6,7,15)           180.0027         -DE/DX =    0.0                 !
 ! D33   D(14,6,7,8)          -180.0008         -DE/DX =    0.0                 !
 ! D34   D(14,6,7,15)            0.0015         -DE/DX =    0.0                 !
 ! D35   D(6,7,8,3)              0.0061         -DE/DX =    0.0                 !
 ! D36   D(6,7,8,9)           -179.9826         -DE/DX =    0.0                 !
 ! D37   D(15,7,8,3)          -179.9962         -DE/DX =    0.0                 !
 ! D38   D(15,7,8,9)             0.0151         -DE/DX =    0.0                 !
 ! D39   D(3,8,9,1)              0.0568         -DE/DX =    0.0                 !
 ! D40   D(3,8,9,16)          -120.2914         -DE/DX =    0.0                 !
 ! D41   D(3,8,9,17)           120.5296         -DE/DX =    0.0                 !
 ! D42   D(7,8,9,1)           -179.9535         -DE/DX =    0.0                 !
 ! D43   D(7,8,9,16)            59.6983         -DE/DX =    0.0                 !
 ! D44   D(7,8,9,17)           -59.4807         -DE/DX =    0.0                 !
 --------------------------------------------------------------------------------
 GradGradGradGradGradGradGradGradGradGradGradGradGradGradGradGradGradGrad

                          Input orientation:                          
 ---------------------------------------------------------------------
 Center     Atomic      Atomic             Coordinates (Angstroms)
 Number     Number       Type             X           Y           Z
 ---------------------------------------------------------------------
      1          6           0        2.313042    0.584929   -0.005067
      2          6           0        1.357785    1.540541   -0.021467
      3          6           0        0.031275    0.913909   -0.047276
      4          6           0       -1.252752    1.466669   -0.069852
      5          6           0       -2.356225    0.605165   -0.091869
      6          6           0       -2.179528   -0.784710   -0.091314
      7          6           0       -0.891251   -1.340940   -0.068728
      8          6           0        0.208267   -0.489868   -0.046879
      9          6           0        1.689284   -0.791491   -0.020607
     10          1           0        3.391882    0.755639    0.015636
     11          1           0        1.527023    2.620176   -0.016451
     12          1           0       -1.394522    2.551726   -0.070336
     13          1           0       -3.368317    1.021095   -0.109679
     14          1           0       -3.053999   -1.442161   -0.108666
     15          1           0       -0.760014   -2.427788   -0.068465
     16          1           0        2.010435   -1.380294   -0.902570
     17          1           0        1.978655   -1.387369    0.867402
 ---------------------------------------------------------------------
                    Distance matrix (angstroms):
                    1          2          3          4          5
     1  C    0.000000
     2  C    1.351288   0.000000
     3  C    2.305747   1.467298   0.000000
     4  C    3.673765   2.612030   1.398134   0.000000
     5  C    4.670117   3.830633   2.407792   1.400116   0.000000
     6  C    4.697503   4.233704   2.788349   2.434765   1.401062
     7  C    3.739053   3.655589   2.436362   2.830787   2.435982
     8  C    2.363687   2.333366   1.414891   2.441955   2.788860
     9  C    1.511240   2.355475   2.378675   3.709082   4.280405
    10  H    1.092459   2.180597   3.364921   4.699522   5.751081
    11  H    2.181784   1.092831   2.269264   3.010080   4.375565
    12  H    4.197449   2.932589   2.171606   1.094279   2.171275
    13  H    5.699037   4.755381   3.401854   2.162346   1.094370
    14  H    5.738027   5.326157   3.882493   3.421592   2.163034
    15  H    4.303970   4.498323   3.434170   3.925505   3.427425
    16  H    2.181556   3.119867   3.148329   4.409877   4.864874
    17  H    2.182424   3.122214   3.150366   4.412026   4.866372
                    6          7          8          9         10
     6  C    0.000000
     7  C    1.403410   0.000000
     8  C    2.406340   1.390590   0.000000
     9  C    3.869464   2.638820   1.511647   0.000000
    10  H    5.781412   4.769485   3.419152   2.300818   0.000000
    11  H    5.033624   4.641252   3.378227   3.415525   2.637277
    12  H    3.427605   3.925065   3.438136   4.548564   5.113022
    13  H    2.162056   3.422973   3.883157   5.373335   6.766570
    14  H    1.094186   2.165484   3.398979   4.788513   6.811399
    15  H    2.171462   1.094742   2.166464   2.945984   5.232544
    16  H    4.309135   3.019375   2.184691   1.108010   2.704387
    17  H    4.309619   3.019082   2.185336   1.107865   2.704662
                   11         12         13         14         15
    11  H    0.000000
    12  H    2.922844   0.000000
    13  H    5.150739   2.498049   0.000000
    14  H    6.123467   4.325097   2.483229   0.000000
    15  H    5.542128   5.019777   4.324319   2.497087   0.000000
    16  H    4.125852   5.267555   5.943595   5.126656   3.077070
    17  H    4.128629   5.270118   5.945208   5.126726   3.075488
                   16         17
    16  H    0.000000
    17  H    1.770272   0.000000
 Stoichiometry    C9H8
 Framework group  C1[X(C9H8)]
 Deg. of freedom    45
 Full point group                 C1      NOp   1
 Largest Abelian subgroup         C1      NOp   1
 Largest concise Abelian subgroup C1      NOp   1
                         Standard orientation:                         
 ---------------------------------------------------------------------
 Center     Atomic      Atomic             Coordinates (Angstroms)
 Number     Number       Type             X           Y           Z
 ---------------------------------------------------------------------
      1          6           0       -2.443966    0.142160   -0.000747
      2          6           0       -1.601609    1.198765    0.000039
      3          6           0       -0.213013    0.724673    0.000083
      4          6           0        1.001222    1.417791    0.000142
      5          6           0        2.194457    0.685320    0.000015
      6          6           0        2.174560   -0.715601   -0.000188
      7          6           0        0.956491   -1.412643   -0.000185
      8          6           0       -0.231645   -0.690095    0.000015
      9          6           0       -1.669792   -1.155723    0.000416
     10          1           0       -3.535335    0.190943   -0.001203
     11          1           0       -1.890767    2.252646    0.000400
     12          1           0        1.020557    2.511899    0.000280
     13          1           0        3.153753    1.212006    0.000036
     14          1           0        3.117334   -1.270956   -0.000331
     15          1           0        0.947825   -2.507351   -0.000300
     16          1           0       -1.906560   -1.776806    0.886917
     17          1           0       -1.907027   -1.780256   -0.883351
 ---------------------------------------------------------------------
 Rotational constants (GHZ):           3.7641852           1.5717693           1.1165227

 **********************************************************************

            Population analysis using the SCF Density.

 **********************************************************************

 Orbital symmetries:
       Occupied  (A) (A) (A) (A) (A) (A) (A) (A) (A) (A) (A) (A)
                 (A) (A) (A) (A) (A) (A) (A) (A) (A) (A) (A) (A)
                 (A) (A) (A) (A) (A) (A) (A)
       Virtual   (A) (A) (A) (A) (A) (A) (A) (A) (A) (A) (A) (A)
                 (A) (A) (A) (A) (A) (A) (A) (A) (A) (A) (A) (A)
                 (A) (A) (A) (A) (A) (A) (A) (A) (A) (A) (A) (A)
                 (A) (A) (A) (A) (A) (A) (A) (A) (A) (A) (A) (A)
                 (A) (A) (A) (A) (A) (A) (A) (A) (A) (A) (A) (A)
                 (A) (A) (A) (A) (A) (A) (A) (A) (A) (A) (A) (A)
                 (A) (A) (A) (A) (A) (A) (A) (A) (A) (A) (A) (A)
                 (A) (A) (A) (A) (A) (A) (A) (A) (A) (A) (A) (A)
                 (A) (A) (A) (A) (A) (A) (A) (A) (A) (A) (A) (A)
                 (A) (A) (A)
 The electronic state is 1-A.
 Alpha  occ. eigenvalues --  -10.19362 -10.18861 -10.18858 -10.18803 -10.18671
 Alpha  occ. eigenvalues --  -10.18595 -10.18468 -10.18430 -10.18389  -0.86926
 Alpha  occ. eigenvalues --   -0.80771  -0.74663  -0.70540  -0.68464  -0.60148
 Alpha  occ. eigenvalues --   -0.57261  -0.55227  -0.50727  -0.46827  -0.44954
 Alpha  occ. eigenvalues --   -0.44332  -0.42165  -0.41880  -0.38642  -0.36639
 Alpha  occ. eigenvalues --   -0.36036  -0.35111  -0.33352  -0.29770  -0.24811
 Alpha  occ. eigenvalues --   -0.22102
 Alpha virt. eigenvalues --   -0.02879  -0.00611   0.04634   0.06819   0.07846
 Alpha virt. eigenvalues --    0.09219   0.11176   0.11931   0.12946   0.14075
 Alpha virt. eigenvalues --    0.15285   0.17748   0.20502   0.21635   0.26160
 Alpha virt. eigenvalues --    0.28635   0.30005   0.31876   0.34283   0.36958
 Alpha virt. eigenvalues --    0.38213   0.39772   0.40430   0.43096   0.45571
 Alpha virt. eigenvalues --    0.46629   0.46831   0.47208   0.48788   0.49834
 Alpha virt. eigenvalues --    0.49869   0.52644   0.53789   0.55084   0.55621
 Alpha virt. eigenvalues --    0.58493   0.62837   0.63604   0.64412   0.65724
 Alpha virt. eigenvalues --    0.65811   0.67213   0.67608   0.68483   0.69098
 Alpha virt. eigenvalues --    0.71285   0.72084   0.73042   0.73844   0.74469
 Alpha virt. eigenvalues --    0.76071   0.76299   0.77492   0.81369   0.86689
 Alpha virt. eigenvalues --    0.87419   0.88901   0.94051   1.02063   1.08581
 Alpha virt. eigenvalues --    1.12785   1.15933   1.25019   1.26608   1.27301
 Alpha virt. eigenvalues --    1.34595   1.34995   1.36826   1.43525   1.46814
 Alpha virt. eigenvalues --    1.48784   1.49202   1.49878   1.66947   1.75324
 Alpha virt. eigenvalues --    1.75584   1.75887   1.79934   1.82139   1.85816
 Alpha virt. eigenvalues --    1.89349   1.92441   1.93927   1.95068   1.97733
 Alpha virt. eigenvalues --    2.01059   2.05122   2.10275   2.15418   2.15696
 Alpha virt. eigenvalues --    2.18098   2.19381   2.24331   2.26222   2.26469
 Alpha virt. eigenvalues --    2.36181   2.37606   2.45899   2.47320   2.49017
 Alpha virt. eigenvalues --    2.56063   2.58437   2.66121   2.66511   2.69221
 Alpha virt. eigenvalues --    2.75180   2.79149   2.86513   2.91378   3.12319
 Alpha virt. eigenvalues --    3.38128
          Condensed to atoms (all electrons):
               1          2          3          4          5          6
     1  C    5.071439   0.481433   0.081328   0.006040  -0.000507  -0.001117
     2  C    0.481433   5.119077   0.245992  -0.114244   0.012206   0.001279
     3  C    0.081328   0.245992   5.210699   0.260417   0.127908  -0.159579
     4  C    0.006040  -0.114244   0.260417   5.366182   0.248449   0.115362
     5  C   -0.000507   0.012206   0.127908   0.248449   5.168517   0.243029
     6  C   -0.001117   0.001279  -0.159579   0.115362   0.243029   5.186184
     7  C    0.009366   0.018610   0.078884  -0.145426   0.119890   0.237336
     8  C   -0.087015  -0.044534   0.293748   0.027364  -0.158178   0.136212
     9  C    0.246491  -0.001104  -0.173827   0.029273  -0.000389   0.013222
    10  H    0.412674  -0.058070   0.011926  -0.000468   0.000013   0.000006
    11  H   -0.082582   0.427070  -0.063544  -0.008075  -0.000309   0.000074
    12  H    0.000176  -0.014743  -0.072051   0.426106  -0.080009   0.014130
    13  H    0.000012  -0.000347   0.015003  -0.077601   0.429565  -0.076883
    14  H    0.000017   0.000018  -0.001544   0.014552  -0.076992   0.429555
    15  H    0.000769  -0.000851   0.017070  -0.001859   0.014388  -0.080908
    16  H    0.002452  -0.003581   0.003777  -0.000569   0.000085  -0.000403
    17  H    0.002240  -0.003466   0.003836  -0.000567   0.000084  -0.000402
               7          8          9         10         11         12
     1  C    0.009366  -0.087015   0.246491   0.412674  -0.082582   0.000176
     2  C    0.018610  -0.044534  -0.001104  -0.058070   0.427070  -0.014743
     3  C    0.078884   0.293748  -0.173827   0.011926  -0.063544  -0.072051
     4  C   -0.145426   0.027364   0.029273  -0.000468  -0.008075   0.426106
     5  C    0.119890  -0.158178  -0.000389   0.000013  -0.000309  -0.080009
     6  C    0.237336   0.136212   0.013222   0.000006   0.000074   0.014130
     7  C    5.294191   0.253333  -0.104764  -0.000364  -0.000662  -0.001900
     8  C    0.253333   5.287477   0.319121   0.007314   0.011175   0.017180
     9  C   -0.104764   0.319121   5.161992  -0.061961   0.015285  -0.000696
    10  H   -0.000364   0.007314  -0.061961   0.630598  -0.007491   0.000003
    11  H   -0.000662   0.011175   0.015285  -0.007491   0.657167   0.003996
    12  H   -0.001900   0.017180  -0.000696   0.000003   0.003996   0.680428
    13  H    0.014469  -0.001560   0.000033  -0.000000  -0.000002  -0.011688
    14  H   -0.078071   0.015194  -0.000375  -0.000000  -0.000001  -0.000258
    15  H    0.433572  -0.078019  -0.018553   0.000006   0.000007   0.000043
    16  H   -0.000978   0.008617   0.300518   0.000266  -0.000341   0.000014
    17  H   -0.000976   0.008376   0.300975   0.000253  -0.000340   0.000014
              13         14         15         16         17
     1  C    0.000012   0.000017   0.000769   0.002452   0.002240
     2  C   -0.000347   0.000018  -0.000851  -0.003581  -0.003466
     3  C    0.015003  -0.001544   0.017070   0.003777   0.003836
     4  C   -0.077601   0.014552  -0.001859  -0.000569  -0.000567
     5  C    0.429565  -0.076992   0.014388   0.000085   0.000084
     6  C   -0.076883   0.429555  -0.080908  -0.000403  -0.000402
     7  C    0.014469  -0.078071   0.433572  -0.000978  -0.000976
     8  C   -0.001560   0.015194  -0.078019   0.008617   0.008376
     9  C    0.000033  -0.000375  -0.018553   0.300518   0.300975
    10  H   -0.000000  -0.000000   0.000006   0.000266   0.000253
    11  H   -0.000002  -0.000001   0.000007  -0.000341  -0.000340
    12  H   -0.011688  -0.000258   0.000043   0.000014   0.000014
    13  H    0.668901  -0.012128  -0.000265  -0.000001  -0.000001
    14  H   -0.012128   0.669323  -0.011498   0.000006   0.000006
    15  H   -0.000265  -0.011498   0.686188   0.002385   0.002397
    16  H   -0.000001   0.000006   0.002385   0.604183  -0.022682
    17  H   -0.000001   0.000006   0.002397  -0.022682   0.604099
 Mulliken charges:
               1
     1  C   -0.143215
     2  C   -0.064744
     3  C    0.119958
     4  C   -0.144936
     5  C   -0.047750
     6  C   -0.057096
     7  C   -0.126509
     8  C   -0.015805
     9  C   -0.025241
    10  H    0.065296
    11  H    0.048570
    12  H    0.039253
    13  H    0.052492
    14  H    0.052195
    15  H    0.035128
    16  H    0.106251
    17  H    0.106154
 Sum of Mulliken charges =  -0.00000
 Mulliken charges with hydrogens summed into heavy atoms:
               1
     1  C   -0.077919
     2  C   -0.016174
     3  C    0.119958
     4  C   -0.105684
     5  C    0.004742
     6  C   -0.004901
     7  C   -0.091381
     8  C   -0.015805
     9  C    0.187163
 Electronic spatial extent (au):  <R**2>=           1055.0518
 Charge=              0.0000 electrons
 Dipole moment (field-independent basis, Debye):
    X=             -0.5680    Y=             -0.3872    Z=              0.0015  Tot=              0.6874
 Quadrupole moment (field-independent basis, Debye-Ang):
   XX=            -48.2097   YY=            -47.9115   ZZ=            -56.6098
   XY=              0.8576   XZ=             -0.0023   YZ=              0.0005
 Traceless Quadrupole moment (field-independent basis, Debye-Ang):
   XX=              2.7007   YY=              2.9988   ZZ=             -5.6995
   XY=              0.8576   XZ=             -0.0023   YZ=              0.0005
 Octapole moment (field-independent basis, Debye-Ang**2):
  XXX=              0.4112  YYY=              1.4794  ZZZ=              0.0079  XYY=             -0.2266
  XXY=             -1.5209  XXZ=             -0.0017  XZZ=             -2.5667  YZZ=             -2.2978
  YYZ=              0.0006  XYZ=              0.0014
 Hexadecapole moment (field-independent basis, Debye-Ang**3):
 XXXX=           -895.1823 YYYY=           -416.1593 ZZZZ=            -68.8786 XXXY=              2.4261
 XXXZ=              0.0129 YYYX=             -2.8138 YYYZ=              0.0181 ZZZX=             -0.0140
 ZZZY=             -0.0073 XXYY=           -220.9576 XXZZ=           -185.8391 YYZZ=            -89.7378
 XXYZ=              0.0023 YYXZ=             -0.0002 ZZXY=              4.5859
 N-N= 3.932992462589D+02 E-N=-1.590270790350D+03  KE= 3.437082280284D+02
 Unable to Open any file for archive entry.
 1\1\GINC-NODE01\FOpt\RB3LYP\def2SVPP\C9H8\XUHJ\25-Aug-2024\0\\#N opt f
 req B3LYP/def2SVPP symm=veryloose em=gd3bj scale=0.961 press=0.987\\C1
 =Cc2ccccc2C1_1\\0,1\C,2.3130418727,0.5849294833,-0.0050669825\C,1.3577
 846258,1.540540939,-0.0214671679\C,0.0312745349,0.9139092284,-0.047276
 1865\C,-1.2527523054,1.4666694153,-0.0698518226\C,-2.3562247131,0.6051
 650698,-0.0918688994\C,-2.1795278521,-0.7847097244,-0.0913136679\C,-0.
 8912508491,-1.3409402347,-0.0687284179\C,0.2082670186,-0.4898676999,-0
 .0468790822\C,1.6892839592,-0.7914905535,-0.020606721\H,3.3918824608,0
 .7556387047,0.0156355115\H,1.5270233916,2.6201759022,-0.0164512258\H,-
 1.3945222311,2.5517261405,-0.0703360951\H,-3.3683172717,1.0210945065,-
 0.1096793319\H,-3.0539989898,-1.4421610366,-0.108666254\H,-0.760013948
 1,-2.4277876686,-0.0684653956\H,2.0104351885,-1.3802939708,-0.90257023
 75\H,1.9786551083,-1.3873685011,0.8674019764\\Version=ES64L-G16RevC.01
 \State=1-A\HF=-347.5290371\RMSD=4.326e-09\RMSF=4.069e-05\Dipole=0.2390
 88,-0.1263663,0.0035349\Quadrupole=2.1505302,2.0847937,-4.2353239,-0.6
 464309,0.1147893,0.0007546\PG=C01 [X(C9H8)]\\@
 The archive entry for this job was punched.


 A great many people think they are thinking when they
 are merely rearranging their prejudices.
                               -- William James
 Job cpu time:       0 days  0 hours  5 minutes 27.0 seconds.
 Elapsed time:       0 days  0 hours  1 minutes 23.3 seconds.
 File lengths (MBytes):  RWF=     14 Int=      0 D2E=      0 Chk=      3 Scr=      1
 Normal termination of Gaussian 16 at Sun Aug 25 17:21:31 2024.
 Link1:  Proceeding to internal job step number  2.
 --------------------------------------------------------------------
 #N Geom=AllCheck Guess=TCheck SCRF=Check GenChk RB3LYP/def2SVPP Freq
 --------------------------------------------------------------------
 1/10=4,29=7,30=1,38=1,40=1,113=-987000,114=961000/1,3;
 2/12=2,17=2,18=2,40=1/2;
 3/5=43,7=202,11=2,14=-4,25=1,30=1,70=2,71=2,74=-5,116=1,124=41,140=1/1,2,3;
 4/5=101/1;
 5/5=2,38=6,98=1/2;
 8/6=4,10=90,11=11/1;
 11/6=1,8=1,9=11,15=111,16=1/1,2,10;
 10/6=1/2;
 6/7=2,8=2,9=2,10=2,28=1/1;
 7/8=1,10=1,25=1/1,2,3,16;
 1/10=4,30=1/3;
 99//99;
 Structure from the checkpoint file:  "/tmp/scratch/Gau-2125813.chk"
 ----------------
 C1=Cc2ccccc2C1_1
 ----------------
 Charge =  0 Multiplicity = 1
 Redundant internal coordinates found in file.  (old form).
 C,0,2.3130418727,0.5849294833,-0.0050669825
 C,0,1.3577846258,1.540540939,-0.0214671679
 C,0,0.0312745349,0.9139092284,-0.0472761865
 C,0,-1.2527523054,1.4666694153,-0.0698518226
 C,0,-2.3562247131,0.6051650698,-0.0918688994
 C,0,-2.1795278521,-0.7847097244,-0.0913136679
 C,0,-0.8912508491,-1.3409402347,-0.0687284179
 C,0,0.2082670186,-0.4898676999,-0.0468790822
 C,0,1.6892839592,-0.7914905535,-0.020606721
 H,0,3.3918824608,0.7556387047,0.0156355115
 H,0,1.5270233916,2.6201759022,-0.0164512258
 H,0,-1.3945222311,2.5517261405,-0.0703360951
 H,0,-3.3683172717,1.0210945065,-0.1096793319
 H,0,-3.0539989898,-1.4421610366,-0.108666254
 H,0,-0.7600139481,-2.4277876686,-0.0684653956
 H,0,2.0104351885,-1.3802939708,-0.9025702375
 H,0,1.9786551083,-1.3873685011,0.8674019764
 Recover connectivity data from disk.

 GradGradGradGradGradGradGradGradGradGradGradGradGradGradGradGradGradGrad
 Berny optimization.
 Initialization pass.
                           ----------------------------
                           !    Initial Parameters    !
                           ! (Angstroms and Degrees)  !
 --------------------------                            --------------------------
 ! Name  Definition              Value          Derivative Info.                !
 --------------------------------------------------------------------------------
 ! R1    R(1,2)                  1.3513         calculate D2E/DX2 analytically  !
 ! R2    R(1,9)                  1.5112         calculate D2E/DX2 analytically  !
 ! R3    R(1,10)                 1.0925         calculate D2E/DX2 analytically  !
 ! R4    R(2,3)                  1.4673         calculate D2E/DX2 analytically  !
 ! R5    R(2,11)                 1.0928         calculate D2E/DX2 analytically  !
 ! R6    R(3,4)                  1.3981         calculate D2E/DX2 analytically  !
 ! R7    R(3,8)                  1.4149         calculate D2E/DX2 analytically  !
 ! R8    R(4,5)                  1.4001         calculate D2E/DX2 analytically  !
 ! R9    R(4,12)                 1.0943         calculate D2E/DX2 analytically  !
 ! R10   R(5,6)                  1.4011         calculate D2E/DX2 analytically  !
 ! R11   R(5,13)                 1.0944         calculate D2E/DX2 analytically  !
 ! R12   R(6,7)                  1.4034         calculate D2E/DX2 analytically  !
 ! R13   R(6,14)                 1.0942         calculate D2E/DX2 analytically  !
 ! R14   R(7,8)                  1.3906         calculate D2E/DX2 analytically  !
 ! R15   R(7,15)                 1.0947         calculate D2E/DX2 analytically  !
 ! R16   R(8,9)                  1.5116         calculate D2E/DX2 analytically  !
 ! R17   R(9,16)                 1.108          calculate D2E/DX2 analytically  !
 ! R18   R(9,17)                 1.1079         calculate D2E/DX2 analytically  !
 ! A1    A(2,1,9)              110.6214         calculate D2E/DX2 analytically  !
 ! A2    A(2,1,10)             126.0035         calculate D2E/DX2 analytically  !
 ! A3    A(9,1,10)             123.375          calculate D2E/DX2 analytically  !
 ! A4    A(1,2,3)              109.712          calculate D2E/DX2 analytically  !
 ! A5    A(1,2,11)             126.0942         calculate D2E/DX2 analytically  !
 ! A6    A(3,2,11)             124.1937         calculate D2E/DX2 analytically  !
 ! A7    A(2,3,4)              131.4303         calculate D2E/DX2 analytically  !
 ! A8    A(2,3,8)              108.0963         calculate D2E/DX2 analytically  !
 ! A9    A(4,3,8)              120.4734         calculate D2E/DX2 analytically  !
 ! A10   A(3,4,5)              118.7373         calculate D2E/DX2 analytically  !
 ! A11   A(3,4,12)             120.7313         calculate D2E/DX2 analytically  !
 ! A12   A(5,4,12)             120.5314         calculate D2E/DX2 analytically  !
 ! A13   A(4,5,6)              120.7301         calculate D2E/DX2 analytically  !
 ! A14   A(4,5,13)             119.6879         calculate D2E/DX2 analytically  !
 ! A15   A(6,5,13)             119.582          calculate D2E/DX2 analytically  !
 ! A16   A(5,6,7)              120.5942         calculate D2E/DX2 analytically  !
 ! A17   A(5,6,14)             119.6871         calculate D2E/DX2 analytically  !
 ! A18   A(7,6,14)             119.7187         calculate D2E/DX2 analytically  !
 ! A19   A(6,7,8)              118.9143         calculate D2E/DX2 analytically  !
 ! A20   A(6,7,15)             120.234          calculate D2E/DX2 analytically  !
 ! A21   A(8,7,15)             120.8517         calculate D2E/DX2 analytically  !
 ! A22   A(3,8,7)              120.5508         calculate D2E/DX2 analytically  !
 ! A23   A(3,8,9)              108.6949         calculate D2E/DX2 analytically  !
 ! A24   A(7,8,9)              130.7544         calculate D2E/DX2 analytically  !
 ! A25   A(1,9,8)              102.8752         calculate D2E/DX2 analytically  !
 ! A26   A(1,9,16)             111.873          calculate D2E/DX2 analytically  !
 ! A27   A(1,9,17)             111.9519         calculate D2E/DX2 analytically  !
 ! A28   A(8,9,16)             112.0967         calculate D2E/DX2 analytically  !
 ! A29   A(8,9,17)             112.1576         calculate D2E/DX2 analytically  !
 ! A30   A(16,9,17)            106.0511         calculate D2E/DX2 analytically  !
 ! D1    D(9,1,2,3)              0.0698         calculate D2E/DX2 analytically  !
 ! D2    D(9,1,2,11)          -179.9412         calculate D2E/DX2 analytically  !
 ! D3    D(10,1,2,3)          -179.9845         calculate D2E/DX2 analytically  !
 ! D4    D(10,1,2,11)            0.0044         calculate D2E/DX2 analytically  !
 ! D5    D(2,1,9,8)             -0.0779         calculate D2E/DX2 analytically  !
 ! D6    D(2,1,9,16)           120.424          calculate D2E/DX2 analytically  !
 ! D7    D(2,1,9,17)          -120.692          calculate D2E/DX2 analytically  !
 ! D8    D(10,1,9,8)           179.9747         calculate D2E/DX2 analytically  !
 ! D9    D(10,1,9,16)          -59.5234         calculate D2E/DX2 analytically  !
 ! D10   D(10,1,9,17)           59.3606         calculate D2E/DX2 analytically  !
 ! D11   D(1,2,3,4)            179.9669         calculate D2E/DX2 analytically  !
 ! D12   D(1,2,3,8)             -0.0313         calculate D2E/DX2 analytically  !
 ! D13   D(11,2,3,4)            -0.0223         calculate D2E/DX2 analytically  !
 ! D14   D(11,2,3,8)           179.9794         calculate D2E/DX2 analytically  !
 ! D15   D(2,3,4,5)           -179.9926         calculate D2E/DX2 analytically  !
 ! D16   D(2,3,4,12)             0.0072         calculate D2E/DX2 analytically  !
 ! D17   D(8,3,4,5)              0.0055         calculate D2E/DX2 analytically  !
 ! D18   D(8,3,4,12)          -179.9948         calculate D2E/DX2 analytically  !
 ! D19   D(2,3,8,7)            179.9894         calculate D2E/DX2 analytically  !
 ! D20   D(2,3,8,9)             -0.0197         calculate D2E/DX2 analytically  !
 ! D21   D(4,3,8,7)             -0.0091         calculate D2E/DX2 analytically  !
 ! D22   D(4,3,8,9)            179.9818         calculate D2E/DX2 analytically  !
 ! D23   D(3,4,5,6)              0.001          calculate D2E/DX2 analytically  !
 ! D24   D(3,4,5,13)           179.9986         calculate D2E/DX2 analytically  !
 ! D25   D(12,4,5,6)          -179.9988         calculate D2E/DX2 analytically  !
 ! D26   D(12,4,5,13)           -0.0011         calculate D2E/DX2 analytically  !
 ! D27   D(4,5,6,7)             -0.0039         calculate D2E/DX2 analytically  !
 ! D28   D(4,5,6,14)           179.9972         calculate D2E/DX2 analytically  !
 ! D29   D(13,5,6,7)           179.9984         calculate D2E/DX2 analytically  !
 ! D30   D(13,5,6,14)           -0.0005         calculate D2E/DX2 analytically  !
 ! D31   D(5,6,7,8)              0.0003         calculate D2E/DX2 analytically  !
 ! D32   D(5,6,7,15)          -179.9973         calculate D2E/DX2 analytically  !
 ! D33   D(14,6,7,8)           179.9992         calculate D2E/DX2 analytically  !
 ! D34   D(14,6,7,15)            0.0015         calculate D2E/DX2 analytically  !
 ! D35   D(6,7,8,3)              0.0061         calculate D2E/DX2 analytically  !
 ! D36   D(6,7,8,9)           -179.9826         calculate D2E/DX2 analytically  !
 ! D37   D(15,7,8,3)          -179.9962         calculate D2E/DX2 analytically  !
 ! D38   D(15,7,8,9)             0.0151         calculate D2E/DX2 analytically  !
 ! D39   D(3,8,9,1)              0.0568         calculate D2E/DX2 analytically  !
 ! D40   D(3,8,9,16)          -120.2914         calculate D2E/DX2 analytically  !
 ! D41   D(3,8,9,17)           120.5296         calculate D2E/DX2 analytically  !
 ! D42   D(7,8,9,1)           -179.9535         calculate D2E/DX2 analytically  !
 ! D43   D(7,8,9,16)            59.6983         calculate D2E/DX2 analytically  !
 ! D44   D(7,8,9,17)           -59.4807         calculate D2E/DX2 analytically  !
 --------------------------------------------------------------------------------
 Trust Radius=3.00D-01 FncErr=1.00D-07 GrdErr=1.00D-07 EigMax=2.50D+02 EigMin=1.00D-04
 Number of steps in this run=      2 maximum allowed number of steps=      2.
 GradGradGradGradGradGradGradGradGradGradGradGradGradGradGradGradGradGrad

                          Input orientation:                          
 ---------------------------------------------------------------------
 Center     Atomic      Atomic             Coordinates (Angstroms)
 Number     Number       Type             X           Y           Z
 ---------------------------------------------------------------------
      1          6           0        2.313042    0.584929   -0.005067
      2          6           0        1.357785    1.540541   -0.021467
      3          6           0        0.031275    0.913909   -0.047276
      4          6           0       -1.252752    1.466669   -0.069852
      5          6           0       -2.356225    0.605165   -0.091869
      6          6           0       -2.179528   -0.784710   -0.091314
      7          6           0       -0.891251   -1.340940   -0.068728
      8          6           0        0.208267   -0.489868   -0.046879
      9          6           0        1.689284   -0.791491   -0.020607
     10          1           0        3.391882    0.755639    0.015636
     11          1           0        1.527023    2.620176   -0.016451
     12          1           0       -1.394522    2.551726   -0.070336
     13          1           0       -3.368317    1.021095   -0.109679
     14          1           0       -3.053999   -1.442161   -0.108666
     15          1           0       -0.760014   -2.427788   -0.068465
     16          1           0        2.010435   -1.380294   -0.902570
     17          1           0        1.978655   -1.387369    0.867402
 ---------------------------------------------------------------------
                    Distance matrix (angstroms):
                    1          2          3          4          5
     1  C    0.000000
     2  C    1.351288   0.000000
     3  C    2.305747   1.467298   0.000000
     4  C    3.673765   2.612030   1.398134   0.000000
     5  C    4.670117   3.830633   2.407792   1.400116   0.000000
     6  C    4.697503   4.233704   2.788349   2.434765   1.401062
     7  C    3.739053   3.655589   2.436362   2.830787   2.435982
     8  C    2.363687   2.333366   1.414891   2.441955   2.788860
     9  C    1.511240   2.355475   2.378675   3.709082   4.280405
    10  H    1.092459   2.180597   3.364921   4.699522   5.751081
    11  H    2.181784   1.092831   2.269264   3.010080   4.375565
    12  H    4.197449   2.932589   2.171606   1.094279   2.171275
    13  H    5.699037   4.755381   3.401854   2.162346   1.094370
    14  H    5.738027   5.326157   3.882493   3.421592   2.163034
    15  H    4.303970   4.498323   3.434170   3.925505   3.427425
    16  H    2.181556   3.119867   3.148329   4.409877   4.864874
    17  H    2.182424   3.122214   3.150366   4.412026   4.866372
                    6          7          8          9         10
     6  C    0.000000
     7  C    1.403410   0.000000
     8  C    2.406340   1.390590   0.000000
     9  C    3.869464   2.638820   1.511647   0.000000
    10  H    5.781412   4.769485   3.419152   2.300818   0.000000
    11  H    5.033624   4.641252   3.378227   3.415525   2.637277
    12  H    3.427605   3.925065   3.438136   4.548564   5.113022
    13  H    2.162056   3.422973   3.883157   5.373335   6.766570
    14  H    1.094186   2.165484   3.398979   4.788513   6.811399
    15  H    2.171462   1.094742   2.166464   2.945984   5.232544
    16  H    4.309135   3.019375   2.184691   1.108010   2.704387
    17  H    4.309619   3.019082   2.185336   1.107865   2.704662
                   11         12         13         14         15
    11  H    0.000000
    12  H    2.922844   0.000000
    13  H    5.150739   2.498049   0.000000
    14  H    6.123467   4.325097   2.483229   0.000000
    15  H    5.542128   5.019777   4.324319   2.497087   0.000000
    16  H    4.125852   5.267555   5.943595   5.126656   3.077070
    17  H    4.128629   5.270118   5.945208   5.126726   3.075488
                   16         17
    16  H    0.000000
    17  H    1.770272   0.000000
 Stoichiometry    C9H8
 Framework group  CS[SG(C9H6),X(H2)]
 Deg. of freedom    30
 Full point group                 CS      NOp   2
 Largest Abelian subgroup         CS      NOp   2
 Largest concise Abelian subgroup CS      NOp   2
                         Standard orientation:                         
 ---------------------------------------------------------------------
 Center     Atomic      Atomic             Coordinates (Angstroms)
 Number     Number       Type             X           Y           Z
 ---------------------------------------------------------------------
      1          6           0       -0.864237   -2.290475   -0.000000
      2          6           0       -1.621699   -1.171444   -0.000000
      3          6           0       -0.755225    0.012694   -0.000000
      4          6           0       -1.054870    1.378341   -0.000000
      5          6           0        0.000000    2.298979    0.000000
      6          6           0        1.331297    1.862376    0.000000
      7          6           0        1.633545    0.491899    0.000000
      8          6           0        0.589668   -0.426829    0.000000
      9          6           0        0.605418   -1.938394    0.000000
     10          1           0       -1.236136   -3.317683   -0.000000
     11          1           0       -2.713864   -1.133296   -0.000000
     12          1           0       -2.093472    1.722948   -0.000000
     13          1           0       -0.216777    3.371665   -0.000000
     14          1           0        2.142441    2.596738    0.000000
     15          1           0        2.675900    0.157298    0.000000
     16          1           0        1.127684   -2.349540    0.886917
     17          1           0        1.127684   -2.349540   -0.886917
 ---------------------------------------------------------------------
 Rotational constants (GHZ):           3.7643599           1.5717463           1.1165578
 Standard basis: def2SVPP (5D, 7F)
 There are   113 symmetry adapted cartesian basis functions of A'  symmetry.
 There are    38 symmetry adapted cartesian basis functions of A"  symmetry.
 There are   104 symmetry adapted basis functions of A'  symmetry.
 There are    38 symmetry adapted basis functions of A"  symmetry.
   142 basis functions,   257 primitive gaussians,   151 cartesian basis functions
    31 alpha electrons       31 beta electrons
       nuclear repulsion energy       393.3319189481 Hartrees.
 NAtoms=   17 NActive=   17 NUniq=   16 SFac= 1.13D+00 NAtFMM=   60 NAOKFM=F Big=F
 Integral buffers will be    131072 words long.
 Raffenetti 2 integral format.
 Two-electron integral symmetry is turned on.
 Nuclear repulsion after empirical dispersion term =      393.3000839309 Hartrees.
 One-electron integrals computed using PRISM.
   2 Symmetry operations used in ECPInt.
 ECPInt:  NShTT=    2485 NPrTT=   10011 LenC2=    2476 LenP2D=    7901.
 LDataN:  DoStor=T MaxTD1= 4 Len=   56
 NBasis=   142 RedAO= T EigKep=  2.86D-04  NBF=   104    38
 NBsUse=   142 1.00D-06 EigRej= -1.00D+00 NBFU=   104    38
 Initial guess from the checkpoint file:  "/tmp/scratch/Gau-2125813.chk"
 B after Tr=    -0.000096    0.000045   -0.000000
         Rot=    0.805642   -0.000032   -0.000020   -0.592403 Ang= -72.66 deg.
 Initial guess orbital symmetries:
       Occupied  (A') (A') (A') (A') (A') (A') (A') (A') (A') (A')
                 (A') (A') (A') (A') (A') (A') (A') (A') (A') (A')
                 (A") (A') (A') (A') (A') (A") (A') (A') (A") (A")
                 (A")
       Virtual   (A") (A") (A") (A') (A') (A') (A') (A') (A") (A')
                 (A') (A") (A') (A') (A') (A') (A') (A') (A') (A')
                 (A') (A') (A') (A') (A') (A') (A") (A') (A') (A")
                 (A') (A") (A') (A') (A") (A") (A") (A') (A") (A")
                 (A') (A') (A') (A') (A') (A') (A') (A") (A") (A')
                 (A') (A') (A') (A') (A') (A') (A') (A') (A') (A')
                 (A') (A') (A") (A') (A') (A") (A') (A") (A") (A")
                 (A') (A") (A") (A') (A") (A') (A') (A') (A') (A')
                 (A') (A') (A") (A') (A") (A') (A') (A') (A') (A")
                 (A") (A') (A") (A") (A') (A") (A") (A') (A') (A")
                 (A') (A') (A") (A') (A') (A') (A') (A') (A') (A')
                 (A')
 Keep R1 ints in memory in symmetry-blocked form, NReq=78611340.
 Requested convergence on RMS density matrix=1.00D-08 within 128 cycles.
 Requested convergence on MAX density matrix=1.00D-06.
 Requested convergence on             energy=1.00D-06.
 No special actions if energy rises.
 SCF Done:  E(RB3LYP) =  -347.529036721     A.U. after    7 cycles
            NFock=  7  Conv=0.80D-08     -V/T= 2.0111
 DoSCS=F DFT=T ScalE2(SS,OS)=  1.000000  1.000000
 Range of M.O.s used for correlation:     1   142
 NBasis=   142 NAE=    31 NBE=    31 NFC=     0 NFV=     0
 NROrb=    142 NOA=    31 NOB=    31 NVA=   111 NVB=   111

 **** Warning!!: The largest alpha MO coefficient is  0.17488933D+02

   2 Symmetry operations used in ECPInt.
 ECPInt:  NShTT=    2485 NPrTT=   10011 LenC2=    2476 LenP2D=    7901.
 LDataN:  DoStor=T MaxTD1= 5 Len=  102
 Symmetrizing basis deriv contribution to polar:
 IMax=3 JMax=2 DiffMx= 0.00D+00
 G2DrvN: will do    18 centers at a time, making    1 passes.
 Calling FoFCou, ICntrl=  3107 FMM=F I1Cent=   0 AccDes= 0.00D+00.
 End of G2Drv F.D. properties file   721 does not exist.
 End of G2Drv F.D. properties file   722 does not exist.
 End of G2Drv F.D. properties file   788 does not exist.
          IDoAtm=11111111111111111
          Differentiating once with respect to electric field.
                with respect to dipole field.
          Differentiating once with respect to nuclear coordinates.
 Keep R1 ints in memory in symmetry-blocked form, NReq=78618475.
          There are    51 degrees of freedom in the 1st order CPHF.  IDoFFX=4 NUNeed=    51.
     51 vectors produced by pass  0 Test12= 6.75D-15 1.96D-09 XBig12= 1.83D+02 8.56D+00.
 AX will form    51 AO Fock derivatives at one time.
     51 vectors produced by pass  1 Test12= 6.75D-15 1.96D-09 XBig12= 2.91D+01 9.56D-01.
     51 vectors produced by pass  2 Test12= 6.75D-15 1.96D-09 XBig12= 2.49D-01 7.90D-02.
     51 vectors produced by pass  3 Test12= 6.75D-15 1.96D-09 XBig12= 5.77D-04 2.92D-03.
     51 vectors produced by pass  4 Test12= 6.75D-15 1.96D-09 XBig12= 5.56D-07 8.90D-05.
     34 vectors produced by pass  5 Test12= 6.75D-15 1.96D-09 XBig12= 3.72D-10 2.25D-06.
      3 vectors produced by pass  6 Test12= 6.75D-15 1.96D-09 XBig12= 2.17D-13 4.75D-08.
 InvSVY:  IOpt=1 It=  1 EMax= 1.07D-14
 Solved reduced A of dimension   292 with    51 vectors.
 Isotropic polarizability for W=    0.000000       90.63 Bohr**3.
 End of Minotr F.D. properties file   721 does not exist.
 End of Minotr F.D. properties file   722 does not exist.
 End of Minotr F.D. properties file   788 does not exist.

 **********************************************************************

            Population analysis using the SCF Density.

 **********************************************************************

 Orbital symmetries:
       Occupied  (A') (A') (A') (A') (A') (A') (A') (A') (A') (A')
                 (A') (A') (A') (A') (A') (A') (A') (A') (A') (A')
                 (A") (A') (A') (A') (A') (A") (A') (A') (A") (A")
                 (A")
       Virtual   (A") (A") (A") (A') (A') (A') (A') (A') (A") (A')
                 (A') (A") (A') (A') (A') (A') (A') (A') (A') (A')
                 (A') (A') (A') (A') (A') (A') (A") (A') (A') (A")
                 (A') (A") (A') (A') (A") (A") (A") (A') (A") (A")
                 (A') (A') (A') (A') (A') (A') (A') (A") (A") (A')
                 (A') (A') (A') (A') (A') (A') (A') (A') (A') (A')
                 (A') (A') (A") (A') (A') (A") (A') (A") (A") (A")
                 (A') (A") (A") (A') (A") (A') (A') (A') (A') (A')
                 (A') (A') (A") (A') (A") (A') (A') (A') (A') (A")
                 (A") (A') (A") (A") (A') (A") (A") (A') (A') (A")
                 (A') (A') (A") (A') (A') (A') (A') (A') (A') (A')
                 (A')
 The electronic state is 1-A'.
 Alpha  occ. eigenvalues --  -10.19369 -10.18859 -10.18856 -10.18802 -10.18670
 Alpha  occ. eigenvalues --  -10.18595 -10.18468 -10.18430 -10.18389  -0.86927
 Alpha  occ. eigenvalues --   -0.80771  -0.74662  -0.70540  -0.68459  -0.60147
 Alpha  occ. eigenvalues --   -0.57255  -0.55224  -0.50718  -0.46827  -0.44953
 Alpha  occ. eigenvalues --   -0.44358  -0.42165  -0.41879  -0.38626  -0.36629
 Alpha  occ. eigenvalues --   -0.36041  -0.35111  -0.33349  -0.29771  -0.24812
 Alpha  occ. eigenvalues --   -0.22102
 Alpha virt. eigenvalues --   -0.02877  -0.00611   0.04635   0.06820   0.07842
 Alpha virt. eigenvalues --    0.09220   0.11176   0.11931   0.12936   0.14073
 Alpha virt. eigenvalues --    0.15284   0.17744   0.20504   0.21619   0.26161
 Alpha virt. eigenvalues --    0.28635   0.30006   0.31872   0.34279   0.36959
 Alpha virt. eigenvalues --    0.38211   0.39770   0.40430   0.43095   0.45572
 Alpha virt. eigenvalues --    0.46631   0.46841   0.47196   0.48782   0.49843
 Alpha virt. eigenvalues --    0.49871   0.52664   0.53792   0.55089   0.55619
 Alpha virt. eigenvalues --    0.58510   0.62837   0.63577   0.64411   0.65744
 Alpha virt. eigenvalues --    0.65813   0.67201   0.67604   0.68484   0.69093
 Alpha virt. eigenvalues --    0.71278   0.72084   0.73052   0.73845   0.74464
 Alpha virt. eigenvalues --    0.76073   0.76294   0.77492   0.81368   0.86682
 Alpha virt. eigenvalues --    0.87426   0.88901   0.94047   1.02053   1.08582
 Alpha virt. eigenvalues --    1.12779   1.15933   1.25021   1.26603   1.27300
 Alpha virt. eigenvalues --    1.34592   1.34990   1.36835   1.43525   1.46814
 Alpha virt. eigenvalues --    1.48782   1.49202   1.49878   1.66952   1.75382
 Alpha virt. eigenvalues --    1.75590   1.75894   1.79943   1.82135   1.85811
 Alpha virt. eigenvalues --    1.89354   1.92445   1.93940   1.95067   1.97754
 Alpha virt. eigenvalues --    2.01055   2.05125   2.10274   2.15414   2.15672
 Alpha virt. eigenvalues --    2.18096   2.19388   2.24319   2.26224   2.26469
 Alpha virt. eigenvalues --    2.36180   2.37573   2.45897   2.47326   2.49016
 Alpha virt. eigenvalues --    2.56062   2.58435   2.66119   2.66509   2.69223
 Alpha virt. eigenvalues --    2.75178   2.79151   2.86515   2.91383   3.12320
 Alpha virt. eigenvalues --    3.38129
          Condensed to atoms (all electrons):
               1          2          3          4          5          6
     1  C    5.072321   0.481241   0.081338   0.006033  -0.000507  -0.001119
     2  C    0.481241   5.119098   0.246113  -0.114215   0.012206   0.001281
     3  C    0.081338   0.246113   5.210592   0.260386   0.127914  -0.159586
     4  C    0.006033  -0.114215   0.260386   5.366196   0.248443   0.115368
     5  C   -0.000507   0.012206   0.127914   0.248443   5.168543   0.242989
     6  C   -0.001119   0.001281  -0.159586   0.115368   0.242989   5.186251
     7  C    0.009387   0.018596   0.078911  -0.145430   0.119910   0.237282
     8  C   -0.087029  -0.044583   0.293714   0.027361  -0.158196   0.136247
     9  C    0.246385  -0.001086  -0.173936   0.029291  -0.000390   0.013228
    10  H    0.412687  -0.058065   0.011922  -0.000469   0.000013   0.000006
    11  H   -0.082593   0.427052  -0.063535  -0.008069  -0.000309   0.000074
    12  H    0.000176  -0.014745  -0.072045   0.426104  -0.080012   0.014130
    13  H    0.000012  -0.000347   0.015003  -0.077601   0.429566  -0.076883
    14  H    0.000017   0.000018  -0.001544   0.014553  -0.076993   0.429559
    15  H    0.000770  -0.000851   0.017070  -0.001859   0.014388  -0.080916
    16  H    0.002335  -0.003531   0.003802  -0.000570   0.000085  -0.000403
    17  H    0.002335  -0.003531   0.003802  -0.000570   0.000085  -0.000403
               7          8          9         10         11         12
     1  C    0.009387  -0.087029   0.246385   0.412687  -0.082593   0.000176
     2  C    0.018596  -0.044583  -0.001086  -0.058065   0.427052  -0.014745
     3  C    0.078911   0.293714  -0.173936   0.011922  -0.063535  -0.072045
     4  C   -0.145430   0.027361   0.029291  -0.000469  -0.008069   0.426104
     5  C    0.119910  -0.158196  -0.000390   0.000013  -0.000309  -0.080012
     6  C    0.237282   0.136247   0.013228   0.000006   0.000074   0.014130
     7  C    5.294260   0.253285  -0.104811  -0.000364  -0.000662  -0.001901
     8  C    0.253285   5.288213   0.319068   0.007324   0.011167   0.017180
     9  C   -0.104811   0.319068   5.161974  -0.061985   0.015301  -0.000696
    10  H   -0.000364   0.007324  -0.061985   0.630585  -0.007492   0.000003
    11  H   -0.000662   0.011167   0.015301  -0.007492   0.657198   0.003995
    12  H   -0.001901   0.017180  -0.000696   0.000003   0.003995   0.680431
    13  H    0.014468  -0.001560   0.000033  -0.000000  -0.000002  -0.011688
    14  H   -0.078073   0.015194  -0.000374  -0.000000  -0.000001  -0.000258
    15  H    0.433604  -0.078034  -0.018549   0.000006   0.000007   0.000043
    16  H   -0.000971   0.008494   0.300608   0.000266  -0.000342   0.000014
    17  H   -0.000971   0.008494   0.300608   0.000266  -0.000342   0.000014
              13         14         15         16         17
     1  C    0.000012   0.000017   0.000770   0.002335   0.002335
     2  C   -0.000347   0.000018  -0.000851  -0.003531  -0.003531
     3  C    0.015003  -0.001544   0.017070   0.003802   0.003802
     4  C   -0.077601   0.014553  -0.001859  -0.000570  -0.000570
     5  C    0.429566  -0.076993   0.014388   0.000085   0.000085
     6  C   -0.076883   0.429559  -0.080916  -0.000403  -0.000403
     7  C    0.014468  -0.078073   0.433604  -0.000971  -0.000971
     8  C   -0.001560   0.015194  -0.078034   0.008494   0.008494
     9  C    0.000033  -0.000374  -0.018549   0.300608   0.300608
    10  H   -0.000000  -0.000000   0.000006   0.000266   0.000266
    11  H   -0.000002  -0.000001   0.000007  -0.000342  -0.000342
    12  H   -0.011688  -0.000258   0.000043   0.000014   0.000014
    13  H    0.668900  -0.012128  -0.000265  -0.000001  -0.000001
    14  H   -0.012128   0.669321  -0.011498   0.000006   0.000006
    15  H   -0.000265  -0.011498   0.686174   0.002389   0.002389
    16  H   -0.000001   0.000006   0.002389   0.603887  -0.022451
    17  H   -0.000001   0.000006   0.002389  -0.022451   0.603887
 Mulliken charges:
               1
     1  C   -0.143790
     2  C   -0.064651
     3  C    0.120079
     4  C   -0.144952
     5  C   -0.047735
     6  C   -0.057104
     7  C   -0.126520
     8  C   -0.016340
     9  C   -0.024670
    10  H    0.065297
    11  H    0.048549
    12  H    0.039252
    13  H    0.052492
    14  H    0.052196
    15  H    0.035132
    16  H    0.106382
    17  H    0.106382
 Sum of Mulliken charges =   0.00000
 Mulliken charges with hydrogens summed into heavy atoms:
               1
     1  C   -0.078493
     2  C   -0.016102
     3  C    0.120079
     4  C   -0.105700
     5  C    0.004757
     6  C   -0.004908
     7  C   -0.091388
     8  C   -0.016340
     9  C    0.188094
 APT charges:
               1
     1  C   -0.073640
     2  C   -0.002124
     3  C    0.028999
     4  C   -0.017570
     5  C   -0.028615
     6  C   -0.065852
     7  C    0.020236
     8  C   -0.041579
     9  C    0.021729
    10  H    0.035084
    11  H    0.028312
    12  H    0.022189
    13  H    0.017527
    14  H    0.019745
    15  H    0.017761
    16  H    0.008899
    17  H    0.008899
 Sum of APT charges =  -0.00000
 APT charges with hydrogens summed into heavy atoms:
               1
     1  C   -0.038556
     2  C    0.026188
     3  C    0.028999
     4  C    0.004619
     5  C   -0.011088
     6  C   -0.046107
     7  C    0.037997
     8  C   -0.041579
     9  C    0.039527
 Electronic spatial extent (au):  <R**2>=           1055.0305
 Charge=             -0.0000 electrons
 Dipole moment (field-independent basis, Debye):
    X=              0.1988    Y=             -0.6566    Z=              0.0000  Tot=              0.6860
 Quadrupole moment (field-independent basis, Debye-Ang):
   XX=            -48.4351   YY=            -47.7022   ZZ=            -56.6023
   XY=             -0.7833   XZ=              0.0000   YZ=             -0.0000
 Traceless Quadrupole moment (field-independent basis, Debye-Ang):
   XX=              2.4781   YY=              3.2110   ZZ=             -5.6891
   XY=             -0.7833   XZ=              0.0000   YZ=             -0.0000
 Octapole moment (field-independent basis, Debye-Ang**2):
  XXX=             -1.0779  YYY=             -0.8726  ZZZ=              0.0000  XYY=              1.1474
  XXY=              1.0858  XXZ=              0.0000  XZZ=              1.4365  YZZ=             -3.1523
  YYZ=              0.0000  XYZ=             -0.0000
 Hexadecapole moment (field-independent basis, Debye-Ang**3):
 XXXX=           -457.2286 YYYY=           -851.6342 ZZZZ=            -68.8885 XXXY=            -68.7369
 XXXZ=             -0.0000 YYYX=            -67.1759 YYYZ=             -0.0000 ZZZX=             -0.0000
 ZZZY=              0.0000 XXYY=           -222.2965 XXZZ=           -100.8846 YYZZ=           -174.6542
 XXYZ=             -0.0000 YYXZ=              0.0000 ZZXY=            -31.1347
 N-N= 3.933000839309D+02 E-N=-1.590272188967D+03  KE= 3.437074494786D+02
 Symmetry A'   KE= 3.331937445448D+02
 Symmetry A"   KE= 1.051370493382D+01
  Exact polarizability:     100.581       4.882     127.725      -0.000      -0.000      43.578
 Approx polarizability:     168.558      -0.455     208.159       0.000      -0.000      68.347
   2 Symmetry operations used in ECPInt.
 ECPInt:  NShTT=    2485 NPrTT=   10011 LenC2=    2476 LenP2D=    7901.
 LDataN:  DoStor=T MaxTD1= 6 Len=  172
 Calling FoFJK, ICntrl=    100127 FMM=F ISym2X=1 I1Cent= 0 IOpClX= 0 NMat=1 NMatS=1 NMatT=0.
 Full mass-weighted force constant matrix:
 Low frequencies ---   -4.4521   -1.9780   -0.0010   -0.0009   -0.0006    5.4698
 Low frequencies ---  197.5321  214.1448  389.1022
 Diagonal vibrational polarizability:
        0.7701929       1.0394272       7.7934098
 Harmonic frequencies (cm**-1), IR intensities (KM/Mole), Raman scattering
 activities (A**4/AMU), depolarization ratios for plane and unpolarized
 incident light, reduced masses (AMU), force constants (mDyne/A),
 and normal coordinates:
                      1                      2                      3
                     A"                     A"                     A'
 Frequencies --    197.5317               214.1447               389.1021
 Red. masses --      3.2366                 2.7493                 3.5353
 Frc consts  --      0.0744                 0.0743                 0.3154
 IR Inten    --      0.5727                 3.2787                 1.2615
  Atom  AN      X      Y      Z        X      Y      Z        X      Y      Z
     1   6    -0.00   0.00   0.22     0.00  -0.00   0.07    -0.15   0.05   0.00
     2   6     0.00   0.00   0.10    -0.00  -0.00  -0.14     0.04   0.16  -0.00
     3   6     0.00   0.00  -0.17    -0.00  -0.00  -0.13     0.21  -0.03  -0.00
     4   6     0.00  -0.00  -0.16    -0.00   0.00   0.06     0.01  -0.11   0.00
     5   6    -0.00  -0.00   0.05     0.00   0.00   0.18    -0.13   0.02   0.00
     6   6    -0.00   0.00   0.19     0.00   0.00  -0.01    -0.11   0.07  -0.00
     7   6    -0.00   0.00   0.01    -0.00  -0.00  -0.17     0.08   0.08   0.00
     8   6     0.00  -0.00  -0.18    -0.00  -0.00  -0.12     0.19  -0.09   0.00
     9   6     0.00  -0.00  -0.12     0.00   0.00   0.18    -0.06  -0.16  -0.00
    10   1    -0.00   0.00   0.47    -0.00  -0.00   0.17    -0.30   0.11   0.00
    11   1     0.00   0.00   0.24    -0.00  -0.00  -0.24     0.05   0.40  -0.00
    12   1     0.00   0.00  -0.20    -0.00  -0.00   0.16    -0.06  -0.32   0.00
    13   1    -0.00  -0.00   0.16     0.00   0.00   0.39    -0.22  -0.00   0.00
    14   1     0.00  -0.00   0.43     0.00   0.00   0.01    -0.17   0.14  -0.00
    15   1    -0.00   0.00   0.10     0.00   0.00  -0.24     0.15   0.30  -0.00
    16   1     0.25   0.02  -0.26    -0.17   0.25   0.41    -0.15  -0.27  -0.00
    17   1    -0.25  -0.02  -0.26     0.17  -0.25   0.41    -0.15  -0.27   0.00
                      4                      5                      6
                     A"                     A"                     A'
 Frequencies --    400.7199               435.2024               545.3170
 Red. masses --      2.1321                 2.5411                 6.1319
 Frc consts  --      0.2017                 0.2836                 1.0743
 IR Inten    --      4.0078                 7.9081                 0.1342
  Atom  AN      X      Y      Z        X      Y      Z        X      Y      Z
     1   6    -0.00   0.00  -0.17     0.00  -0.00   0.02    -0.08  -0.24  -0.00
     2   6     0.00   0.00   0.19    -0.00  -0.00  -0.03    -0.06  -0.21   0.00
     3   6     0.00  -0.00   0.05    -0.00   0.00   0.11    -0.03  -0.08  -0.00
     4   6     0.00  -0.00  -0.10    -0.00   0.00  -0.18     0.24   0.06  -0.00
     5   6    -0.00   0.00  -0.02     0.00  -0.00   0.12     0.11   0.27   0.00
     6   6    -0.00   0.00   0.11     0.00  -0.00   0.04     0.09   0.29  -0.00
     7   6     0.00   0.00  -0.08    -0.00  -0.00  -0.18    -0.16   0.19   0.00
     8   6     0.00  -0.00  -0.08    -0.00   0.00   0.21    -0.04  -0.06   0.00
     9   6    -0.00  -0.00   0.03     0.00   0.00   0.02    -0.07  -0.20  -0.00
    10   1    -0.00   0.00  -0.24     0.00  -0.00  -0.04    -0.08  -0.24  -0.00
    11   1     0.00   0.00   0.42    -0.00  -0.00  -0.18    -0.07  -0.27   0.00
    12   1    -0.00  -0.00  -0.20    -0.00   0.00  -0.52     0.26   0.12   0.00
    13   1    -0.00   0.00  -0.04     0.00   0.00   0.20    -0.09   0.23   0.00
    14   1    -0.00   0.00   0.26     0.00  -0.00   0.03     0.23   0.14  -0.00
    15   1     0.00   0.00  -0.13    -0.00  -0.00  -0.55    -0.14   0.23   0.00
    16   1    -0.35   0.18   0.33     0.15  -0.23  -0.18    -0.07  -0.22  -0.00
    17   1     0.35  -0.18   0.33    -0.15   0.23  -0.18    -0.07  -0.22   0.00
                      7                      8                      9
                     A"                     A'                     A"
 Frequencies --    569.6748               604.7872               714.3430
 Red. masses --      2.9698                 6.3625                 1.2928
 Frc consts  --      0.5679                 1.3711                 0.3887
 IR Inten    --      3.9650                 1.6067                 9.6955
  Atom  AN      X      Y      Z        X      Y      Z        X      Y      Z
     1   6    -0.00  -0.00   0.09     0.12  -0.01   0.00    -0.00  -0.00  -0.05
     2   6    -0.00  -0.00  -0.12     0.22   0.08  -0.00     0.00  -0.00  -0.08
     3   6    -0.00  -0.00   0.19     0.05   0.18   0.00     0.00   0.00  -0.03
     4   6     0.00  -0.00   0.11    -0.04   0.25   0.00     0.00   0.00   0.06
     5   6     0.00  -0.00  -0.19    -0.05   0.27  -0.00     0.00   0.00  -0.03
     6   6     0.00   0.00   0.21    -0.20  -0.16   0.00    -0.00  -0.00   0.05
     7   6     0.00   0.00  -0.12    -0.20  -0.17  -0.00    -0.00  -0.00  -0.02
     8   6     0.00   0.00  -0.11    -0.06  -0.18  -0.00    -0.00  -0.00   0.08
     9   6    -0.00   0.00   0.01     0.13  -0.23   0.00    -0.00   0.00  -0.05
    10   1     0.00  -0.00  -0.10    -0.11   0.07  -0.00    -0.00  -0.00   0.77
    11   1    -0.00  -0.00  -0.50     0.22  -0.02  -0.00     0.00   0.00   0.45
    12   1     0.00  -0.00   0.03    -0.08   0.15   0.00     0.00  -0.00  -0.05
    13   1    -0.00  -0.00  -0.52     0.21   0.32  -0.00     0.00   0.00  -0.22
    14   1     0.00   0.00   0.40    -0.01  -0.37   0.00    -0.00  -0.00  -0.04
    15   1     0.00   0.00  -0.25    -0.16  -0.06   0.00    -0.00   0.00  -0.19
    16   1     0.13   0.13  -0.00     0.15  -0.18   0.01    -0.19  -0.05   0.05
    17   1    -0.13  -0.13  -0.00     0.15  -0.18  -0.01     0.19   0.05   0.05
                     10                     11                     12
                     A"                     A'                     A"
 Frequencies --    745.2563               749.0604               796.6438
 Red. masses --      1.5450                 5.4900                 1.9127
 Frc consts  --      0.5056                 1.8149                 0.7152
 IR Inten    --     25.7538                 2.2745                32.7656
  Atom  AN      X      Y      Z        X      Y      Z        X      Y      Z
     1   6    -0.00  -0.00  -0.04    -0.08  -0.26   0.00    -0.00  -0.00   0.00
     2   6    -0.00  -0.00   0.03     0.11  -0.14  -0.00    -0.00  -0.00  -0.08
     3   6    -0.00   0.00  -0.09    -0.03   0.14   0.00    -0.00   0.00   0.22
     4   6    -0.00   0.00   0.02    -0.26   0.22   0.00    -0.00   0.00  -0.07
     5   6    -0.00  -0.00  -0.12    -0.04   0.00   0.00    -0.00  -0.00   0.01
     6   6     0.00   0.00   0.01     0.03  -0.02   0.00     0.00   0.00  -0.13
     7   6     0.00   0.00  -0.10     0.33   0.02   0.00     0.00   0.00   0.01
     8   6     0.00   0.00   0.10     0.09   0.11  -0.00     0.00   0.00  -0.06
     9   6    -0.00  -0.00   0.06    -0.16  -0.07  -0.00     0.00  -0.00  -0.06
    10   1    -0.00  -0.00  -0.03    -0.11  -0.26  -0.00    -0.00  -0.00   0.41
    11   1    -0.00  -0.00   0.06     0.10  -0.15  -0.00    -0.00  -0.00   0.02
    12   1    -0.00   0.00   0.54    -0.23   0.34  -0.00    -0.00   0.00  -0.07
    13   1     0.00   0.00   0.38     0.24   0.06  -0.00    -0.00  -0.00   0.50
    14   1    -0.00   0.00   0.60    -0.15   0.18  -0.00     0.00   0.00   0.47
    15   1     0.00   0.00   0.18     0.37   0.11  -0.00     0.00   0.00   0.46
    16   1     0.05  -0.22  -0.08    -0.14  -0.08  -0.02    -0.10   0.12   0.06
    17   1    -0.05   0.22  -0.08    -0.14  -0.08   0.02     0.10  -0.12   0.06
                     13                     14                     15
                     A'                     A'                     A"
 Frequencies --    845.5233               874.3506               883.0701
 Red. masses --      4.1079                 4.0582                 1.3343
 Frc consts  --      1.7303                 1.8279                 0.6130
 IR Inten    --      1.4759                 2.7966                 0.1220
  Atom  AN      X      Y      Z        X      Y      Z        X      Y      Z
     1   6    -0.06  -0.16   0.00    -0.04  -0.13   0.00     0.00   0.00   0.03
     2   6     0.10  -0.06   0.00     0.32   0.10  -0.00    -0.00  -0.00  -0.01
     3   6     0.16  -0.03  -0.00     0.03   0.04   0.00    -0.00  -0.00   0.03
     4   6     0.17  -0.04  -0.00    -0.06  -0.05  -0.00    -0.00   0.00  -0.09
     5   6    -0.05   0.15  -0.00     0.04  -0.20  -0.00    -0.00   0.00  -0.06
     6   6    -0.13  -0.13   0.00     0.13   0.10   0.00    -0.00  -0.00   0.04
     7   6    -0.00  -0.07   0.00    -0.19   0.06   0.00     0.00  -0.00   0.09
     8   6    -0.01   0.03   0.00    -0.14   0.06   0.00     0.00  -0.00   0.02
     9   6    -0.20   0.27  -0.00    -0.07  -0.02  -0.00     0.00  -0.00  -0.07
    10   1     0.17  -0.24  -0.00    -0.41   0.01  -0.00     0.00   0.00   0.02
    11   1     0.11   0.24  -0.00     0.34   0.42  -0.00    -0.00  -0.00  -0.13
    12   1     0.09  -0.29   0.00    -0.03   0.04   0.00     0.00   0.00   0.57
    13   1    -0.02   0.15   0.00    -0.11  -0.23   0.00     0.00   0.00   0.39
    14   1    -0.03  -0.25   0.00     0.12   0.10  -0.00    -0.00  -0.00  -0.27
    15   1     0.02   0.02  -0.00    -0.28  -0.21  -0.00     0.00   0.00  -0.56
    16   1    -0.06   0.43  -0.02     0.05   0.13   0.00    -0.11   0.16   0.07
    17   1    -0.06   0.43   0.02     0.05   0.13  -0.00     0.11  -0.16   0.07
                     16                     17                     18
                     A"                     A'                     A"
 Frequencies --    949.1562               963.3749               968.7801
 Red. masses --      1.7817                 2.0497                 1.3351
 Frc consts  --      0.9457                 1.1208                 0.7383
 IR Inten    --      3.6216                 9.4634                 0.8661
  Atom  AN      X      Y      Z        X      Y      Z        X      Y      Z
     1   6     0.00   0.00  -0.10    -0.17  -0.11  -0.00    -0.00  -0.00   0.02
     2   6     0.00  -0.00  -0.02    -0.08   0.01   0.00    -0.00   0.00  -0.10
     3   6     0.00   0.00   0.09    -0.01  -0.01   0.00    -0.00  -0.00   0.02
     4   6    -0.00  -0.00  -0.11    -0.00   0.01  -0.00    -0.00   0.00   0.04
     5   6     0.00  -0.00   0.04    -0.00   0.02   0.00    -0.00   0.00  -0.05
     6   6     0.00   0.00   0.07    -0.01  -0.02   0.00    -0.00  -0.00  -0.02
     7   6    -0.00  -0.00  -0.03     0.03  -0.00  -0.00     0.00  -0.00   0.07
     8   6    -0.00  -0.00  -0.11     0.00   0.02   0.00     0.00   0.00  -0.06
     9   6    -0.00   0.00   0.14     0.21   0.01  -0.00     0.00   0.00   0.08
    10   1     0.00  -0.00   0.29    -0.51   0.00   0.00    -0.00   0.00  -0.32
    11   1     0.00  -0.00   0.15    -0.08   0.29  -0.00    -0.00   0.00   0.70
    12   1    -0.00  -0.00   0.49    -0.00   0.01   0.00    -0.00  -0.00  -0.24
    13   1    -0.00  -0.00  -0.12     0.05   0.03  -0.00     0.00   0.00   0.32
    14   1     0.00   0.00  -0.48    -0.02  -0.01  -0.00    -0.00  -0.00   0.08
    15   1    -0.00  -0.00   0.25     0.04   0.01   0.00     0.00   0.00  -0.36
    16   1     0.27  -0.22  -0.13     0.43   0.29   0.00     0.20  -0.04  -0.06
    17   1    -0.27   0.22  -0.13     0.43   0.29  -0.00    -0.20   0.04  -0.06
                     19                     20                     21
                     A"                     A"                     A'
 Frequencies --    980.7097              1011.3627              1046.8273
 Red. masses --      1.5742                 1.3347                 2.0615
 Frc consts  --      0.8920                 0.8044                 1.3310
 IR Inten    --      0.6806                 0.0850                 3.8057
  Atom  AN      X      Y      Z        X      Y      Z        X      Y      Z
     1   6     0.00   0.00   0.12    -0.00   0.00   0.00    -0.01  -0.01  -0.00
     2   6     0.00  -0.00  -0.10    -0.00   0.00   0.01     0.00  -0.01  -0.00
     3   6     0.00   0.00   0.02    -0.00   0.00  -0.01    -0.01   0.02   0.00
     4   6     0.00  -0.00  -0.06     0.00   0.00   0.06     0.11   0.05  -0.00
     5   6    -0.00  -0.00   0.04     0.00  -0.00  -0.10     0.07  -0.16   0.00
     6   6     0.00   0.00   0.04    -0.00  -0.00   0.10    -0.16  -0.09  -0.00
     7   6    -0.00   0.00  -0.09    -0.00   0.00  -0.06    -0.06   0.11  -0.00
     8   6     0.00  -0.00   0.08     0.00   0.00   0.01     0.02   0.01  -0.00
     9   6    -0.00  -0.00  -0.08     0.00  -0.00  -0.02    -0.00  -0.00   0.00
    10   1     0.00  -0.00  -0.48    -0.00   0.00   0.02    -0.03  -0.00  -0.00
    11   1     0.00  -0.00   0.51    -0.00  -0.00  -0.08     0.00  -0.06   0.00
    12   1     0.00  -0.00   0.32     0.00   0.00  -0.37     0.28   0.53   0.00
    13   1    -0.00  -0.00  -0.24     0.00  -0.00   0.60     0.27  -0.14  -0.00
    14   1     0.00   0.00  -0.17    -0.00  -0.00  -0.57    -0.29   0.03   0.00
    15   1    -0.00  -0.00   0.45    -0.00   0.00   0.38     0.09   0.60  -0.00
    16   1    -0.13   0.13   0.07    -0.04   0.01   0.01    -0.01  -0.02  -0.00
    17   1     0.13  -0.13   0.07     0.04  -0.01   0.01    -0.01  -0.02   0.00
                     22                     23                     24
                     A'                     A'                     A"
 Frequencies --   1080.0297              1125.7151              1146.9440
 Red. masses --      1.3436                 1.3833                 1.1470
 Frc consts  --      0.9234                 1.0328                 0.8890
 IR Inten    --      1.8123                 0.7148                 1.1195
  Atom  AN      X      Y      Z        X      Y      Z        X      Y      Z
     1   6    -0.01  -0.05   0.00     0.02  -0.03  -0.00    -0.00  -0.00  -0.07
     2   6    -0.06   0.01   0.00     0.00   0.03   0.00    -0.00  -0.00   0.01
     3   6     0.04  -0.01  -0.00    -0.05   0.00   0.00    -0.00  -0.00  -0.02
     4   6    -0.09   0.04   0.00     0.10   0.02   0.00     0.00  -0.00   0.00
     5   6     0.02  -0.02  -0.00    -0.05  -0.00  -0.00     0.00   0.00   0.00
     6   6     0.04   0.00   0.00    -0.04   0.03   0.00    -0.00  -0.00   0.00
     7   6    -0.07   0.03  -0.00     0.07  -0.07  -0.00     0.00   0.00  -0.02
     8   6     0.04  -0.05   0.00    -0.05   0.03  -0.00    -0.00   0.00   0.08
     9   6     0.03   0.02  -0.00     0.02  -0.04   0.00     0.00  -0.00  -0.00
    10   1     0.62  -0.28   0.00     0.27  -0.12   0.00    -0.00   0.00   0.12
    11   1    -0.05   0.63  -0.00     0.01   0.42  -0.00     0.00   0.00   0.05
    12   1    -0.10   0.03  -0.00     0.22   0.37  -0.00    -0.00  -0.00   0.01
    13   1     0.20   0.02   0.00    -0.40  -0.08   0.00     0.00   0.00  -0.01
    14   1     0.13  -0.11  -0.00    -0.31   0.32  -0.00    -0.00   0.00   0.02
    15   1    -0.04   0.11   0.00    -0.02  -0.38  -0.00    -0.00  -0.00   0.06
    16   1    -0.02  -0.07  -0.00    -0.00  -0.07   0.00     0.42   0.55   0.00
    17   1    -0.02  -0.07   0.00    -0.00  -0.07  -0.00    -0.42  -0.55   0.00
                     25                     26                     27
                     A'                     A'                     A'
 Frequencies --   1167.2868              1187.8687              1235.4382
 Red. masses --      1.1151                 2.0756                 1.9944
 Frc consts  --      0.8952                 1.7255                 1.7935
 IR Inten    --      0.0176                 1.3172                 2.0202
  Atom  AN      X      Y      Z        X      Y      Z        X      Y      Z
     1   6    -0.00  -0.01   0.00     0.03  -0.01   0.00    -0.09  -0.04  -0.00
     2   6    -0.01  -0.01  -0.00     0.05  -0.00  -0.00    -0.04  -0.04  -0.00
     3   6     0.01   0.01   0.00    -0.13  -0.07   0.00     0.15   0.09  -0.00
     4   6     0.01  -0.02  -0.00     0.03  -0.07  -0.00     0.03   0.05  -0.00
     5   6     0.05   0.00   0.00     0.00   0.07   0.00    -0.05  -0.06   0.00
     6   6    -0.05   0.02   0.00    -0.03  -0.09  -0.00    -0.01  -0.05  -0.00
     7   6    -0.01   0.00   0.00     0.05   0.05   0.00    -0.06   0.04  -0.00
     8   6    -0.02   0.05  -0.00    -0.07   0.19  -0.00     0.04   0.12   0.00
     9   6     0.01  -0.01  -0.00     0.05  -0.04  -0.00     0.10   0.06   0.00
    10   1     0.02  -0.01  -0.00    -0.17   0.07  -0.00    -0.00  -0.08  -0.00
    11   1    -0.01   0.01  -0.00     0.07   0.47  -0.00    -0.06  -0.33   0.00
    12   1    -0.10  -0.37   0.00    -0.01  -0.20   0.00     0.03   0.03   0.00
    13   1     0.63   0.11  -0.00     0.10   0.09  -0.00    -0.27  -0.11  -0.00
    14   1    -0.40   0.40  -0.00     0.25  -0.41   0.00     0.12  -0.21   0.00
    15   1    -0.12  -0.31  -0.00     0.09   0.19  -0.00    -0.25  -0.50  -0.00
    16   1    -0.03  -0.07   0.00    -0.18  -0.35  -0.00    -0.20  -0.35  -0.01
    17   1    -0.03  -0.07  -0.00    -0.18  -0.35   0.00    -0.20  -0.35   0.01
                     28                     29                     30
                     A'                     A'                     A'
 Frequencies --   1255.1369              1320.8895              1357.8797
 Red. masses --      1.9258                 1.8607                 2.3506
 Frc consts  --      1.7875                 1.9127                 2.5536
 IR Inten    --      2.2493                 0.1368                 3.9533
  Atom  AN      X      Y      Z        X      Y      Z        X      Y      Z
     1   6    -0.00   0.01   0.00    -0.06  -0.06   0.00    -0.13  -0.03  -0.00
     2   6     0.05  -0.04   0.00     0.04   0.02   0.00     0.08   0.14  -0.00
     3   6    -0.04  -0.13  -0.00    -0.09   0.10   0.00    -0.13   0.02  -0.00
     4   6    -0.07  -0.02  -0.00     0.02   0.01   0.00    -0.02  -0.14  -0.00
     5   6     0.02   0.05   0.00     0.07  -0.01  -0.00     0.07   0.03   0.00
     6   6    -0.02   0.05  -0.00     0.02   0.03   0.00    -0.10   0.07  -0.00
     7   6    -0.03  -0.04  -0.00    -0.01  -0.10   0.00     0.00  -0.04  -0.00
     8   6     0.11  -0.09   0.00    -0.02  -0.09   0.00     0.12   0.05   0.00
     9   6     0.04   0.16  -0.00     0.10   0.13  -0.00     0.00  -0.02   0.00
    10   1    -0.43   0.17  -0.00     0.02  -0.10  -0.00     0.51  -0.27   0.00
    11   1     0.07   0.15  -0.00     0.04  -0.09  -0.00     0.07  -0.49   0.00
    12   1     0.12   0.59   0.00    -0.12  -0.41  -0.00     0.10   0.21   0.00
    13   1     0.23   0.10  -0.00    -0.32  -0.09   0.00     0.14   0.05  -0.00
    14   1    -0.02   0.06   0.00    -0.18   0.26  -0.00     0.21  -0.27   0.00
    15   1    -0.09  -0.24   0.00     0.18   0.49   0.00    -0.04  -0.18  -0.00
    16   1    -0.25  -0.18   0.01    -0.21  -0.27  -0.00     0.17  -0.01  -0.09
    17   1    -0.25  -0.18  -0.01    -0.21  -0.27   0.00     0.17  -0.01   0.09
                     31                     32                     33
                     A'                     A'                     A'
 Frequencies --   1408.5132              1420.9644              1500.4179
 Red. masses --      2.6967                 1.2462                 2.9169
 Frc consts  --      3.1521                 1.4825                 3.8690
 IR Inten    --      1.2828                10.8391                 9.2251
  Atom  AN      X      Y      Z        X      Y      Z        X      Y      Z
     1   6     0.12  -0.02  -0.00     0.01  -0.00   0.00    -0.06   0.06   0.00
     2   6    -0.08  -0.11  -0.00    -0.01  -0.03   0.00     0.00  -0.06   0.00
     3   6    -0.02   0.16  -0.00    -0.01   0.05   0.00     0.17  -0.04   0.00
     4   6    -0.02  -0.04  -0.00    -0.01  -0.03   0.00    -0.13  -0.13  -0.00
     5   6     0.15  -0.03   0.00     0.05  -0.00   0.00     0.10   0.13   0.00
     6   6    -0.11   0.08  -0.00    -0.05   0.03   0.00     0.07  -0.07  -0.00
     7   6    -0.06  -0.08  -0.00    -0.01  -0.03   0.00    -0.09  -0.13   0.00
     8   6     0.16   0.05   0.00     0.04   0.03  -0.00    -0.05   0.18   0.00
     9   6    -0.11  -0.00   0.00     0.05  -0.07   0.00     0.00  -0.05  -0.00
    10   1    -0.36   0.16  -0.00    -0.02   0.00   0.00     0.11   0.01   0.00
    11   1    -0.08   0.44   0.00    -0.01   0.08  -0.00     0.01  -0.08  -0.00
    12   1    -0.07  -0.17   0.00    -0.00  -0.01  -0.00     0.05   0.45   0.00
    13   1    -0.31  -0.13  -0.00    -0.06  -0.03  -0.00    -0.27   0.07  -0.00
    14   1     0.08  -0.15   0.00     0.05  -0.08  -0.00    -0.34   0.39   0.00
    15   1    -0.07  -0.10   0.00    -0.01  -0.02  -0.00     0.09   0.48   0.00
    16   1     0.27  -0.09  -0.26    -0.40   0.35   0.44     0.07  -0.04  -0.03
    17   1     0.27  -0.09   0.26    -0.40   0.35  -0.44     0.07  -0.04   0.03
                     34                     35                     36
                     A'                     A'                     A'
 Frequencies --   1503.1916              1621.5174              1656.8341
 Red. masses --      2.7428                 5.6023                 6.4301
 Frc consts  --      3.6515                 8.6787                10.3998
 IR Inten    --      6.3734                 0.3087                 0.4774
  Atom  AN      X      Y      Z        X      Y      Z        X      Y      Z
     1   6     0.03  -0.02   0.00    -0.24   0.27  -0.00     0.19  -0.21  -0.00
     2   6    -0.04  -0.04   0.00     0.17  -0.27  -0.00    -0.14   0.29   0.00
     3   6     0.11   0.15  -0.00     0.07  -0.12  -0.00     0.20  -0.17  -0.00
     4   6     0.04  -0.12  -0.00    -0.03   0.14   0.00    -0.14   0.02   0.00
     5   6    -0.14  -0.06  -0.00     0.17  -0.07  -0.00     0.29   0.02   0.00
     6   6    -0.02   0.18   0.00    -0.20   0.15   0.00    -0.21   0.09  -0.00
     7   6     0.05  -0.15  -0.00     0.12  -0.00  -0.00     0.14   0.05  -0.00
     8   6    -0.15  -0.00   0.00    -0.18  -0.05  -0.00    -0.25  -0.04  -0.00
     9   6     0.03   0.02  -0.00     0.04  -0.01   0.00     0.01   0.05   0.00
    10   1    -0.07   0.01  -0.00     0.36   0.12  -0.00    -0.24  -0.09   0.00
    11   1    -0.05   0.04  -0.00     0.24   0.17   0.00    -0.20  -0.31  -0.00
    12   1     0.20   0.31   0.00    -0.16  -0.21   0.00    -0.15   0.07  -0.00
    13   1     0.61   0.09   0.00    -0.18  -0.15   0.00    -0.34  -0.11  -0.00
    14   1     0.36  -0.21   0.00     0.22  -0.32  -0.00     0.08  -0.24  -0.00
    15   1     0.20   0.26   0.00     0.10  -0.15  -0.00     0.09  -0.16  -0.00
    16   1    -0.02  -0.12  -0.04     0.14  -0.01  -0.07    -0.12  -0.10   0.00
    17   1    -0.02  -0.12   0.04     0.14  -0.01   0.07    -0.12  -0.10  -0.00
                     37                     38                     39
                     A'                     A'                     A"
 Frequencies --   1675.4093              3003.2701              3039.7350
 Red. masses --      7.1731                 1.0623                 1.1028
 Frc consts  --     11.8631                 5.6450                 6.0038
 IR Inten    --      2.4567                10.6886                 6.9497
  Atom  AN      X      Y      Z        X      Y      Z        X      Y      Z
     1   6    -0.03   0.04  -0.00    -0.00  -0.00   0.00    -0.00  -0.00  -0.00
     2   6     0.02  -0.12  -0.00    -0.00  -0.00   0.00    -0.00  -0.00  -0.00
     3   6    -0.01   0.33   0.00     0.00  -0.00   0.00     0.00  -0.00  -0.00
     4   6    -0.09  -0.34   0.00    -0.00   0.00  -0.00    -0.00   0.00  -0.00
     5   6     0.11   0.14  -0.00     0.00   0.00  -0.00    -0.00   0.00  -0.00
     6   6     0.02  -0.19   0.00    -0.00   0.00  -0.00     0.00   0.00   0.00
     7   6     0.13   0.35  -0.00     0.00  -0.00  -0.00     0.00  -0.00   0.00
     8   6    -0.16  -0.28  -0.00     0.00  -0.00  -0.00    -0.00  -0.00  -0.00
     9   6     0.02   0.04   0.00    -0.06   0.04   0.00    -0.00   0.00  -0.09
    10   1     0.02   0.04   0.00     0.00   0.02  -0.00     0.00   0.00   0.00
    11   1     0.03   0.18   0.00     0.01  -0.00   0.00     0.00  -0.00  -0.00
    12   1     0.16   0.36  -0.00     0.00   0.00   0.00     0.00  -0.00   0.00
    13   1    -0.15   0.10   0.00     0.00  -0.00   0.00     0.00  -0.00  -0.00
    14   1    -0.18   0.02  -0.00    -0.00  -0.00   0.00    -0.00  -0.00  -0.00
    15   1    -0.10  -0.42   0.00    -0.01   0.00   0.00    -0.00   0.00  -0.00
    16   1    -0.01  -0.03  -0.02     0.32  -0.25   0.57     0.34  -0.27   0.56
    17   1    -0.01  -0.03   0.02     0.32  -0.25  -0.57    -0.34   0.27   0.56
                     40                     41                     42
                     A'                     A'                     A'
 Frequencies --   3161.6132              3168.4289              3179.0840
 Red. masses --      1.0861                 1.0894                 1.0938
 Frc consts  --      6.3967                 6.4433                 6.5129
 IR Inten    --      3.7456                 3.1125                27.7555
  Atom  AN      X      Y      Z        X      Y      Z        X      Y      Z
     1   6    -0.00   0.00   0.00    -0.00  -0.00  -0.00    -0.00  -0.00   0.00
     2   6     0.00  -0.00   0.00     0.00  -0.00  -0.00     0.00  -0.00   0.00
     3   6     0.00  -0.00   0.00    -0.00  -0.00  -0.00     0.00  -0.00  -0.00
     4   6    -0.03   0.01  -0.00    -0.05   0.02   0.00    -0.05   0.02  -0.00
     5   6     0.01  -0.04  -0.00     0.01  -0.04   0.00    -0.00   0.03   0.00
     6   6     0.03   0.03   0.00    -0.01  -0.00  -0.00    -0.03  -0.03   0.00
     7   6    -0.05   0.02   0.00     0.05  -0.02  -0.00    -0.03   0.01   0.00
     8   6     0.00   0.00   0.00    -0.00  -0.00  -0.00     0.00   0.00   0.00
     9   6    -0.00   0.00  -0.00     0.00  -0.00   0.00    -0.00   0.00  -0.00
    10   1    -0.00  -0.00   0.00     0.00   0.00  -0.00     0.00   0.01   0.00
    11   1    -0.01   0.00  -0.00    -0.02   0.00   0.00    -0.03   0.00  -0.00
    12   1     0.31  -0.10  -0.00     0.58  -0.20   0.00     0.59  -0.20  -0.00
    13   1    -0.09   0.43  -0.00    -0.10   0.50   0.00     0.07  -0.38  -0.00
    14   1    -0.39  -0.35  -0.00     0.06   0.05   0.00     0.40   0.37  -0.00
    15   1     0.62  -0.20   0.00    -0.57   0.18  -0.00     0.37  -0.12  -0.00
    16   1     0.00  -0.00   0.00    -0.00   0.00  -0.00     0.00  -0.00   0.00
    17   1     0.00  -0.00  -0.00    -0.00   0.00   0.00     0.00  -0.00  -0.00
                     43                     44                     45
                     A'                     A'                     A'
 Frequencies --   3190.7356              3193.4312              3216.1183
 Red. masses --      1.0980                 1.0881                 1.1041
 Frc consts  --      6.5859                 6.5380                 6.7285
 IR Inten    --     21.4788                 4.8643                13.2580
  Atom  AN      X      Y      Z        X      Y      Z        X      Y      Z
     1   6     0.00   0.01   0.00     0.02   0.04  -0.00    -0.02  -0.07   0.00
     2   6    -0.01   0.00   0.00    -0.07   0.00  -0.00    -0.06   0.01   0.00
     3   6     0.00   0.00   0.00     0.00   0.00   0.00     0.00   0.00   0.00
     4   6     0.03  -0.01  -0.00    -0.01   0.00  -0.00    -0.00   0.00  -0.00
     5   6     0.01  -0.05  -0.00    -0.00   0.01   0.00     0.00   0.00  -0.00
     6   6    -0.04  -0.04   0.00     0.01   0.00  -0.00     0.00   0.00  -0.00
     7   6    -0.02   0.01   0.00     0.00  -0.00  -0.00     0.00  -0.00  -0.00
     8   6     0.00   0.00   0.00     0.00  -0.00  -0.00     0.00   0.00  -0.00
     9   6    -0.00   0.00  -0.00    -0.00   0.00   0.00     0.00  -0.00   0.00
    10   1    -0.03  -0.07   0.00    -0.20  -0.54  -0.00     0.27   0.76  -0.00
    11   1     0.12  -0.00  -0.00     0.80  -0.03   0.00     0.58  -0.02   0.00
    12   1    -0.31   0.10  -0.00     0.08  -0.03   0.00     0.01  -0.01   0.00
    13   1    -0.12   0.61  -0.00     0.02  -0.09   0.00     0.00  -0.01   0.00
    14   1     0.48   0.43  -0.00    -0.06  -0.05   0.00    -0.00  -0.00   0.00
    15   1     0.25  -0.08   0.00    -0.03   0.01   0.00    -0.00   0.00   0.00
    16   1     0.00  -0.00   0.00     0.00  -0.00   0.00    -0.01   0.00  -0.01
    17   1     0.00  -0.00  -0.00     0.00  -0.00  -0.00    -0.01   0.00   0.01

 -------------------
 - Thermochemistry -
 -------------------
 Temperature   298.150 Kelvin.  Pressure   0.98700 Atm.
 Thermochemistry will use frequencies scaled by 0.9610.
 Atom     1 has atomic number  6 and mass  12.00000
 Atom     2 has atomic number  6 and mass  12.00000
 Atom     3 has atomic number  6 and mass  12.00000
 Atom     4 has atomic number  6 and mass  12.00000
 Atom     5 has atomic number  6 and mass  12.00000
 Atom     6 has atomic number  6 and mass  12.00000
 Atom     7 has atomic number  6 and mass  12.00000
 Atom     8 has atomic number  6 and mass  12.00000
 Atom     9 has atomic number  6 and mass  12.00000
 Atom    10 has atomic number  1 and mass   1.00783
 Atom    11 has atomic number  1 and mass   1.00783
 Atom    12 has atomic number  1 and mass   1.00783
 Atom    13 has atomic number  1 and mass   1.00783
 Atom    14 has atomic number  1 and mass   1.00783
 Atom    15 has atomic number  1 and mass   1.00783
 Atom    16 has atomic number  1 and mass   1.00783
 Atom    17 has atomic number  1 and mass   1.00783
 Molecular mass:   116.06260 amu.
 Principal axes and moments of inertia in atomic units:
                           1         2         3
     Eigenvalues --   479.428441148.239511616.34370
           X            0.30776   0.95146   0.00000
           Y            0.95146  -0.30776   0.00000
           Z            0.00000   0.00000   1.00000
 This molecule is an asymmetric top.
 Rotational symmetry number  1.
 Warning -- assumption of classical behavior for rotation
           may cause significant error
 Rotational temperatures (Kelvin)      0.18066     0.07543     0.05359
 Rotational constants (GHZ):           3.76436     1.57175     1.11656
 Zero-point vibrational energy     354663.1 (Joules/Mol)
                                   84.76651 (Kcal/Mol)
 Warning -- explicit consideration of   8 degrees of freedom as
           vibrations may cause significant error
 Vibrational temperatures:    273.12   296.09   538.00   554.06   601.74
          (Kelvin)            753.99   787.67   836.22   987.70  1030.44
                             1035.70  1101.49  1169.08  1208.93  1220.99
                             1312.36  1332.02  1339.50  1355.99  1398.38
                             1447.41  1493.32  1556.49  1585.84  1613.97
                             1642.42  1708.20  1735.43  1826.35  1877.49
                             1947.50  1964.72  2074.57  2078.41  2242.01
                             2290.85  2316.53  4152.52  4202.93  4371.45
                             4380.87  4395.61  4411.72  4415.44  4446.81
 
 Zero-point correction=                           0.135084 (Hartree/Particle)
 Thermal correction to Energy=                    0.141689
 Thermal correction to Enthalpy=                  0.142633
 Thermal correction to Gibbs Free Energy=         0.104471
 Sum of electronic and zero-point Energies=           -347.393953
 Sum of electronic and thermal Energies=              -347.387348
 Sum of electronic and thermal Enthalpies=            -347.386404
 Sum of electronic and thermal Free Energies=         -347.424566
 
                     E (Thermal)             CV                S
                      KCal/Mol        Cal/Mol-Kelvin    Cal/Mol-Kelvin
 Total                   88.911             27.834             80.320
 Electronic               0.000              0.000              0.000
 Translational            0.889              2.981             40.188
 Rotational               0.889              2.981             28.278
 Vibrational             87.134             21.872             11.854
 Vibration     1          0.633              1.854              2.230
 Vibration     2          0.640              1.832              2.081
 Vibration     3          0.745              1.526              1.064
 Vibration     4          0.754              1.502              1.019
 Vibration     5          0.781              1.431              0.898
 Vibration     6          0.879              1.197              0.601
 Vibration     7          0.903              1.145              0.549
 Vibration     8          0.938              1.072              0.483
                       Q            Log10(Q)             Ln(Q)
 Total Bot       0.884961D-48        -48.053076       -110.646296
 Total V=0       0.120562D+15         14.081211         32.423187
 Vib (Bot)       0.526331D-61        -61.278741       -141.099517
 Vib (Bot)    1  0.105439D+01          0.023001          0.052962
 Vib (Bot)    2  0.966738D+00         -0.014691         -0.033828
 Vib (Bot)    3  0.485573D+00         -0.313745         -0.722425
 Vib (Bot)    4  0.467834D+00         -0.329908         -0.759642
 Vib (Bot)    5  0.420407D+00         -0.376331         -0.866533
 Vib (Bot)    6  0.306867D+00         -0.513050         -1.181342
 Vib (Bot)    7  0.287356D+00         -0.541580         -1.247035
 Vib (Bot)    8  0.261869D+00         -0.581915         -1.339910
 Vib (V=0)       0.717043D+01          0.855545          1.969966
 Vib (V=0)    1  0.166694D+01          0.221919          0.510987
 Vib (V=0)    2  0.158838D+01          0.200956          0.462718
 Vib (V=0)    3  0.119698D+01          0.078087          0.179802
 Vib (V=0)    4  0.118474D+01          0.073623          0.169523
 Vib (V=0)    5  0.115325D+01          0.061925          0.142588
 Vib (V=0)    6  0.108666D+01          0.036093          0.083107
 Vib (V=0)    7  0.107669D+01          0.032091          0.073893
 Vib (V=0)    8  0.106442D+01          0.027115          0.062435
 Electronic      0.100000D+01          0.000000          0.000000
 Translational   0.497938D+08          7.697175         17.723401
 Rotational      0.337669D+06          5.528491         12.729820
 ***** Axes restored to original set *****
 -------------------------------------------------------------------
 Center     Atomic                   Forces (Hartrees/Bohr)
 Number     Number              X              Y              Z
 -------------------------------------------------------------------
      1        6           0.000010057   -0.000007290    0.000000170
      2        6          -0.000035322    0.000144619   -0.000000349
      3        6          -0.000054448   -0.000006899   -0.000001018
      4        6           0.000083219    0.000039695    0.000001617
      5        6          -0.000071577   -0.000034636   -0.000001392
      6        6          -0.000038793    0.000048499   -0.000000614
      7        6           0.000063588   -0.000018329    0.000001134
      8        6          -0.000021037   -0.000009499   -0.000000408
      9        6           0.000033262   -0.000016064    0.000000580
     10        1           0.000013444    0.000020204    0.000000290
     11        1           0.000004020   -0.000008992    0.000000055
     12        1          -0.000018871    0.000002475   -0.000000343
     13        1           0.000007021   -0.000001923    0.000000125
     14        1          -0.000000811   -0.000002955   -0.000000021
     15        1          -0.000007487    0.000002636   -0.000000133
     16        1           0.000009123   -0.000076650    0.000420217
     17        1           0.000024612   -0.000074894   -0.000419911
 -------------------------------------------------------------------
 Cartesian Forces:  Max     0.000420217 RMS     0.000090375
 FormGI is forming the generalized inverse of G from B-inverse, IUseBI=4.

 GradGradGradGradGradGradGradGradGradGradGradGradGradGradGradGradGradGrad
 Berny optimization.
 Internal  Forces:  Max     0.000291225 RMS     0.000064073
 Search for a local minimum.
 Step number   1 out of a maximum of    2
 All quantities printed in internal units (Hartrees-Bohrs-Radians)
 Second derivative matrix not updated -- analytic derivatives used.
 ITU=  0
     Eigenvalues ---    0.00638   0.00993   0.01388   0.01672   0.01785
     Eigenvalues ---    0.01873   0.02175   0.02215   0.02530   0.02962
     Eigenvalues ---    0.02995   0.03175   0.04950   0.05428   0.06863
     Eigenvalues ---    0.08191   0.09813   0.10641   0.10803   0.11059
     Eigenvalues ---    0.12202   0.12351   0.16978   0.19303   0.19441
     Eigenvalues ---    0.20399   0.22268   0.25101   0.26712   0.30649
     Eigenvalues ---    0.32079   0.32871   0.34429   0.35331   0.35523
     Eigenvalues ---    0.35608   0.35808   0.36174   0.36412   0.38128
     Eigenvalues ---    0.42016   0.45750   0.47800   0.51580   0.54940
 Angle between quadratic step and forces=  42.58 degrees.
 Linear search not attempted -- first point.
 Iteration  1 RMS(Cart)=  0.00062961 RMS(Int)=  0.00000072
 Iteration  2 RMS(Cart)=  0.00000061 RMS(Int)=  0.00000021
 ClnCor:  largest displacement from symmetrization is 3.41D-08 for atom    14.
 Variable       Old X    -DE/DX   Delta X   Delta X   Delta X     New X
                                 (Linear)    (Quad)   (Total)
    R1        2.55356   0.00009   0.00000   0.00017   0.00017   2.55373
    R2        2.85583   0.00011   0.00000   0.00004   0.00004   2.85587
    R3        2.06445   0.00002   0.00000   0.00005   0.00005   2.06449
    R4        2.77279   0.00001   0.00000   0.00009   0.00008   2.77288
    R5        2.06515  -0.00001   0.00000  -0.00004  -0.00004   2.06511
    R6        2.64209  -0.00000   0.00000  -0.00008  -0.00008   2.64201
    R7        2.67376   0.00006   0.00000   0.00014   0.00014   2.67389
    R8        2.64584   0.00005   0.00000   0.00018   0.00018   2.64601
    R9        2.06789   0.00000   0.00000   0.00001   0.00001   2.06790
   R10        2.64762  -0.00002   0.00000  -0.00009  -0.00009   2.64753
   R11        2.06806  -0.00001   0.00000  -0.00003  -0.00003   2.06803
   R12        2.65206   0.00006   0.00000   0.00017   0.00017   2.65223
   R13        2.06771   0.00000   0.00000   0.00001   0.00001   2.06772
   R14        2.62783  -0.00001   0.00000  -0.00006  -0.00006   2.62777
   R15        2.06876  -0.00000   0.00000  -0.00001  -0.00001   2.06875
   R16        2.85660   0.00008   0.00000   0.00002   0.00002   2.85662
   R17        2.09447  -0.00029   0.00000  -0.00078  -0.00078   2.09368
   R18        2.09447  -0.00029   0.00000  -0.00078  -0.00078   2.09368
    A1        1.93071   0.00006   0.00000   0.00003   0.00003   1.93074
    A2        2.19918  -0.00005   0.00000  -0.00024  -0.00024   2.19893
    A3        2.15330  -0.00001   0.00000   0.00022   0.00022   2.15352
    A4        1.91484  -0.00003   0.00000  -0.00008  -0.00008   1.91476
    A5        2.20076   0.00001   0.00000  -0.00005  -0.00005   2.20071
    A6        2.16759   0.00002   0.00000   0.00013   0.00013   2.16772
    A7        2.29389  -0.00003   0.00000  -0.00015  -0.00015   2.29375
    A8        1.88664   0.00001   0.00000   0.00004   0.00004   1.88668
    A9        2.10266   0.00003   0.00000   0.00010   0.00010   2.10276
   A10        2.07236  -0.00000   0.00000   0.00000   0.00000   2.07236
   A11        2.10716   0.00002   0.00000   0.00016   0.00016   2.10732
   A12        2.10367  -0.00002   0.00000  -0.00016  -0.00016   2.10351
   A13        2.10714  -0.00002   0.00000  -0.00009  -0.00009   2.10705
   A14        2.08895   0.00001   0.00000   0.00002   0.00002   2.08896
   A15        2.08710   0.00001   0.00000   0.00007   0.00007   2.08717
   A16        2.10477   0.00002   0.00000   0.00007   0.00007   2.10484
   A17        2.08893  -0.00001   0.00000   0.00003   0.00003   2.08896
   A18        2.08949  -0.00001   0.00000  -0.00010  -0.00010   2.08939
   A19        2.07545   0.00001   0.00000   0.00002   0.00002   2.07547
   A20        2.09848  -0.00001   0.00000  -0.00012  -0.00012   2.09836
   A21        2.10926   0.00000   0.00000   0.00010   0.00010   2.10936
   A22        2.10401  -0.00003   0.00000  -0.00011  -0.00011   2.10390
   A23        1.89708   0.00006   0.00000  -0.00003  -0.00003   1.89706
   A24        2.28209  -0.00002   0.00000   0.00013   0.00013   2.28223
   A25        1.79551  -0.00009   0.00000   0.00003   0.00003   1.79554
   A26        1.95177   0.00010   0.00000   0.00124   0.00124   1.95301
   A27        1.95177   0.00010   0.00000   0.00124   0.00124   1.95301
   A28        1.95610   0.00007   0.00000   0.00091   0.00091   1.95701
   A29        1.95610   0.00007   0.00000   0.00091   0.00091   1.95701
   A30        1.85532  -0.00023   0.00000  -0.00402  -0.00402   1.85130
    D1        0.00000   0.00000   0.00000  -0.00000   0.00000   0.00000
    D2        3.14159  -0.00000   0.00000  -0.00000   0.00000   3.14159
    D3        3.14159   0.00000   0.00000  -0.00000   0.00000   3.14159
    D4       -0.00000   0.00000   0.00000  -0.00000   0.00000   0.00000
    D5       -0.00000   0.00000   0.00000   0.00000   0.00000   0.00000
    D6        2.10235   0.00008   0.00000   0.00172   0.00172   2.10406
    D7       -2.10235  -0.00008   0.00000  -0.00172  -0.00172  -2.10406
    D8        3.14159  -0.00000   0.00000   0.00000   0.00000   3.14159
    D9       -1.03925   0.00008   0.00000   0.00172   0.00172  -1.03753
   D10        1.03925  -0.00008   0.00000  -0.00172  -0.00172   1.03753
   D11        3.14159  -0.00000   0.00000  -0.00000   0.00000   3.14159
   D12       -0.00000  -0.00000   0.00000  -0.00000   0.00000   0.00000
   D13       -0.00000  -0.00000   0.00000  -0.00000   0.00000   0.00000
   D14        3.14159  -0.00000   0.00000  -0.00000   0.00000   3.14159
   D15        3.14159   0.00000   0.00000   0.00000   0.00000   3.14159
   D16        0.00000  -0.00000   0.00000  -0.00000  -0.00000   0.00000
   D17        0.00000  -0.00000   0.00000  -0.00000   0.00000   0.00000
   D18        3.14159  -0.00000   0.00000  -0.00000   0.00000   3.14159
   D19        3.14159   0.00000   0.00000   0.00000   0.00000   3.14159
   D20        0.00000   0.00000   0.00000   0.00000   0.00000   0.00000
   D21       -0.00000   0.00000   0.00000   0.00000   0.00000   0.00000
   D22        3.14159   0.00000   0.00000   0.00000   0.00000   3.14159
   D23       -0.00000  -0.00000   0.00000  -0.00000   0.00000   0.00000
   D24        3.14159  -0.00000   0.00000  -0.00000   0.00000   3.14159
   D25        3.14159   0.00000   0.00000   0.00000   0.00000  -3.14159
   D26        0.00000   0.00000   0.00000  -0.00000  -0.00000   0.00000
   D27        0.00000   0.00000   0.00000   0.00000  -0.00000   0.00000
   D28        3.14159   0.00000   0.00000   0.00000   0.00000  -3.14159
   D29        3.14159   0.00000   0.00000   0.00000   0.00000   3.14159
   D30       -0.00000   0.00000   0.00000   0.00000   0.00000  -0.00000
   D31        0.00000   0.00000   0.00000  -0.00000   0.00000   0.00000
   D32        3.14159  -0.00000   0.00000  -0.00000   0.00000   3.14159
   D33        3.14159   0.00000   0.00000   0.00000  -0.00000   3.14159
   D34        0.00000   0.00000   0.00000  -0.00000  -0.00000   0.00000
   D35        0.00000  -0.00000   0.00000  -0.00000   0.00000   0.00000
   D36        3.14159  -0.00000   0.00000  -0.00000   0.00000   3.14159
   D37        3.14159  -0.00000   0.00000  -0.00000   0.00000   3.14159
   D38       -0.00000  -0.00000   0.00000  -0.00000   0.00000   0.00000
   D39       -0.00000  -0.00000   0.00000  -0.00000   0.00000   0.00000
   D40       -2.09936  -0.00010   0.00000  -0.00195  -0.00195  -2.10131
   D41        2.09936   0.00010   0.00000   0.00195   0.00195   2.10131
   D42        3.14159  -0.00000   0.00000  -0.00000   0.00000  -3.14159
   D43        1.04223  -0.00010   0.00000  -0.00195  -0.00195   1.04028
   D44       -1.04223   0.00010   0.00000   0.00195   0.00195  -1.04028
         Item               Value     Threshold  Converged?
 Maximum Force            0.000291     0.000450     YES
 RMS     Force            0.000064     0.000300     YES
 Maximum Displacement     0.003168     0.001800     NO 
 RMS     Displacement     0.000630     0.001200     YES
 Predicted change in Energy=-1.591732D-06
                           ----------------------------
                           ! Non-Optimized Parameters !
                           ! (Angstroms and Degrees)  !
 --------------------------                            --------------------------
 ! Name  Definition              Value          Derivative Info.                !
 --------------------------------------------------------------------------------
 ! R1    R(1,2)                  1.3514         -DE/DX =    0.0001              !
 ! R2    R(1,9)                  1.5113         -DE/DX =    0.0001              !
 ! R3    R(1,10)                 1.0925         -DE/DX =    0.0                 !
 ! R4    R(2,3)                  1.4673         -DE/DX =    0.0                 !
 ! R5    R(2,11)                 1.0928         -DE/DX =    0.0                 !
 ! R6    R(3,4)                  1.3981         -DE/DX =    0.0                 !
 ! R7    R(3,8)                  1.415          -DE/DX =    0.0001              !
 ! R8    R(4,5)                  1.4002         -DE/DX =    0.0                 !
 ! R9    R(4,12)                 1.0943         -DE/DX =    0.0                 !
 ! R10   R(5,6)                  1.401          -DE/DX =    0.0                 !
 ! R11   R(5,13)                 1.0944         -DE/DX =    0.0                 !
 ! R12   R(6,7)                  1.4035         -DE/DX =    0.0001              !
 ! R13   R(6,14)                 1.0942         -DE/DX =    0.0                 !
 ! R14   R(7,8)                  1.3906         -DE/DX =    0.0                 !
 ! R15   R(7,15)                 1.0947         -DE/DX =    0.0                 !
 ! R16   R(8,9)                  1.5117         -DE/DX =    0.0001              !
 ! R17   R(9,16)                 1.1079         -DE/DX =   -0.0003              !
 ! R18   R(9,17)                 1.1079         -DE/DX =   -0.0003              !
 ! A1    A(2,1,9)              110.623          -DE/DX =    0.0001              !
 ! A2    A(2,1,10)             125.9895         -DE/DX =    0.0                 !
 ! A3    A(9,1,10)             123.3874         -DE/DX =    0.0                 !
 ! A4    A(1,2,3)              109.7076         -DE/DX =    0.0                 !
 ! A5    A(1,2,11)             126.0912         -DE/DX =    0.0                 !
 ! A6    A(3,2,11)             124.2012         -DE/DX =    0.0                 !
 ! A7    A(2,3,4)              131.4219         -DE/DX =    0.0                 !
 ! A8    A(2,3,8)              108.0988         -DE/DX =    0.0                 !
 ! A9    A(4,3,8)              120.4793         -DE/DX =    0.0                 !
 ! A10   A(3,4,5)              118.7373         -DE/DX =    0.0                 !
 ! A11   A(3,4,12)             120.7404         -DE/DX =    0.0                 !
 ! A12   A(5,4,12)             120.5222         -DE/DX =    0.0                 !
 ! A13   A(4,5,6)              120.725          -DE/DX =    0.0                 !
 ! A14   A(4,5,13)             119.6889         -DE/DX =    0.0                 !
 ! A15   A(6,5,13)             119.5862         -DE/DX =    0.0                 !
 ! A16   A(5,6,7)              120.5984         -DE/DX =    0.0                 !
 ! A17   A(5,6,14)             119.6886         -DE/DX =    0.0                 !
 ! A18   A(7,6,14)             119.7131         -DE/DX =    0.0                 !
 ! A19   A(6,7,8)              118.9154         -DE/DX =    0.0                 !
 ! A20   A(6,7,15)             120.2272         -DE/DX =    0.0                 !
 ! A21   A(8,7,15)             120.8574         -DE/DX =    0.0                 !
 ! A22   A(3,8,7)              120.5446         -DE/DX =    0.0                 !
 ! A23   A(3,8,9)              108.6934         -DE/DX =    0.0001              !
 ! A24   A(7,8,9)              130.762          -DE/DX =    0.0                 !
 ! A25   A(1,9,8)              102.8771         -DE/DX =   -0.0001              !
 ! A26   A(1,9,16)             111.899          -DE/DX =    0.0001              !
 ! A27   A(1,9,17)             111.899          -DE/DX =    0.0001              !
 ! A28   A(8,9,16)             112.1285         -DE/DX =    0.0001              !
 ! A29   A(8,9,17)             112.1285         -DE/DX =    0.0001              !
 ! A30   A(16,9,17)            106.0719         -DE/DX =   -0.0002              !
 ! D1    D(9,1,2,3)              0.0            -DE/DX =    0.0                 !
 ! D2    D(9,1,2,11)           180.0            -DE/DX =    0.0                 !
 ! D3    D(10,1,2,3)           180.0            -DE/DX =    0.0                 !
 ! D4    D(10,1,2,11)            0.0            -DE/DX =    0.0                 !
 ! D5    D(2,1,9,8)              0.0            -DE/DX =    0.0                 !
 ! D6    D(2,1,9,16)           120.5539         -DE/DX =    0.0001              !
 ! D7    D(2,1,9,17)          -120.5539         -DE/DX =   -0.0001              !
 ! D8    D(10,1,9,8)           180.0            -DE/DX =    0.0                 !
 ! D9    D(10,1,9,16)          -59.4461         -DE/DX =    0.0001              !
 ! D10   D(10,1,9,17)           59.4461         -DE/DX =   -0.0001              !
 ! D11   D(1,2,3,4)            180.0            -DE/DX =    0.0                 !
 ! D12   D(1,2,3,8)              0.0            -DE/DX =    0.0                 !
 ! D13   D(11,2,3,4)             0.0            -DE/DX =    0.0                 !
 ! D14   D(11,2,3,8)           180.0            -DE/DX =    0.0                 !
 ! D15   D(2,3,4,5)            180.0            -DE/DX =    0.0                 !
 ! D16   D(2,3,4,12)             0.0            -DE/DX =    0.0                 !
 ! D17   D(8,3,4,5)              0.0            -DE/DX =    0.0                 !
 ! D18   D(8,3,4,12)           180.0            -DE/DX =    0.0                 !
 ! D19   D(2,3,8,7)            180.0            -DE/DX =    0.0                 !
 ! D20   D(2,3,8,9)              0.0            -DE/DX =    0.0                 !
 ! D21   D(4,3,8,7)              0.0            -DE/DX =    0.0                 !
 ! D22   D(4,3,8,9)            180.0            -DE/DX =    0.0                 !
 ! D23   D(3,4,5,6)              0.0            -DE/DX =    0.0                 !
 ! D24   D(3,4,5,13)           180.0            -DE/DX =    0.0                 !
 ! D25   D(12,4,5,6)          -180.0            -DE/DX =    0.0                 !
 ! D26   D(12,4,5,13)            0.0            -DE/DX =    0.0                 !
 ! D27   D(4,5,6,7)              0.0            -DE/DX =    0.0                 !
 ! D28   D(4,5,6,14)          -180.0            -DE/DX =    0.0                 !
 ! D29   D(13,5,6,7)           180.0            -DE/DX =    0.0                 !
 ! D30   D(13,5,6,14)            0.0            -DE/DX =    0.0                 !
 ! D31   D(5,6,7,8)              0.0            -DE/DX =    0.0                 !
 ! D32   D(5,6,7,15)           180.0            -DE/DX =    0.0                 !
 ! D33   D(14,6,7,8)           180.0            -DE/DX =    0.0                 !
 ! D34   D(14,6,7,15)            0.0            -DE/DX =    0.0                 !
 ! D35   D(6,7,8,3)              0.0            -DE/DX =    0.0                 !
 ! D36   D(6,7,8,9)            180.0            -DE/DX =    0.0                 !
 ! D37   D(15,7,8,3)           180.0            -DE/DX =    0.0                 !
 ! D38   D(15,7,8,9)             0.0            -DE/DX =    0.0                 !
 ! D39   D(3,8,9,1)              0.0            -DE/DX =    0.0                 !
 ! D40   D(3,8,9,16)          -120.3962         -DE/DX =   -0.0001              !
 ! D41   D(3,8,9,17)           120.3962         -DE/DX =    0.0001              !
 ! D42   D(7,8,9,1)           -180.0            -DE/DX =    0.0                 !
 ! D43   D(7,8,9,16)            59.6038         -DE/DX =   -0.0001              !
 ! D44   D(7,8,9,17)           -59.6038         -DE/DX =    0.0001              !
 --------------------------------------------------------------------------------
 GradGradGradGradGradGradGradGradGradGradGradGradGradGradGradGradGradGrad


 ----------------------------------------------------------------------

 Electric dipole moment (input orientation):
 (Debye = 10**-18 statcoulomb cm , SI units = C m)
                  (au)            (Debye)         (10**-30 SI)
   Tot        0.269901D+00      0.686019D+00      0.228831D+01
   x          0.238804D+00      0.606978D+00      0.202466D+01
   y         -0.125707D+00     -0.319514D+00     -0.106579D+01
   z          0.413985D-02      0.105224D-01      0.350991D-01

 Dipole polarizability, Alpha (input orientation).
 (esu units = cm**3 , SI units = C**2 m**2 J**-1)
 Alpha(0;0):
               (au)            (10**-24 esu)      (10**-40 SI)
   iso        0.906283D+02      0.134297D+02      0.149426D+02
   aniso      0.748659D+02      0.110940D+02      0.123437D+02
   xx         0.128539D+03      0.190475D+02      0.211931D+02
   yx        -0.515887D+00     -0.764465D-01     -0.850582D-01
   yy         0.997387D+02      0.147798D+02      0.164447D+02
   zx         0.156525D+01      0.231946D+00      0.258074D+00
   zy         0.107867D+00      0.159842D-01      0.177848D-01
   zz         0.436075D+02      0.646196D+01      0.718990D+01

 ----------------------------------------------------------------------

 Dipole orientation:
     6          1.45925130          2.63813157          3.35243090
     6          1.80491736          3.31175130          0.91369408
     6          0.79338037          1.34050984         -0.75344971
     6          0.69935468          1.15727644         -3.38750079
     6         -0.40186263         -0.98873031         -4.47489495
     6         -1.39198344         -2.91823681         -2.95615442
     6         -1.29889969         -2.73683904         -0.31194242
     6         -0.20723679         -0.60945152          0.77801638
     6          0.15769154          0.10170572          3.52050484
     1          2.02316883          3.73707074          5.00660075
     1          2.69720595          5.05060641          0.24657360
     1          1.47079171          2.66062104         -4.57955821
     1         -0.49106589         -1.16256593         -6.53370406
     1         -2.24537644         -4.58129379         -3.84011968
     1         -2.07593727         -4.25109775          0.86407348
     1          1.32040567         -1.30355022          4.55013558
     1         -1.66192218          0.22682289          4.55013558

 Electric dipole moment (dipole orientation):
 (Debye = 10**-18 statcoulomb cm , SI units = C m)
                  (au)            (Debye)         (10**-30 SI)
   Tot        0.269901D+00      0.686019D+00      0.228831D+01
   x          0.000000D+00      0.000000D+00      0.000000D+00
   y          0.000000D+00      0.000000D+00      0.000000D+00
   z          0.269901D+00      0.686019D+00      0.228831D+01

 Dipole polarizability, Alpha (dipole orientation).
 (esu units = cm**3 , SI units = C**2 m**2 J**-1)
 Alpha(0;0):
               (au)            (10**-24 esu)      (10**-40 SI)
   iso        0.906283D+02      0.134297D+02      0.149426D+02
   aniso      0.748659D+02      0.110940D+02      0.123437D+02
   xx         0.564994D+02      0.837235D+01      0.931550D+01
   yx         0.251799D+02      0.373128D+01      0.415161D+01
   yy         0.926480D+02      0.137290D+02      0.152756D+02
   zx         0.529173D+01      0.784154D+00      0.872489D+00
   zy         0.103123D+02      0.152813D+01      0.170027D+01
   zz         0.122737D+03      0.181878D+02      0.202367D+02

 ----------------------------------------------------------------------
 Unable to Open any file for archive entry.
 1\1\GINC-NODE01\Freq\RB3LYP\def2SVPP\C9H8\XUHJ\25-Aug-2024\0\\#N Geom=
 AllCheck Guess=TCheck SCRF=Check GenChk RB3LYP/def2SVPP Freq\\C1=Cc2cc
 ccc2C1_1\\0,1\C,2.3130556372,0.5849310438,-0.0058135935\C,1.3577838981
 ,1.5405408565,-0.0214276983\C,0.0312729998,0.9139090543,-0.0471929237\
 C,-1.252754921,1.4666691188,-0.0697099478\C,-2.3562249862,0.6051650389
 ,-0.0918540901\C,-2.1795243921,-0.7847093321,-0.0915013448\C,-0.891247
 4417,-1.3409398485,-0.0689132391\C,0.2082667374,-0.4898677318,-0.04686
 38308\C,1.6892762833,-0.7914914237,-0.0201903693\H,3.3919046332,0.7556
 412183,0.0144328426\H,1.5270160176,2.6201750662,-0.0160512502\H,-1.394
 5273978,2.5517255548,-0.0700558429\H,-3.3683179284,1.0210944321,-0.109
 6437077\H,-3.0539928896,-1.442160345,-0.1089971369\H,-0.7600084194,-2.
 4277870418,-0.0687652813\H,2.0104351885,-1.3802939708,-0.9025702375\H,
 1.9777384219,-1.3840007331,0.8709594646\\Version=ES64L-G16RevC.01\Stat
 e=1-A'\HF=-347.5290367\RMSD=8.006e-09\RMSF=9.037e-05\ZeroPoint=0.13508
 4\Thermal=0.1416889\ETot=-347.3873478\HTot=-347.3864036\GTot=-347.4245
 662\Dipole=0.2388035,-0.1257066,0.0041398\DipoleDeriv=-0.1286249,-0.04
 40735,0.0014594,-0.1204843,0.1204596,-0.0015248,0.0012997,-0.0001161,-
 0.2127557,-0.039682,0.1298482,0.0016466,0.1635579,0.1475515,0.0035626,
 0.0017171,0.0029411,-0.1142407,0.2469921,0.0274908,0.0044477,0.151549,
 -0.1689417,0.0024223,0.0047069,0.0001352,0.0089472,-0.0866872,-0.00809
 96,0.0003757,-0.0320752,0.141953,-0.000069,0.0003256,0.0003731,-0.1079
 768,0.0909543,-0.0434048,0.0039311,-0.1251546,-0.0496702,-0.0021453,0.
 0037602,-0.0006382,-0.1271285,-0.0701978,0.0303632,0.0012175,0.0786641
 ,0.0054087,0.0017391,0.0013184,0.0008486,-0.1327672,-0.0124422,0.02289
 54,0.0015479,0.0224986,0.1669269,0.0009597,0.001547,0.000967,-0.093775
 2,0.0744603,-0.1067318,0.0027628,-0.2248334,-0.1117436,-0.0041957,0.00
 25159,-0.0020184,-0.087455,-0.0516466,0.030163,-0.004379,0.1144403,-0.
 0723871,0.0015629,-0.0042029,0.0000091,0.1892209,-0.0804836,-0.0355467
 ,-0.0038981,-0.0399428,0.0588822,-0.0008786,-0.0039073,-0.0007976,0.12
 68538,0.0423935,-0.0110245,-0.0016094,-0.0550458,-0.085866,-0.0014627,
 -0.0017014,-0.0006512,0.1284092,0.0619801,0.0034444,-0.0009022,0.03043
 26,-0.1067033,0.0001054,-0.0008458,-0.0003921,0.1112901,-0.1003938,0.0
 611014,-0.0038317,0.0630279,0.0386704,0.0010038,-0.0038277,0.0009682,0
 .1143034,-0.0581579,-0.0835161,-0.0034079,-0.0862478,0.0002339,-0.0018
 346,-0.0034136,-0.0017842,0.117159,0.0596163,0.0386776,-0.0006808,0.00
 47194,-0.1072474,-0.0003481,-0.0007517,0.000278,0.1009136,0.0242867,-0
 .004276,0.0312653,0.0284645,0.0115454,-0.0614521,0.0608456,-0.0858461,
 -0.0091349,0.0276327,-0.007311,-0.0299447,0.0264297,0.0109276,0.062555
 ,-0.0593861,0.0857234,-0.0118631\Polar=128.5385691,-0.5158866,99.73872
 49,1.5652459,0.1078669,43.6074943\Quadrupole=2.1491722,2.0783809,-4.22
 7553,-0.6420257,0.1162589,0.0013478\PG=CS [SG(C9H6),X(H2)]\NImag=0\\0.
 82897526,-0.09836459,0.59081724,0.01247615,-0.00087351,0.14132398,-0.2
 9476748,0.19422761,-0.00390717,0.60755967,0.19937796,-0.31078854,0.003
 15328,-0.08048674,0.84504164,-0.00389640,0.00305832,-0.06088224,0.0085
 8158,0.00000444,0.13311356,-0.06728131,0.02109223,-0.00137920,-0.20381
 184,-0.06374041,-0.00271200,0.75311251,0.00804145,0.01737498,0.0001638
 3,-0.05953482,-0.13455252,-0.00124518,-0.06210214,0.62523954,-0.001406
 47,0.00040444,0.00989478,-0.00270321,-0.00132271,-0.06398705,0.0107275
 2,-0.00018130,0.16439025,0.00664250,-0.00928648,0.00006243,-0.03411224
 ,0.01247721,-0.00065675,-0.30160518,0.06069855,-0.00415947,0.67455939,
 -0.00489220,-0.00204015,-0.00009906,-0.01084514,0.01515830,-0.00017437
 ,0.10976429,-0.16814722,0.00181661,-0.01198554,0.74268688,0.00007161,-
 0.00018008,0.00220450,-0.00070549,0.00025560,0.00291282,-0.00405692,0.
 00091204,-0.06918007,0.00985228,0.00104120,0.13897981,-0.00387856,0.00
 235276,-0.00006521,0.00265864,0.00306615,-0.00006627,-0.06008719,0.005
 90798,-0.00126878,-0.26107396,-0.13739816,-0.00390154,0.73078105,-0.00
 529017,0.00325840,-0.00009056,0.00812077,-0.00098268,0.00013386,-0.040
 04922,0.05997176,-0.00063266,-0.07292455,-0.20944214,-0.00164628,-0.02
 312992,0.68060138,-0.00008119,0.00005034,-0.00007596,-0.00005571,0.000
 04068,0.00659991,-0.00136483,0.00021461,0.00937861,-0.00376679,-0.0028
 3491,-0.06509934,0.01086223,0.00070561,0.13917402,-0.00390713,-0.00051
 683,-0.00007598,-0.00226301,0.00124216,-0.00002295,-0.02199682,0.03117
 796,-0.00018389,0.04314661,-0.01792829,0.00057353,-0.13063911,-0.00649
 893,-0.00118915,0.71127720,0.00226599,-0.00236374,0.00003651,-0.002462
 23,-0.00004323,-0.00004365,0.03434975,-0.04311724,0.00056089,-0.068370
 18,-0.04058675,-0.00136621,0.06055039,-0.33495266,0.00055601,0.0342947
 3,0.69439980,-0.00007016,-0.00001479,0.00015428,-0.00003069,0.00002464
 ,-0.00087811,-0.00017726,0.00050242,-0.00848972,0.00046811,-0.00043626
 ,0.01001239,-0.00104902,-0.00068011,-0.06689492,0.01065699,0.00179702,
 0.13731182,-0.00137237,0.00219749,-0.00001816,0.00424134,0.00202328,0.
 00001447,0.04038912,-0.06509995,0.00043155,-0.06288085,-0.01097120,-0.
 00105607,0.01738986,0.08270532,0.00031766,-0.30176341,0.04443010,-0.00
 427411,0.67210550,0.00479415,-0.00082295,0.00008695,0.00271365,-0.0059
 0636,0.00002998,-0.02088803,-0.03636380,-0.00048116,-0.00676166,-0.001
 74147,-0.00011400,0.03342691,-0.01267985,0.00056983,0.11091660,-0.1611
 3898,0.00184369,0.00224937,0.74747835,-0.00001273,0.00003908,-0.000138
 34,0.00001591,0.00001725,0.00368629,0.00052395,-0.00129625,0.00960786,
 -0.00104727,-0.00019161,-0.00686142,0.00021467,0.00147832,0.00954240,-
 0.00413515,0.00061795,-0.06496640,0.00982628,0.00131245,0.13954981,-0.
 04337798,-0.01776465,-0.00093261,-0.00570644,-0.02833738,-0.00031577,-
 0.11695546,0.05692456,-0.00053011,0.01904211,0.03386606,0.00025361,-0.
 00984035,-0.02554294,-0.00009971,-0.06056814,0.00828025,-0.00127202,-0
 .26636574,-0.14297798,-0.00400934,0.69825960,-0.02782197,-0.00930774,-
 0.00054324,-0.03746606,-0.03369445,-0.00077830,0.00277398,-0.28151384,
 -0.00036638,0.07058336,-0.00985584,0.00126160,-0.02029464,-0.05416961,
 -0.00047205,-0.03771540,0.06009130,-0.00058930,-0.08814374,-0.22173231
 ,-0.00195238,0.09337885,0.66679761,-0.00095364,-0.00035782,0.00517641,
 -0.00033485,-0.00061001,0.00820150,-0.00064329,0.00063194,-0.08175849,
 0.00033035,0.00058468,0.00913270,-0.00008874,-0.00056881,-0.00733027,-
 0.00136815,0.00025867,0.00934228,-0.00389474,-0.00296331,-0.06517910,0
 .00984905,0.00275021,0.17480367,-0.10539889,-0.05829471,-0.00068472,0.
 00479244,0.01367989,-0.00002428,-0.01263894,0.02125376,-0.00024078,-0.
 00304130,0.00010535,-0.00016824,0.00160057,0.00393528,0.00005230,0.003
 98519,-0.00693421,-0.00005800,-0.02421023,0.00445796,-0.00044293,-0.19
 351320,0.03457192,-0.00207826,0.45731112,-0.04227158,-0.17584729,-0.00
 099037,0.01312843,-0.04511987,0.00013172,0.01981087,-0.01980386,0.0003
 1793,0.00533440,-0.00404213,0.00007715,-0.00216817,-0.00607295,-0.0000
 5101,-0.00729681,0.00170228,-0.00014423,-0.01109837,0.01414974,-0.0001
 7571,0.01178646,-0.09039669,0.00018901,-0.06321149,0.54336109,-0.00065
 123,-0.00128577,-0.07488178,-0.00002544,0.00014189,0.00766037,-0.00024
 379,0.00034453,0.00282691,-0.00015731,-0.00001925,0.00609355,0.0000395
 5,0.00006151,-0.00078941,-0.00005876,-0.00013754,0.00634397,-0.0004754
 5,0.00011109,0.00031206,-0.00212588,0.00060909,-0.07690320,-0.00161806
 ,-0.00115398,0.53787937,-0.33718991,-0.04389379,-0.00570618,-0.0122738
 2,-0.00844792,-0.00034778,-0.00170036,0.00286601,-0.00018759,-0.000365
 85,-0.00079692,-0.00001606,-0.00022049,0.00029331,0.00000882,0.0000342
 4,-0.00010415,0.00000026,-0.00008161,0.00029101,-0.00003479,0.00042236
 ,-0.00056205,-0.00000144,-0.00329735,0.00288123,-0.00004202,0.35408586
 ,-0.04694631,-0.06450935,-0.00093208,0.02182079,0.00996968,0.00041135,
 0.00245454,-0.00364254,0.00001925,0.00047591,0.00122337,0.00001046,0.0
 0022872,-0.00009295,0.00000541,-0.00009494,-0.00038230,-0.00000257,-0.
 00124790,0.00116090,-0.00002442,-0.00094596,-0.00573044,-0.00003033,-0
 .02378002,0.00366396,-0.00042930,0.04797769,0.05640146,-0.00571256,-0.
 00087581,-0.03275981,-0.00028452,-0.00014668,0.00562710,-0.00018845,0.
 00002683,0.00879632,-0.00001340,-0.00001300,0.00041456,0.00000868,0.00
 000660,-0.00066533,0.00000027,-0.00000274,0.00000857,-0.00003800,0.000
 00395,0.00183751,-0.00000225,-0.00002325,0.00043681,-0.00009774,0.0000
 6222,-0.00069321,0.00622288,0.00095645,0.02210209,0.01031766,0.0220989
 7,0.00015020,-0.06550748,-0.04567444,-0.00059606,0.00369523,-0.0240446
 3,-0.00000733,0.00198612,0.00003051,0.00005031,-0.00020874,0.00003816,
 -0.00000091,0.00000557,0.00017635,-0.00000043,0.00108523,-0.00125512,0
 .00001271,-0.00538791,-0.00188870,-0.00015090,-0.00315936,0.00231854,-
 0.00026749,0.00080168,-0.00118780,0.00011209,0.05650320,-0.00805324,-0
 .01260520,-0.00018459,-0.04370831,-0.33438028,-0.00142451,0.00308658,-
 0.00393299,0.00004583,0.00019974,0.00018546,0.00000561,-0.00030773,-0.
 00008861,-0.00000553,-0.00003947,0.00020734,-0.00000040,0.00037224,-0.
 00024380,0.00000582,-0.00057551,-0.00054108,-0.00001714,0.00186737,-0.
 00102279,0.00000802,0.00028790,0.00077069,0.00001823,0.04774619,0.3526
 7093,0.00008718,0.00037130,0.00467831,-0.00059195,-0.00146076,-0.03836
 831,0.00004937,-0.00045436,0.00136704,0.00005066,0.00000249,-0.0007382
 3,-0.00000164,0.00000084,-0.00015484,-0.00000088,0.00000358,0.00004902
 ,0.00001611,-0.00002418,0.00025370,-0.00014816,-0.00004135,0.00258040,
 -0.00026843,0.00001634,0.01160745,0.00011518,-0.00000897,-0.00541103,0
 .00067974,0.00156500,0.02506178,0.00009063,0.00010037,0.00000186,0.001
 96570,0.00003712,0.00010716,0.00204534,0.02925808,0.00003287,-0.063911
 52,0.03671125,-0.00042325,0.00786321,-0.02553506,0.00003007,-0.0035830
 1,-0.00237205,-0.00020015,-0.00110692,-0.00022497,-0.00001176,-0.00464
 573,0.00079808,-0.00020744,0.00003471,0.00123780,-0.00000129,-0.000005
 55,-0.00007470,-0.00000565,-0.00036624,-0.00054393,-0.00000909,0.06068
 231,0.00036126,-0.00007869,0.00000649,-0.00101542,0.00070516,-0.000009
 21,-0.00043987,-0.00854330,-0.00003345,0.03552788,-0.32964722,0.000042
 91,0.00552942,-0.01431857,0.00006504,-0.00373349,0.00019145,-0.0000830
 7,0.00001678,0.00069080,0.00000279,0.00197360,0.00131330,0.00002513,-0
 .00033388,-0.00034375,-0.00000739,0.00004974,0.00001299,0.00000033,0.0
 0076590,0.00005090,0.00001409,-0.03910315,0.34986016,0.00000240,0.0000
 0168,0.00000137,0.00010497,0.00001019,-0.00384094,-0.00002920,0.000514
 07,0.00357970,-0.00042572,0.00006473,-0.03679951,0.00009500,-0.0005076
 7,0.00333788,-0.00020300,-0.00005797,0.00700087,-0.00001125,-0.0000016
 7,-0.00049500,-0.00020498,0.00000346,0.00669280,-0.00000458,0.00002159
 ,0.00024522,-0.00000539,-0.00000196,0.00029208,-0.00000636,-0.00001006
 ,0.00006517,0.00057474,-0.00004209,0.02508478,-0.00041206,-0.00025353,
 -0.00000456,-0.00023096,0.00098862,-0.00001186,-0.00213710,-0.00426748
 ,-0.00017884,-0.01804271,0.01219510,-0.00036937,-0.29546617,0.09729984
 ,-0.00456279,-0.00014869,-0.00127661,-0.00006663,0.00152436,0.00059219
 ,-0.00009316,0.00060581,-0.00061477,0.00002370,-0.00000098,-0.00000199
 ,0.00001195,-0.00007296,0.00009262,0.00000101,-0.00003915,-0.00004990,
 -0.00000098,0.00118922,-0.00014244,0.00009872,0.31253358,-0.00020442,-
 0.00009900,-0.00000357,-0.00043989,0.00061861,-0.00000791,-0.00329997,
 -0.00202636,-0.00007987,-0.01903755,0.01111778,-0.00033479,0.09730297,
 -0.09885544,0.00166447,0.03026301,-0.00689360,0.00053658,-0.00049741,-
 0.00534405,-0.00003423,-0.00084336,-0.00080771,-0.00001567,0.00006751,
 0.00007131,0.00000275,-0.00004983,0.00008774,-0.00000049,-0.00000360,-
 0.00000383,-0.00000009,0.00073102,0.00096844,0.00002424,-0.10486082,0.
 10039479,-0.00000446,-0.00000448,-0.00019336,-0.00001484,0.00001842,0.
 00052403,-0.00017682,-0.00009771,0.00707616,-0.00043465,0.00024101,0.0
 0336759,-0.00456278,0.00166442,-0.03702268,-0.00000071,-0.00004488,0.0
 0332076,-0.00009544,-0.00001414,0.00664297,0.00002323,-0.00001146,-0.0
 0074924,0.00001210,0.00000147,-0.00064934,0.00000072,0.00000214,-0.000
 11744,-0.00000089,-0.00000095,0.00000855,0.00010054,0.00000814,-0.0041
 7970,0.00506657,-0.00177736,0.02591607,-0.00043730,0.00028422,-0.00000
 837,0.00013194,-0.00010765,0.00001108,0.00011010,0.00090959,0.00001808
 ,0.00113227,0.00108417,-0.00009838,0.00647173,0.00477608,0.00007014,-0
 .23585076,-0.13316105,-0.00396544,-0.01776964,-0.01965490,-0.00042774,
 -0.00397952,0.00368563,-0.00018411,-0.00007245,-0.00118564,-0.00001511
 ,-0.00003736,-0.00014326,0.00000628,-0.00002686,-0.00003801,-0.0000009
 6,0.00018099,0.00026817,-0.00000172,0.00078987,-0.00045553,0.00009033,
 0.24814750,0.00011734,-0.00008750,0.00000188,-0.00002753,0.00012701,0.
 00000076,0.00109249,-0.00042482,0.00002086,0.00222096,-0.00492243,0.00
 001688,-0.02675895,-0.01354227,-0.00052834,-0.13317769,-0.15888169,-0.
 00271239,0.01160673,0.01084810,0.00022996,0.00272633,-0.00025378,0.000
 03630,0.00027525,0.00058398,0.00000501,0.00000124,0.00006282,0.0000009
 8,0.00003316,0.00000783,0.00000058,-0.00118901,-0.00076008,-0.00002415
 ,0.00032439,0.00126566,0.00001732,0.14346673,0.16513717,-0.00000872,0.
 00000496,0.00004858,0.00001125,-0.00000071,-0.00048116,0.00001846,0.00
 001748,-0.00076693,-0.00009600,-0.00000408,0.00658965,0.00000423,0.000
 05304,0.00320906,-0.00396547,-0.00271209,-0.03593335,-0.00036241,-0.00
 034638,0.00319631,-0.00018611,0.00005399,0.00642128,-0.00001205,-0.000
 02192,0.00061219,0.00000658,-0.00000169,-0.00039421,-0.00000081,-0.000
 00073,0.00002090,-0.00000476,0.00000272,0.00030446,0.00009196,0.000002
 94,-0.00415949,0.00440957,0.00293737,0.02531650,0.00012676,0.00001847,
 0.00000433,0.00050316,-0.00123212,0.00000718,-0.00362946,-0.00221431,-
 0.00021867,-0.00101456,-0.00023979,-0.00001028,-0.00486911,0.00110241,
 -0.00021402,0.00165320,0.02966629,0.00002911,-0.06306961,0.03142477,-0
 .00039075,0.00851773,-0.02527101,0.00002923,0.00127790,0.00083418,0.00
 009181,0.00001686,0.00008263,-0.00000094,-0.00037619,-0.00012746,-0.00
 000350,0.00011515,0.00000319,0.00002611,-0.00010775,0.00136364,-0.0000
 0361,0.00129847,-0.00065662,0.00009652,0.05981023,-0.00023812,-0.00024
 590,-0.00000468,0.00044427,-0.00058637,0.00000702,-0.00309729,0.000388
 24,-0.00007297,-0.00041300,0.00066332,-0.00000522,0.00250296,0.0013497
 3,0.00003462,-0.00147566,-0.00827139,-0.00005168,0.03274265,-0.3289785
 0,-0.00000386,0.00467391,-0.01520773,0.00004588,0.00087053,0.00108490,
 0.00002586,-0.00002849,0.00004838,-0.00000059,-0.00027678,-0.00003434,
 -0.00000475,0.00005351,-0.00010915,0.00000348,-0.00009212,-0.00049094,
 -0.00000323,0.00023163,0.00084278,0.00001442,-0.03485346,0.34965498,0.
 00000379,0.00000005,-0.00010575,0.00001068,-0.00002389,-0.00002580,-0.
 00022052,-0.00005669,0.00797638,-0.00001065,-0.00000202,-0.00048409,-0
 .00021110,0.00000880,0.00686096,-0.00003598,0.00052246,0.00343772,-0.0
 0038800,-0.00002816,-0.03831906,0.00009181,-0.00050618,0.00406813,0.00
 009189,0.00002519,-0.00360582,-0.00000117,0.00000146,0.00007702,-0.000
 00381,-0.00000200,-0.00020112,0.00002621,0.00000255,-0.00130020,-0.000
 00665,0.00002361,0.00024253,0.00009837,-0.00000196,-0.00400940,0.00055
 619,0.00003454,0.02570032,0.00620550,-0.00698106,-0.01345851,-0.001599
 36,-0.00244679,0.00121481,-0.00373940,0.00010331,-0.00076414,-0.000205
 27,0.00065078,-0.00120731,-0.00024600,0.00034449,0.00022561,0.00032279
 ,0.00033933,-0.00112116,0.00097125,0.00045949,-0.00125605,-0.00870470,
 0.01690367,0.02431307,-0.06393051,0.03684700,0.06002915,-0.00006510,0.
 00065350,0.00052951,0.00031965,-0.00006233,0.00107563,-0.00026961,0.00
 013642,-0.00023131,0.00000572,-0.00001833,0.00010351,-0.00004905,-0.00
 002763,0.00021258,-0.00014212,-0.00052510,0.00065180,0.06844094,0.0099
 5708,-0.01628399,-0.02114846,-0.00223402,-0.00278443,-0.00000042,-0.00
 037634,-0.00045115,-0.00148992,0.00062316,-0.00030597,0.00042619,-0.00
 040502,0.00000773,-0.00003189,0.00028577,0.00001954,0.00027429,-0.0006
 4315,0.00031297,0.00004569,0.00171444,-0.00249695,-0.00136533,0.037679
 08,-0.11052166,-0.11099901,-0.00039763,0.00047725,0.00083114,0.0005220
 3,-0.00052482,0.00216271,0.00005670,0.00000362,0.00006372,0.00003557,-
 0.00000148,-0.00011633,0.00001994,-0.00000135,-0.00000516,0.00005419,-
 0.00005360,-0.00027080,-0.04209905,0.12283093,-0.00108197,0.00040196,0
 .00246381,-0.00076788,0.00056327,0.00007995,-0.00017061,0.00059057,-0.
 00037266,-0.00015206,0.00012069,-0.00029650,0.00005502,0.00026942,-0.0
 0002922,0.00038471,-0.00019210,0.00007681,-0.00029409,-0.00047054,0.00
 063556,-0.00021033,0.00238670,0.00298475,0.05916561,-0.10848595,-0.206
 39557,-0.00014743,-0.00056358,0.00023226,-0.00001908,0.00010105,-0.000
 38572,-0.00002451,0.00001390,0.00000113,0.00001220,0.00001216,-0.00001
 180,0.00003242,-0.00001276,0.00001733,0.00020130,0.00006942,-0.0001405
 8,-0.06406064,0.11843088,0.22122241,0.00566466,-0.00701647,0.01354572,
 -0.00158026,-0.00241892,-0.00128618,-0.00376924,0.00012208,0.00063926,
 -0.00025557,0.00064973,0.00121158,-0.00023536,0.00035514,-0.00023173,0
 .00029528,0.00032732,0.00113061,0.00091371,0.00043658,0.00126815,-0.00
 780245,0.01708286,-0.02463983,-0.05973873,0.03305514,-0.05449062,-0.00
 005064,0.00063449,-0.00053724,0.00035757,-0.00005412,-0.00104829,-0.00
 027868,0.00013589,0.00022157,0.00000996,-0.00001744,-0.00010279,-0.000
 03993,-0.00002719,-0.00021481,-0.00011066,-0.00051946,-0.00065289,0.00
 268525,-0.00479278,0.00707735,0.06393507,0.00916739,-0.01637058,0.0214
 2118,-0.00223535,-0.00278167,-0.00009390,-0.00043144,-0.00045489,0.001
 47462,0.00063781,-0.00030379,-0.00040308,-0.00040567,0.00000873,0.0000
 1712,0.00029728,0.00001984,-0.00026384,-0.00064225,0.00031121,-0.00007
 086,0.00166331,-0.00249403,0.00140657,0.03379042,-0.11144626,0.1127225
 0,-0.00036733,0.00047835,-0.00084419,0.00060126,-0.00051540,-0.0021424
 6,0.00005893,0.00000393,-0.00006159,0.00003131,-0.00000192,0.00011761,
 0.00001987,-0.00000143,0.00000584,0.00004500,-0.00005441,0.00027305,-0
 .00427769,0.00977338,-0.01323510,-0.03795286,0.12382893,0.00123840,-0.
 00073988,0.00309124,0.00069735,-0.00066490,0.00005808,0.00004358,-0.00
 058683,-0.00033909,0.00015625,-0.00009685,-0.00024840,-0.00006430,-0.0
 0025634,-0.00004085,-0.00037543,0.00020410,0.00010402,0.00030164,0.000
 48559,0.00069486,-0.00018041,-0.00178115,0.00207958,-0.05362381,0.1101
 8054,-0.20966275,0.00013542,0.00058838,0.00021671,0.00004902,-0.000103
 65,-0.00043307,0.00001444,-0.00000889,0.00000989,-0.00001126,-0.000012
 77,-0.00001560,-0.00003445,0.00001169,0.00000829,-0.00020000,-0.000088
 25,-0.00017124,-0.00625656,0.01319270,-0.02008195,0.05811013,-0.120323
 48,0.22473028\\-0.00001006,0.00000729,-0.00000017,0.00003532,-0.000144
 62,0.00000035,0.00005445,0.00000690,0.00000102,-0.00008322,-0.00003969
 ,-0.00000162,0.00007158,0.00003464,0.00000139,0.00003879,-0.00004850,0
 .00000061,-0.00006359,0.00001833,-0.00000113,0.00002104,0.00000950,0.0
 0000041,-0.00003326,0.00001606,-0.00000058,-0.00001344,-0.00002020,-0.
 00000029,-0.00000402,0.00000899,-0.00000006,0.00001887,-0.00000247,0.0
 0000034,-0.00000702,0.00000192,-0.00000013,0.00000081,0.00000295,0.000
 00002,0.00000749,-0.00000264,0.00000013,-0.00000912,0.00007665,-0.0004
 2022,-0.00002461,0.00007489,0.00041991\\\@
 The archive entry for this job was punched.


 IF AT FIRST YOU DON'T SUCCEED, TRY, TRY AGAIN.
 THEN GIVE UP;
 THERE'S NO USE BEING A DAMN FOOL ABOUT IT.

                                 -- W. C. FIELDS
 Job cpu time:       0 days  0 hours  6 minutes 36.3 seconds.
 Elapsed time:       0 days  0 hours  1 minutes 39.1 seconds.
 File lengths (MBytes):  RWF=     46 Int=      0 D2E=      0 Chk=      3 Scr=      1
 Normal termination of Gaussian 16 at Sun Aug 25 17:23:10 2024.
