%nprocshared=4
%mem=1440MB
#N opt freq B3LYP/def2SVPP symm=veryloose em=gd3bj scale=0.961 press=0.987

C1=Cc2ccccc2C1_1

0 1
C          2.27169        0.57600        0.00064
C          1.34158        1.54418       -0.01830
C          0.03856        0.90293       -0.05477
C         -1.22460        1.46589       -0.08162
C         -2.32867        0.60807       -0.09543
C         -2.15470       -0.78680       -0.08231
C         -0.87486       -1.34671       -0.06301
C          0.21064       -0.48728       -0.05127
C          1.67226       -0.81061       -0.03182
H          3.33764        0.75353        0.03771
H          1.50201        2.60970        0.00205
H         -1.36006        2.54181       -0.08972
H         -3.33335        1.02343       -0.11353
H         -3.02737       -1.43589       -0.08703
H         -0.74029       -2.42302       -0.05385
H          1.97525       -1.34340       -0.93723
H          1.94531       -1.37660        0.86330

