 Entering Gaussian System, Link 0=g16
 Initial command:
 /home/software/g16/l1.exe "/home/software/g16/scr/Gau-271651.inp" -scrdir="/home/software/g16/scr/"
 Default is to use a total of   8 processors:
                                8 via shared-memory
                                1 via Linda
 Entering Link 1 = /home/software/g16/l1.exe PID=    271652.
  
 Copyright (c) 1988-2019, Gaussian, Inc.  All Rights Reserved.
  
 This is part of the Gaussian(R) 16 program.  It is based on
 the Gaussian(R) 09 system (copyright 2009, Gaussian, Inc.),
 the Gaussian(R) 03 system (copyright 2003, Gaussian, Inc.),
 the Gaussian(R) 98 system (copyright 1998, Gaussian, Inc.),
 the Gaussian(R) 94 system (copyright 1995, Gaussian, Inc.),
 the Gaussian 92(TM) system (copyright 1992, Gaussian, Inc.),
 the Gaussian 90(TM) system (copyright 1990, Gaussian, Inc.),
 the Gaussian 88(TM) system (copyright 1988, Gaussian, Inc.),
 the Gaussian 86(TM) system (copyright 1986, Carnegie Mellon
 University), and the Gaussian 82(TM) system (copyright 1983,
 Carnegie Mellon University). Gaussian is a federally registered
 trademark of Gaussian, Inc.
  
 This software contains proprietary and confidential information,
 including trade secrets, belonging to Gaussian, Inc.
  
 This software is provided under written license and may be
 used, copied, transmitted, or stored only in accord with that
 written license.
  
 The following legend is applicable only to US Government
 contracts under FAR:
  
                    RESTRICTED RIGHTS LEGEND
  
 Use, reproduction and disclosure by the US Government is
 subject to restrictions as set forth in subparagraphs (a)
 and (c) of the Commercial Computer Software - Restricted
 Rights clause in FAR 52.227-19.
  
 Gaussian, Inc.
 340 Quinnipiac St., Bldg. 40, Wallingford CT 06492
  
  
 ---------------------------------------------------------------
 Warning -- This program may not be used in any manner that
 competes with the business of Gaussian, Inc. or will provide
 assistance to any competitor of Gaussian, Inc.  The licensee
 of this program is prohibited from giving any competitor of
 Gaussian, Inc. access to this program.  By using this program,
 the user acknowledges that Gaussian, Inc. is engaged in the
 business of creating and licensing software in the field of
 computational chemistry and represents and warrants to the
 licensee that it is not a competitor of Gaussian, Inc. and that
 it will not use this program in any manner prohibited above.
 ---------------------------------------------------------------
  

 Cite this work as:
 Gaussian 16, Revision C.01,
 M. J. Frisch, G. W. Trucks, H. B. Schlegel, G. E. Scuseria, 
 M. A. Robb, J. R. Cheeseman, G. Scalmani, V. Barone, 
 G. A. Petersson, H. Nakatsuji, X. Li, M. Caricato, A. V. Marenich, 
 J. Bloino, B. G. Janesko, R. Gomperts, B. Mennucci, H. P. Hratchian, 
 J. V. Ortiz, A. F. Izmaylov, J. L. Sonnenberg, D. Williams-Young, 
 F. Ding, F. Lipparini, F. Egidi, J. Goings, B. Peng, A. Petrone, 
 T. Henderson, D. Ranasinghe, V. G. Zakrzewski, J. Gao, N. Rega, 
 G. Zheng, W. Liang, M. Hada, M. Ehara, K. Toyota, R. Fukuda, 
 J. Hasegawa, M. Ishida, T. Nakajima, Y. Honda, O. Kitao, H. Nakai, 
 T. Vreven, K. Throssell, J. A. Montgomery, Jr., J. E. Peralta, 
 F. Ogliaro, M. J. Bearpark, J. J. Heyd, E. N. Brothers, K. N. Kudin, 
 V. N. Staroverov, T. A. Keith, R. Kobayashi, J. Normand, 
 K. Raghavachari, A. P. Rendell, J. C. Burant, S. S. Iyengar, 
 J. Tomasi, M. Cossi, J. M. Millam, M. Klene, C. Adamo, R. Cammi, 
 J. W. Ochterski, R. L. Martin, K. Morokuma, O. Farkas, 
 J. B. Foresman, and D. J. Fox, Gaussian, Inc., Wallingford CT, 2019.
 
 ******************************************
 Gaussian 16:  ES64L-G16RevC.01  3-Jul-2019
                12-Mar-2024 
 ******************************************
 %nprocshared=16
 Will use up to   16 processors via shared memory.
 %mem=4480MB
 ----------------------------------------------------------------------
 #N opt freq B3LYP/def2SVPP symm=veryloose em=gd3bj scale=0.961 press=0
 .987
 ----------------------------------------------------------------------
 1/18=20,19=15,26=3,38=1,113=-987000,114=961000/1,3;
 2/9=110,12=2,17=2,18=2,40=1/2;
 3/5=43,7=202,11=2,25=1,30=1,71=1,74=-5,124=41/1,2,3;
 4//1;
 5/5=2,38=5/2;
 6/7=2,8=2,9=2,10=2,28=1/1;
 7//1,2,3,16;
 1/18=20,19=15,26=3/3(2);
 2/9=110/2;
 99//99;
 2/9=110/2;
 3/5=43,7=202,11=2,25=1,30=1,71=1,74=-5,124=41/1,2,3;
 4/5=5,16=3,69=1/1;
 5/5=2,38=5/2;
 7//1,2,3,16;
 1/18=20,19=15,26=3/3(-5);
 2/9=110/2;
 6/7=2,8=2,9=2,10=2,19=2,28=1/1;
 99/9=1/99;
 ------------------------
 c1ccc2c(c1)ccc1ccccc12_1
 ------------------------
 Symbolic Z-matrix:
 Charge =  0 Multiplicity = 1
 C                     3.56375  -0.30122   0.00815 
 C                     2.91173  -1.52459   0.03067 
 C                     1.51442  -1.57012   0.02305 
 C                     0.71867  -0.39637   0.00107 
 C                     1.41216   0.84097  -0.00708 
 C                     2.81745   0.87409  -0.01161 
 C                     0.69636   2.04086  -0.00475 
 C                    -0.69524   2.04183   0.01733 
 C                    -1.41321   0.84328   0.0189 
 C                    -2.81795   0.87724   0.04241 
 C                    -3.56626  -0.29653   0.02564 
 C                    -2.9169   -1.5206   -0.01993 
 C                    -1.52001  -1.56795  -0.0325 
 C                    -0.72137  -0.39553  -0.00424 
 H                     4.64914  -0.2588    0.0109 
 H                     3.48417  -2.44792   0.05591 
 H                     1.05431  -2.55375   0.0453 
 H                     3.34567   1.82488  -0.02579 
 H                     1.21811   2.99627  -0.01229 
 H                    -1.21527   2.99769   0.0293 
 H                    -3.3446    1.82915   0.07359 
 H                    -4.65174  -0.2528    0.04428 
 H                    -3.49088  -2.44298  -0.04463 
 H                    -1.06106  -2.55165  -0.07235 
 

 GradGradGradGradGradGradGradGradGradGradGradGradGradGradGradGradGradGrad
 Berny optimization.
 Initialization pass.
                           ----------------------------
                           !    Initial Parameters    !
                           ! (Angstroms and Degrees)  !
 --------------------------                            --------------------------
 ! Name  Definition              Value          Derivative Info.                !
 --------------------------------------------------------------------------------
 ! R1    R(1,2)                  1.3865         estimate D2E/DX2                !
 ! R2    R(1,6)                  1.3924         estimate D2E/DX2                !
 ! R3    R(1,15)                 1.0862         estimate D2E/DX2                !
 ! R4    R(2,3)                  1.3981         estimate D2E/DX2                !
 ! R5    R(2,16)                 1.0867         estimate D2E/DX2                !
 ! R6    R(3,4)                  1.4182         estimate D2E/DX2                !
 ! R7    R(3,17)                 1.0862         estimate D2E/DX2                !
 ! R8    R(4,5)                  1.4185         estimate D2E/DX2                !
 ! R9    R(4,14)                 1.4401         estimate D2E/DX2                !
 ! R10   R(5,6)                  1.4057         estimate D2E/DX2                !
 ! R11   R(5,7)                  1.3972         estimate D2E/DX2                !
 ! R12   R(6,18)                 1.0878         estimate D2E/DX2                !
 ! R13   R(7,8)                  1.3918         estimate D2E/DX2                !
 ! R14   R(7,19)                 1.0886         estimate D2E/DX2                !
 ! R15   R(8,9)                  1.3971         estimate D2E/DX2                !
 ! R16   R(8,20)                 1.0882         estimate D2E/DX2                !
 ! R17   R(9,10)                 1.4053         estimate D2E/DX2                !
 ! R18   R(9,14)                 1.4191         estimate D2E/DX2                !
 ! R19   R(10,11)                1.3921         estimate D2E/DX2                !
 ! R20   R(10,21)                1.0883         estimate D2E/DX2                !
 ! R21   R(11,12)                1.3864         estimate D2E/DX2                !
 ! R22   R(11,22)                1.0865         estimate D2E/DX2                !
 ! R23   R(12,13)                1.3977         estimate D2E/DX2                !
 ! R24   R(12,23)                1.0867         estimate D2E/DX2                !
 ! R25   R(13,14)                1.4189         estimate D2E/DX2                !
 ! R26   R(13,24)                1.0862         estimate D2E/DX2                !
 ! A1    A(2,1,6)              119.5365         estimate D2E/DX2                !
 ! A2    A(2,1,15)             120.2872         estimate D2E/DX2                !
 ! A3    A(6,1,15)             120.1756         estimate D2E/DX2                !
 ! A4    A(1,2,3)              119.9119         estimate D2E/DX2                !
 ! A5    A(1,2,16)             120.1575         estimate D2E/DX2                !
 ! A6    A(3,2,16)             119.9305         estimate D2E/DX2                !
 ! A7    A(2,3,4)              122.2701         estimate D2E/DX2                !
 ! A8    A(2,3,17)             116.9212         estimate D2E/DX2                !
 ! A9    A(4,3,17)             120.8057         estimate D2E/DX2                !
 ! A10   A(3,4,5)              116.597          estimate D2E/DX2                !
 ! A11   A(3,4,14)             124.168          estimate D2E/DX2                !
 ! A12   A(5,4,14)             119.2337         estimate D2E/DX2                !
 ! A13   A(4,5,6)              120.6199         estimate D2E/DX2                !
 ! A14   A(4,5,7)              119.9111         estimate D2E/DX2                !
 ! A15   A(6,5,7)              119.4684         estimate D2E/DX2                !
 ! A16   A(1,6,5)              121.058          estimate D2E/DX2                !
 ! A17   A(1,6,18)             118.5367         estimate D2E/DX2                !
 ! A18   A(5,6,18)             120.4046         estimate D2E/DX2                !
 ! A19   A(5,7,8)              120.8557         estimate D2E/DX2                !
 ! A20   A(5,7,19)             120.541          estimate D2E/DX2                !
 ! A21   A(8,7,19)             118.6015         estimate D2E/DX2                !
 ! A22   A(7,8,9)              120.8799         estimate D2E/DX2                !
 ! A23   A(7,8,20)             118.5936         estimate D2E/DX2                !
 ! A24   A(9,8,20)             120.526          estimate D2E/DX2                !
 ! A25   A(8,9,10)             119.5348         estimate D2E/DX2                !
 ! A26   A(8,9,14)             119.8893         estimate D2E/DX2                !
 ! A27   A(10,9,14)            120.5759         estimate D2E/DX2                !
 ! A28   A(9,10,11)            121.1129         estimate D2E/DX2                !
 ! A29   A(9,10,21)            120.3521         estimate D2E/DX2                !
 ! A30   A(11,10,21)           118.535          estimate D2E/DX2                !
 ! A31   A(10,11,12)           119.542          estimate D2E/DX2                !
 ! A32   A(10,11,22)           120.1906         estimate D2E/DX2                !
 ! A33   A(12,11,22)           120.267          estimate D2E/DX2                !
 ! A34   A(11,12,13)           119.8874         estimate D2E/DX2                !
 ! A35   A(11,12,23)           120.1841         estimate D2E/DX2                !
 ! A36   A(13,12,23)           119.9285         estimate D2E/DX2                !
 ! A37   A(12,13,14)           122.3001         estimate D2E/DX2                !
 ! A38   A(12,13,24)           116.9534         estimate D2E/DX2                !
 ! A39   A(14,13,24)           120.7451         estimate D2E/DX2                !
 ! A40   A(4,14,9)             119.2071         estimate D2E/DX2                !
 ! A41   A(4,14,13)            124.2259         estimate D2E/DX2                !
 ! A42   A(9,14,13)            116.5669         estimate D2E/DX2                !
 ! D1    D(6,1,2,3)              0.4885         estimate D2E/DX2                !
 ! D2    D(6,1,2,16)          -179.4087         estimate D2E/DX2                !
 ! D3    D(15,1,2,3)          -179.8158         estimate D2E/DX2                !
 ! D4    D(15,1,2,16)            0.2869         estimate D2E/DX2                !
 ! D5    D(2,1,6,5)              0.0963         estimate D2E/DX2                !
 ! D6    D(2,1,6,18)           179.7991         estimate D2E/DX2                !
 ! D7    D(15,1,6,5)          -179.5997         estimate D2E/DX2                !
 ! D8    D(15,1,6,18)            0.1031         estimate D2E/DX2                !
 ! D9    D(1,2,3,4)             -0.4004         estimate D2E/DX2                !
 ! D10   D(1,2,3,17)          -179.7783         estimate D2E/DX2                !
 ! D11   D(16,2,3,4)           179.4971         estimate D2E/DX2                !
 ! D12   D(16,2,3,17)            0.1192         estimate D2E/DX2                !
 ! D13   D(2,3,4,5)             -0.2679         estimate D2E/DX2                !
 ! D14   D(2,3,4,14)          -179.844          estimate D2E/DX2                !
 ! D15   D(17,3,4,5)           179.0864         estimate D2E/DX2                !
 ! D16   D(17,3,4,14)           -0.4897         estimate D2E/DX2                !
 ! D17   D(3,4,5,6)              0.848          estimate D2E/DX2                !
 ! D18   D(3,4,5,7)           -178.8721         estimate D2E/DX2                !
 ! D19   D(14,4,5,6)          -179.5539         estimate D2E/DX2                !
 ! D20   D(14,4,5,7)             0.726          estimate D2E/DX2                !
 ! D21   D(3,4,14,9)           177.8816         estimate D2E/DX2                !
 ! D22   D(3,4,14,13)           -2.1664         estimate D2E/DX2                !
 ! D23   D(5,4,14,9)            -1.6841         estimate D2E/DX2                !
 ! D24   D(5,4,14,13)          178.2679         estimate D2E/DX2                !
 ! D25   D(4,5,6,1)             -0.7872         estimate D2E/DX2                !
 ! D26   D(4,5,6,18)           179.5156         estimate D2E/DX2                !
 ! D27   D(7,5,6,1)            178.9341         estimate D2E/DX2                !
 ! D28   D(7,5,6,18)            -0.7631         estimate D2E/DX2                !
 ! D29   D(4,5,7,8)              0.567          estimate D2E/DX2                !
 ! D30   D(4,5,7,19)          -179.9176         estimate D2E/DX2                !
 ! D31   D(6,5,7,8)           -179.1563         estimate D2E/DX2                !
 ! D32   D(6,5,7,19)             0.3591         estimate D2E/DX2                !
 ! D33   D(5,7,8,9)             -0.9004         estimate D2E/DX2                !
 ! D34   D(5,7,8,20)           179.3458         estimate D2E/DX2                !
 ! D35   D(19,7,8,9)           179.575          estimate D2E/DX2                !
 ! D36   D(19,7,8,20)           -0.1787         estimate D2E/DX2                !
 ! D37   D(7,8,9,10)           179.9554         estimate D2E/DX2                !
 ! D38   D(7,8,9,14)            -0.094          estimate D2E/DX2                !
 ! D39   D(20,8,9,10)           -0.2956         estimate D2E/DX2                !
 ! D40   D(20,8,9,14)          179.6549         estimate D2E/DX2                !
 ! D41   D(8,9,10,11)          179.0841         estimate D2E/DX2                !
 ! D42   D(8,9,10,21)           -0.8721         estimate D2E/DX2                !
 ! D43   D(14,9,10,11)          -0.8661         estimate D2E/DX2                !
 ! D44   D(14,9,10,21)         179.1777         estimate D2E/DX2                !
 ! D45   D(8,9,14,4)             1.3758         estimate D2E/DX2                !
 ! D46   D(8,9,14,13)         -178.5798         estimate D2E/DX2                !
 ! D47   D(10,9,14,4)         -178.6741         estimate D2E/DX2                !
 ! D48   D(10,9,14,13)           1.3702         estimate D2E/DX2                !
 ! D49   D(9,10,11,12)          -0.2375         estimate D2E/DX2                !
 ! D50   D(9,10,11,22)         179.9974         estimate D2E/DX2                !
 ! D51   D(21,10,11,12)        179.7195         estimate D2E/DX2                !
 ! D52   D(21,10,11,22)         -0.0456         estimate D2E/DX2                !
 ! D53   D(10,11,12,13)          0.7625         estimate D2E/DX2                !
 ! D54   D(10,11,12,23)       -179.3144         estimate D2E/DX2                !
 ! D55   D(22,11,12,13)       -179.4726         estimate D2E/DX2                !
 ! D56   D(22,11,12,23)          0.4505         estimate D2E/DX2                !
 ! D57   D(11,12,13,14)         -0.2003         estimate D2E/DX2                !
 ! D58   D(11,12,13,24)       -179.7798         estimate D2E/DX2                !
 ! D59   D(23,12,13,14)        179.8764         estimate D2E/DX2                !
 ! D60   D(23,12,13,24)          0.297          estimate D2E/DX2                !
 ! D61   D(12,13,14,4)         179.1895         estimate D2E/DX2                !
 ! D62   D(12,13,14,9)          -0.8574         estimate D2E/DX2                !
 ! D63   D(24,13,14,4)          -1.2467         estimate D2E/DX2                !
 ! D64   D(24,13,14,9)         178.7065         estimate D2E/DX2                !
 --------------------------------------------------------------------------------
 Trust Radius=3.00D-01 FncErr=1.00D-07 GrdErr=1.00D-06 EigMax=2.50D+02 EigMin=1.00D-04
 Number of steps in this run=    142 maximum allowed number of steps=    144.
 GradGradGradGradGradGradGradGradGradGradGradGradGradGradGradGradGradGrad

                          Input orientation:                          
 ---------------------------------------------------------------------
 Center     Atomic      Atomic             Coordinates (Angstroms)
 Number     Number       Type             X           Y           Z
 ---------------------------------------------------------------------
      1          6           0        3.563750   -0.301220    0.008150
      2          6           0        2.911730   -1.524590    0.030670
      3          6           0        1.514420   -1.570120    0.023050
      4          6           0        0.718670   -0.396370    0.001070
      5          6           0        1.412160    0.840970   -0.007080
      6          6           0        2.817450    0.874090   -0.011610
      7          6           0        0.696360    2.040860   -0.004750
      8          6           0       -0.695240    2.041830    0.017330
      9          6           0       -1.413210    0.843280    0.018900
     10          6           0       -2.817950    0.877240    0.042410
     11          6           0       -3.566260   -0.296530    0.025640
     12          6           0       -2.916900   -1.520600   -0.019930
     13          6           0       -1.520010   -1.567950   -0.032500
     14          6           0       -0.721370   -0.395530   -0.004240
     15          1           0        4.649140   -0.258800    0.010900
     16          1           0        3.484170   -2.447920    0.055910
     17          1           0        1.054310   -2.553750    0.045300
     18          1           0        3.345670    1.824880   -0.025790
     19          1           0        1.218110    2.996270   -0.012290
     20          1           0       -1.215270    2.997690    0.029300
     21          1           0       -3.344600    1.829150    0.073590
     22          1           0       -4.651740   -0.252800    0.044280
     23          1           0       -3.490880   -2.442980   -0.044630
     24          1           0       -1.061060   -2.551650   -0.072350
 ---------------------------------------------------------------------
                    Distance matrix (angstroms):
                    1          2          3          4          5
     1  C    0.000000
     2  C    1.386460   0.000000
     3  C    2.410411   1.398072   0.000000
     4  C    2.846679   2.466428   1.418235   0.000000
     5  C    2.436015   2.801073   2.413446   1.418452   0.000000
     6  C    1.392375   2.400904   2.770063   2.453387   1.405688
     7  C    3.702355   4.197803   3.702590   2.437339   1.397180
     8  C    4.860963   5.072451   4.234243   2.818550   2.425654
     9  C    5.106871   4.930725   3.794145   2.466163   2.825490
    10  C    6.489687   6.212742   4.975879   3.759185   4.230555
    11  C    7.130033   6.593369   5.237876   4.286163   5.106823
    12  C    6.594430   5.828851   4.431805   3.805483   4.931322
    13  C    5.239358   4.432402   3.034939   2.526938   3.794886
    14  C    4.286176   3.804656   2.525701   1.440050   2.465946
    15  H    1.086222   2.149700   3.397967   3.932889   3.418751
    16  H    2.148705   1.086675   2.156740   3.443814   3.887672
    17  H    3.372323   2.123533   1.086151   2.183781   3.413931
    18  H    2.137525   3.377934   3.857705   3.440320   2.169537
    19  H    4.046713   4.827874   4.576130   3.429231   2.164024
    20  H    5.807089   6.122348   5.321291   3.906477   3.399434
    21  H    7.229665   7.098667   5.930233   4.633396   4.858989
    22  H    8.215712   7.669662   6.305340   5.372502   6.161968
    23  H    7.372769   6.468580   5.081289   4.680920   5.901317
    24  H    5.143907   4.104696   2.757825   2.796080   4.198922
                    6          7          8          9         10
     6  C    0.000000
     7  C    2.420831   0.000000
     8  C    3.701816   1.391775   0.000000
     9  C    4.230882   2.425911   1.397142   0.000000
    10  C    5.635660   3.702244   2.421321   1.405347   0.000000
    11  C    6.490261   4.861506   3.702803   2.436152   1.392115
    12  C    6.214288   5.073448   4.198579   2.801878   2.400690
    13  C    4.977706   4.235159   3.703139   2.414141   2.769335
    14  C    3.759686   2.818857   2.437595   1.419094   2.453114
    15  H    2.153842   4.573090   5.818534   6.161715   7.553080
    16  H    3.388927   5.284384   6.134070   5.900652   7.125559
    17  H    3.855125   4.608804   4.917424   4.198710   5.173596
    18  H    1.087759   2.658182   4.046959   4.859267   6.236416
    19  H    2.657355   1.088618   2.138397   3.400027   4.558844
    20  H    4.557870   2.137993   1.088229   2.163509   2.658019
    21  H    6.236205   4.047260   2.658478   2.169147   1.088331
    22  H    7.553926   5.819403   4.573833   3.419081   2.154015
    23  H    7.127347   6.135095   5.285164   3.888477   3.388845
    24  H    5.175154   4.917748   4.608896   3.414365   3.854493
                   11         12         13         14         15
    11  C    0.000000
    12  C    1.386395   0.000000
    13  C    2.409778   1.397749   0.000000
    14  C    2.846769   2.467059   1.418870   0.000000
    15  H    8.215500   7.670597   6.306677   5.372272   0.000000
    16  H    7.371429   6.468336   5.081730   4.680010   2.480207
    17  H    5.142480   4.103920   2.757712   2.795247   4.265065
    18  H    7.230339   7.100145   5.931794   4.633735   2.458069
    19  H    5.808112   6.123764   5.322576   3.907167   4.729480
    20  H    4.047104   4.828345   4.576216   3.429140   6.707933
    21  H    2.137744   3.378239   3.857547   3.440435   8.262163
    22  H    1.086520   2.149677   3.397536   3.933260   9.300942
    23  H    2.148922   1.086668   2.156421   3.444397   8.428146
    24  H    3.372120   2.123665   1.086227   2.183777   6.153899
                   16         17         18         19         20
    16  H    0.000000
    17  H    2.432187   0.000000
    18  H    4.275825   4.942447   0.000000
    19  H    5.897362   5.552735   2.428754   0.000000
    20  H    7.193060   5.997477   4.709638   2.433736   0.000000
    21  H    8.057651   6.209752   6.691009   4.710400   2.429299
    22  H    8.426845   6.152510   8.263185   6.709307   4.730247
    23  H    6.975776   4.547429   8.059367   7.194517   5.897860
    24  H    4.548222   2.118640   6.210914   5.998136   5.552413
                   21         22         23         24
    21  H    0.000000
    22  H    2.458453   0.000000
    23  H    4.276268   2.480401   0.000000
    24  H    4.942394   4.265126   2.432407   0.000000
 Stoichiometry    C14H10
 Framework group  C1[X(C14H10)]
 Deg. of freedom    66
 Full point group                 C1      NOp   1
 Largest Abelian subgroup         C1      NOp   1
 Largest concise Abelian subgroup C1      NOp   1
                         Standard orientation:                         
 ---------------------------------------------------------------------
 Center     Atomic      Atomic             Coordinates (Angstroms)
 Number     Number       Type             X           Y           Z
 ---------------------------------------------------------------------
      1          6           0        3.565076   -0.286698    0.004015
      2          6           0        2.913689   -1.510346    0.029567
      3          6           0        1.516407   -1.556634    0.021389
      4          6           0        0.720051   -0.383368   -0.004196
      5          6           0        1.412893    0.854310   -0.015396
      6          6           0        2.818168    0.888159   -0.019330
      7          6           0        0.696461    2.053824   -0.016704
      8          6           0       -0.695150    2.054121    0.004693
      9          6           0       -1.412490    0.855201    0.009196
     10          6           0       -2.817259    0.888484    0.031926
     11          6           0       -3.564943   -0.285722    0.018006
     12          6           0       -2.914917   -1.509570   -0.023893
     13          6           0       -1.517996   -1.556217   -0.035651
     14          6           0       -0.719987   -0.383303   -0.010212
     15          1           0        4.650442   -0.243698    0.007179
     16          1           0        3.486603   -2.433301    0.057617
     17          1           0        1.056804   -2.540442    0.046109
     18          1           0        3.345894    1.839185   -0.035856
     19          1           0        1.217712    3.009485   -0.026606
     20          1           0       -1.215689    3.009735    0.013790
     21          1           0       -3.344425    1.840198    0.060240
     22          1           0       -4.650455   -0.242514    0.035995
     23          1           0       -3.488399   -2.432317   -0.046347
     24          1           0       -1.058509   -2.539780   -0.072581
 ---------------------------------------------------------------------
 Rotational constants (GHZ):           1.6499798           0.5477765           0.4113057
 Standard basis: def2SVPP (5D, 7F)
 There are   230 symmetry adapted cartesian basis functions of A   symmetry.
 There are   216 symmetry adapted basis functions of A   symmetry.
   216 basis functions,   390 primitive gaussians,   230 cartesian basis functions
    47 alpha electrons       47 beta electrons
       nuclear repulsion energy       776.5835806107 Hartrees.
 NAtoms=   24 NActive=   24 NUniq=   24 SFac= 1.00D+00 NAtFMM=   60 NAOKFM=F Big=F
 Integral buffers will be    131072 words long.
 Raffenetti 2 integral format.
 Two-electron integral symmetry is turned on.
 Nuclear repulsion after empirical dispersion term =      776.5284929873 Hartrees.
 One-electron integrals computed using PRISM.
   1 Symmetry operations used in ECPInt.
 ECPInt:  NShTT=    5460 NPrTT=   21948 LenC2=    5319 LenP2D=   15704.
 LDataN:  DoStor=T MaxTD1= 4 Len=   56
 NBasis=   216 RedAO= T EigKep=  2.35D-04  NBF=   216
 NBsUse=   216 1.00D-06 EigRej= -1.00D+00 NBFU=   216
 ExpMin= 1.22D-01 ExpMax= 1.24D+03 ExpMxC= 1.86D+02 IAcc=3 IRadAn=         5 AccDes= 0.00D+00
 Harris functional with IExCor=  402 and IRadAn=       5 diagonalized for initial guess.
 HarFok:  IExCor=  402 AccDes= 0.00D+00 IRadAn=         5 IDoV= 1 UseB2=F ITyADJ=14
 ICtDFT=  3500011 ScaDFX=  1.000000  1.000000  1.000000  1.000000
 FoFCou: FMM=F IPFlag=           0 FMFlag=      100000 FMFlg1=           0
         NFxFlg=           0 DoJE=T BraDBF=F KetDBF=T FulRan=T
         wScrn=  0.000000 ICntrl=       500 IOpCl=  0 I1Cent=   200000004 NGrid=           0
         NMat0=    1 NMatS0=      1 NMatT0=    0 NMatD0=    1 NMtDS0=    0 NMtDT0=    0
 Petite list used in FoFCou.
 Requested convergence on RMS density matrix=1.00D-08 within 128 cycles.
 Requested convergence on MAX density matrix=1.00D-06.
 Requested convergence on             energy=1.00D-06.
 No special actions if energy rises.
 Integral accuracy reduced to 1.0D-05 until final iterations.
 Initial convergence to 1.0D-05 achieved.  Increase integral accuracy.
 SCF Done:  E(RB3LYP) =  -539.181481844     A.U. after   14 cycles
            NFock= 14  Conv=0.25D-08     -V/T= 2.0105

 **********************************************************************

            Population analysis using the SCF Density.

 **********************************************************************

 Orbital symmetries:
       Occupied  (A) (A) (A) (A) (A) (A) (A) (A) (A) (A) (A) (A)
                 (A) (A) (A) (A) (A) (A) (A) (A) (A) (A) (A) (A)
                 (A) (A) (A) (A) (A) (A) (A) (A) (A) (A) (A) (A)
                 (A) (A) (A) (A) (A) (A) (A) (A) (A) (A) (A)
       Virtual   (A) (A) (A) (A) (A) (A) (A) (A) (A) (A) (A) (A)
                 (A) (A) (A) (A) (A) (A) (A) (A) (A) (A) (A) (A)
                 (A) (A) (A) (A) (A) (A) (A) (A) (A) (A) (A) (A)
                 (A) (A) (A) (A) (A) (A) (A) (A) (A) (A) (A) (A)
                 (A) (A) (A) (A) (A) (A) (A) (A) (A) (A) (A) (A)
                 (A) (A) (A) (A) (A) (A) (A) (A) (A) (A) (A) (A)
                 (A) (A) (A) (A) (A) (A) (A) (A) (A) (A) (A) (A)
                 (A) (A) (A) (A) (A) (A) (A) (A) (A) (A) (A) (A)
                 (A) (A) (A) (A) (A) (A) (A) (A) (A) (A) (A) (A)
                 (A) (A) (A) (A) (A) (A) (A) (A) (A) (A) (A) (A)
                 (A) (A) (A) (A) (A) (A) (A) (A) (A) (A) (A) (A)
                 (A) (A) (A) (A) (A) (A) (A) (A) (A) (A) (A) (A)
                 (A) (A) (A) (A) (A) (A) (A) (A) (A) (A) (A) (A)
                 (A) (A) (A) (A) (A) (A) (A) (A) (A) (A) (A) (A)
                 (A)
 The electronic state is 1-A.
 Alpha  occ. eigenvalues --  -10.20042 -10.20022 -10.19430 -10.19420 -10.19102
 Alpha  occ. eigenvalues --  -10.19088 -10.18874 -10.18873 -10.18844 -10.18841
 Alpha  occ. eigenvalues --  -10.18791 -10.18757 -10.18756 -10.18750  -0.88172
 Alpha  occ. eigenvalues --   -0.84563  -0.80510  -0.77183  -0.75512  -0.71949
 Alpha  occ. eigenvalues --   -0.70947  -0.63405  -0.62732  -0.60709  -0.58367
 Alpha  occ. eigenvalues --   -0.53302  -0.53127  -0.50058  -0.48221  -0.47938
 Alpha  occ. eigenvalues --   -0.44133  -0.43665  -0.42916  -0.42819  -0.40981
 Alpha  occ. eigenvalues --   -0.40883  -0.39738  -0.37095  -0.36581  -0.36492
 Alpha  occ. eigenvalues --   -0.33893  -0.33271  -0.32028  -0.29124  -0.27104
 Alpha  occ. eigenvalues --   -0.23057  -0.21462
 Alpha virt. eigenvalues --   -0.05030  -0.04225   0.00161   0.02665   0.06170
 Alpha virt. eigenvalues --    0.07132   0.07216   0.07319   0.10496   0.10558
 Alpha virt. eigenvalues --    0.12455   0.12968   0.13638   0.15080   0.16644
 Alpha virt. eigenvalues --    0.20527   0.21592   0.23984   0.25367   0.25634
 Alpha virt. eigenvalues --    0.27391   0.27900   0.29308   0.29879   0.31891
 Alpha virt. eigenvalues --    0.32354   0.32765   0.34885   0.36238   0.36897
 Alpha virt. eigenvalues --    0.38626   0.38683   0.40960   0.41777   0.42664
 Alpha virt. eigenvalues --    0.44431   0.44723   0.45132   0.46637   0.47526
 Alpha virt. eigenvalues --    0.48111   0.48237   0.48853   0.49367   0.50107
 Alpha virt. eigenvalues --    0.50402   0.51839   0.52472   0.54980   0.55247
 Alpha virt. eigenvalues --    0.56817   0.57279   0.57458   0.58811   0.62691
 Alpha virt. eigenvalues --    0.63100   0.65218   0.66633   0.66665   0.67535
 Alpha virt. eigenvalues --    0.68219   0.68629   0.69476   0.69576   0.70119
 Alpha virt. eigenvalues --    0.71253   0.73042   0.73192   0.73569   0.74123
 Alpha virt. eigenvalues --    0.74819   0.76434   0.76809   0.78402   0.80675
 Alpha virt. eigenvalues --    0.81746   0.81955   0.82346   0.83566   0.86164
 Alpha virt. eigenvalues --    0.87710   0.91808   0.93626   0.98218   0.98539
 Alpha virt. eigenvalues --    1.08266   1.11887   1.12814   1.13263   1.19024
 Alpha virt. eigenvalues --    1.22061   1.22207   1.23279   1.25793   1.27023
 Alpha virt. eigenvalues --    1.30376   1.33151   1.35346   1.35845   1.37857
 Alpha virt. eigenvalues --    1.39506   1.41967   1.45557   1.45980   1.48451
 Alpha virt. eigenvalues --    1.48539   1.48994   1.49267   1.50329   1.51769
 Alpha virt. eigenvalues --    1.52404   1.68056   1.70846   1.73096   1.76181
 Alpha virt. eigenvalues --    1.76270   1.79226   1.81367   1.82889   1.84808
 Alpha virt. eigenvalues --    1.85231   1.87106   1.89569   1.89734   1.94776
 Alpha virt. eigenvalues --    1.95331   1.98701   2.02324   2.06160   2.07436
 Alpha virt. eigenvalues --    2.07524   2.09111   2.11513   2.16316   2.16546
 Alpha virt. eigenvalues --    2.18244   2.19151   2.21541   2.22482   2.23244
 Alpha virt. eigenvalues --    2.28975   2.29386   2.29892   2.34243   2.35108
 Alpha virt. eigenvalues --    2.36989   2.39053   2.47727   2.48792   2.53446
 Alpha virt. eigenvalues --    2.57291   2.58407   2.59262   2.60980   2.63114
 Alpha virt. eigenvalues --    2.63885   2.65067   2.67347   2.69481   2.76505
 Alpha virt. eigenvalues --    2.78874   2.79864   2.83326   2.91744   2.98782
 Alpha virt. eigenvalues --    3.02916   3.30700   3.38918   3.50367
          Condensed to atoms (all electrons):
               1          2          3          4          5          6
     1  C    5.236927   0.164997   0.143152  -0.155754   0.150214   0.197502
     2  C    0.164997   5.208256   0.245396   0.124039  -0.169943   0.149939
     3  C    0.143152   0.245396   5.438067   0.252034   0.024971  -0.173609
     4  C   -0.155754   0.124039   0.252034   5.548934   0.082906   0.045358
     5  C    0.150214  -0.169943   0.024971   0.082906   5.475146   0.223340
     6  C    0.197502   0.149939  -0.173609   0.045358   0.223340   5.459885
     7  C    0.021936  -0.002392   0.027566   0.021843   0.165627  -0.160450
     8  C   -0.001454   0.000226  -0.003683  -0.133217   0.151777   0.019199
     9  C    0.000030   0.000177   0.021157  -0.002445  -0.165717  -0.001047
    10  C   -0.000000  -0.000002  -0.000263   0.026984  -0.001051   0.000040
    11  C   -0.000001   0.000005  -0.000005  -0.004300   0.000029  -0.000000
    12  C    0.000005  -0.000076   0.000452   0.022383   0.000181  -0.000002
    13  C   -0.000005   0.000455  -0.026899  -0.145238   0.021114  -0.000261
    14  C   -0.004293   0.022396  -0.145385   0.218673  -0.002632   0.026953
    15  H    0.436321  -0.084521   0.015190  -0.001221   0.015757  -0.078893
    16  H   -0.086217   0.436203  -0.075265   0.015816  -0.001646   0.015551
    17  H    0.015806  -0.081306   0.419718  -0.050865   0.018863  -0.001950
    18  H   -0.083128   0.016218  -0.002265   0.017010  -0.080166   0.440536
    19  H    0.001012  -0.000067  -0.000291   0.016139  -0.087180  -0.020276
    20  H    0.000013  -0.000001   0.000052  -0.001706   0.016756  -0.000564
    21  H    0.000000  -0.000000   0.000009  -0.000164  -0.000083  -0.000001
    22  H    0.000000  -0.000000  -0.000000   0.000053  -0.000000   0.000000
    23  H    0.000000  -0.000001   0.000001  -0.000305   0.000007  -0.000000
    24  H   -0.000056   0.001137   0.010049  -0.038910  -0.001179   0.000036
               7          8          9         10         11         12
     1  C    0.021936  -0.001454   0.000030  -0.000000  -0.000001   0.000005
     2  C   -0.002392   0.000226   0.000177  -0.000002   0.000005  -0.000076
     3  C    0.027566  -0.003683   0.021157  -0.000263  -0.000005   0.000452
     4  C    0.021843  -0.133217  -0.002445   0.026984  -0.004300   0.022383
     5  C    0.165627   0.151777  -0.165717  -0.001051   0.000029   0.000181
     6  C   -0.160450   0.019199  -0.001047   0.000040  -0.000000  -0.000002
     7  C    5.505232   0.194240   0.151760   0.019206  -0.001450   0.000225
     8  C    0.194240   5.505399   0.165756  -0.160630   0.021945  -0.002403
     9  C    0.151760   0.165756   5.473281   0.223938   0.149981  -0.169674
    10  C    0.019206  -0.160630   0.223938   5.459995   0.197691   0.149903
    11  C   -0.001450   0.021945   0.149981   0.197691   5.236964   0.164958
    12  C    0.000225  -0.002403  -0.169674   0.149903   0.164958   5.208116
    13  C   -0.003682   0.027534   0.024850  -0.173594   0.143057   0.245637
    14  C   -0.133184   0.021843   0.083562   0.045095  -0.155572   0.123698
    15  H   -0.000537   0.000010  -0.000000   0.000000   0.000000  -0.000000
    16  H    0.000030  -0.000001   0.000007  -0.000000   0.000000  -0.000001
    17  H   -0.000242  -0.000043  -0.001170   0.000036  -0.000056   0.001140
    18  H   -0.022415   0.001127  -0.000083  -0.000001   0.000000  -0.000000
    19  H    0.442208  -0.079713   0.016735  -0.000561   0.000013  -0.000001
    20  H   -0.079779   0.442216  -0.087192  -0.020320   0.001005  -0.000066
    21  H    0.001119  -0.022434  -0.079987   0.440230  -0.083063   0.016195
    22  H    0.000010  -0.000535   0.015746  -0.078855   0.436264  -0.084493
    23  H   -0.000001   0.000030  -0.001648   0.015556  -0.086245   0.436279
    24  H   -0.000043  -0.000242   0.018838  -0.001949   0.015809  -0.081360
              13         14         15         16         17         18
     1  C   -0.000005  -0.004293   0.436321  -0.086217   0.015806  -0.083128
     2  C    0.000455   0.022396  -0.084521   0.436203  -0.081306   0.016218
     3  C   -0.026899  -0.145385   0.015190  -0.075265   0.419718  -0.002265
     4  C   -0.145238   0.218673  -0.001221   0.015816  -0.050865   0.017010
     5  C    0.021114  -0.002632   0.015757  -0.001646   0.018863  -0.080166
     6  C   -0.000261   0.026953  -0.078893   0.015551  -0.001950   0.440536
     7  C   -0.003682  -0.133184  -0.000537   0.000030  -0.000242  -0.022415
     8  C    0.027534   0.021843   0.000010  -0.000001  -0.000043   0.001127
     9  C    0.024850   0.083562  -0.000000   0.000007  -0.001170  -0.000083
    10  C   -0.173594   0.045095   0.000000  -0.000000   0.000036  -0.000001
    11  C    0.143057  -0.155572   0.000000   0.000000  -0.000056   0.000000
    12  C    0.245637   0.123698  -0.000000  -0.000001   0.001140  -0.000000
    13  C    5.436655   0.253013  -0.000000   0.000001   0.010039   0.000009
    14  C    0.253013   5.548966   0.000053  -0.000308  -0.038914  -0.000162
    15  H   -0.000000   0.000053   0.672811  -0.012381  -0.000350  -0.012605
    16  H    0.000001  -0.000308  -0.012381   0.672223  -0.013374  -0.000339
    17  H    0.010039  -0.038914  -0.000350  -0.013374   0.679950   0.000028
    18  H    0.000009  -0.000162  -0.012605  -0.000339   0.000028   0.679236
    19  H    0.000052  -0.001705  -0.000018  -0.000001   0.000010   0.006659
    20  H   -0.000291   0.016161  -0.000000   0.000000   0.000000  -0.000019
    21  H   -0.002256   0.017004  -0.000000   0.000000   0.000000  -0.000000
    22  H    0.015189  -0.001218  -0.000000  -0.000000  -0.000000  -0.000000
    23  H   -0.075271   0.015794  -0.000000  -0.000000   0.000029   0.000000
    24  H    0.419506  -0.050631  -0.000000   0.000029   0.000230   0.000000
              19         20         21         22         23         24
     1  C    0.001012   0.000013   0.000000   0.000000   0.000000  -0.000056
     2  C   -0.000067  -0.000001  -0.000000  -0.000000  -0.000001   0.001137
     3  C   -0.000291   0.000052   0.000009  -0.000000   0.000001   0.010049
     4  C    0.016139  -0.001706  -0.000164   0.000053  -0.000305  -0.038910
     5  C   -0.087180   0.016756  -0.000083  -0.000000   0.000007  -0.001179
     6  C   -0.020276  -0.000564  -0.000001   0.000000  -0.000000   0.000036
     7  C    0.442208  -0.079779   0.001119   0.000010  -0.000001  -0.000043
     8  C   -0.079713   0.442216  -0.022434  -0.000535   0.000030  -0.000242
     9  C    0.016735  -0.087192  -0.079987   0.015746  -0.001648   0.018838
    10  C   -0.000561  -0.020320   0.440230  -0.078855   0.015556  -0.001949
    11  C    0.000013   0.001005  -0.083063   0.436264  -0.086245   0.015809
    12  C   -0.000001  -0.000066   0.016195  -0.084493   0.436279  -0.081360
    13  C    0.000052  -0.000291  -0.002256   0.015189  -0.075271   0.419506
    14  C   -0.001705   0.016161   0.017004  -0.001218   0.015794  -0.050631
    15  H   -0.000018  -0.000000  -0.000000  -0.000000  -0.000000  -0.000000
    16  H   -0.000001   0.000000   0.000000  -0.000000  -0.000000   0.000029
    17  H    0.000010   0.000000   0.000000  -0.000000   0.000029   0.000230
    18  H    0.006659  -0.000019  -0.000000  -0.000000   0.000000   0.000000
    19  H    0.681184  -0.013152  -0.000019  -0.000000   0.000000   0.000000
    20  H   -0.013152   0.681459   0.006693  -0.000018  -0.000001   0.000011
    21  H   -0.000019   0.006693   0.679138  -0.012601  -0.000339   0.000028
    22  H   -0.000000  -0.000018  -0.012601   0.672683  -0.012369  -0.000351
    23  H    0.000000  -0.000001  -0.000339  -0.012369   0.672183  -0.013380
    24  H    0.000000   0.000011   0.000028  -0.000351  -0.013380   0.679961
 Mulliken charges:
               1
     1  C   -0.037008
     2  C   -0.031137
     3  C   -0.170148
     4  C    0.141952
     5  C    0.162911
     6  C   -0.141285
     7  C   -0.146826
     8  C   -0.146945
     9  C    0.163145
    10  C   -0.141446
    11  C   -0.037029
    12  C   -0.031096
    13  C   -0.169612
    14  C    0.140791
    15  H    0.050386
    16  H    0.049673
    17  H    0.042422
    18  H    0.040359
    19  H    0.038972
    20  H    0.038745
    21  H    0.040530
    22  H    0.050497
    23  H    0.049682
    24  H    0.042467
 Sum of Mulliken charges =  -0.00000
 Mulliken charges with hydrogens summed into heavy atoms:
               1
     1  C    0.013377
     2  C    0.018536
     3  C   -0.127726
     4  C    0.141952
     5  C    0.162911
     6  C   -0.100926
     7  C   -0.107854
     8  C   -0.108200
     9  C    0.163145
    10  C   -0.100916
    11  C    0.013468
    12  C    0.018586
    13  C   -0.127145
    14  C    0.140791
 Electronic spatial extent (au):  <R**2>=           2622.0847
 Charge=             -0.0000 electrons
 Dipole moment (field-independent basis, Debye):
    X=              0.0015    Y=             -0.0334    Z=              0.0143  Tot=              0.0364
 Quadrupole moment (field-independent basis, Debye-Ang):
   XX=            -71.3366   YY=            -72.0289   ZZ=            -86.9969
   XY=              0.0098   XZ=             -0.0249   YZ=              0.0208
 Traceless Quadrupole moment (field-independent basis, Debye-Ang):
   XX=              5.4509   YY=              4.7586   ZZ=            -10.2094
   XY=              0.0098   XZ=             -0.0249   YZ=              0.0208
 Octapole moment (field-independent basis, Debye-Ang**2):
  XXX=              0.0227  YYY=             -0.7669  ZZZ=              0.0176  XYY=              0.0096
  XXY=             -1.1666  XXZ=              0.5365  XZZ=             -0.0038  YZZ=              0.1245
  YYZ=             -0.0274  XYZ=             -0.7984
 Hexadecapole moment (field-independent basis, Debye-Ang**3):
 XXXX=          -2392.3019 YYYY=           -886.3523 ZZZZ=            -96.2649 XXXY=              0.1796
 XXXZ=             -0.9594 YYYX=              0.0472 YYYZ=              0.1150 ZZZX=             -0.0116
 ZZZY=              0.0199 XXYY=           -544.8752 XXZZ=           -498.7561 YYZZ=           -191.9969
 XXYZ=             -0.0393 YYXZ=              0.5994 ZZXY=             -0.0039
 N-N= 7.765284929873D+02 E-N=-2.800260367515D+03  KE= 5.335806670088D+02
   1 Symmetry operations used in ECPInt.
 ECPInt:  NShTT=    5460 NPrTT=   21948 LenC2=    5319 LenP2D=   15704.
 LDataN:  DoStor=T MaxTD1= 5 Len=  102
 Calling FoFJK, ICntrl=      2127 FMM=F ISym2X=0 I1Cent= 0 IOpClX= 0 NMat=1 NMatS=1 NMatT=0.
 ***** Axes restored to original set *****
 -------------------------------------------------------------------
 Center     Atomic                   Forces (Hartrees/Bohr)
 Number     Number              X              Y              Z
 -------------------------------------------------------------------
      1        6          -0.000186878    0.019906168   -0.000303284
      2        6          -0.020601423   -0.008065472   -0.000116213
      3        6           0.007022157   -0.001818030    0.000190568
      4        6           0.011434097   -0.013703432    0.000039677
      5        6           0.012536248   -0.005361418   -0.000498243
      6        6           0.015381924   -0.013924828    0.000333836
      7        6          -0.043920208    0.022331065    0.000577423
      8        6           0.043949903    0.022178936   -0.000490875
      9        6          -0.011989122   -0.006078176    0.000587841
     10        6          -0.015754195   -0.013100343   -0.000196357
     11        6          -0.000155590    0.019747149    0.000468101
     12        6           0.020510969   -0.008085384   -0.000252723
     13        6          -0.006248464   -0.001565362    0.000077546
     14        6          -0.012077810   -0.013393077   -0.000272418
     15        1           0.005557227    0.000808744   -0.000074973
     16        1           0.001484183   -0.004906755   -0.000038333
     17        1          -0.004726993   -0.002761448   -0.000150384
     18        1          -0.001118897    0.005473898    0.000054828
     19        1           0.004026245    0.001867599   -0.000016763
     20        1          -0.004161601    0.002126311    0.000063937
     21        1           0.001248930    0.005121083   -0.000121130
     22        1          -0.005344297    0.000857045    0.000029403
     23        1          -0.001514643   -0.004884770   -0.000093096
     24        1           0.004648238   -0.002769501    0.000201631
 -------------------------------------------------------------------
 Cartesian Forces:  Max     0.043949903 RMS     0.011082225

 GradGradGradGradGradGradGradGradGradGradGradGradGradGradGradGradGradGrad
 Berny optimization.
 FormGI is forming the generalized inverse of G from B-inverse, IUseBI=4.
 Internal  Forces:  Max     0.030854991 RMS     0.005936582
 Search for a local minimum.
 Step number   1 out of a maximum of  142
 All quantities printed in internal units (Hartrees-Bohrs-Radians)
 Mixed Optimization -- RFO/linear search
 Second derivative matrix not updated -- first step.
 ITU=  0
     Eigenvalues ---    0.01739   0.01776   0.01812   0.01928   0.01944
     Eigenvalues ---    0.01983   0.01985   0.01992   0.02055   0.02057
     Eigenvalues ---    0.02096   0.02101   0.02137   0.02150   0.02169
     Eigenvalues ---    0.02183   0.02185   0.02193   0.02196   0.02232
     Eigenvalues ---    0.02234   0.15999   0.15999   0.16000   0.16000
     Eigenvalues ---    0.16000   0.16000   0.16000   0.16000   0.16000
     Eigenvalues ---    0.16000   0.22000   0.22000   0.22345   0.22587
     Eigenvalues ---    0.22774   0.24298   0.24479   0.24703   0.24995
     Eigenvalues ---    0.34973   0.35006   0.35018   0.35073   0.35200
     Eigenvalues ---    0.35201   0.35218   0.35252   0.35253   0.35261
     Eigenvalues ---    0.37551   0.37600   0.39986   0.40391   0.40514
     Eigenvalues ---    0.43247   0.43310   0.44866   0.45030   0.45415
     Eigenvalues ---    0.45466   0.45855   0.45904   0.46529   0.47306
     Eigenvalues ---    0.47330
 RFO step:  Lambda=-1.12023682D-02 EMin= 1.73852250D-02
 Linear search not attempted -- first point.
 Iteration  1 RMS(Cart)=  0.03396864 RMS(Int)=  0.00029510
 Iteration  2 RMS(Cart)=  0.00041897 RMS(Int)=  0.00003996
 Iteration  3 RMS(Cart)=  0.00000008 RMS(Int)=  0.00003996
 Variable       Old X    -DE/DX   Delta X   Delta X   Delta X     New X
                                 (Linear)    (Quad)   (Total)
    R1        2.62003   0.02023   0.00000   0.04105   0.04103   2.66106
    R2        2.63121  -0.00540   0.00000  -0.01074  -0.01072   2.62048
    R3        2.05266   0.00558   0.00000   0.01535   0.01535   2.06802
    R4        2.64197  -0.00869   0.00000  -0.01915  -0.01919   2.62278
    R5        2.05352   0.00495   0.00000   0.01363   0.01363   2.06715
    R6        2.68008  -0.00359   0.00000  -0.00874  -0.00875   2.67132
    R7        2.05253   0.00450   0.00000   0.01237   0.01237   2.06490
    R8        2.68049   0.01305   0.00000   0.03023   0.03027   2.71075
    R9        2.72130   0.00716   0.00000   0.01808   0.01810   2.73940
   R10        2.65636   0.00923   0.00000   0.02086   0.02089   2.67726
   R11        2.64029   0.03085   0.00000   0.06516   0.06515   2.70543
   R12        2.05557   0.00424   0.00000   0.01172   0.01172   2.06728
   R13        2.63007  -0.02028   0.00000  -0.04254  -0.04257   2.58751
   R14        2.05719   0.00357   0.00000   0.00989   0.00989   2.06708
   R15        2.64022   0.03085   0.00000   0.06512   0.06511   2.70532
   R16        2.05646   0.00386   0.00000   0.01067   0.01067   2.06713
   R17        2.65572   0.00948   0.00000   0.02139   0.02143   2.67715
   R18        2.68170   0.01267   0.00000   0.02936   0.02939   2.71109
   R19        2.63072  -0.00527   0.00000  -0.01041  -0.01039   2.62032
   R20        2.05665   0.00387   0.00000   0.01072   0.01072   2.06736
   R21        2.61991   0.02032   0.00000   0.04127   0.04125   2.66116
   R22        2.05323   0.00537   0.00000   0.01479   0.01479   2.06802
   R23        2.64136  -0.00844   0.00000  -0.01861  -0.01865   2.62272
   R24        2.05351   0.00495   0.00000   0.01362   0.01362   2.06713
   R25        2.68128  -0.00409   0.00000  -0.00997  -0.00999   2.67129
   R26        2.05267   0.00446   0.00000   0.01227   0.01227   2.06495
    A1        2.08631   0.00032   0.00000   0.00233   0.00232   2.08863
    A2        2.09941   0.00045   0.00000   0.00239   0.00239   2.10180
    A3        2.09746  -0.00077   0.00000  -0.00471  -0.00471   2.09275
    A4        2.09286   0.00234   0.00000   0.00861   0.00855   2.10140
    A5        2.09714   0.00019   0.00000   0.00363   0.00366   2.10081
    A6        2.09318  -0.00253   0.00000  -0.01224  -0.01221   2.08097
    A7        2.13402  -0.00301   0.00000  -0.01517  -0.01523   2.11879
    A8        2.04066   0.00470   0.00000   0.02628   0.02630   2.06696
    A9        2.10846  -0.00169   0.00000  -0.01105  -0.01103   2.09743
   A10        2.03500   0.00700   0.00000   0.02580   0.02579   2.06079
   A11        2.16714  -0.00636   0.00000  -0.02480  -0.02483   2.14231
   A12        2.08102  -0.00064   0.00000  -0.00098  -0.00094   2.08008
   A13        2.10521  -0.00568   0.00000  -0.01998  -0.01993   2.08529
   A14        2.09284  -0.00071   0.00000  -0.00347  -0.00349   2.08936
   A15        2.08512   0.00639   0.00000   0.02345   0.02341   2.10853
   A16        2.11286  -0.00097   0.00000  -0.00147  -0.00142   2.11144
   A17        2.06886   0.00422   0.00000   0.02257   0.02254   2.09140
   A18        2.10146  -0.00325   0.00000  -0.02108  -0.02111   2.08034
   A19        2.10933   0.00128   0.00000   0.00441   0.00438   2.11371
   A20        2.10384  -0.00335   0.00000  -0.01804  -0.01803   2.08581
   A21        2.06999   0.00208   0.00000   0.01366   0.01367   2.08366
   A22        2.10975   0.00120   0.00000   0.00403   0.00399   2.11374
   A23        2.06985   0.00211   0.00000   0.01384   0.01386   2.08371
   A24        2.10358  -0.00332   0.00000  -0.01786  -0.01784   2.08573
   A25        2.08628   0.00611   0.00000   0.02248   0.02245   2.10872
   A26        2.09246  -0.00061   0.00000  -0.00318  -0.00321   2.08925
   A27        2.10445  -0.00551   0.00000  -0.01930  -0.01924   2.08520
   A28        2.11382  -0.00119   0.00000  -0.00225  -0.00220   2.11162
   A29        2.10054  -0.00308   0.00000  -0.02033  -0.02036   2.08018
   A30        2.06883   0.00427   0.00000   0.02258   0.02256   2.09139
   A31        2.08640   0.00023   0.00000   0.00215   0.00214   2.08854
   A32        2.09772  -0.00077   0.00000  -0.00490  -0.00490   2.09282
   A33        2.09906   0.00054   0.00000   0.00276   0.00277   2.10182
   A34        2.09243   0.00242   0.00000   0.00902   0.00896   2.10139
   A35        2.09761   0.00012   0.00000   0.00325   0.00328   2.10089
   A36        2.09315  -0.00254   0.00000  -0.01227  -0.01224   2.08091
   A37        2.13454  -0.00308   0.00000  -0.01558  -0.01564   2.11890
   A38        2.04122   0.00466   0.00000   0.02604   0.02606   2.06729
   A39        2.10740  -0.00158   0.00000  -0.01044  -0.01041   2.09699
   A40        2.08056  -0.00052   0.00000  -0.00052  -0.00049   2.08007
   A41        2.16815  -0.00661   0.00000  -0.02566  -0.02568   2.14247
   A42        2.03448   0.00713   0.00000   0.02619   0.02617   2.06065
    D1        0.00853  -0.00010   0.00000  -0.00413  -0.00418   0.00435
    D2       -3.13127  -0.00011   0.00000  -0.00386  -0.00388  -3.13516
    D3       -3.13838  -0.00000   0.00000  -0.00118  -0.00123  -3.13961
    D4        0.00501  -0.00002   0.00000  -0.00091  -0.00093   0.00407
    D5        0.00168  -0.00002   0.00000  -0.00204  -0.00212  -0.00044
    D6        3.13809   0.00006   0.00000   0.00157   0.00156   3.13965
    D7       -3.13461  -0.00012   0.00000  -0.00501  -0.00508  -3.13968
    D8        0.00180  -0.00004   0.00000  -0.00140  -0.00140   0.00040
    D9       -0.00699   0.00016   0.00000   0.00528   0.00530  -0.00169
   D10       -3.13772  -0.00004   0.00000  -0.00085  -0.00087  -3.13859
   D11        3.13282   0.00018   0.00000   0.00503   0.00502   3.13784
   D12        0.00208  -0.00002   0.00000  -0.00110  -0.00115   0.00093
   D13       -0.00467  -0.00005   0.00000  -0.00007  -0.00002  -0.00469
   D14       -3.13887  -0.00014   0.00000  -0.00321  -0.00315   3.14117
   D15        3.12565   0.00019   0.00000   0.00652   0.00648   3.13213
   D16       -0.00855   0.00011   0.00000   0.00337   0.00335  -0.00520
   D17        0.01480  -0.00014   0.00000  -0.00632  -0.00637   0.00843
   D18       -3.12191  -0.00012   0.00000  -0.00623  -0.00629  -3.12819
   D19       -3.13381  -0.00008   0.00000  -0.00345  -0.00346  -3.13727
   D20        0.01267  -0.00006   0.00000  -0.00336  -0.00338   0.00929
   D21        3.10462   0.00045   0.00000   0.01354   0.01346   3.11808
   D22       -0.03781   0.00042   0.00000   0.01312   0.01310  -0.02471
   D23       -0.02939   0.00033   0.00000   0.01021   0.01019  -0.01920
   D24        3.11136   0.00029   0.00000   0.00979   0.00983   3.12120
   D25       -0.01374   0.00025   0.00000   0.00777   0.00774  -0.00600
   D26        3.13314   0.00015   0.00000   0.00396   0.00395   3.13709
   D27        3.12299   0.00022   0.00000   0.00760   0.00758   3.13057
   D28       -0.01332   0.00011   0.00000   0.00379   0.00379  -0.00953
   D29        0.00990  -0.00012   0.00000  -0.00487  -0.00490   0.00500
   D30       -3.14015   0.00003   0.00000   0.00020   0.00014  -3.14002
   D31       -3.12687  -0.00008   0.00000  -0.00465  -0.00470  -3.13156
   D32        0.00627   0.00008   0.00000   0.00041   0.00034   0.00661
   D33       -0.01572   0.00023   0.00000   0.00656   0.00655  -0.00917
   D34        3.13018   0.00019   0.00000   0.00549   0.00550   3.13568
   D35        3.13418   0.00010   0.00000   0.00174   0.00167   3.13584
   D36       -0.00312   0.00007   0.00000   0.00068   0.00062  -0.00250
   D37        3.14081   0.00013   0.00000   0.00318   0.00320  -3.13917
   D38       -0.00164   0.00002   0.00000   0.00046   0.00047  -0.00117
   D39       -0.00516   0.00018   0.00000   0.00435   0.00432  -0.00083
   D40        3.13557   0.00006   0.00000   0.00163   0.00160   3.13717
   D41        3.12561   0.00018   0.00000   0.00521   0.00512   3.13073
   D42       -0.01522   0.00019   0.00000   0.00530   0.00522  -0.01000
   D43       -0.01512   0.00029   0.00000   0.00794   0.00784  -0.00728
   D44        3.12724   0.00030   0.00000   0.00803   0.00794   3.13518
   D45        0.02401  -0.00021   0.00000  -0.00862  -0.00868   0.01533
   D46       -3.11681  -0.00017   0.00000  -0.00822  -0.00831  -3.12512
   D47       -3.11845  -0.00032   0.00000  -0.01135  -0.01135  -3.12980
   D48        0.02392  -0.00028   0.00000  -0.01094  -0.01098   0.01294
   D49       -0.00415   0.00011   0.00000   0.00159   0.00148  -0.00266
   D50        3.14155   0.00002   0.00000  -0.00073  -0.00078   3.14077
   D51        3.13670   0.00010   0.00000   0.00148   0.00136   3.13806
   D52       -0.00080   0.00000   0.00000  -0.00084  -0.00090  -0.00169
   D53        0.01331  -0.00018   0.00000  -0.00650  -0.00654   0.00677
   D54       -3.12963  -0.00012   0.00000  -0.00375  -0.00374  -3.13336
   D55       -3.13239  -0.00009   0.00000  -0.00421  -0.00428  -3.13667
   D56        0.00786  -0.00003   0.00000  -0.00146  -0.00148   0.00638
   D57       -0.00350   0.00008   0.00000   0.00272   0.00276  -0.00073
   D58       -3.13775  -0.00000   0.00000   0.00008   0.00009  -3.13766
   D59        3.13944   0.00001   0.00000  -0.00003  -0.00002   3.13942
   D60        0.00518  -0.00007   0.00000  -0.00267  -0.00269   0.00249
   D61        3.12745   0.00018   0.00000   0.00627   0.00626   3.13370
   D62       -0.01496   0.00014   0.00000   0.00585   0.00589  -0.00908
   D63       -0.02176   0.00029   0.00000   0.00915   0.00912  -0.01264
   D64        3.11902   0.00025   0.00000   0.00874   0.00875   3.12777
         Item               Value     Threshold  Converged?
 Maximum Force            0.030855     0.000450     NO 
 RMS     Force            0.005937     0.000300     NO 
 Maximum Displacement     0.125076     0.001800     NO 
 RMS     Displacement     0.034000     0.001200     NO 
 Predicted change in Energy=-5.776891D-03
 GradGradGradGradGradGradGradGradGradGradGradGradGradGradGradGradGradGrad

                          Input orientation:                          
 ---------------------------------------------------------------------
 Center     Atomic      Atomic             Coordinates (Angstroms)
 Number     Number       Type             X           Y           Z
 ---------------------------------------------------------------------
      1          6           0        3.559457   -0.316919    0.005396
      2          6           0        2.874682   -1.547311    0.018420
      3          6           0        1.487126   -1.578932    0.016926
      4          6           0        0.723391   -0.389467    0.004472
      5          6           0        1.423690    0.862434   -0.000744
      6          6           0        2.840416    0.868760   -0.003757
      7          6           0        0.684933    2.088750    0.003332
      8          6           0       -0.684238    2.089730    0.018016
      9          6           0       -1.424802    0.864566    0.018565
     10          6           0       -2.841410    0.872707    0.030856
     11          6           0       -3.562247   -0.311753    0.018518
     12          6           0       -2.879332   -1.542979   -0.009864
     13          6           0       -1.491876   -1.576532   -0.017402
     14          6           0       -0.726235   -0.388408    0.002062
     15          1           0        4.653509   -0.291571    0.004697
     16          1           0        3.430456   -2.489396    0.031805
     17          1           0        0.988954   -2.551370    0.030158
     18          1           0        3.369744    1.826094   -0.012034
     19          1           0        1.222312    3.041483   -0.002164
     20          1           0       -1.220277    3.043228    0.026414
     21          1           0       -3.369251    1.830765    0.049550
     22          1           0       -4.656213   -0.284913    0.029113
     23          1           0       -3.436466   -2.484178   -0.027606
     24          1           0       -0.994873   -2.549339   -0.043398
 ---------------------------------------------------------------------
                    Distance matrix (angstroms):
                    1          2          3          4          5
     1  C    0.000000
     2  C    1.408172   0.000000
     3  C    2.426389   1.387917   0.000000
     4  C    2.836993   2.443122   1.413603   0.000000
     5  C    2.439756   2.812937   2.442254   1.434469   0.000000
     6  C    1.386701   2.416416   2.796966   2.462722   1.416743
     7  C    3.748351   4.244546   3.754410   2.478516   1.431653
     8  C    4.878633   5.088613   4.263087   2.850969   2.439256
     9  C    5.122393   4.929778   3.801317   2.487475   2.848558
    10  C    6.510526   6.207282   4.974631   3.781744   4.265229
    11  C    7.121718   6.554438   5.205950   4.286366   5.122368
    12  C    6.554499   5.754085   4.366688   3.782910   4.929715
    13  C    5.206064   4.366803   2.979201   2.513366   3.801231
    14  C    4.286289   3.782846   2.513272   1.449629   2.487326
    15  H    1.094347   2.177452   3.418104   3.931337   3.429794
    16  H    2.176464   1.093887   2.146089   3.426171   3.906781
    17  H    3.406005   2.136409   1.092697   2.178304   3.441513
    18  H    2.151465   3.409674   3.890925   3.451401   2.171611
    19  H    4.091597   4.877272   4.628038   3.467043   2.188336
    20  H    5.842678   6.151569   5.356724   3.944836   3.427414
    21  H    7.254067   7.099230   5.933928   4.656306   4.890039
    22  H    8.215766   7.635977   6.278157   5.380677   6.187287
    23  H    7.324004   6.380472   5.006317   4.657601   5.900987
    24  H    5.072277   3.997666   2.665641   2.760392   4.182279
                    6          7          8          9         10
     6  C    0.000000
     7  C    2.476799   0.000000
     8  C    3.730205   1.369249   0.000000
     9  C    4.265278   2.439229   1.431594   0.000000
    10  C    5.681933   3.730229   2.476833   1.416685   0.000000
    11  C    6.510622   4.878645   3.748341   2.439754   1.386616
    12  C    6.207418   5.088577   4.244501   2.812959   2.416327
    13  C    4.974776   4.263006   3.754332   2.442284   2.796845
    14  C    3.781733   2.850914   2.478546   1.434647   2.462764
    15  H    2.152614   4.627692   5.844854   6.187302   7.584856
    16  H    3.409784   5.338365   6.156241   5.901082   7.116182
    17  H    3.889261   4.650147   4.933511   4.182699   5.137703
    18  H    1.093959   2.697673   4.062656   4.890107   6.284045
    19  H    2.709057   1.093850   2.131003   3.427333   4.606357
    20  H    4.606349   2.131053   1.093877   2.188255   2.709106
    21  H    6.283969   4.062647   2.697657   2.171493   1.094002
    22  H    7.584952   5.844894   4.627704   3.429787   2.152580
    23  H    7.116320   6.156180   5.338303   3.906791   3.409720
    24  H    5.137549   4.933133   4.649863   3.441428   3.889166
                   11         12         13         14         15
    11  C    0.000000
    12  C    1.408225   0.000000
    13  C    2.426395   1.387882   0.000000
    14  C    2.837096   2.443154   1.413585   0.000000
    15  H    8.215793   7.636094   6.278326   5.380616   0.000000
    16  H    7.323948   6.380507   5.006506   4.657587   2.515358
    17  H    5.072421   3.997761   2.665913   2.760628   4.305381
    18  H    7.254228   7.099409   5.934075   4.656315   2.476457
    19  H    5.842656   6.151491   5.356596   3.944745   4.783556
    20  H    4.091550   4.877200   4.627944   3.467103   6.754460
    21  H    2.151416   3.409648   3.890847   3.451452   8.298856
    22  H    1.094347   2.177511   3.418109   3.931434   9.309757
    23  H    2.176553   1.093878   2.146009   3.426147   8.381901
    24  H    3.406177   2.136603   1.092722   2.178039   6.083095
                   16         17         18         19         20
    16  H    0.000000
    17  H    2.442290   0.000000
    18  H    4.316140   4.983186   0.000000
    19  H    5.955475   5.597813   2.467535   0.000000
    20  H    7.227675   6.015002   4.748809   2.442758   0.000000
    21  H    8.056062   6.180407   6.739278   4.748786   2.467528
    22  H    8.381765   6.083152   8.299038   6.754477   4.783533
    23  H    6.867181   4.426307   8.056251   7.227572   5.955387
    24  H    4.426374   1.985191   6.180233   6.014558   5.597543
                   21         22         23         24
    21  H    0.000000
    22  H    2.476445   0.000000
    23  H    4.316156   2.515506   0.000000
    24  H    4.983134   4.305612   2.442513   0.000000
 Stoichiometry    C14H10
 Framework group  C1[X(C14H10)]
 Deg. of freedom    66
 Full point group                 C1      NOp   1
 Largest Abelian subgroup         C1      NOp   1
 Largest concise Abelian subgroup C1      NOp   1
                         Standard orientation:                         
 ---------------------------------------------------------------------
 Center     Atomic      Atomic             Coordinates (Angstroms)
 Number     Number       Type             X           Y           Z
 ---------------------------------------------------------------------
      1          6           0        3.560858   -0.304309    0.001268
      2          6           0        2.876971   -1.535157    0.017360
      3          6           0        1.489440   -1.567797    0.014948
      4          6           0        0.724848   -0.378931   -0.001511
      5          6           0        1.424238    0.873461   -0.009846
      6          6           0        2.840961    0.880813   -0.011846
      7          6           0        0.684585    2.099244   -0.009862
      8          6           0       -0.684596    2.099266    0.003822
      9          6           0       -1.424267    0.873568    0.007384
     10          6           0       -2.840890    0.880709    0.018620
     11          6           0       -3.560855   -0.304307    0.009190
     12          6           0       -2.877022   -1.535111   -0.015125
     13          6           0       -1.489537   -1.567672   -0.021556
     14          6           0       -0.724776   -0.378938   -0.004979
     15          1           0        4.654893   -0.278164    0.001292
     16          1           0        3.433422   -2.476794    0.033880
     17          1           0        0.991967   -2.540556    0.030636
     18          1           0        3.369598    1.838506   -0.022512
     19          1           0        1.221274    3.052349   -0.017729
     20          1           0       -1.221336    3.052393    0.009067
     21          1           0       -3.369443    1.838431    0.034152
     22          1           0       -4.654848   -0.278237    0.018911
     23          1           0       -3.433457   -2.476765   -0.030545
     24          1           0       -0.991806   -2.540187   -0.044371
 ---------------------------------------------------------------------
 Rotational constants (GHZ):           1.6040692           0.5506457           0.4099476
 Standard basis: def2SVPP (5D, 7F)
 There are   230 symmetry adapted cartesian basis functions of A   symmetry.
 There are   216 symmetry adapted basis functions of A   symmetry.
   216 basis functions,   390 primitive gaussians,   230 cartesian basis functions
    47 alpha electrons       47 beta electrons
       nuclear repulsion energy       773.2866049029 Hartrees.
 NAtoms=   24 NActive=   24 NUniq=   24 SFac= 1.00D+00 NAtFMM=   60 NAOKFM=F Big=F
 Integral buffers will be    131072 words long.
 Raffenetti 2 integral format.
 Two-electron integral symmetry is turned on.
 Nuclear repulsion after empirical dispersion term =      773.2316520152 Hartrees.
 One-electron integrals computed using PRISM.
   1 Symmetry operations used in ECPInt.
 ECPInt:  NShTT=    5460 NPrTT=   21948 LenC2=    5319 LenP2D=   15672.
 LDataN:  DoStor=T MaxTD1= 4 Len=   56
 NBasis=   216 RedAO= T EigKep=  2.56D-04  NBF=   216
 NBsUse=   216 1.00D-06 EigRej= -1.00D+00 NBFU=   216
 Initial guess from the checkpoint file:  "/home/software/g16/scr/Gau-271652.chk"
 B after Tr=     0.000000   -0.000000    0.000000
         Rot=    1.000000   -0.000040    0.000071   -0.000095 Ang=  -0.01 deg.
 ExpMin= 1.22D-01 ExpMax= 1.24D+03 ExpMxC= 1.86D+02 IAcc=3 IRadAn=         5 AccDes= 0.00D+00
 Harris functional with IExCor=  402 and IRadAn=       5 diagonalized for initial guess.
 HarFok:  IExCor=  402 AccDes= 0.00D+00 IRadAn=         5 IDoV= 1 UseB2=F ITyADJ=14
 ICtDFT=  3500011 ScaDFX=  1.000000  1.000000  1.000000  1.000000
 FoFCou: FMM=F IPFlag=           0 FMFlag=      100000 FMFlg1=           0
         NFxFlg=           0 DoJE=T BraDBF=F KetDBF=T FulRan=T
         wScrn=  0.000000 ICntrl=       500 IOpCl=  0 I1Cent=   200000004 NGrid=           0
         NMat0=    1 NMatS0=      1 NMatT0=    0 NMatD0=    1 NMtDS0=    0 NMtDT0=    0
 Petite list used in FoFCou.
 Requested convergence on RMS density matrix=1.00D-08 within 128 cycles.
 Requested convergence on MAX density matrix=1.00D-06.
 Requested convergence on             energy=1.00D-06.
 No special actions if energy rises.
 Integral accuracy reduced to 1.0D-05 until final iterations.
 Initial convergence to 1.0D-05 achieved.  Increase integral accuracy.
 SCF Done:  E(RB3LYP) =  -539.187182821     A.U. after   13 cycles
            NFock= 13  Conv=0.31D-08     -V/T= 2.0112
   1 Symmetry operations used in ECPInt.
 ECPInt:  NShTT=    5460 NPrTT=   21948 LenC2=    5319 LenP2D=   15672.
 LDataN:  DoStor=T MaxTD1= 5 Len=  102
 Calling FoFJK, ICntrl=      2127 FMM=F ISym2X=0 I1Cent= 0 IOpClX= 0 NMat=1 NMatS=1 NMatT=0.
 ***** Axes restored to original set *****
 -------------------------------------------------------------------
 Center     Atomic                   Forces (Hartrees/Bohr)
 Number     Number              X              Y              Z
 -------------------------------------------------------------------
      1        6          -0.000579832    0.002880123   -0.000042139
      2        6          -0.002366770   -0.000978675    0.000039477
      3        6           0.003556538   -0.000934505   -0.000082843
      4        6           0.004191458    0.003936869   -0.000020367
      5        6           0.001827937   -0.003373821    0.000078245
      6        6           0.000955035   -0.003830587   -0.000023978
      7        6          -0.008513652    0.001584373   -0.000004278
      8        6           0.008503326    0.001618809   -0.000013234
      9        6          -0.001729186   -0.003535529   -0.000042932
     10        6          -0.000982007   -0.003696425   -0.000089807
     11        6           0.000586246    0.002770339    0.000088289
     12        6           0.002330480   -0.000964479   -0.000072825
     13        6          -0.003459219   -0.000943690    0.000047239
     14        6          -0.004285944    0.004078197    0.000037366
     15        1          -0.000230530   -0.000617171    0.000007490
     16        1           0.000801844    0.000347940   -0.000095014
     17        1           0.000267312    0.001149862   -0.000077897
     18        1          -0.000856086    0.000736438    0.000088374
     19        1           0.002001597   -0.000902515    0.000058257
     20        1          -0.001986938   -0.000908373    0.000013619
     21        1           0.000861332    0.000712162   -0.000088771
     22        1           0.000231252   -0.000615515   -0.000093892
     23        1          -0.000812223    0.000347650    0.000092070
     24        1          -0.000311970    0.001138525    0.000197551
 -------------------------------------------------------------------
 Cartesian Forces:  Max     0.008513652 RMS     0.002210506

 GradGradGradGradGradGradGradGradGradGradGradGradGradGradGradGradGradGrad
 Berny optimization.
 Using GEDIIS/GDIIS optimizer.
 FormGI is forming the generalized inverse of G from B-inverse, IUseBI=4.
 Internal  Forces:  Max     0.005555778 RMS     0.001084331
 Search for a local minimum.
 Step number   2 out of a maximum of  142
 All quantities printed in internal units (Hartrees-Bohrs-Radians)
 Mixed Optimization -- RFO/linear search
 Update second derivatives using D2CorX and points    1    2
 DE= -5.70D-03 DEPred=-5.78D-03 R= 9.87D-01
 TightC=F SS=  1.41D+00  RLast= 1.77D-01 DXNew= 5.0454D-01 5.3224D-01
 Trust test= 9.87D-01 RLast= 1.77D-01 DXMaxT set to 5.05D-01
 ITU=  1  0
 Use linear search instead of GDIIS.
     Eigenvalues ---    0.01739   0.01775   0.01815   0.01929   0.01945
     Eigenvalues ---    0.01985   0.01988   0.01994   0.02056   0.02058
     Eigenvalues ---    0.02098   0.02103   0.02138   0.02151   0.02169
     Eigenvalues ---    0.02183   0.02186   0.02194   0.02196   0.02232
     Eigenvalues ---    0.02234   0.15123   0.16000   0.16000   0.16000
     Eigenvalues ---    0.16000   0.16000   0.16000   0.16000   0.16000
     Eigenvalues ---    0.16198   0.21990   0.22000   0.22336   0.22738
     Eigenvalues ---    0.22759   0.24370   0.24480   0.24998   0.25443
     Eigenvalues ---    0.34763   0.34984   0.35012   0.35052   0.35142
     Eigenvalues ---    0.35200   0.35215   0.35245   0.35257   0.35460
     Eigenvalues ---    0.36630   0.37549   0.39618   0.40465   0.41105
     Eigenvalues ---    0.42620   0.43245   0.44389   0.44874   0.45297
     Eigenvalues ---    0.45439   0.45549   0.45901   0.46887   0.47327
     Eigenvalues ---    0.50636
 RFO step:  Lambda=-5.55489352D-04 EMin= 1.73922447D-02
 Quartic linear search produced a step of  0.03299.
 Iteration  1 RMS(Cart)=  0.01204235 RMS(Int)=  0.00005427
 Iteration  2 RMS(Cart)=  0.00006730 RMS(Int)=  0.00000548
 Iteration  3 RMS(Cart)=  0.00000000 RMS(Int)=  0.00000548
 Variable       Old X    -DE/DX   Delta X   Delta X   Delta X     New X
                                 (Linear)    (Quad)   (Total)
    R1        2.66106  -0.00020   0.00135   0.00021   0.00156   2.66262
    R2        2.62048  -0.00258  -0.00035  -0.00599  -0.00635   2.61414
    R3        2.06802  -0.00024   0.00051  -0.00049   0.00002   2.06804
    R4        2.62278  -0.00155  -0.00063  -0.00358  -0.00422   2.61856
    R5        2.06715   0.00011   0.00045   0.00052   0.00097   2.06811
    R6        2.67132   0.00179  -0.00029   0.00437   0.00408   2.67540
    R7        2.06490  -0.00115   0.00041  -0.00317  -0.00276   2.06214
    R8        2.71075  -0.00332   0.00100  -0.00742  -0.00642   2.70434
    R9        2.73940   0.00556   0.00060   0.01515   0.01575   2.75515
   R10        2.67726  -0.00074   0.00069  -0.00161  -0.00091   2.67634
   R11        2.70543   0.00161   0.00215   0.00440   0.00656   2.71199
   R12        2.06728   0.00023   0.00039   0.00085   0.00124   2.06852
   R13        2.58751  -0.00450  -0.00140  -0.01086  -0.01226   2.57525
   R14        2.06708   0.00020   0.00033   0.00073   0.00105   2.06813
   R15        2.70532   0.00166   0.00215   0.00450   0.00664   2.71196
   R16        2.06713   0.00018   0.00035   0.00070   0.00105   2.06818
   R17        2.67715  -0.00071   0.00071  -0.00151  -0.00080   2.67635
   R18        2.71109  -0.00343   0.00097  -0.00771  -0.00674   2.70435
   R19        2.62032  -0.00251  -0.00034  -0.00582  -0.00616   2.61417
   R20        2.06736   0.00021   0.00035   0.00077   0.00112   2.06849
   R21        2.66116  -0.00024   0.00136   0.00013   0.00149   2.66265
   R22        2.06802  -0.00025   0.00049  -0.00050  -0.00001   2.06800
   R23        2.62272  -0.00153  -0.00062  -0.00353  -0.00414   2.61857
   R24        2.06713   0.00011   0.00045   0.00053   0.00098   2.06811
   R25        2.67129   0.00181  -0.00033   0.00440   0.00407   2.67536
   R26        2.06495  -0.00116   0.00040  -0.00321  -0.00281   2.06214
    A1        2.08863  -0.00049   0.00008  -0.00254  -0.00247   2.08616
    A2        2.10180  -0.00039   0.00008  -0.00274  -0.00266   2.09914
    A3        2.09275   0.00088  -0.00016   0.00529   0.00513   2.09789
    A4        2.10140  -0.00041   0.00028  -0.00130  -0.00103   2.10038
    A5        2.10081  -0.00069   0.00012  -0.00500  -0.00487   2.09593
    A6        2.08097   0.00110  -0.00040   0.00630   0.00590   2.08688
    A7        2.11879   0.00066  -0.00050   0.00362   0.00311   2.12190
    A8        2.06696  -0.00003   0.00087   0.00038   0.00125   2.06821
    A9        2.09743  -0.00062  -0.00036  -0.00399  -0.00435   2.09307
   A10        2.06079  -0.00130   0.00085  -0.00517  -0.00432   2.05648
   A11        2.14231   0.00161  -0.00082   0.00567   0.00486   2.14717
   A12        2.08008  -0.00030  -0.00003  -0.00049  -0.00054   2.07954
   A13        2.08529   0.00068  -0.00066   0.00214   0.00149   2.08678
   A14        2.08936  -0.00048  -0.00012  -0.00194  -0.00206   2.08729
   A15        2.10853  -0.00020   0.00077  -0.00019   0.00058   2.10911
   A16        2.11144   0.00087  -0.00005   0.00328   0.00324   2.11468
   A17        2.09140   0.00071   0.00074   0.00604   0.00678   2.09818
   A18        2.08034  -0.00158  -0.00070  -0.00932  -0.01002   2.07032
   A19        2.11371   0.00078   0.00014   0.00248   0.00262   2.11633
   A20        2.08581  -0.00265  -0.00059  -0.01602  -0.01661   2.06920
   A21        2.08366   0.00187   0.00045   0.01354   0.01399   2.09765
   A22        2.11374   0.00078   0.00013   0.00248   0.00260   2.11635
   A23        2.08371   0.00186   0.00046   0.01348   0.01394   2.09764
   A24        2.08573  -0.00264  -0.00059  -0.01595  -0.01654   2.06919
   A25        2.10872  -0.00023   0.00074  -0.00035   0.00040   2.10913
   A26        2.08925  -0.00046  -0.00011  -0.00185  -0.00196   2.08729
   A27        2.08520   0.00069  -0.00063   0.00219   0.00156   2.08676
   A28        2.11162   0.00083  -0.00007   0.00315   0.00308   2.11469
   A29        2.08018  -0.00155  -0.00067  -0.00921  -0.00988   2.07031
   A30        2.09139   0.00072   0.00074   0.00605   0.00680   2.09818
   A31        2.08854  -0.00048   0.00007  -0.00247  -0.00240   2.08614
   A32        2.09282   0.00087  -0.00016   0.00524   0.00508   2.09790
   A33        2.10182  -0.00039   0.00009  -0.00277  -0.00268   2.09914
   A34        2.10139  -0.00042   0.00030  -0.00131  -0.00103   2.10036
   A35        2.10089  -0.00070   0.00011  -0.00506  -0.00495   2.09594
   A36        2.08091   0.00111  -0.00040   0.00637   0.00597   2.08688
   A37        2.11890   0.00064  -0.00052   0.00355   0.00302   2.12192
   A38        2.06729  -0.00007   0.00086   0.00011   0.00097   2.06826
   A39        2.09699  -0.00057  -0.00034  -0.00365  -0.00399   2.09300
   A40        2.08007  -0.00031  -0.00002  -0.00051  -0.00054   2.07953
   A41        2.14247   0.00158  -0.00085   0.00554   0.00470   2.14717
   A42        2.06065  -0.00127   0.00086  -0.00503  -0.00417   2.05648
    D1        0.00435  -0.00005  -0.00014  -0.00248  -0.00262   0.00173
    D2       -3.13516  -0.00006  -0.00013  -0.00316  -0.00329  -3.13844
    D3       -3.13961  -0.00003  -0.00004  -0.00110  -0.00114  -3.14075
    D4        0.00407  -0.00004  -0.00003  -0.00178  -0.00181   0.00226
    D5       -0.00044  -0.00002  -0.00007  -0.00065  -0.00071  -0.00115
    D6        3.13965  -0.00000   0.00005   0.00047   0.00053   3.14018
    D7       -3.13968  -0.00004  -0.00017  -0.00201  -0.00218   3.14132
    D8        0.00040  -0.00002  -0.00005  -0.00089  -0.00093  -0.00053
    D9       -0.00169   0.00004   0.00017   0.00195   0.00212   0.00043
   D10       -3.13859  -0.00001  -0.00003  -0.00053  -0.00057  -3.13916
   D11        3.13784   0.00006   0.00017   0.00261   0.00278   3.14062
   D12        0.00093   0.00001  -0.00004   0.00013   0.00009   0.00102
   D13       -0.00469   0.00002  -0.00000   0.00163   0.00163  -0.00307
   D14        3.14117  -0.00002  -0.00010  -0.00081  -0.00091   3.14026
   D15        3.13213   0.00008   0.00021   0.00417   0.00437   3.13650
   D16       -0.00520   0.00003   0.00011   0.00173   0.00184  -0.00336
   D17        0.00843  -0.00008  -0.00021  -0.00465  -0.00485   0.00358
   D18       -3.12819  -0.00011  -0.00021  -0.00651  -0.00671  -3.13490
   D19       -3.13727  -0.00004  -0.00011  -0.00229  -0.00241  -3.13968
   D20        0.00929  -0.00007  -0.00011  -0.00415  -0.00426   0.00503
   D21        3.11808   0.00020   0.00044   0.01216   0.01261   3.13069
   D22       -0.02471   0.00020   0.00043   0.01217   0.01260  -0.01211
   D23       -0.01920   0.00016   0.00034   0.00971   0.01005  -0.00915
   D24        3.12120   0.00016   0.00032   0.00971   0.01004   3.13124
   D25       -0.00600   0.00007   0.00026   0.00420   0.00446  -0.00154
   D26        3.13709   0.00006   0.00013   0.00308   0.00322   3.14031
   D27        3.13057   0.00010   0.00025   0.00608   0.00633   3.13690
   D28       -0.00953   0.00009   0.00013   0.00496   0.00509  -0.00444
   D29        0.00500  -0.00006  -0.00016  -0.00302  -0.00318   0.00181
   D30       -3.14002  -0.00002   0.00000  -0.00066  -0.00067  -3.14069
   D31       -3.13156  -0.00010  -0.00015  -0.00491  -0.00506  -3.13662
   D32        0.00661  -0.00005   0.00001  -0.00255  -0.00255   0.00406
   D33       -0.00917   0.00007   0.00022   0.00444   0.00467  -0.00450
   D34        3.13568   0.00006   0.00018   0.00337   0.00356   3.13923
   D35        3.13584   0.00004   0.00005   0.00214   0.00218   3.13802
   D36       -0.00250   0.00002   0.00002   0.00106   0.00107  -0.00143
   D37       -3.13917   0.00001   0.00011   0.00087   0.00098  -3.13819
   D38       -0.00117   0.00002   0.00002   0.00132   0.00134   0.00017
   D39       -0.00083   0.00004   0.00014   0.00200   0.00214   0.00130
   D40        3.13717   0.00004   0.00005   0.00245   0.00249   3.13966
   D41        3.13073   0.00009   0.00017   0.00531   0.00549   3.13622
   D42       -0.01000   0.00009   0.00017   0.00529   0.00547  -0.00453
   D43       -0.00728   0.00008   0.00026   0.00487   0.00514  -0.00214
   D44        3.13518   0.00009   0.00026   0.00485   0.00512   3.14030
   D45        0.01533  -0.00015  -0.00029  -0.00841  -0.00869   0.00664
   D46       -3.12512  -0.00015  -0.00027  -0.00843  -0.00869  -3.13381
   D47       -3.12980  -0.00015  -0.00037  -0.00798  -0.00835  -3.13815
   D48        0.01294  -0.00015  -0.00036  -0.00799  -0.00834   0.00459
   D49       -0.00266   0.00002   0.00005   0.00124   0.00130  -0.00137
   D50        3.14077   0.00001  -0.00003   0.00020   0.00018   3.14095
   D51        3.13806   0.00001   0.00005   0.00125   0.00131   3.13937
   D52       -0.00169   0.00000  -0.00003   0.00022   0.00019  -0.00151
   D53        0.00677  -0.00009  -0.00022  -0.00423  -0.00444   0.00233
   D54       -3.13336  -0.00008  -0.00012  -0.00401  -0.00414  -3.13750
   D55       -3.13667  -0.00007  -0.00014  -0.00317  -0.00331  -3.13999
   D56        0.00638  -0.00007  -0.00005  -0.00296  -0.00301   0.00337
   D57       -0.00073   0.00003   0.00009   0.00092   0.00101   0.00028
   D58       -3.13766  -0.00001   0.00000  -0.00103  -0.00104  -3.13869
   D59        3.13942   0.00002  -0.00000   0.00070   0.00070   3.14012
   D60        0.00249  -0.00002  -0.00009  -0.00125  -0.00134   0.00115
   D61        3.13370   0.00009   0.00021   0.00516   0.00537   3.13907
   D62       -0.00908   0.00009   0.00019   0.00517   0.00536  -0.00371
   D63       -0.01264   0.00013   0.00030   0.00716   0.00746  -0.00518
   D64        3.12777   0.00013   0.00029   0.00717   0.00745   3.13522
         Item               Value     Threshold  Converged?
 Maximum Force            0.005556     0.000450     NO 
 RMS     Force            0.001084     0.000300     NO 
 Maximum Displacement     0.047194     0.001800     NO 
 RMS     Displacement     0.012046     0.001200     NO 
 Predicted change in Energy=-2.826791D-04
 GradGradGradGradGradGradGradGradGradGradGradGradGradGradGradGradGradGrad

                          Input orientation:                          
 ---------------------------------------------------------------------
 Center     Atomic      Atomic             Coordinates (Angstroms)
 Number     Number       Type             X           Y           Z
 ---------------------------------------------------------------------
      1          6           0        3.565229   -0.312118    0.003696
      2          6           0        2.883491   -1.545200    0.008378
      3          6           0        1.498224   -1.579191    0.009959
      4          6           0        0.727528   -0.391590    0.006441
      5          6           0        1.425495    0.857735    0.005035
      6          6           0        2.841722    0.866939    0.002764
      7          6           0        0.681733    2.085078    0.009831
      8          6           0       -0.681006    2.086047    0.017835
      9          6           0       -1.426561    0.859798    0.016271
     10          6           0       -2.842771    0.871042    0.020500
     11          6           0       -3.568027   -0.306932    0.012663
     12          6           0       -2.888084   -1.540949   -0.001425
     13          6           0       -1.502865   -1.576920   -0.004627
     14          6           0       -0.730434   -0.390521    0.006338
     15          1           0        4.659287   -0.286632    0.001652
     16          1           0        3.446738   -2.483521    0.012134
     17          1           0        1.001220   -2.550658    0.015935
     18          1           0        3.359794    1.831187    0.000481
     19          1           0        1.232692    3.030684    0.007802
     20          1           0       -1.230601    3.032456    0.023627
     21          1           0       -3.359409    1.836002    0.029351
     22          1           0       -4.662024   -0.279877    0.016697
     23          1           0       -3.452694   -2.478403   -0.011586
     24          1           0       -1.007229   -2.549008   -0.018424
 ---------------------------------------------------------------------
                    Distance matrix (angstroms):
                    1          2          3          4          5
     1  C    0.000000
     2  C    1.409000   0.000000
     3  C    2.424463   1.385684   0.000000
     4  C    2.838814   2.445198   1.415761   0.000000
     5  C    2.438651   2.810669   2.438015   1.431073   0.000000
     6  C    1.383343   2.412507   2.790804   2.460431   1.416259
     7  C    3.749818   4.245781   3.754134   2.477094   1.435122
     8  C    4.876669   5.088386   4.264161   2.850049   2.438495
     9  C    5.127525   4.935648   3.808290   2.491218   2.852078
    10  C    6.516335   6.215179   4.984776   3.787014   4.268314
    11  C    7.133263   6.569277   5.223557   4.296394   5.127549
    12  C    6.569270   5.771585   4.386490   3.793909   4.935654
    13  C    5.223540   4.386490   3.001126   2.525824   3.808271
    14  C    4.296379   3.793908   2.525840   1.457963   2.491219
    15  H    1.094357   2.176578   3.415128   3.933162   3.430306
    16  H    2.174650   1.094398   2.148145   3.430789   3.905056
    17  H    3.403727   2.133997   1.091237   2.176367   3.434715
    18  H    2.153130   3.409826   3.885384   3.445228   2.165443
    19  H    4.076159   4.864551   4.617516   3.459357   2.181488
    20  H    5.846927   6.154748   5.358541   3.944447   3.432871
    21  H    7.250220   7.099772   5.938056   4.654648   4.883943
    22  H    8.227326   7.650876   6.295785   5.390719   6.192913
    23  H    7.344677   6.404569   5.031962   4.672192   5.909892
    24  H    5.090338   4.018214   2.686754   2.768475   4.186238
                    6          7          8          9         10
     6  C    0.000000
     7  C    2.479811   0.000000
     8  C    3.727742   1.362763   0.000000
     9  C    4.268310   2.438495   1.435110   0.000000
    10  C    5.684522   3.727751   2.479813   1.416261   0.000000
    11  C    6.516360   4.876698   3.749835   2.438678   1.383358
    12  C    6.215193   5.088398   4.245782   2.810685   2.412516
    13  C    4.984771   4.264143   3.754102   2.438002   2.790788
    14  C    3.787019   2.850056   2.477087   1.431080   2.460429
    15  H    2.152735   4.630984   5.843680   6.192904   7.590879
    16  H    3.404660   5.340164   6.157861   5.909894   7.128190
    17  H    3.881699   4.646737   4.932436   4.186327   5.146293
    18  H    1.094613   2.690085   4.048866   4.883957   6.276472
    19  H    2.696441   1.094408   2.134169   3.432847   4.612332
    20  H    4.612344   2.134183   1.094431   2.181490   2.696444
    21  H    6.276449   4.048858   2.690074   2.165421   1.094596
    22  H    7.590888   5.843697   4.630993   3.430318   2.152744
    23  H    7.128197   6.157866   5.340162   3.905071   3.404676
    24  H    5.146218   4.932357   4.646662   3.434676   3.881684
                   11         12         13         14         15
    11  C    0.000000
    12  C    1.409013   0.000000
    13  C    2.424472   1.385690   0.000000
    14  C    2.838831   2.445199   1.415738   0.000000
    15  H    8.227346   7.650891   6.295793   5.390724   0.000000
    16  H    7.344690   6.404577   5.031976   4.672200   2.509324
    17  H    5.090416   4.018271   2.686826   2.768558   4.302031
    18  H    7.250269   7.099809   5.938070   4.654674   2.484721
    19  H    5.846931   6.154730   5.358492   3.944427   4.769295
    20  H    4.076173   4.864557   4.617497   3.459370   6.760741
    21  H    2.153129   3.409823   3.885350   3.445206   8.294928
    22  H    1.094339   2.176578   3.415122   3.933160   9.321325
    23  H    2.174667   1.094399   2.148151   3.430784   8.402874
    24  H    3.403756   2.134031   1.091238   2.176303   6.101488
                   16         17         18         19         20
    16  H    0.000000
    17  H    2.446442   0.000000
    18  H    4.315599   4.976312   0.000000
    19  H    5.942094   5.586146   2.442010   0.000000
    20  H    7.232126   6.012675   4.745031   2.463344   0.000000
    21  H    8.061155   6.185310   6.719267   4.745009   2.441998
    22  H    8.402862   6.101539   8.294963   6.760736   4.769303
    23  H    6.899475   4.454586   8.061186   7.232099   5.942096
    24  H    4.454553   2.008744   6.185253   6.012561   5.586090
                   21         22         23         24
    21  H    0.000000
    22  H    2.484735   0.000000
    23  H    4.315608   2.509342   0.000000
    24  H    4.976278   4.302059   2.446494   0.000000
 Stoichiometry    C14H10
 Framework group  C1[X(C14H10)]
 Deg. of freedom    66
 Full point group                 C1      NOp   1
 Largest Abelian subgroup         C1      NOp   1
 Largest concise Abelian subgroup C1      NOp   1
                         Standard orientation:                         
 ---------------------------------------------------------------------
 Center     Atomic      Atomic             Coordinates (Angstroms)
 Number     Number       Type             X           Y           Z
 ---------------------------------------------------------------------
      1          6           0        3.566622   -0.298898   -0.000713
      2          6           0        2.885780   -1.532459    0.007236
      3          6           0        1.500538   -1.567458    0.007855
      4          6           0        0.728979   -0.380438    0.000092
      5          6           0        1.426035    0.869387   -0.004618
      6          6           0        2.842257    0.879620   -0.005828
      7          6           0        0.681375    2.096195   -0.004168
      8          6           0       -0.681370    2.096191    0.002784
      9          6           0       -1.426029    0.869398    0.004416
     10          6           0       -2.842250    0.879619    0.007521
     11          6           0       -3.566640   -0.298904    0.002748
     12          6           0       -2.885787   -1.532461   -0.007023
     13          6           0       -1.500540   -1.567428   -0.009048
     14          6           0       -0.728983   -0.380436   -0.001136
     15          1           0        4.660663   -0.272618   -0.001993
     16          1           0        3.449709   -2.470351    0.014311
     17          1           0        1.004238   -2.539266    0.016436
     18          1           0        3.359627    1.844235   -0.010677
     19          1           0        1.231645    3.042193   -0.008681
     20          1           0       -1.231660    3.042211    0.005242
     21          1           0       -3.359598    1.844223    0.013006
     22          1           0       -4.660659   -0.272637    0.005856
     23          1           0       -3.449705   -2.470355   -0.014736
     24          1           0       -1.004184   -2.539191   -0.019474
 ---------------------------------------------------------------------
 Rotational constants (GHZ):           1.6091190           0.5484861           0.4090594
 Standard basis: def2SVPP (5D, 7F)
 There are   230 symmetry adapted cartesian basis functions of A   symmetry.
 There are   216 symmetry adapted basis functions of A   symmetry.
   216 basis functions,   390 primitive gaussians,   230 cartesian basis functions
    47 alpha electrons       47 beta electrons
       nuclear repulsion energy       773.0597158445 Hartrees.
 NAtoms=   24 NActive=   24 NUniq=   24 SFac= 1.00D+00 NAtFMM=   60 NAOKFM=F Big=F
 Integral buffers will be    131072 words long.
 Raffenetti 2 integral format.
 Two-electron integral symmetry is turned on.
 Nuclear repulsion after empirical dispersion term =      773.0047912677 Hartrees.
 One-electron integrals computed using PRISM.
   1 Symmetry operations used in ECPInt.
 ECPInt:  NShTT=    5460 NPrTT=   21948 LenC2=    5319 LenP2D=   15674.
 LDataN:  DoStor=T MaxTD1= 4 Len=   56
 NBasis=   216 RedAO= T EigKep=  2.53D-04  NBF=   216
 NBsUse=   216 1.00D-06 EigRej= -1.00D+00 NBFU=   216
 Initial guess from the checkpoint file:  "/home/software/g16/scr/Gau-271652.chk"
 B after Tr=     0.000000    0.000000    0.000000
         Rot=    1.000000    0.000003   -0.000008   -0.000001 Ang=   0.00 deg.
 ExpMin= 1.22D-01 ExpMax= 1.24D+03 ExpMxC= 1.86D+02 IAcc=3 IRadAn=         5 AccDes= 0.00D+00
 Harris functional with IExCor=  402 and IRadAn=       5 diagonalized for initial guess.
 HarFok:  IExCor=  402 AccDes= 0.00D+00 IRadAn=         5 IDoV= 1 UseB2=F ITyADJ=14
 ICtDFT=  3500011 ScaDFX=  1.000000  1.000000  1.000000  1.000000
 FoFCou: FMM=F IPFlag=           0 FMFlag=      100000 FMFlg1=           0
         NFxFlg=           0 DoJE=T BraDBF=F KetDBF=T FulRan=T
         wScrn=  0.000000 ICntrl=       500 IOpCl=  0 I1Cent=   200000004 NGrid=           0
         NMat0=    1 NMatS0=      1 NMatT0=    0 NMatD0=    1 NMtDS0=    0 NMtDT0=    0
 Petite list used in FoFCou.
 Requested convergence on RMS density matrix=1.00D-08 within 128 cycles.
 Requested convergence on MAX density matrix=1.00D-06.
 Requested convergence on             energy=1.00D-06.
 No special actions if energy rises.
 Integral accuracy reduced to 1.0D-05 until final iterations.
 Initial convergence to 1.0D-05 achieved.  Increase integral accuracy.
 SCF Done:  E(RB3LYP) =  -539.187494637     A.U. after   11 cycles
            NFock= 11  Conv=0.54D-08     -V/T= 2.0111
   1 Symmetry operations used in ECPInt.
 ECPInt:  NShTT=    5460 NPrTT=   21948 LenC2=    5319 LenP2D=   15674.
 LDataN:  DoStor=T MaxTD1= 5 Len=  102
 Calling FoFJK, ICntrl=      2127 FMM=F ISym2X=0 I1Cent= 0 IOpClX= 0 NMat=1 NMatS=1 NMatT=0.
 ***** Axes restored to original set *****
 -------------------------------------------------------------------
 Center     Atomic                   Forces (Hartrees/Bohr)
 Number     Number              X              Y              Z
 -------------------------------------------------------------------
      1        6           0.000300135    0.000241656   -0.000031451
      2        6          -0.000078588   -0.000384028    0.000060096
      3        6          -0.000165697   -0.000176221   -0.000081814
      4        6           0.000523436    0.001533701    0.000008463
      5        6          -0.000488651   -0.001891693    0.000152438
      6        6          -0.000114903    0.000266430   -0.000088888
      7        6          -0.000375085    0.000666638   -0.000071778
      8        6           0.000369868    0.000688681    0.000014457
      9        6           0.000480491   -0.001905073   -0.000143616
     10        6           0.000114809    0.000250483    0.000023235
     11        6          -0.000270642    0.000240230    0.000061834
     12        6           0.000076997   -0.000374233   -0.000078534
     13        6           0.000161836   -0.000191333    0.000029125
     14        6          -0.000516595    0.001554635    0.000033204
     15        1          -0.000273133   -0.000245444    0.000025954
     16        1           0.000071799    0.000344505   -0.000036416
     17        1          -0.000272759   -0.000056286   -0.000056556
     18        1          -0.000220730    0.000030436    0.000028175
     19        1           0.000465225   -0.000330525    0.000060338
     20        1          -0.000457575   -0.000342557   -0.000001558
     21        1           0.000214017    0.000040074   -0.000007067
     22        1           0.000260994   -0.000244112   -0.000052395
     23        1          -0.000071306    0.000344660    0.000062224
     24        1           0.000266059   -0.000060624    0.000090530
 -------------------------------------------------------------------
 Cartesian Forces:  Max     0.001905073 RMS     0.000479602

 GradGradGradGradGradGradGradGradGradGradGradGradGradGradGradGradGradGrad
 Berny optimization.
 Using GEDIIS/GDIIS optimizer.
 FormGI is forming the generalized inverse of G from B-inverse, IUseBI=4.
 Internal  Forces:  Max     0.001592650 RMS     0.000290252
 Search for a local minimum.
 Step number   3 out of a maximum of  142
 All quantities printed in internal units (Hartrees-Bohrs-Radians)
 Mixed Optimization -- En-DIIS/RFO-DIIS
 Update second derivatives using D2CorX and points    1    2    3
 DE= -3.12D-04 DEPred=-2.83D-04 R= 1.10D+00
 TightC=F SS=  1.41D+00  RLast= 6.22D-02 DXNew= 8.4853D-01 1.8661D-01
 Trust test= 1.10D+00 RLast= 6.22D-02 DXMaxT set to 5.05D-01
 ITU=  1  1  0
 Use linear search instead of GDIIS.
     Eigenvalues ---    0.01675   0.01773   0.01814   0.01927   0.01944
     Eigenvalues ---    0.01984   0.01986   0.01994   0.02057   0.02059
     Eigenvalues ---    0.02099   0.02104   0.02137   0.02151   0.02169
     Eigenvalues ---    0.02182   0.02186   0.02193   0.02196   0.02231
     Eigenvalues ---    0.02233   0.12512   0.16000   0.16000   0.16000
     Eigenvalues ---    0.16000   0.16000   0.16000   0.16000   0.16040
     Eigenvalues ---    0.16139   0.22000   0.22003   0.22333   0.22755
     Eigenvalues ---    0.23038   0.24481   0.24653   0.24999   0.25824
     Eigenvalues ---    0.34909   0.34989   0.35013   0.35060   0.35200
     Eigenvalues ---    0.35206   0.35236   0.35257   0.35334   0.35462
     Eigenvalues ---    0.36913   0.37560   0.40203   0.40451   0.42095
     Eigenvalues ---    0.43247   0.43336   0.44880   0.45043   0.45437
     Eigenvalues ---    0.45477   0.45828   0.45903   0.46997   0.47326
     Eigenvalues ---    0.50285
 RFO step:  Lambda=-4.66737229D-05 EMin= 1.67523471D-02
 Quartic linear search produced a step of  0.11579.
 Iteration  1 RMS(Cart)=  0.00552773 RMS(Int)=  0.00001239
 Iteration  2 RMS(Cart)=  0.00001534 RMS(Int)=  0.00000181
 Iteration  3 RMS(Cart)=  0.00000000 RMS(Int)=  0.00000181
 Variable       Old X    -DE/DX   Delta X   Delta X   Delta X     New X
                                 (Linear)    (Quad)   (Total)
    R1        2.66262   0.00009   0.00018   0.00064   0.00082   2.66345
    R2        2.61414   0.00010  -0.00073   0.00044  -0.00030   2.61384
    R3        2.06804  -0.00028   0.00000  -0.00075  -0.00075   2.06728
    R4        2.61856  -0.00000  -0.00049   0.00006  -0.00043   2.61813
    R5        2.06811  -0.00026   0.00011  -0.00074  -0.00063   2.06749
    R6        2.67540  -0.00010   0.00047  -0.00054  -0.00007   2.67533
    R7        2.06214   0.00017  -0.00032   0.00075   0.00043   2.06256
    R8        2.70434  -0.00159  -0.00074  -0.00396  -0.00470   2.69964
    R9        2.75515  -0.00074   0.00182  -0.00272  -0.00090   2.75425
   R10        2.67634  -0.00031  -0.00011  -0.00065  -0.00075   2.67559
   R11        2.71199   0.00030   0.00076   0.00116   0.00192   2.71390
   R12        2.06852  -0.00008   0.00014  -0.00019  -0.00005   2.06847
   R13        2.57525   0.00011  -0.00142   0.00054  -0.00088   2.57437
   R14        2.06813  -0.00005   0.00012  -0.00012   0.00000   2.06814
   R15        2.71196   0.00031   0.00077   0.00117   0.00194   2.71390
   R16        2.06818  -0.00007   0.00012  -0.00016  -0.00004   2.06814
   R17        2.67635  -0.00031  -0.00009  -0.00065  -0.00075   2.67560
   R18        2.70435  -0.00159  -0.00078  -0.00397  -0.00475   2.69960
   R19        2.61417   0.00009  -0.00071   0.00040  -0.00031   2.61386
   R20        2.06849  -0.00007   0.00013  -0.00016  -0.00003   2.06846
   R21        2.66265   0.00008   0.00017   0.00062   0.00079   2.66344
   R22        2.06800  -0.00027  -0.00000  -0.00072  -0.00072   2.06728
   R23        2.61857  -0.00001  -0.00048   0.00004  -0.00043   2.61814
   R24        2.06811  -0.00026   0.00011  -0.00074  -0.00063   2.06749
   R25        2.67536  -0.00008   0.00047  -0.00050  -0.00003   2.67532
   R26        2.06214   0.00017  -0.00032   0.00075   0.00042   2.06256
    A1        2.08616  -0.00006  -0.00029   0.00024  -0.00004   2.08612
    A2        2.09914  -0.00022  -0.00031  -0.00168  -0.00199   2.09715
    A3        2.09789   0.00028   0.00059   0.00144   0.00203   2.09992
    A4        2.10038  -0.00015  -0.00012  -0.00016  -0.00028   2.10010
    A5        2.09593  -0.00017  -0.00056  -0.00139  -0.00195   2.09398
    A6        2.08688   0.00032   0.00068   0.00155   0.00223   2.08911
    A7        2.12190  -0.00027   0.00036  -0.00159  -0.00123   2.12067
    A8        2.06821   0.00036   0.00015   0.00242   0.00256   2.07077
    A9        2.09307  -0.00009  -0.00050  -0.00083  -0.00133   2.09175
   A10        2.05648   0.00042  -0.00050   0.00215   0.00165   2.05813
   A11        2.14717  -0.00065   0.00056  -0.00266  -0.00209   2.14508
   A12        2.07954   0.00022  -0.00006   0.00051   0.00044   2.07998
   A13        2.08678   0.00019   0.00017   0.00023   0.00040   2.08718
   A14        2.08729   0.00014  -0.00024   0.00079   0.00055   2.08784
   A15        2.10911  -0.00033   0.00007  -0.00102  -0.00095   2.10816
   A16        2.11468  -0.00014   0.00037  -0.00087  -0.00050   2.11418
   A17        2.09818   0.00029   0.00079   0.00184   0.00262   2.10081
   A18        2.07032  -0.00014  -0.00116  -0.00097  -0.00213   2.06820
   A19        2.11633  -0.00036   0.00030  -0.00128  -0.00098   2.11535
   A20        2.06920  -0.00041  -0.00192  -0.00306  -0.00498   2.06422
   A21        2.09765   0.00077   0.00162   0.00434   0.00596   2.10361
   A22        2.11635  -0.00036   0.00030  -0.00129  -0.00099   2.11535
   A23        2.09764   0.00077   0.00161   0.00435   0.00596   2.10361
   A24        2.06919  -0.00041  -0.00192  -0.00305  -0.00497   2.06422
   A25        2.10913  -0.00033   0.00005  -0.00103  -0.00098   2.10814
   A26        2.08729   0.00014  -0.00023   0.00080   0.00057   2.08786
   A27        2.08676   0.00019   0.00018   0.00024   0.00042   2.08718
   A28        2.11469  -0.00014   0.00036  -0.00089  -0.00053   2.11416
   A29        2.07031  -0.00014  -0.00114  -0.00095  -0.00209   2.06822
   A30        2.09818   0.00029   0.00079   0.00184   0.00262   2.10081
   A31        2.08614  -0.00006  -0.00028   0.00026  -0.00001   2.08613
   A32        2.09790   0.00027   0.00059   0.00142   0.00201   2.09991
   A33        2.09914  -0.00022  -0.00031  -0.00168  -0.00199   2.09715
   A34        2.10036  -0.00014  -0.00012  -0.00015  -0.00027   2.10010
   A35        2.09594  -0.00018  -0.00057  -0.00140  -0.00197   2.09397
   A36        2.08688   0.00032   0.00069   0.00155   0.00224   2.08912
   A37        2.12192  -0.00027   0.00035  -0.00161  -0.00127   2.12066
   A38        2.06826   0.00035   0.00011   0.00238   0.00250   2.07075
   A39        2.09300  -0.00008  -0.00046  -0.00077  -0.00123   2.09178
   A40        2.07953   0.00022  -0.00006   0.00051   0.00045   2.07998
   A41        2.14717  -0.00064   0.00054  -0.00266  -0.00211   2.14506
   A42        2.05648   0.00042  -0.00048   0.00215   0.00167   2.05815
    D1        0.00173  -0.00001  -0.00030  -0.00071  -0.00101   0.00072
    D2       -3.13844  -0.00003  -0.00038  -0.00168  -0.00206  -3.14050
    D3       -3.14075  -0.00001  -0.00013  -0.00031  -0.00044  -3.14119
    D4        0.00226  -0.00003  -0.00021  -0.00127  -0.00148   0.00078
    D5       -0.00115   0.00001  -0.00008   0.00084   0.00076  -0.00040
    D6        3.14018   0.00001   0.00006   0.00055   0.00061   3.14078
    D7        3.14132   0.00001  -0.00025   0.00044   0.00018   3.14150
    D8       -0.00053   0.00000  -0.00011   0.00014   0.00004  -0.00050
    D9        0.00043  -0.00001   0.00025  -0.00067  -0.00043   0.00001
   D10       -3.13916  -0.00002  -0.00007  -0.00134  -0.00141  -3.14057
   D11        3.14062   0.00001   0.00032   0.00029   0.00061   3.14123
   D12        0.00102  -0.00001   0.00001  -0.00038  -0.00037   0.00065
   D13       -0.00307   0.00003   0.00019   0.00186   0.00205  -0.00102
   D14        3.14026   0.00001  -0.00011   0.00087   0.00077   3.14103
   D15        3.13650   0.00004   0.00051   0.00254   0.00304   3.13955
   D16       -0.00336   0.00003   0.00021   0.00156   0.00177  -0.00159
   D17        0.00358  -0.00003  -0.00056  -0.00170  -0.00226   0.00132
   D18       -3.13490  -0.00006  -0.00078  -0.00364  -0.00442  -3.13932
   D19       -3.13968  -0.00001  -0.00028  -0.00076  -0.00104  -3.14071
   D20        0.00503  -0.00004  -0.00049  -0.00270  -0.00319   0.00184
   D21        3.13069   0.00010   0.00146   0.00590   0.00737   3.13805
   D22       -0.01211   0.00011   0.00146   0.00664   0.00810  -0.00401
   D23       -0.00915   0.00008   0.00116   0.00491   0.00607  -0.00308
   D24        3.13124   0.00009   0.00116   0.00565   0.00681   3.13805
   D25       -0.00154   0.00001   0.00052   0.00039   0.00091  -0.00063
   D26        3.14031   0.00001   0.00037   0.00068   0.00105   3.14136
   D27        3.13690   0.00004   0.00073   0.00236   0.00309   3.13999
   D28       -0.00444   0.00005   0.00059   0.00265   0.00324  -0.00120
   D29        0.00181  -0.00002  -0.00037  -0.00084  -0.00121   0.00061
   D30       -3.14069  -0.00002  -0.00008  -0.00063  -0.00071  -3.14140
   D31       -3.13662  -0.00005  -0.00059  -0.00281  -0.00339  -3.14001
   D32        0.00406  -0.00005  -0.00030  -0.00260  -0.00289   0.00116
   D33       -0.00450   0.00004   0.00054   0.00215   0.00269  -0.00180
   D34        3.13923   0.00001   0.00041   0.00072   0.00113   3.14036
   D35        3.13802   0.00004   0.00025   0.00194   0.00219   3.14021
   D36       -0.00143   0.00001   0.00012   0.00051   0.00063  -0.00081
   D37       -3.13819  -0.00003   0.00011  -0.00197  -0.00185  -3.14004
   D38        0.00017   0.00000   0.00016   0.00017   0.00032   0.00049
   D39        0.00130  -0.00001   0.00025  -0.00056  -0.00031   0.00099
   D40        3.13966   0.00003   0.00029   0.00158   0.00186   3.14153
   D41        3.13622   0.00005   0.00064   0.00301   0.00364   3.13986
   D42       -0.00453   0.00004   0.00063   0.00255   0.00318  -0.00135
   D43       -0.00214   0.00001   0.00060   0.00087   0.00147  -0.00067
   D44        3.14030   0.00001   0.00059   0.00041   0.00101   3.14130
   D45        0.00664  -0.00006  -0.00101  -0.00368  -0.00469   0.00195
   D46       -3.13381  -0.00007  -0.00101  -0.00438  -0.00539  -3.13920
   D47       -3.13815  -0.00003  -0.00097  -0.00158  -0.00254  -3.14069
   D48        0.00459  -0.00004  -0.00097  -0.00227  -0.00324   0.00135
   D49       -0.00137   0.00002   0.00015   0.00085   0.00100  -0.00036
   D50        3.14095   0.00001   0.00002   0.00045   0.00047   3.14142
   D51        3.13937   0.00002   0.00015   0.00132   0.00147   3.14084
   D52       -0.00151   0.00002   0.00002   0.00092   0.00094  -0.00056
   D53        0.00233  -0.00002  -0.00051  -0.00112  -0.00163   0.00070
   D54       -3.13750  -0.00005  -0.00048  -0.00248  -0.00295  -3.14045
   D55       -3.13999  -0.00002  -0.00038  -0.00072  -0.00110  -3.14109
   D56        0.00337  -0.00004  -0.00035  -0.00207  -0.00242   0.00095
   D57        0.00028  -0.00000   0.00012  -0.00037  -0.00025   0.00003
   D58       -3.13869  -0.00004  -0.00012  -0.00196  -0.00208  -3.14077
   D59        3.14012   0.00002   0.00008   0.00097   0.00106   3.14118
   D60        0.00115  -0.00001  -0.00016  -0.00061  -0.00077   0.00038
   D61        3.13907   0.00002   0.00062   0.00132   0.00194   3.14101
   D62       -0.00371   0.00003   0.00062   0.00205   0.00267  -0.00104
   D63       -0.00518   0.00005   0.00086   0.00293   0.00380  -0.00139
   D64        3.13522   0.00007   0.00086   0.00366   0.00452   3.13975
         Item               Value     Threshold  Converged?
 Maximum Force            0.001593     0.000450     NO 
 RMS     Force            0.000290     0.000300     YES
 Maximum Displacement     0.025383     0.001800     NO 
 RMS     Displacement     0.005529     0.001200     NO 
 Predicted change in Energy=-2.671319D-05
 GradGradGradGradGradGradGradGradGradGradGradGradGradGradGradGradGradGrad

                          Input orientation:                          
 ---------------------------------------------------------------------
 Center     Atomic      Atomic             Coordinates (Angstroms)
 Number     Number       Type             X           Y           Z
 ---------------------------------------------------------------------
      1          6           0        3.563216   -0.312713    0.003858
      2          6           0        2.880553   -1.545790    0.003510
      3          6           0        1.495486   -1.578593    0.004822
      4          6           0        0.727292   -0.389410    0.006526
      5          6           0        1.424591    0.857438    0.008148
      6          6           0        2.840421    0.866594    0.006385
      7          6           0        0.681510    2.086379    0.012743
      8          6           0       -0.680783    2.087360    0.016308
      9          6           0       -1.425652    0.859496    0.013392
     10          6           0       -2.841472    0.870728    0.015253
     11          6           0       -3.565988   -0.307524    0.010421
     12          6           0       -2.885131   -1.541573    0.003076
     13          6           0       -1.500110   -1.576392    0.001535
     14          6           0       -0.730194   -0.388343    0.007244
     15          1           0        4.656939   -0.290037    0.002434
     16          1           0        3.444918   -2.483059    0.002552
     17          1           0        0.995058   -2.548573    0.005492
     18          1           0        3.356466    1.831901    0.007450
     19          1           0        1.238113    3.028678    0.013720
     20          1           0       -1.236008    3.030461    0.020955
     21          1           0       -3.356107    1.836768    0.020260
     22          1           0       -4.659674   -0.283255    0.012099
     23          1           0       -3.450873   -2.478000   -0.001859
     24          1           0       -1.001122   -2.547090   -0.004992
 ---------------------------------------------------------------------
                    Distance matrix (angstroms):
                    1          2          3          4          5
     1  C    0.000000
     2  C    1.409435   0.000000
     3  C    2.424450   1.385456   0.000000
     4  C    2.836961   2.444126   1.415726   0.000000
     5  C    2.437824   2.809867   2.437064   1.428586   0.000000
     6  C    1.383186   2.412719   2.790661   2.458222   1.415861
     7  C    3.749660   4.246001   3.754283   2.476220   1.436136
     8  C    4.875657   5.087539   4.263271   2.849063   2.438313
     9  C    5.124740   4.932433   3.804917   2.488972   2.850248
    10  C    6.513117   6.211382   4.980812   3.784720   4.266090
    11  C    7.129209   6.564392   5.218637   4.294063   5.124746
    12  C    6.564394   5.765685   4.380773   3.791714   4.932442
    13  C    5.218635   4.380770   2.995598   2.523940   3.804924
    14  C    4.294077   3.791726   2.523955   1.457487   2.488990
    15  H    1.093959   2.175423   3.413967   3.930905   3.429986
    16  H    2.173568   1.094067   2.149035   3.430579   3.903931
    17  H    3.405070   2.135572   1.091462   2.175703   3.432989
    18  H    2.154560   3.411057   3.885193   3.441915   2.163728
    19  H    4.070761   4.860398   4.614462   3.456055   2.179240
    20  H    5.848902   6.155360   5.357677   3.943384   3.435256
    21  H    7.245521   7.094921   5.933202   4.650829   4.879991
    22  H    8.222946   7.645200   6.289988   5.388015   6.190273
    23  H    7.340704   6.399687   5.027469   4.671119   5.907233
    24  H    5.081898   4.008749   2.677897   2.764621   4.180318
                    6          7          8          9         10
     6  C    0.000000
     7  C    2.479680   0.000000
     8  C    3.726828   1.362298   0.000000
     9  C    4.266084   2.438314   1.436136   0.000000
    10  C    5.681901   3.726824   2.479672   1.415866   0.000000
    11  C    6.513114   4.875656   3.749655   2.437824   1.383194
    12  C    6.211379   5.087540   4.245996   2.809861   2.412727
    13  C    4.980804   4.263272   3.754276   2.437055   2.790670
    14  C    3.784727   2.849068   2.476212   1.428566   2.458215
    15  H    2.153497   4.631576   5.843242   6.190271   7.587734
    16  H    3.403764   5.340065   6.157136   5.907220   7.125079
    17  H    3.881846   4.645551   4.929547   4.180291   5.139132
    18  H    1.094588   2.687038   4.045333   4.879986   6.272029
    19  H    2.691106   1.094411   2.137346   3.435258   4.615167
    20  H    4.615171   2.137343   1.094412   2.179246   2.691096
    21  H    6.272033   4.045333   2.687038   2.163739   1.094581
    22  H    7.587728   5.843237   4.631566   3.429983   2.153496
    23  H    7.125080   6.157140   5.340060   3.903926   3.403769
    24  H    5.139145   4.929564   4.645556   3.432985   3.881852
                   11         12         13         14         15
    11  C    0.000000
    12  C    1.409432   0.000000
    13  C    2.424450   1.385459   0.000000
    14  C    2.836947   2.444118   1.415720   0.000000
    15  H    8.222950   7.645205   6.289989   5.388032   0.000000
    16  H    7.340696   6.399681   5.027459   4.671126   2.505662
    17  H    5.081877   4.008731   2.677875   2.764614   4.302367
    18  H    7.245518   7.094920   5.933197   4.650836   2.488750
    19  H    5.848901   6.155360   5.357675   3.943388   4.764700
    20  H    4.070758   4.860394   4.614458   3.456047   6.764087
    21  H    2.154561   3.411056   3.885195   3.441905   8.290508
    22  H    1.093956   2.175419   3.413965   3.930888   9.316620
    23  H    2.173561   1.094068   2.149043   3.430575   8.397846
    24  H    3.405060   2.135561   1.091460   2.175716   6.091633
                   16         17         18         19         20
    16  H    0.000000
    17  H    2.450737   0.000000
    18  H    4.315870   4.976425   0.000000
    19  H    5.937117   5.582551   2.433050   0.000000
    20  H    7.232587   6.008621   4.746319   2.474132   0.000000
    21  H    8.056995   6.177708   6.712588   4.746320   2.433049
    22  H    8.397835   6.091609   8.290501   6.764081   4.764692
    23  H    6.895794   4.446498   8.056997   7.232589   5.937112
    24  H    4.446507   1.996208   6.177725   6.008636   5.582555
                   21         22         23         24
    21  H    0.000000
    22  H    2.488745   0.000000
    23  H    4.315865   2.505654   0.000000
    24  H    4.976425   4.302353   2.450728   0.000000
 Stoichiometry    C14H10
 Framework group  C1[X(C14H10)]
 Deg. of freedom    66
 Full point group                 C1      NOp   1
 Largest Abelian subgroup         C1      NOp   1
 Largest concise Abelian subgroup C1      NOp   1
                         Standard orientation:                         
 ---------------------------------------------------------------------
 Center     Atomic      Atomic             Coordinates (Angstroms)
 Number     Number       Type             X           Y           Z
 ---------------------------------------------------------------------
      1          6           0        3.564606   -0.299734   -0.000541
      2          6           0        2.882842   -1.533304    0.002410
      3          6           0        1.497799   -1.567115    0.002766
      4          6           0        0.728738   -0.378494    0.000199
      5          6           0        1.425126    0.868862   -0.001510
      6          6           0        2.840950    0.879047   -0.002220
      7          6           0        0.681147    2.097268   -0.001291
      8          6           0       -0.681149    2.097264    0.001231
      9          6           0       -1.425120    0.868853    0.001551
     10          6           0       -2.840949    0.879055    0.002296
     11          6           0       -3.564603   -0.299735    0.000561
     12          6           0       -2.882841   -1.533303   -0.002439
     13          6           0       -1.497794   -1.567114   -0.002815
     14          6           0       -0.728749   -0.378491   -0.000199
     15          1           0        4.658313   -0.276262   -0.001201
     16          1           0        3.447891   -2.470159    0.004787
     17          1           0        0.998078   -2.537454    0.006060
     18          1           0        3.356291    1.844730   -0.003753
     19          1           0        1.237062    3.039972   -0.002808
     20          1           0       -1.237064    3.039969    0.002532
     21          1           0       -3.356292    1.844730    0.003917
     22          1           0       -4.658307   -0.276261    0.001329
     23          1           0       -3.447897   -2.470154   -0.004905
     24          1           0       -0.998094   -2.537462   -0.005953
 ---------------------------------------------------------------------
 Rotational constants (GHZ):           1.6089646           0.5492760           0.4094848
 Standard basis: def2SVPP (5D, 7F)
 There are   230 symmetry adapted cartesian basis functions of A   symmetry.
 There are   216 symmetry adapted basis functions of A   symmetry.
   216 basis functions,   390 primitive gaussians,   230 cartesian basis functions
    47 alpha electrons       47 beta electrons
       nuclear repulsion energy       773.3441642979 Hartrees.
 NAtoms=   24 NActive=   24 NUniq=   24 SFac= 1.00D+00 NAtFMM=   60 NAOKFM=F Big=F
 Integral buffers will be    131072 words long.
 Raffenetti 2 integral format.
 Two-electron integral symmetry is turned on.
 Nuclear repulsion after empirical dispersion term =      773.2892143248 Hartrees.
 One-electron integrals computed using PRISM.
   1 Symmetry operations used in ECPInt.
 ECPInt:  NShTT=    5460 NPrTT=   21948 LenC2=    5319 LenP2D=   15674.
 LDataN:  DoStor=T MaxTD1= 4 Len=   56
 NBasis=   216 RedAO= T EigKep=  2.51D-04  NBF=   216
 NBsUse=   216 1.00D-06 EigRej= -1.00D+00 NBFU=   216
 Initial guess from the checkpoint file:  "/home/software/g16/scr/Gau-271652.chk"
 B after Tr=    -0.000000   -0.000000   -0.000000
         Rot=    1.000000   -0.000000    0.000001   -0.000000 Ang=  -0.00 deg.
 ExpMin= 1.22D-01 ExpMax= 1.24D+03 ExpMxC= 1.86D+02 IAcc=3 IRadAn=         5 AccDes= 0.00D+00
 Harris functional with IExCor=  402 and IRadAn=       5 diagonalized for initial guess.
 HarFok:  IExCor=  402 AccDes= 0.00D+00 IRadAn=         5 IDoV= 1 UseB2=F ITyADJ=14
 ICtDFT=  3500011 ScaDFX=  1.000000  1.000000  1.000000  1.000000
 FoFCou: FMM=F IPFlag=           0 FMFlag=      100000 FMFlg1=           0
         NFxFlg=           0 DoJE=T BraDBF=F KetDBF=T FulRan=T
         wScrn=  0.000000 ICntrl=       500 IOpCl=  0 I1Cent=   200000004 NGrid=           0
         NMat0=    1 NMatS0=      1 NMatT0=    0 NMatD0=    1 NMtDS0=    0 NMtDT0=    0
 Petite list used in FoFCou.
 Requested convergence on RMS density matrix=1.00D-08 within 128 cycles.
 Requested convergence on MAX density matrix=1.00D-06.
 Requested convergence on             energy=1.00D-06.
 No special actions if energy rises.
 Integral accuracy reduced to 1.0D-05 until final iterations.
 Initial convergence to 1.0D-05 achieved.  Increase integral accuracy.
 SCF Done:  E(RB3LYP) =  -539.187521603     A.U. after   10 cycles
            NFock= 10  Conv=0.54D-08     -V/T= 2.0111
   1 Symmetry operations used in ECPInt.
 ECPInt:  NShTT=    5460 NPrTT=   21948 LenC2=    5319 LenP2D=   15674.
 LDataN:  DoStor=T MaxTD1= 5 Len=  102
 Calling FoFJK, ICntrl=      2127 FMM=F ISym2X=0 I1Cent= 0 IOpClX= 0 NMat=1 NMatS=1 NMatT=0.
 ***** Axes restored to original set *****
 -------------------------------------------------------------------
 Center     Atomic                   Forces (Hartrees/Bohr)
 Number     Number              X              Y              Z
 -------------------------------------------------------------------
      1        6           0.000037272   -0.000092786   -0.000011860
      2        6           0.000103065    0.000000487    0.000003611
      3        6          -0.000056254   -0.000217869    0.000004214
      4        6          -0.000033821    0.000203780   -0.000002548
      5        6          -0.000391756   -0.000404724    0.000026678
      6        6           0.000076893    0.000421112   -0.000003911
      7        6           0.000413900    0.000167118   -0.000009398
      8        6          -0.000411429    0.000168884    0.000006300
      9        6           0.000378149   -0.000389781   -0.000036212
     10        6          -0.000074189    0.000406888    0.000006541
     11        6          -0.000034351   -0.000083982    0.000019248
     12        6          -0.000100399    0.000000007   -0.000012665
     13        6           0.000044313   -0.000221093    0.000010617
     14        6           0.000048323    0.000193251    0.000005176
     15        1          -0.000011879   -0.000039383    0.000011813
     16        1           0.000018626    0.000050183   -0.000009453
     17        1           0.000115480    0.000040714   -0.000032352
     18        1           0.000057659   -0.000091427   -0.000004106
     19        1          -0.000054416   -0.000037006    0.000025434
     20        1           0.000054179   -0.000038372   -0.000019904
     21        1          -0.000058785   -0.000087402    0.000002129
     22        1           0.000009445   -0.000039704   -0.000016718
     23        1          -0.000017700    0.000049904    0.000014644
     24        1          -0.000112325    0.000041201    0.000022721
 -------------------------------------------------------------------
 Cartesian Forces:  Max     0.000421112 RMS     0.000151958

 GradGradGradGradGradGradGradGradGradGradGradGradGradGradGradGradGradGrad
 Berny optimization.
 Using GEDIIS/GDIIS optimizer.
 FormGI is forming the generalized inverse of G from B-inverse, IUseBI=4.
 Internal  Forces:  Max     0.000299240 RMS     0.000078040
 Search for a local minimum.
 Step number   4 out of a maximum of  142
 All quantities printed in internal units (Hartrees-Bohrs-Radians)
 Mixed Optimization -- En-DIIS/RFO-DIIS
 Swapping is turned off.
 Update second derivatives using D2CorX and points    1    2    3    4
 DE= -2.70D-05 DEPred=-2.67D-05 R= 1.01D+00
 TightC=F SS=  1.41D+00  RLast= 2.79D-02 DXNew= 8.4853D-01 8.3602D-02
 Trust test= 1.01D+00 RLast= 2.79D-02 DXMaxT set to 5.05D-01
 ITU=  1  1  1  0
     Eigenvalues ---    0.01545   0.01773   0.01815   0.01928   0.01943
     Eigenvalues ---    0.01978   0.01986   0.01994   0.02057   0.02058
     Eigenvalues ---    0.02100   0.02104   0.02133   0.02151   0.02167
     Eigenvalues ---    0.02182   0.02185   0.02193   0.02196   0.02228
     Eigenvalues ---    0.02233   0.12975   0.16000   0.16000   0.16000
     Eigenvalues ---    0.16000   0.16000   0.16000   0.16002   0.16024
     Eigenvalues ---    0.16242   0.21999   0.22000   0.22333   0.22755
     Eigenvalues ---    0.22984   0.24482   0.24491   0.25000   0.26448
     Eigenvalues ---    0.34968   0.34998   0.35016   0.35066   0.35200
     Eigenvalues ---    0.35203   0.35232   0.35257   0.35298   0.35429
     Eigenvalues ---    0.36751   0.37552   0.39866   0.40451   0.42302
     Eigenvalues ---    0.43245   0.43616   0.44878   0.45224   0.45403
     Eigenvalues ---    0.45440   0.45902   0.46037   0.46976   0.47326
     Eigenvalues ---    0.50767
 En-DIIS/RFO-DIIS/Sim-DIIS IScMMF=       -3 using points:     4    3
 RFO step:  Lambda=-3.47382935D-06.
 DidBck=F Rises=F RFO-DIIS coefs:    1.20268   -0.20268
 Iteration  1 RMS(Cart)=  0.00174023 RMS(Int)=  0.00000108
 Iteration  2 RMS(Cart)=  0.00000140 RMS(Int)=  0.00000039
 Iteration  3 RMS(Cart)=  0.00000000 RMS(Int)=  0.00000039
 Variable       Old X    -DE/DX   Delta X   Delta X   Delta X     New X
                                 (Linear)    (Quad)   (Total)
    R1        2.66345  -0.00005   0.00017  -0.00021  -0.00004   2.66341
    R2        2.61384   0.00009  -0.00006   0.00022   0.00016   2.61400
    R3        2.06728  -0.00001  -0.00015   0.00009  -0.00007   2.06722
    R4        2.61813   0.00011  -0.00009   0.00030   0.00021   2.61834
    R5        2.06749  -0.00003  -0.00013   0.00001  -0.00012   2.06737
    R6        2.67533   0.00024  -0.00001   0.00058   0.00056   2.67590
    R7        2.06256  -0.00009   0.00009  -0.00031  -0.00022   2.06234
    R8        2.69964  -0.00004  -0.00095   0.00064  -0.00031   2.69932
    R9        2.75425   0.00011  -0.00018   0.00042   0.00023   2.75448
   R10        2.67559   0.00017  -0.00015   0.00051   0.00036   2.67595
   R11        2.71390   0.00001   0.00039  -0.00022   0.00017   2.71407
   R12        2.06847  -0.00005  -0.00001  -0.00014  -0.00015   2.06832
   R13        2.57437   0.00016  -0.00018   0.00046   0.00028   2.57465
   R14        2.06814  -0.00006   0.00000  -0.00016  -0.00016   2.06797
   R15        2.71390   0.00001   0.00039  -0.00022   0.00017   2.71408
   R16        2.06814  -0.00006  -0.00001  -0.00016  -0.00017   2.06797
   R17        2.67560   0.00017  -0.00015   0.00050   0.00035   2.67595
   R18        2.69960  -0.00002  -0.00096   0.00068  -0.00029   2.69931
   R19        2.61386   0.00008  -0.00006   0.00021   0.00014   2.61400
   R20        2.06846  -0.00005  -0.00001  -0.00013  -0.00014   2.06832
   R21        2.66344  -0.00004   0.00016  -0.00020  -0.00004   2.66340
   R22        2.06728  -0.00001  -0.00015   0.00009  -0.00006   2.06722
   R23        2.61814   0.00011  -0.00009   0.00029   0.00020   2.61834
   R24        2.06749  -0.00003  -0.00013   0.00001  -0.00012   2.06737
   R25        2.67532   0.00025  -0.00001   0.00058   0.00058   2.67590
   R26        2.06256  -0.00009   0.00009  -0.00030  -0.00022   2.06234
    A1        2.08612   0.00003  -0.00001   0.00010   0.00010   2.08622
    A2        2.09715  -0.00005  -0.00040  -0.00000  -0.00041   2.09674
    A3        2.09992   0.00003   0.00041  -0.00010   0.00031   2.10023
    A4        2.10010   0.00006  -0.00006   0.00028   0.00022   2.10032
    A5        2.09398  -0.00007  -0.00040  -0.00009  -0.00049   2.09349
    A6        2.08911   0.00002   0.00045  -0.00019   0.00027   2.08937
    A7        2.12067  -0.00003  -0.00025   0.00005  -0.00020   2.12047
    A8        2.07077  -0.00007   0.00052  -0.00084  -0.00032   2.07045
    A9        2.09175   0.00010  -0.00027   0.00079   0.00052   2.09226
   A10        2.05813  -0.00009   0.00034  -0.00056  -0.00022   2.05791
   A11        2.14508   0.00017  -0.00042   0.00095   0.00053   2.14560
   A12        2.07998  -0.00008   0.00009  -0.00039  -0.00030   2.07968
   A13        2.08718   0.00013   0.00008   0.00046   0.00054   2.08772
   A14        2.08784   0.00017   0.00011   0.00061   0.00073   2.08857
   A15        2.10816  -0.00030  -0.00019  -0.00107  -0.00126   2.10690
   A16        2.11418  -0.00009  -0.00010  -0.00033  -0.00043   2.11375
   A17        2.10081  -0.00005   0.00053  -0.00078  -0.00024   2.10056
   A18        2.06820   0.00014  -0.00043   0.00111   0.00068   2.06888
   A19        2.11535  -0.00009  -0.00020  -0.00022  -0.00042   2.11494
   A20        2.06422   0.00008  -0.00101   0.00109   0.00008   2.06430
   A21        2.10361   0.00002   0.00121  -0.00087   0.00033   2.10395
   A22        2.11535  -0.00010  -0.00020  -0.00022  -0.00042   2.11493
   A23        2.10361   0.00002   0.00121  -0.00087   0.00034   2.10395
   A24        2.06422   0.00008  -0.00101   0.00108   0.00008   2.06430
   A25        2.10814  -0.00029  -0.00020  -0.00105  -0.00125   2.10689
   A26        2.08786   0.00017   0.00011   0.00060   0.00072   2.08857
   A27        2.08718   0.00013   0.00009   0.00045   0.00054   2.08772
   A28        2.11416  -0.00009  -0.00011  -0.00032  -0.00042   2.11374
   A29        2.06822   0.00014  -0.00042   0.00109   0.00067   2.06888
   A30        2.10081  -0.00005   0.00053  -0.00078  -0.00024   2.10056
   A31        2.08613   0.00003  -0.00000   0.00010   0.00009   2.08622
   A32        2.09991   0.00003   0.00041  -0.00009   0.00031   2.10022
   A33        2.09715  -0.00005  -0.00040  -0.00000  -0.00041   2.09674
   A34        2.10010   0.00006  -0.00005   0.00028   0.00022   2.10032
   A35        2.09397  -0.00007  -0.00040  -0.00008  -0.00048   2.09349
   A36        2.08912   0.00001   0.00045  -0.00019   0.00026   2.08938
   A37        2.12066  -0.00003  -0.00026   0.00007  -0.00019   2.12046
   A38        2.07075  -0.00007   0.00051  -0.00082  -0.00031   2.07044
   A39        2.09178   0.00010  -0.00025   0.00075   0.00050   2.09228
   A40        2.07998  -0.00008   0.00009  -0.00039  -0.00030   2.07968
   A41        2.14506   0.00017  -0.00043   0.00096   0.00054   2.14560
   A42        2.05815  -0.00010   0.00034  -0.00057  -0.00024   2.05791
    D1        0.00072  -0.00001  -0.00021  -0.00025  -0.00045   0.00026
    D2       -3.14050  -0.00001  -0.00042  -0.00026  -0.00068  -3.14118
    D3       -3.14119  -0.00000  -0.00009  -0.00015  -0.00024  -3.14143
    D4        0.00078  -0.00001  -0.00030  -0.00017  -0.00047   0.00031
    D5       -0.00040   0.00000   0.00015   0.00009   0.00024  -0.00016
    D6        3.14078   0.00001   0.00012   0.00040   0.00052   3.14131
    D7        3.14150   0.00000   0.00004  -0.00001   0.00003   3.14153
    D8       -0.00050   0.00001   0.00001   0.00030   0.00031  -0.00019
    D9        0.00001   0.00000  -0.00009   0.00013   0.00004   0.00005
   D10       -3.14057  -0.00001  -0.00029  -0.00038  -0.00067  -3.14124
   D11        3.14123   0.00001   0.00012   0.00014   0.00027   3.14149
   D12        0.00065  -0.00001  -0.00007  -0.00037  -0.00044   0.00021
   D13       -0.00102   0.00001   0.00041   0.00015   0.00057  -0.00046
   D14        3.14103   0.00000   0.00016   0.00013   0.00028   3.14131
   D15        3.13955   0.00002   0.00062   0.00066   0.00128   3.14083
   D16       -0.00159   0.00002   0.00036   0.00064   0.00100  -0.00059
   D17        0.00132  -0.00001  -0.00046  -0.00031  -0.00076   0.00055
   D18       -3.13932  -0.00002  -0.00090  -0.00045  -0.00135  -3.14067
   D19       -3.14071  -0.00001  -0.00021  -0.00028  -0.00049  -3.14121
   D20        0.00184  -0.00001  -0.00065  -0.00043  -0.00108   0.00076
   D21        3.13805   0.00003   0.00149   0.00071   0.00221   3.14026
   D22       -0.00401   0.00003   0.00164   0.00081   0.00246  -0.00155
   D23       -0.00308   0.00003   0.00123   0.00069   0.00192  -0.00116
   D24        3.13805   0.00003   0.00138   0.00079   0.00217   3.14022
   D25       -0.00063   0.00000   0.00018   0.00019   0.00038  -0.00026
   D26        3.14136   0.00000   0.00021  -0.00011   0.00010   3.14146
   D27        3.13999   0.00001   0.00063   0.00034   0.00097   3.14096
   D28       -0.00120   0.00001   0.00066   0.00004   0.00069  -0.00051
   D29        0.00061  -0.00001  -0.00024  -0.00023  -0.00047   0.00014
   D30       -3.14140  -0.00001  -0.00014  -0.00008  -0.00023   3.14156
   D31       -3.14001  -0.00002  -0.00069  -0.00038  -0.00107  -3.14108
   D32        0.00116  -0.00001  -0.00059  -0.00023  -0.00082   0.00034
   D33       -0.00180   0.00002   0.00055   0.00063   0.00117  -0.00063
   D34        3.14036   0.00001   0.00023   0.00051   0.00074   3.14110
   D35        3.14021   0.00002   0.00044   0.00048   0.00092   3.14113
   D36       -0.00081   0.00001   0.00013   0.00037   0.00049  -0.00031
   D37       -3.14004  -0.00002  -0.00038  -0.00058  -0.00096  -3.14100
   D38        0.00049  -0.00001   0.00007  -0.00035  -0.00028   0.00021
   D39        0.00099  -0.00001  -0.00006  -0.00047  -0.00054   0.00045
   D40        3.14153  -0.00000   0.00038  -0.00024   0.00014  -3.14152
   D41        3.13986   0.00001   0.00074   0.00034   0.00108   3.14094
   D42       -0.00135   0.00001   0.00065   0.00017   0.00081  -0.00053
   D43       -0.00067   0.00000   0.00030   0.00011   0.00040  -0.00027
   D44        3.14130   0.00000   0.00020  -0.00007   0.00014   3.14144
   D45        0.00195  -0.00002  -0.00095  -0.00031  -0.00127   0.00069
   D46       -3.13920  -0.00002  -0.00109  -0.00041  -0.00150  -3.14070
   D47       -3.14069  -0.00001  -0.00052  -0.00008  -0.00060  -3.14129
   D48        0.00135  -0.00001  -0.00066  -0.00018  -0.00084   0.00051
   D49       -0.00036   0.00000   0.00020   0.00004   0.00025  -0.00012
   D50        3.14142   0.00000   0.00010   0.00006   0.00016   3.14158
   D51        3.14084   0.00001   0.00030   0.00022   0.00051   3.14135
   D52       -0.00056   0.00001   0.00019   0.00024   0.00043  -0.00014
   D53        0.00070  -0.00001  -0.00033  -0.00011  -0.00044   0.00025
   D54       -3.14045  -0.00001  -0.00060  -0.00014  -0.00074  -3.14119
   D55       -3.14109  -0.00001  -0.00022  -0.00014  -0.00036  -3.14145
   D56        0.00095  -0.00001  -0.00049  -0.00016  -0.00065   0.00030
   D57        0.00003   0.00000  -0.00005   0.00004  -0.00001   0.00001
   D58       -3.14077  -0.00001  -0.00042  -0.00009  -0.00051  -3.14128
   D59        3.14118   0.00001   0.00021   0.00006   0.00028   3.14145
   D60        0.00038  -0.00000  -0.00016  -0.00006  -0.00022   0.00016
   D61        3.14101   0.00000   0.00039   0.00001   0.00041   3.14142
   D62       -0.00104   0.00001   0.00054   0.00011   0.00065  -0.00039
   D63       -0.00139   0.00001   0.00077   0.00014   0.00090  -0.00048
   D64        3.13975   0.00002   0.00092   0.00023   0.00115   3.14089
         Item               Value     Threshold  Converged?
 Maximum Force            0.000299     0.000450     YES
 RMS     Force            0.000078     0.000300     YES
 Maximum Displacement     0.007135     0.001800     NO 
 RMS     Displacement     0.001740     0.001200     NO 
 Predicted change in Energy=-1.737003D-06
 GradGradGradGradGradGradGradGradGradGradGradGradGradGradGradGradGradGrad

                          Input orientation:                          
 ---------------------------------------------------------------------
 Center     Atomic      Atomic             Coordinates (Angstroms)
 Number     Number       Type             X           Y           Z
 ---------------------------------------------------------------------
      1          6           0        3.563527   -0.311993    0.004150
      2          6           0        2.881492   -1.545391    0.002030
      3          6           0        1.496339   -1.579198    0.003194
      4          6           0        0.727358   -0.390172    0.006452
      5          6           0        1.424197    0.856741    0.009101
      6          6           0        2.840208    0.867090    0.007724
      7          6           0        0.681587    2.086071    0.013598
      8          6           0       -0.680860    2.087061    0.015555
      9          6           0       -1.425264    0.858810    0.012417
     10          6           0       -2.841260    0.871227    0.013767
     11          6           0       -3.566299   -0.306798    0.009995
     12          6           0       -2.886070   -1.541181    0.004572
     13          6           0       -1.500967   -1.577010    0.003320
     14          6           0       -0.730252   -0.389108    0.007410
     15          1           0        4.657213   -0.289211    0.003066
     16          1           0        3.446750   -2.482046   -0.000407
     17          1           0        0.996978   -2.549595    0.001834
     18          1           0        3.356060    1.832411    0.009673
     19          1           0        1.238466    3.028104    0.015593
     20          1           0       -1.236360    3.029900    0.019445
     21          1           0       -3.355703    1.837293    0.017766
     22          1           0       -4.659952   -0.282421    0.011107
     23          1           0       -3.452701   -2.477003    0.001186
     24          1           0       -1.003036   -2.548131   -0.001217
 ---------------------------------------------------------------------
                    Distance matrix (angstroms):
                    1          2          3          4          5
     1  C    0.000000
     2  C    1.409414   0.000000
     3  C    2.424680   1.385566   0.000000
     4  C    2.837247   2.444350   1.416024   0.000000
     5  C    2.437764   2.809626   2.437013   1.428420   0.000000
     6  C    1.383271   2.412841   2.791116   2.458626   1.416049
     7  C    3.749183   4.245849   3.754747   2.476676   1.436226
     8  C    4.875490   5.087754   4.264012   2.849534   2.438236
     9  C    5.124342   4.932387   3.805224   2.488729   2.849464
    10  C    6.513171   6.212091   4.981913   3.784999   4.265485
    11  C    7.129830   6.565683   5.220091   4.294468   5.124341
    12  C    6.565684   5.767565   4.382575   3.792320   4.932389
    13  C    5.220092   4.382574   2.997307   2.524683   3.805228
    14  C    4.294472   3.792323   2.524686   1.457611   2.488733
    15  H    1.093924   2.175126   3.413970   3.931153   3.430107
    16  H    2.173198   1.094004   2.149245   3.430901   3.903627
    17  H    3.405002   2.135373   1.091345   2.176195   3.433029
    18  H    2.154423   3.410985   3.885573   3.442376   2.164261
    19  H    4.069679   4.859690   4.614530   3.456288   2.179302
    20  H    5.848709   6.155510   5.358329   3.943761   3.435302
    21  H    7.245367   7.095449   5.934217   4.651141   4.879447
    22  H    8.223535   7.646473   6.291392   5.388389   6.189876
    23  H    7.342665   6.402336   5.029817   4.672022   5.907457
    24  H    5.084667   4.011865   2.680621   2.766064   4.181473
                    6          7          8          9         10
     6  C    0.000000
     7  C    2.479031   0.000000
     8  C    3.726434   1.362448   0.000000
     9  C    4.265483   2.438235   1.436227   0.000000
    10  C    5.681473   3.726432   2.479029   1.416051   0.000000
    11  C    6.513167   4.875486   3.749180   2.437761   1.383270
    12  C    6.212089   5.087752   4.245847   2.809622   2.412842
    13  C    4.981912   4.264013   3.754748   2.437013   2.791121
    14  C    3.784999   2.849533   2.476675   1.428414   2.458626
    15  H    2.153731   4.631164   5.843102   6.189876   7.587742
    16  H    3.403626   5.339852   6.157447   5.907454   7.126270
    17  H    3.882173   4.646397   4.930913   4.181458   5.141424
    18  H    1.094510   2.686478   4.044947   4.879443   6.271416
    19  H    2.689912   1.094324   2.137610   3.435303   4.614790
    20  H    4.614791   2.137608   1.094323   2.179304   2.689908
    21  H    6.271420   4.044949   2.686479   2.164266   1.094509
    22  H    7.587739   5.843098   4.631159   3.430104   2.153729
    23  H    7.126269   6.157446   5.339849   3.903623   3.403625
    24  H    5.141433   4.930923   4.646405   3.433032   3.882178
                   11         12         13         14         15
    11  C    0.000000
    12  C    1.409412   0.000000
    13  C    2.424681   1.385567   0.000000
    14  C    2.837243   2.444347   1.416026   0.000000
    15  H    8.223534   7.646473   6.291391   5.388393   0.000000
    16  H    7.342661   6.402333   5.029812   4.672023   2.504747
    17  H    5.084654   4.011854   2.680607   2.766054   4.301936
    18  H    7.245361   7.095445   5.934214   4.651139   2.488840
    19  H    5.848706   6.155509   5.358332   3.943762   4.763672
    20  H    4.069675   4.859686   4.614531   3.456285   6.763947
    21  H    2.154422   3.410984   3.885578   3.442377   8.290298
    22  H    1.093925   2.175127   3.413972   3.931150   9.317171
    23  H    2.173194   1.094004   2.149246   3.430900   8.399830
    24  H    3.404999   2.135369   1.091344   2.176204   6.094355
                   16         17         18         19         20
    16  H    0.000000
    17  H    2.450705   0.000000
    18  H    4.315421   4.976675   0.000000
    19  H    5.936205   5.582941   2.431856   0.000000
    20  H    7.232805   6.009898   4.745988   2.474830   0.000000
    21  H    8.057939   6.179876   6.711769   4.745990   2.431857
    22  H    8.399828   6.094343   8.290293   6.763943   4.763667
    23  H    6.899454   4.450271   8.057937   7.232805   5.936201
    24  H    4.450277   2.000017   6.179885   6.009910   5.582947
                   21         22         23         24
    21  H    0.000000
    22  H    2.488834   0.000000
    23  H    4.315418   2.504744   0.000000
    24  H    4.976680   4.301933   2.450699   0.000000
 Stoichiometry    C14H10
 Framework group  C1[X(C14H10)]
 Deg. of freedom    66
 Full point group                 C1      NOp   1
 Largest Abelian subgroup         C1      NOp   1
 Largest concise Abelian subgroup C1      NOp   1
                         Standard orientation:                         
 ---------------------------------------------------------------------
 Center     Atomic      Atomic             Coordinates (Angstroms)
 Number     Number       Type             X           Y           Z
 ---------------------------------------------------------------------
      1          6           0        3.564916   -0.298930   -0.000278
      2          6           0        2.883783   -1.532828    0.000902
      3          6           0        1.498654   -1.567644    0.001120
      4          6           0        0.728805   -0.379176    0.000117
      5          6           0        1.424732    0.868248   -0.000562
      6          6           0        2.840736    0.879628   -0.000899
      7          6           0        0.681223    2.097043   -0.000431
      8          6           0       -0.681225    2.097042    0.000491
      9          6           0       -1.424732    0.868244    0.000588
     10          6           0       -2.840737    0.879629    0.000826
     11          6           0       -3.564914   -0.298931    0.000148
     12          6           0       -2.883782   -1.532828   -0.000941
     13          6           0       -1.498652   -1.567647   -0.001032
     14          6           0       -0.728806   -0.379175   -0.000033
     15          1           0        4.658586   -0.275352   -0.000603
     16          1           0        3.449725   -2.469072    0.001790
     17          1           0        1.000002   -2.538405    0.002383
     18          1           0        3.355882    1.845328   -0.001544
     19          1           0        1.237413    3.039485   -0.000928
     20          1           0       -1.237416    3.039483    0.001043
     21          1           0       -3.355886    1.845326    0.001447
     22          1           0       -4.658584   -0.275351    0.000356
     23          1           0       -3.449727   -2.469070   -0.001861
     24          1           0       -1.000010   -2.538414   -0.002188
 ---------------------------------------------------------------------
 Rotational constants (GHZ):           1.6090772           0.5491401           0.4094161
 Standard basis: def2SVPP (5D, 7F)
 There are   230 symmetry adapted cartesian basis functions of A   symmetry.
 There are   216 symmetry adapted basis functions of A   symmetry.
   216 basis functions,   390 primitive gaussians,   230 cartesian basis functions
    47 alpha electrons       47 beta electrons
       nuclear repulsion energy       773.2969831093 Hartrees.
 NAtoms=   24 NActive=   24 NUniq=   24 SFac= 1.00D+00 NAtFMM=   60 NAOKFM=F Big=F
 Integral buffers will be    131072 words long.
 Raffenetti 2 integral format.
 Two-electron integral symmetry is turned on.
 Nuclear repulsion after empirical dispersion term =      773.2420370636 Hartrees.
 One-electron integrals computed using PRISM.
   1 Symmetry operations used in ECPInt.
 ECPInt:  NShTT=    5460 NPrTT=   21948 LenC2=    5319 LenP2D=   15674.
 LDataN:  DoStor=T MaxTD1= 4 Len=   56
 NBasis=   216 RedAO= T EigKep=  2.51D-04  NBF=   216
 NBsUse=   216 1.00D-06 EigRej= -1.00D+00 NBFU=   216
 Initial guess from the checkpoint file:  "/home/software/g16/scr/Gau-271652.chk"
 B after Tr=    -0.000000    0.000000    0.000000
         Rot=    1.000000   -0.000000   -0.000000   -0.000000 Ang=  -0.00 deg.
 Requested convergence on RMS density matrix=1.00D-08 within 128 cycles.
 Requested convergence on MAX density matrix=1.00D-06.
 Requested convergence on             energy=1.00D-06.
 No special actions if energy rises.
 SCF Done:  E(RB3LYP) =  -539.187523577     A.U. after    8 cycles
            NFock=  8  Conv=0.90D-08     -V/T= 2.0111
   1 Symmetry operations used in ECPInt.
 ECPInt:  NShTT=    5460 NPrTT=   21948 LenC2=    5319 LenP2D=   15674.
 LDataN:  DoStor=T MaxTD1= 5 Len=  102
 Calling FoFJK, ICntrl=      2127 FMM=F ISym2X=0 I1Cent= 0 IOpClX= 0 NMat=1 NMatS=1 NMatT=0.
 ***** Axes restored to original set *****
 -------------------------------------------------------------------
 Center     Atomic                   Forces (Hartrees/Bohr)
 Number     Number              X              Y              Z
 -------------------------------------------------------------------
      1        6          -0.000016088   -0.000020964   -0.000006211
      2        6          -0.000009804    0.000038093    0.000004684
      3        6          -0.000021468    0.000003089   -0.000005751
      4        6          -0.000032553   -0.000009200    0.000002160
      5        6          -0.000112155   -0.000052527    0.000011935
      6        6           0.000033482    0.000088365   -0.000001453
      7        6           0.000123627    0.000010023   -0.000005665
      8        6          -0.000122460    0.000008623    0.000007935
      9        6           0.000108872   -0.000047541   -0.000012216
     10        6          -0.000031869    0.000085921    0.000003687
     11        6           0.000014250   -0.000019315    0.000005393
     12        6           0.000010739    0.000037138   -0.000003885
     13        6           0.000018370    0.000004400    0.000006138
     14        6           0.000035290   -0.000014211   -0.000002755
     15        1           0.000014930   -0.000003045    0.000004912
     16        1          -0.000000154   -0.000013196   -0.000003395
     17        1           0.000000106   -0.000012401   -0.000010775
     18        1           0.000019101   -0.000030678   -0.000000225
     19        1          -0.000034863    0.000002995    0.000007396
     20        1           0.000034359    0.000003438   -0.000009373
     21        1          -0.000018806   -0.000030153   -0.000001265
     22        1          -0.000014428   -0.000003411   -0.000003863
     23        1           0.000000333   -0.000013407    0.000004043
     24        1           0.000001189   -0.000012037    0.000008549
 -------------------------------------------------------------------
 Cartesian Forces:  Max     0.000123627 RMS     0.000035756

 GradGradGradGradGradGradGradGradGradGradGradGradGradGradGradGradGradGrad
 Berny optimization.
 Using GEDIIS/GDIIS optimizer.
 FormGI is forming the generalized inverse of G from B-inverse, IUseBI=4.
 Internal  Forces:  Max     0.000080922 RMS     0.000017116
 Search for a local minimum.
 Step number   5 out of a maximum of  142
 All quantities printed in internal units (Hartrees-Bohrs-Radians)
 Mixed Optimization -- En-DIIS/RFO-DIIS
 Swapping is turned off.
 Update second derivatives using D2CorX and points    1    2    3    4    5
 DE= -1.97D-06 DEPred=-1.74D-06 R= 1.14D+00
 TightC=F SS=  1.41D+00  RLast= 7.70D-03 DXNew= 8.4853D-01 2.3106D-02
 Trust test= 1.14D+00 RLast= 7.70D-03 DXMaxT set to 5.05D-01
 ITU=  1  1  1  1  0
     Eigenvalues ---    0.01354   0.01773   0.01815   0.01928   0.01942
     Eigenvalues ---    0.01973   0.01987   0.01994   0.02057   0.02058
     Eigenvalues ---    0.02099   0.02104   0.02130   0.02151   0.02162
     Eigenvalues ---    0.02182   0.02185   0.02193   0.02196   0.02227
     Eigenvalues ---    0.02233   0.13428   0.15547   0.16000   0.16000
     Eigenvalues ---    0.16000   0.16000   0.16000   0.16000   0.16004
     Eigenvalues ---    0.16222   0.21913   0.22000   0.22010   0.22334
     Eigenvalues ---    0.22755   0.23976   0.24482   0.25000   0.26660
     Eigenvalues ---    0.34859   0.34988   0.35013   0.35059   0.35200
     Eigenvalues ---    0.35215   0.35240   0.35257   0.35347   0.35547
     Eigenvalues ---    0.36874   0.37551   0.39926   0.40452   0.42203
     Eigenvalues ---    0.43245   0.44289   0.44877   0.45351   0.45440
     Eigenvalues ---    0.45622   0.45902   0.46925   0.47326   0.48188
     Eigenvalues ---    0.51818
 En-DIIS/RFO-DIIS/Sim-DIIS IScMMF=       -3 using points:     5    4    3
 RFO step:  Lambda=-2.67288536D-07.
 DidBck=F Rises=F RFO-DIIS coefs:    1.35539   -0.35261   -0.00277
 Iteration  1 RMS(Cart)=  0.00062147 RMS(Int)=  0.00000015
 Iteration  2 RMS(Cart)=  0.00000019 RMS(Int)=  0.00000007
 Variable       Old X    -DE/DX   Delta X   Delta X   Delta X     New X
                                 (Linear)    (Quad)   (Total)
    R1        2.66341  -0.00001  -0.00001  -0.00003  -0.00004   2.66337
    R2        2.61400   0.00001   0.00006  -0.00002   0.00004   2.61404
    R3        2.06722   0.00001  -0.00003   0.00006   0.00004   2.06725
    R4        2.61834  -0.00001   0.00007  -0.00010  -0.00002   2.61832
    R5        2.06737   0.00001  -0.00004   0.00007   0.00003   2.06739
    R6        2.67590  -0.00002   0.00020  -0.00023  -0.00003   2.67587
    R7        2.06234   0.00001  -0.00008   0.00009   0.00001   2.06235
    R8        2.69932  -0.00001  -0.00012   0.00005  -0.00007   2.69925
    R9        2.75448  -0.00008   0.00008  -0.00029  -0.00021   2.75428
   R10        2.67595   0.00005   0.00012   0.00002   0.00015   2.67609
   R11        2.71407  -0.00001   0.00007  -0.00010  -0.00003   2.71404
   R12        2.06832  -0.00002  -0.00005  -0.00002  -0.00007   2.06825
   R13        2.57465   0.00005   0.00010   0.00003   0.00013   2.57478
   R14        2.06797  -0.00002  -0.00006  -0.00000  -0.00006   2.06791
   R15        2.71408  -0.00001   0.00007  -0.00010  -0.00003   2.71404
   R16        2.06797  -0.00001  -0.00006   0.00000  -0.00006   2.06791
   R17        2.67595   0.00005   0.00012   0.00002   0.00014   2.67609
   R18        2.69931  -0.00000  -0.00012   0.00005  -0.00006   2.69925
   R19        2.61400   0.00001   0.00005  -0.00001   0.00004   2.61404
   R20        2.06832  -0.00002  -0.00005  -0.00002  -0.00007   2.06825
   R21        2.66340  -0.00001  -0.00001  -0.00002  -0.00004   2.66337
   R22        2.06722   0.00001  -0.00002   0.00006   0.00004   2.06725
   R23        2.61834  -0.00001   0.00007  -0.00010  -0.00003   2.61832
   R24        2.06737   0.00001  -0.00004   0.00007   0.00003   2.06739
   R25        2.67590  -0.00003   0.00021  -0.00024  -0.00003   2.67587
   R26        2.06234   0.00001  -0.00008   0.00009   0.00001   2.06235
    A1        2.08622   0.00001   0.00003   0.00001   0.00004   2.08626
    A2        2.09674  -0.00001  -0.00015   0.00007  -0.00008   2.09667
    A3        2.10023  -0.00000   0.00012  -0.00008   0.00003   2.10026
    A4        2.10032   0.00002   0.00008   0.00000   0.00008   2.10040
    A5        2.09349  -0.00000  -0.00018   0.00015  -0.00003   2.09347
    A6        2.08937  -0.00002   0.00010  -0.00015  -0.00005   2.08932
    A7        2.12047  -0.00001  -0.00007  -0.00001  -0.00009   2.12038
    A8        2.07045   0.00000  -0.00011   0.00009  -0.00002   2.07043
    A9        2.09226   0.00001   0.00018  -0.00007   0.00011   2.09237
   A10        2.05791   0.00002  -0.00007   0.00013   0.00005   2.05796
   A11        2.14560  -0.00002   0.00018  -0.00020  -0.00002   2.14558
   A12        2.07968   0.00000  -0.00011   0.00008  -0.00003   2.07965
   A13        2.08772   0.00000   0.00019  -0.00013   0.00006   2.08778
   A14        2.08857   0.00002   0.00026  -0.00012   0.00014   2.08871
   A15        2.10690  -0.00003  -0.00045   0.00025  -0.00020   2.10670
   A16        2.11375  -0.00003  -0.00016   0.00000  -0.00015   2.11359
   A17        2.10056  -0.00002  -0.00008  -0.00009  -0.00017   2.10040
   A18        2.06888   0.00005   0.00024   0.00008   0.00032   2.06919
   A19        2.11494  -0.00002  -0.00015   0.00004  -0.00011   2.11483
   A20        2.06430   0.00005   0.00002   0.00023   0.00025   2.06455
   A21        2.10395  -0.00002   0.00014  -0.00027  -0.00014   2.10381
   A22        2.11493  -0.00002  -0.00015   0.00004  -0.00011   2.11483
   A23        2.10395  -0.00002   0.00014  -0.00028  -0.00014   2.10381
   A24        2.06430   0.00004   0.00001   0.00023   0.00025   2.06455
   A25        2.10689  -0.00002  -0.00045   0.00025  -0.00020   2.10670
   A26        2.08857   0.00002   0.00026  -0.00012   0.00014   2.08871
   A27        2.08772   0.00000   0.00019  -0.00013   0.00006   2.08778
   A28        2.11374  -0.00003  -0.00015   0.00001  -0.00015   2.11359
   A29        2.06888   0.00005   0.00023   0.00008   0.00031   2.06919
   A30        2.10056  -0.00002  -0.00008  -0.00009  -0.00017   2.10040
   A31        2.08622   0.00001   0.00003   0.00001   0.00004   2.08626
   A32        2.10022   0.00000   0.00012  -0.00008   0.00004   2.10026
   A33        2.09674  -0.00001  -0.00015   0.00007  -0.00008   2.09667
   A34        2.10032   0.00002   0.00008   0.00000   0.00008   2.10040
   A35        2.09349  -0.00000  -0.00018   0.00015  -0.00002   2.09347
   A36        2.08938  -0.00002   0.00010  -0.00015  -0.00006   2.08932
   A37        2.12046  -0.00001  -0.00007  -0.00001  -0.00008   2.12038
   A38        2.07044   0.00000  -0.00010   0.00009  -0.00001   2.07043
   A39        2.09228   0.00001   0.00018  -0.00008   0.00009   2.09237
   A40        2.07968   0.00000  -0.00011   0.00008  -0.00003   2.07965
   A41        2.14560  -0.00002   0.00018  -0.00020  -0.00002   2.14558
   A42        2.05791   0.00002  -0.00008   0.00013   0.00005   2.05796
    D1        0.00026  -0.00000  -0.00016  -0.00000  -0.00017   0.00010
    D2       -3.14118  -0.00000  -0.00025  -0.00002  -0.00027  -3.14145
    D3       -3.14143  -0.00000  -0.00009  -0.00002  -0.00010  -3.14153
    D4        0.00031  -0.00000  -0.00017  -0.00004  -0.00021   0.00011
    D5       -0.00016   0.00000   0.00009   0.00002   0.00011  -0.00005
    D6        3.14131   0.00000   0.00019   0.00002   0.00021   3.14151
    D7        3.14153   0.00000   0.00001   0.00004   0.00005   3.14158
    D8       -0.00019   0.00000   0.00011   0.00003   0.00014  -0.00004
    D9        0.00005  -0.00000   0.00001  -0.00007  -0.00006  -0.00001
   D10       -3.14124  -0.00000  -0.00024  -0.00001  -0.00026  -3.14149
   D11        3.14149   0.00000   0.00010  -0.00005   0.00004   3.14154
   D12        0.00021  -0.00000  -0.00016   0.00000  -0.00015   0.00005
   D13       -0.00046   0.00000   0.00021   0.00012   0.00032  -0.00013
   D14        3.14131   0.00000   0.00010   0.00009   0.00019   3.14150
   D15        3.14083   0.00001   0.00046   0.00006   0.00052   3.14135
   D16       -0.00059   0.00001   0.00036   0.00003   0.00039  -0.00020
   D17        0.00055  -0.00000  -0.00028  -0.00009  -0.00037   0.00018
   D18       -3.14067  -0.00001  -0.00049  -0.00013  -0.00062  -3.14129
   D19       -3.14121  -0.00000  -0.00018  -0.00007  -0.00025  -3.14145
   D20        0.00076  -0.00001  -0.00039  -0.00011  -0.00050   0.00026
   D21        3.14026   0.00001   0.00080   0.00010   0.00091   3.14117
   D22       -0.00155   0.00001   0.00090   0.00017   0.00106  -0.00049
   D23       -0.00116   0.00001   0.00070   0.00008   0.00078  -0.00038
   D24        3.14022   0.00001   0.00079   0.00014   0.00093   3.14115
   D25       -0.00026   0.00000   0.00014   0.00002   0.00016  -0.00010
   D26        3.14146   0.00000   0.00004   0.00003   0.00007   3.14153
   D27        3.14096   0.00001   0.00035   0.00006   0.00042   3.14138
   D28       -0.00051   0.00000   0.00025   0.00007   0.00032  -0.00018
   D29        0.00014  -0.00000  -0.00017   0.00007  -0.00011   0.00003
   D30        3.14156  -0.00000  -0.00008   0.00008  -0.00000   3.14156
   D31       -3.14108  -0.00000  -0.00039   0.00003  -0.00036  -3.14144
   D32        0.00034  -0.00000  -0.00030   0.00004  -0.00026   0.00008
   D33       -0.00063   0.00001   0.00042   0.00001   0.00043  -0.00020
   D34        3.14110   0.00001   0.00027   0.00008   0.00035   3.14145
   D35        3.14113   0.00000   0.00033  -0.00001   0.00033   3.14146
   D36       -0.00031   0.00000   0.00018   0.00007   0.00024  -0.00007
   D37       -3.14100  -0.00001  -0.00034  -0.00005  -0.00040  -3.14140
   D38        0.00021  -0.00000  -0.00010  -0.00004  -0.00014   0.00007
   D39        0.00045  -0.00001  -0.00019  -0.00012  -0.00032   0.00014
   D40       -3.14152  -0.00000   0.00005  -0.00011  -0.00006  -3.14158
   D41        3.14094   0.00001   0.00039   0.00006   0.00045   3.14139
   D42       -0.00053   0.00000   0.00030   0.00006   0.00035  -0.00018
   D43       -0.00027   0.00000   0.00015   0.00004   0.00019  -0.00008
   D44        3.14144   0.00000   0.00005   0.00004   0.00010   3.14154
   D45        0.00069  -0.00001  -0.00046  -0.00000  -0.00046   0.00022
   D46       -3.14070  -0.00001  -0.00055  -0.00006  -0.00061  -3.14131
   D47       -3.14129  -0.00000  -0.00022   0.00001  -0.00021  -3.14150
   D48        0.00051  -0.00000  -0.00031  -0.00005  -0.00036   0.00016
   D49       -0.00012   0.00000   0.00009  -0.00001   0.00008  -0.00004
   D50        3.14158   0.00000   0.00006  -0.00004   0.00002  -3.14159
   D51        3.14135   0.00000   0.00019  -0.00002   0.00017   3.14152
   D52       -0.00014   0.00000   0.00016  -0.00004   0.00011  -0.00002
   D53        0.00025  -0.00000  -0.00016  -0.00000  -0.00017   0.00008
   D54       -3.14119  -0.00000  -0.00027   0.00000  -0.00027  -3.14146
   D55       -3.14145  -0.00000  -0.00013   0.00002  -0.00011  -3.14155
   D56        0.00030  -0.00000  -0.00024   0.00003  -0.00021   0.00009
   D57        0.00001   0.00000  -0.00001  -0.00001  -0.00001  -0.00000
   D58       -3.14128  -0.00000  -0.00019  -0.00002  -0.00021  -3.14149
   D59        3.14145   0.00000   0.00010  -0.00001   0.00009   3.14154
   D60        0.00016  -0.00000  -0.00008  -0.00003  -0.00011   0.00006
   D61        3.14142   0.00000   0.00015  -0.00003   0.00012   3.14154
   D62       -0.00039   0.00000   0.00024   0.00004   0.00027  -0.00012
   D63       -0.00048   0.00000   0.00033  -0.00002   0.00032  -0.00016
   D64        3.14089   0.00001   0.00042   0.00005   0.00047   3.14137
         Item               Value     Threshold  Converged?
 Maximum Force            0.000081     0.000450     YES
 RMS     Force            0.000017     0.000300     YES
 Maximum Displacement     0.003055     0.001800     NO 
 RMS     Displacement     0.000621     0.001200     YES
 Predicted change in Energy=-1.336447D-07
 GradGradGradGradGradGradGradGradGradGradGradGradGradGradGradGradGradGrad

                          Input orientation:                          
 ---------------------------------------------------------------------
 Center     Atomic      Atomic             Coordinates (Angstroms)
 Number     Number       Type             X           Y           Z
 ---------------------------------------------------------------------
      1          6           0        3.563434   -0.311965    0.004330
      2          6           0        2.881389   -1.545333    0.001427
      3          6           0        1.496250   -1.579228    0.002435
      4          6           0        0.727304   -0.390202    0.006376
      5          6           0        1.424088    0.856696    0.009481
      6          6           0        2.840175    0.867176    0.008318
      7          6           0        0.681621    2.086093    0.013898
      8          6           0       -0.680892    2.087086    0.015227
      9          6           0       -1.425157    0.858771    0.012017
     10          6           0       -2.841228    0.871315    0.013198
     11          6           0       -3.566210   -0.306769    0.009886
     12          6           0       -2.885969   -1.541128    0.005205
     13          6           0       -1.500882   -1.577042    0.004021
     14          6           0       -0.730197   -0.389139    0.007430
     15          1           0        4.657142   -0.289286    0.003465
     16          1           0        3.446663   -2.481992   -0.001594
     17          1           0        0.996969   -2.549672    0.000218
     18          1           0        3.356228    1.832347    0.010681
     19          1           0        1.238354    3.028175    0.016250
     20          1           0       -1.236247    3.029977    0.018733
     21          1           0       -3.355868    1.837236    0.016781
     22          1           0       -4.659883   -0.282496    0.010843
     23          1           0       -3.452613   -2.476960    0.002440
     24          1           0       -1.003022   -2.548211    0.000265
 ---------------------------------------------------------------------
                    Distance matrix (angstroms):
                    1          2          3          4          5
     1  C    0.000000
     2  C    1.409394   0.000000
     3  C    2.424708   1.385553   0.000000
     4  C    2.837210   2.444266   1.416008   0.000000
     5  C    2.437744   2.809544   2.437004   1.428381   0.000000
     6  C    1.383291   2.412872   2.791248   2.458705   1.416127
     7  C    3.749083   4.245750   3.754775   2.476728   1.436208
     8  C    4.875435   5.087682   4.264033   2.849570   2.438203
     9  C    5.124131   4.932156   3.805069   2.488584   2.849247
    10  C    6.513058   6.211978   4.981867   3.784956   4.265342
    11  C    7.129648   6.565488   5.219934   4.294326   5.124131
    12  C    6.565489   5.767361   4.382386   3.792146   4.932157
    13  C    5.219934   4.382386   2.997133   2.524561   3.805071
    14  C    4.294325   3.792146   2.524560   1.457502   2.488585
    15  H    1.093943   2.175077   3.413970   3.931134   3.430153
    16  H    2.173175   1.094017   2.149211   3.430826   3.903559
    17  H    3.405010   2.135354   1.091351   2.176251   3.433054
    18  H    2.154310   3.410907   3.885670   3.442526   2.164500
    19  H    4.069727   4.859708   4.614636   3.456381   2.179418
    20  H    5.848566   6.155379   5.358319   3.943768   3.435202
    21  H    7.245410   7.095448   5.934264   4.651224   4.879497
    22  H    8.223373   7.646282   6.291229   5.388266   6.189707
    23  H    7.342487   6.402148   5.029629   4.671860   5.907243
    24  H    5.084617   4.011784   2.680539   2.766056   4.181428
                    6          7          8          9         10
     6  C    0.000000
     7  C    2.478941   0.000000
     8  C    3.726412   1.362515   0.000000
     9  C    4.265342   2.438203   1.436209   0.000000
    10  C    5.681407   3.726412   2.478941   1.416127   0.000000
    11  C    6.513058   4.875436   3.749083   2.437744   1.383291
    12  C    6.211978   5.087682   4.245751   2.809544   2.412872
    13  C    4.981867   4.264033   3.754776   2.437004   2.791248
    14  C    3.784955   2.849570   2.476728   1.428381   2.458705
    15  H    2.153786   4.631123   5.843106   6.189706   7.587663
    16  H    3.403653   5.339766   6.157391   5.907242   7.126181
    17  H    3.882310   4.646499   4.931021   4.181425   5.141505
    18  H    1.094473   2.686619   4.045152   4.879497   6.271527
    19  H    2.689946   1.094292   2.137559   3.435203   4.614655
    20  H    4.614654   2.137559   1.094292   2.179418   2.689946
    21  H    6.271527   4.045153   2.686619   2.164501   1.094473
    22  H    7.587663   5.843107   4.631124   3.430153   2.153786
    23  H    7.126182   6.157392   5.339767   3.903559   3.403653
    24  H    5.141507   4.931023   4.646501   3.433055   3.882310
                   11         12         13         14         15
    11  C    0.000000
    12  C    1.409394   0.000000
    13  C    2.424708   1.385553   0.000000
    14  C    2.837210   2.444266   1.416009   0.000000
    15  H    8.223372   7.646282   6.291230   5.388265   0.000000
    16  H    7.342486   6.402148   5.029629   4.671860   2.504645
    17  H    5.084615   4.011782   2.680537   2.766054   4.301886
    18  H    7.245410   7.095449   5.934265   4.651224   2.488725
    19  H    5.848566   6.155379   5.358320   3.943768   4.763803
    20  H    4.069727   4.859708   4.614637   3.456381   6.763857
    21  H    2.154310   3.410907   3.885671   3.442526   8.290392
    22  H    1.093944   2.175077   3.413970   3.931135   9.317031
    23  H    2.173174   1.094017   2.149211   3.430826   8.399645
    24  H    3.405009   2.135353   1.091351   2.176253   6.094276
                   16         17         18         19         20
    16  H    0.000000
    17  H    2.450629   0.000000
    18  H    4.315304   4.976777   0.000000
    19  H    5.936235   5.583091   2.432165   0.000000
    20  H    7.232694   6.009998   4.746073   2.474603   0.000000
    21  H    8.057946   6.180002   6.712101   4.746074   2.432165
    22  H    8.399645   6.094274   8.290392   6.763858   4.763803
    23  H    6.899279   4.450176   8.057947   7.232695   5.936235
    24  H    4.450177   1.999991   6.180005   6.010000   5.583092
                   21         22         23         24
    21  H    0.000000
    22  H    2.488726   0.000000
    23  H    4.315305   2.504645   0.000000
    24  H    4.976777   4.301885   2.450628   0.000000
 Stoichiometry    C14H10
 Framework group  C1[X(C14H10)]
 Deg. of freedom    66
 Full point group                 C1      NOp   1
 Largest Abelian subgroup         C1      NOp   1
 Largest concise Abelian subgroup C1      NOp   1
                         Standard orientation:                         
 ---------------------------------------------------------------------
 Center     Atomic      Atomic             Coordinates (Angstroms)
 Number     Number       Type             X           Y           Z
 ---------------------------------------------------------------------
      1          6           0        3.564824   -0.298913   -0.000097
      2          6           0        2.883680   -1.532782    0.000298
      3          6           0        1.498566   -1.567687    0.000362
      4          6           0        0.728751   -0.379216    0.000043
      5          6           0        1.424624    0.868195   -0.000181
      6          6           0        2.840703    0.879706   -0.000304
      7          6           0        0.681258    2.097056   -0.000129
      8          6           0       -0.681257    2.097057    0.000165
      9          6           0       -1.424623    0.868195    0.000191
     10          6           0       -2.840703    0.879707    0.000260
     11          6           0       -3.564824   -0.298912    0.000043
     12          6           0       -2.883681   -1.532782   -0.000305
     13          6           0       -1.498567   -1.567687   -0.000329
     14          6           0       -0.728751   -0.379216   -0.000010
     15          1           0        4.658515   -0.275436   -0.000204
     16          1           0        3.449639   -2.469033    0.000602
     17          1           0        0.999994   -2.538497    0.000768
     18          1           0        3.356051    1.845257   -0.000536
     19          1           0        1.237302    3.039548   -0.000268
     20          1           0       -1.237301    3.039548    0.000334
     21          1           0       -3.356050    1.845258    0.000466
     22          1           0       -4.658515   -0.275435    0.000097
     23          1           0       -3.449640   -2.469032   -0.000604
     24          1           0       -0.999996   -2.538498   -0.000704
 ---------------------------------------------------------------------
 Rotational constants (GHZ):           1.6090589           0.5491697           0.4094314
 Standard basis: def2SVPP (5D, 7F)
 There are   230 symmetry adapted cartesian basis functions of A   symmetry.
 There are   216 symmetry adapted basis functions of A   symmetry.
   216 basis functions,   390 primitive gaussians,   230 cartesian basis functions
    47 alpha electrons       47 beta electrons
       nuclear repulsion energy       773.3039978670 Hartrees.
 NAtoms=   24 NActive=   24 NUniq=   24 SFac= 1.00D+00 NAtFMM=   60 NAOKFM=F Big=F
 Integral buffers will be    131072 words long.
 Raffenetti 2 integral format.
 Two-electron integral symmetry is turned on.
 Nuclear repulsion after empirical dispersion term =      773.2490513694 Hartrees.
 One-electron integrals computed using PRISM.
   1 Symmetry operations used in ECPInt.
 ECPInt:  NShTT=    5460 NPrTT=   21948 LenC2=    5319 LenP2D=   15674.
 LDataN:  DoStor=T MaxTD1= 4 Len=   56
 NBasis=   216 RedAO= T EigKep=  2.51D-04  NBF=   216
 NBsUse=   216 1.00D-06 EigRej= -1.00D+00 NBFU=   216
 Initial guess from the checkpoint file:  "/home/software/g16/scr/Gau-271652.chk"
 B after Tr=    -0.000000   -0.000000   -0.000000
         Rot=    1.000000   -0.000000    0.000000    0.000000 Ang=   0.00 deg.
 Requested convergence on RMS density matrix=1.00D-08 within 128 cycles.
 Requested convergence on MAX density matrix=1.00D-06.
 Requested convergence on             energy=1.00D-06.
 No special actions if energy rises.
 SCF Done:  E(RB3LYP) =  -539.187523727     A.U. after    7 cycles
            NFock=  7  Conv=0.63D-08     -V/T= 2.0111
   1 Symmetry operations used in ECPInt.
 ECPInt:  NShTT=    5460 NPrTT=   21948 LenC2=    5319 LenP2D=   15674.
 LDataN:  DoStor=T MaxTD1= 5 Len=  102
 Calling FoFJK, ICntrl=      2127 FMM=F ISym2X=0 I1Cent= 0 IOpClX= 0 NMat=1 NMatS=1 NMatT=0.
 ***** Axes restored to original set *****
 -------------------------------------------------------------------
 Center     Atomic                   Forces (Hartrees/Bohr)
 Number     Number              X              Y              Z
 -------------------------------------------------------------------
      1        6          -0.000002041    0.000005671   -0.000001228
      2        6          -0.000003389   -0.000001582    0.000001072
      3        6           0.000004519    0.000002259   -0.000000605
      4        6          -0.000006141   -0.000011799   -0.000001269
      5        6           0.000002412    0.000026024    0.000004331
      6        6           0.000004677   -0.000008383   -0.000000798
      7        6           0.000012093   -0.000013834   -0.000001280
      8        6          -0.000012221   -0.000014378    0.000001727
      9        6          -0.000002469    0.000026625   -0.000004631
     10        6          -0.000004475   -0.000008291    0.000002313
     11        6           0.000001661    0.000005779    0.000000654
     12        6           0.000003379   -0.000001689   -0.000001088
     13        6          -0.000004317    0.000002797    0.000001014
     14        6           0.000005929   -0.000012625    0.000000719
     15        1           0.000003053    0.000002319    0.000001345
     16        1          -0.000001622   -0.000005681   -0.000001664
     17        1          -0.000002891   -0.000002715   -0.000003258
     18        1           0.000001028    0.000001349    0.000000625
     19        1          -0.000005661    0.000006354    0.000001410
     20        1           0.000005539    0.000006568   -0.000002183
     21        1          -0.000000983    0.000001258   -0.000000855
     22        1          -0.000002800    0.000002346   -0.000000728
     23        1           0.000001661   -0.000005660    0.000001344
     24        1           0.000003058   -0.000002710    0.000003034
 -------------------------------------------------------------------
 Cartesian Forces:  Max     0.000026625 RMS     0.000006637

 GradGradGradGradGradGradGradGradGradGradGradGradGradGradGradGradGradGrad
 Berny optimization.
 Using GEDIIS/GDIIS optimizer.
 FormGI is forming the generalized inverse of G from B-inverse, IUseBI=4.
 Internal  Forces:  Max     0.000013221 RMS     0.000003689
 Search for a local minimum.
 Step number   6 out of a maximum of  142
 All quantities printed in internal units (Hartrees-Bohrs-Radians)
 Mixed Optimization -- En-DIIS/RFO-DIIS
 Swapping is turned off.
 Update second derivatives using D2CorX and points    1    2    3    4    5
                                                      6
 DE= -1.50D-07 DEPred=-1.34D-07 R= 1.12D+00
 Trust test= 1.12D+00 RLast= 3.01D-03 DXMaxT set to 5.05D-01
 ITU=  0  1  1  1  1  0
     Eigenvalues ---    0.01133   0.01773   0.01815   0.01926   0.01941
     Eigenvalues ---    0.01969   0.01987   0.01994   0.02057   0.02058
     Eigenvalues ---    0.02100   0.02104   0.02128   0.02151   0.02162
     Eigenvalues ---    0.02182   0.02185   0.02193   0.02196   0.02227
     Eigenvalues ---    0.02233   0.12515   0.15913   0.16000   0.16000
     Eigenvalues ---    0.16000   0.16000   0.16000   0.16003   0.16046
     Eigenvalues ---    0.16347   0.22000   0.22001   0.22334   0.22755
     Eigenvalues ---    0.23005   0.24483   0.24915   0.25000   0.27101
     Eigenvalues ---    0.34975   0.34991   0.35025   0.35060   0.35200
     Eigenvalues ---    0.35220   0.35241   0.35257   0.35339   0.35548
     Eigenvalues ---    0.36772   0.37551   0.40011   0.40453   0.42151
     Eigenvalues ---    0.43245   0.44265   0.44877   0.45374   0.45440
     Eigenvalues ---    0.45632   0.45902   0.47208   0.47326   0.48572
     Eigenvalues ---    0.50663
 En-DIIS/RFO-DIIS/Sim-DIIS IScMMF=       -3 using points:     6    5    4    3
 RFO step:  Lambda=-8.34673787D-09.
 DIIS inversion failure, remove point   4.
 DIIS inversion failure, remove point   3.
 RFO-DIIS uses    2 points instead of    4
 DidBck=F Rises=F RFO-DIIS coefs:    1.30511   -0.30511    0.00000    0.00000
 Iteration  1 RMS(Cart)=  0.00020935 RMS(Int)=  0.00000002
 Iteration  2 RMS(Cart)=  0.00000002 RMS(Int)=  0.00000001
 Variable       Old X    -DE/DX   Delta X   Delta X   Delta X     New X
                                 (Linear)    (Quad)   (Total)
    R1        2.66337   0.00001  -0.00001   0.00002   0.00001   2.66338
    R2        2.61404  -0.00000   0.00001  -0.00001   0.00000   2.61404
    R3        2.06725   0.00000   0.00001  -0.00000   0.00001   2.06726
    R4        2.61832  -0.00000  -0.00001   0.00000  -0.00001   2.61831
    R5        2.06739   0.00000   0.00001   0.00000   0.00001   2.06740
    R6        2.67587  -0.00000  -0.00001   0.00001   0.00000   2.67587
    R7        2.06235   0.00000   0.00000   0.00000   0.00001   2.06236
    R8        2.69925   0.00001  -0.00002   0.00005   0.00003   2.69927
    R9        2.75428  -0.00000  -0.00006   0.00005  -0.00001   2.75427
   R10        2.67609   0.00000   0.00004  -0.00002   0.00002   2.67611
   R11        2.71404  -0.00001  -0.00001  -0.00001  -0.00002   2.71402
   R12        2.06825   0.00000  -0.00002   0.00002  -0.00000   2.06825
   R13        2.57478   0.00001   0.00004  -0.00001   0.00003   2.57481
   R14        2.06791   0.00000  -0.00002   0.00002   0.00000   2.06792
   R15        2.71404  -0.00001  -0.00001  -0.00001  -0.00002   2.71402
   R16        2.06791   0.00000  -0.00002   0.00002   0.00000   2.06792
   R17        2.67609   0.00000   0.00004  -0.00002   0.00002   2.67611
   R18        2.69925   0.00001  -0.00002   0.00005   0.00003   2.69928
   R19        2.61404  -0.00000   0.00001  -0.00001   0.00000   2.61404
   R20        2.06825   0.00000  -0.00002   0.00002  -0.00000   2.06825
   R21        2.66337   0.00001  -0.00001   0.00002   0.00001   2.66338
   R22        2.06725   0.00000   0.00001  -0.00000   0.00001   2.06726
   R23        2.61832  -0.00000  -0.00001   0.00000  -0.00001   2.61831
   R24        2.06739   0.00000   0.00001   0.00000   0.00001   2.06740
   R25        2.67587  -0.00000  -0.00001   0.00001   0.00000   2.67587
   R26        2.06235   0.00000   0.00000   0.00000   0.00001   2.06236
    A1        2.08626   0.00000   0.00001  -0.00000   0.00001   2.08627
    A2        2.09667   0.00000  -0.00002   0.00003   0.00001   2.09667
    A3        2.10026  -0.00000   0.00001  -0.00002  -0.00001   2.10025
    A4        2.10040  -0.00000   0.00002  -0.00003  -0.00000   2.10039
    A5        2.09347   0.00001  -0.00001   0.00004   0.00003   2.09350
    A6        2.08932  -0.00000  -0.00002  -0.00001  -0.00003   2.08930
    A7        2.12038   0.00000  -0.00003   0.00003   0.00000   2.12039
    A8        2.07043   0.00000  -0.00001   0.00001  -0.00000   2.07043
    A9        2.09237  -0.00000   0.00003  -0.00003  -0.00000   2.09237
   A10        2.05796   0.00000   0.00002  -0.00001   0.00001   2.05796
   A11        2.14558  -0.00000  -0.00001  -0.00001  -0.00001   2.14557
   A12        2.07965   0.00000  -0.00001   0.00001   0.00001   2.07965
   A13        2.08778  -0.00001   0.00002  -0.00003  -0.00001   2.08776
   A14        2.08871  -0.00001   0.00004  -0.00005  -0.00001   2.08870
   A15        2.10670   0.00001  -0.00006   0.00009   0.00003   2.10672
   A16        2.11359   0.00000  -0.00005   0.00005  -0.00000   2.11359
   A17        2.10040  -0.00000  -0.00005   0.00003  -0.00002   2.10038
   A18        2.06919  -0.00000   0.00010  -0.00008   0.00002   2.06921
   A19        2.11483   0.00000  -0.00003   0.00004   0.00001   2.11483
   A20        2.06455   0.00001   0.00008  -0.00001   0.00006   2.06461
   A21        2.10381  -0.00001  -0.00004  -0.00003  -0.00007   2.10374
   A22        2.11483   0.00000  -0.00003   0.00004   0.00001   2.11483
   A23        2.10381  -0.00001  -0.00004  -0.00003  -0.00007   2.10374
   A24        2.06455   0.00001   0.00007  -0.00001   0.00006   2.06461
   A25        2.10670   0.00001  -0.00006   0.00009   0.00003   2.10672
   A26        2.08871  -0.00001   0.00004  -0.00005  -0.00001   2.08870
   A27        2.08778  -0.00001   0.00002  -0.00003  -0.00001   2.08776
   A28        2.11359   0.00000  -0.00004   0.00004  -0.00000   2.11359
   A29        2.06919  -0.00000   0.00010  -0.00008   0.00002   2.06921
   A30        2.10040  -0.00000  -0.00005   0.00003  -0.00002   2.10038
   A31        2.08626   0.00000   0.00001  -0.00000   0.00001   2.08627
   A32        2.10026  -0.00000   0.00001  -0.00003  -0.00001   2.10025
   A33        2.09667   0.00000  -0.00002   0.00003   0.00001   2.09667
   A34        2.10040  -0.00000   0.00002  -0.00003  -0.00000   2.10039
   A35        2.09347   0.00001  -0.00001   0.00004   0.00003   2.09350
   A36        2.08932  -0.00000  -0.00002  -0.00001  -0.00003   2.08929
   A37        2.12038   0.00000  -0.00002   0.00003   0.00000   2.12039
   A38        2.07043   0.00000  -0.00000   0.00000   0.00000   2.07043
   A39        2.09237  -0.00000   0.00003  -0.00003  -0.00000   2.09237
   A40        2.07965   0.00000  -0.00001   0.00001   0.00000   2.07965
   A41        2.14558  -0.00000  -0.00001  -0.00001  -0.00001   2.14557
   A42        2.05796   0.00000   0.00001  -0.00001   0.00001   2.05796
    D1        0.00010  -0.00000  -0.00005  -0.00002  -0.00007   0.00003
    D2       -3.14145  -0.00000  -0.00008  -0.00002  -0.00010  -3.14155
    D3       -3.14153  -0.00000  -0.00003  -0.00001  -0.00004  -3.14157
    D4        0.00011  -0.00000  -0.00006  -0.00001  -0.00007   0.00004
    D5       -0.00005   0.00000   0.00003  -0.00000   0.00003  -0.00001
    D6        3.14151   0.00000   0.00006  -0.00000   0.00006   3.14157
    D7        3.14158   0.00000   0.00002  -0.00001   0.00000   3.14159
    D8       -0.00004   0.00000   0.00004  -0.00001   0.00003  -0.00001
    D9       -0.00001   0.00000  -0.00002   0.00003   0.00001   0.00000
   D10       -3.14149  -0.00000  -0.00008   0.00001  -0.00007  -3.14156
   D11        3.14154   0.00000   0.00001   0.00003   0.00004   3.14158
   D12        0.00005  -0.00000  -0.00005   0.00000  -0.00004   0.00001
   D13       -0.00013   0.00000   0.00010  -0.00001   0.00009  -0.00005
   D14        3.14150   0.00000   0.00006   0.00000   0.00006   3.14157
   D15        3.14135   0.00000   0.00016   0.00001   0.00017   3.14152
   D16       -0.00020   0.00000   0.00012   0.00002   0.00015  -0.00005
   D17        0.00018  -0.00000  -0.00011  -0.00001  -0.00012   0.00006
   D18       -3.14129  -0.00000  -0.00019  -0.00002  -0.00021  -3.14150
   D19       -3.14145  -0.00000  -0.00007  -0.00002  -0.00010  -3.14155
   D20        0.00026  -0.00000  -0.00015  -0.00003  -0.00019   0.00007
   D21        3.14117   0.00000   0.00028   0.00002   0.00029   3.14146
   D22       -0.00049   0.00000   0.00032   0.00001   0.00034  -0.00015
   D23       -0.00038   0.00000   0.00024   0.00003   0.00027  -0.00011
   D24        3.14115   0.00000   0.00028   0.00003   0.00031   3.14146
   D25       -0.00010   0.00000   0.00005   0.00002   0.00006  -0.00003
   D26        3.14153   0.00000   0.00002   0.00002   0.00004   3.14157
   D27        3.14138   0.00000   0.00013   0.00002   0.00015   3.14153
   D28       -0.00018   0.00000   0.00010   0.00003   0.00012  -0.00006
   D29        0.00003  -0.00000  -0.00003   0.00001  -0.00002   0.00001
   D30        3.14156   0.00000  -0.00000   0.00002   0.00002   3.14158
   D31       -3.14144  -0.00000  -0.00011   0.00000  -0.00011  -3.14155
   D32        0.00008  -0.00000  -0.00008   0.00002  -0.00006   0.00002
   D33       -0.00020   0.00000   0.00013   0.00001   0.00014  -0.00006
   D34        3.14145   0.00000   0.00011  -0.00001   0.00010   3.14155
   D35        3.14146   0.00000   0.00010  -0.00001   0.00010   3.14156
   D36       -0.00007   0.00000   0.00007  -0.00002   0.00005  -0.00002
   D37       -3.14140  -0.00000  -0.00012  -0.00002  -0.00014  -3.14154
   D38        0.00007  -0.00000  -0.00004  -0.00001  -0.00005   0.00002
   D39        0.00014  -0.00000  -0.00010  -0.00001  -0.00010   0.00004
   D40       -3.14158  -0.00000  -0.00002   0.00001  -0.00001  -3.14159
   D41        3.14139   0.00000   0.00014   0.00001   0.00014   3.14153
   D42       -0.00018   0.00000   0.00011   0.00002   0.00013  -0.00005
   D43       -0.00008   0.00000   0.00006  -0.00001   0.00005  -0.00003
   D44        3.14154   0.00000   0.00003   0.00000   0.00003   3.14157
   D45        0.00022  -0.00000  -0.00014  -0.00001  -0.00016   0.00007
   D46       -3.14131  -0.00000  -0.00019  -0.00001  -0.00020  -3.14151
   D47       -3.14150  -0.00000  -0.00006   0.00000  -0.00006  -3.14156
   D48        0.00016  -0.00000  -0.00011   0.00001  -0.00010   0.00005
   D49       -0.00004   0.00000   0.00002   0.00001   0.00003  -0.00001
   D50       -3.14159  -0.00000   0.00001  -0.00001  -0.00000  -3.14159
   D51        3.14152   0.00000   0.00005  -0.00000   0.00005   3.14157
   D52       -0.00002   0.00000   0.00003  -0.00002   0.00002  -0.00001
   D53        0.00008  -0.00000  -0.00005  -0.00001  -0.00006   0.00003
   D54       -3.14146  -0.00000  -0.00008  -0.00001  -0.00009  -3.14155
   D55       -3.14155  -0.00000  -0.00003   0.00001  -0.00002  -3.14158
   D56        0.00009  -0.00000  -0.00006   0.00000  -0.00006   0.00003
   D57       -0.00000   0.00000  -0.00000   0.00001   0.00000   0.00000
   D58       -3.14149  -0.00000  -0.00006  -0.00001  -0.00008  -3.14156
   D59        3.14154   0.00000   0.00003   0.00001   0.00004   3.14158
   D60        0.00006  -0.00000  -0.00003  -0.00001  -0.00004   0.00002
   D61        3.14154   0.00000   0.00004  -0.00000   0.00004   3.14157
   D62       -0.00012   0.00000   0.00008  -0.00001   0.00008  -0.00004
   D63       -0.00016   0.00000   0.00010   0.00002   0.00012  -0.00005
   D64        3.14137   0.00000   0.00014   0.00001   0.00016   3.14152
         Item               Value     Threshold  Converged?
 Maximum Force            0.000013     0.000450     YES
 RMS     Force            0.000004     0.000300     YES
 Maximum Displacement     0.001017     0.001800     YES
 RMS     Displacement     0.000209     0.001200     YES
 Predicted change in Energy=-8.725211D-09
 Optimization completed.
    -- Stationary point found.
                           ----------------------------
                           !   Optimized Parameters   !
                           ! (Angstroms and Degrees)  !
 --------------------------                            --------------------------
 ! Name  Definition              Value          Derivative Info.                !
 --------------------------------------------------------------------------------
 ! R1    R(1,2)                  1.4094         -DE/DX =    0.0                 !
 ! R2    R(1,6)                  1.3833         -DE/DX =    0.0                 !
 ! R3    R(1,15)                 1.0939         -DE/DX =    0.0                 !
 ! R4    R(2,3)                  1.3856         -DE/DX =    0.0                 !
 ! R5    R(2,16)                 1.094          -DE/DX =    0.0                 !
 ! R6    R(3,4)                  1.416          -DE/DX =    0.0                 !
 ! R7    R(3,17)                 1.0914         -DE/DX =    0.0                 !
 ! R8    R(4,5)                  1.4284         -DE/DX =    0.0                 !
 ! R9    R(4,14)                 1.4575         -DE/DX =    0.0                 !
 ! R10   R(5,6)                  1.4161         -DE/DX =    0.0                 !
 ! R11   R(5,7)                  1.4362         -DE/DX =    0.0                 !
 ! R12   R(6,18)                 1.0945         -DE/DX =    0.0                 !
 ! R13   R(7,8)                  1.3625         -DE/DX =    0.0                 !
 ! R14   R(7,19)                 1.0943         -DE/DX =    0.0                 !
 ! R15   R(8,9)                  1.4362         -DE/DX =    0.0                 !
 ! R16   R(8,20)                 1.0943         -DE/DX =    0.0                 !
 ! R17   R(9,10)                 1.4161         -DE/DX =    0.0                 !
 ! R18   R(9,14)                 1.4284         -DE/DX =    0.0                 !
 ! R19   R(10,11)                1.3833         -DE/DX =    0.0                 !
 ! R20   R(10,21)                1.0945         -DE/DX =    0.0                 !
 ! R21   R(11,12)                1.4094         -DE/DX =    0.0                 !
 ! R22   R(11,22)                1.0939         -DE/DX =    0.0                 !
 ! R23   R(12,13)                1.3856         -DE/DX =    0.0                 !
 ! R24   R(12,23)                1.094          -DE/DX =    0.0                 !
 ! R25   R(13,14)                1.416          -DE/DX =    0.0                 !
 ! R26   R(13,24)                1.0914         -DE/DX =    0.0                 !
 ! A1    A(2,1,6)              119.5338         -DE/DX =    0.0                 !
 ! A2    A(2,1,15)             120.1301         -DE/DX =    0.0                 !
 ! A3    A(6,1,15)             120.3361         -DE/DX =    0.0                 !
 ! A4    A(1,2,3)              120.3439         -DE/DX =    0.0                 !
 ! A5    A(1,2,16)             119.9468         -DE/DX =    0.0                 !
 ! A6    A(3,2,16)             119.7092         -DE/DX =    0.0                 !
 ! A7    A(2,3,4)              121.4891         -DE/DX =    0.0                 !
 ! A8    A(2,3,17)             118.6269         -DE/DX =    0.0                 !
 ! A9    A(4,3,17)             119.8841         -DE/DX =    0.0                 !
 ! A10   A(3,4,5)              117.9123         -DE/DX =    0.0                 !
 ! A11   A(3,4,14)             122.9326         -DE/DX =    0.0                 !
 ! A12   A(5,4,14)             119.1551         -DE/DX =    0.0                 !
 ! A13   A(4,5,6)              119.6209         -DE/DX =    0.0                 !
 ! A14   A(4,5,7)              119.6742         -DE/DX =    0.0                 !
 ! A15   A(6,5,7)              120.7049         -DE/DX =    0.0                 !
 ! A16   A(1,6,5)              121.1            -DE/DX =    0.0                 !
 ! A17   A(1,6,18)             120.3439         -DE/DX =    0.0                 !
 ! A18   A(5,6,18)             118.5561         -DE/DX =    0.0                 !
 ! A19   A(5,7,8)              121.1707         -DE/DX =    0.0                 !
 ! A20   A(5,7,19)             118.2899         -DE/DX =    0.0                 !
 ! A21   A(8,7,19)             120.5394         -DE/DX =    0.0                 !
 ! A22   A(7,8,9)              121.1707         -DE/DX =    0.0                 !
 ! A23   A(7,8,20)             120.5395         -DE/DX =    0.0                 !
 ! A24   A(9,8,20)             118.2899         -DE/DX =    0.0                 !
 ! A25   A(8,9,10)             120.7049         -DE/DX =    0.0                 !
 ! A26   A(8,9,14)             119.6742         -DE/DX =    0.0                 !
 ! A27   A(10,9,14)            119.6209         -DE/DX =    0.0                 !
 ! A28   A(9,10,11)            121.1            -DE/DX =    0.0                 !
 ! A29   A(9,10,21)            118.5561         -DE/DX =    0.0                 !
 ! A30   A(11,10,21)           120.3439         -DE/DX =    0.0                 !
 ! A31   A(10,11,12)           119.5339         -DE/DX =    0.0                 !
 ! A32   A(10,11,22)           120.3361         -DE/DX =    0.0                 !
 ! A33   A(12,11,22)           120.1301         -DE/DX =    0.0                 !
 ! A34   A(11,12,13)           120.3439         -DE/DX =    0.0                 !
 ! A35   A(11,12,23)           119.9468         -DE/DX =    0.0                 !
 ! A36   A(13,12,23)           119.7092         -DE/DX =    0.0                 !
 ! A37   A(12,13,14)           121.489          -DE/DX =    0.0                 !
 ! A38   A(12,13,24)           118.6268         -DE/DX =    0.0                 !
 ! A39   A(14,13,24)           119.8841         -DE/DX =    0.0                 !
 ! A40   A(4,14,9)             119.1551         -DE/DX =    0.0                 !
 ! A41   A(4,14,13)            122.9326         -DE/DX =    0.0                 !
 ! A42   A(9,14,13)            117.9123         -DE/DX =    0.0                 !
 ! D1    D(6,1,2,3)              0.0057         -DE/DX =    0.0                 !
 ! D2    D(6,1,2,16)          -179.9916         -DE/DX =    0.0                 !
 ! D3    D(15,1,2,3)          -179.9965         -DE/DX =    0.0                 !
 ! D4    D(15,1,2,16)            0.0062         -DE/DX =    0.0                 !
 ! D5    D(2,1,6,5)             -0.0027         -DE/DX =    0.0                 !
 ! D6    D(2,1,6,18)           179.9954         -DE/DX =    0.0                 !
 ! D7    D(15,1,6,5)           179.9995         -DE/DX =    0.0                 !
 ! D8    D(15,1,6,18)           -0.0024         -DE/DX =    0.0                 !
 ! D9    D(1,2,3,4)             -0.0004         -DE/DX =    0.0                 !
 ! D10   D(1,2,3,17)          -179.9943         -DE/DX =    0.0                 !
 ! D11   D(16,2,3,4)           179.9969         -DE/DX =    0.0                 !
 ! D12   D(16,2,3,17)            0.0031         -DE/DX =    0.0                 !
 ! D13   D(2,3,4,5)             -0.0077         -DE/DX =    0.0                 !
 ! D14   D(2,3,4,14)           179.9949         -DE/DX =    0.0                 !
 ! D15   D(17,3,4,5)           179.9861         -DE/DX =    0.0                 !
 ! D16   D(17,3,4,14)           -0.0113         -DE/DX =    0.0                 !
 ! D17   D(3,4,5,6)              0.0105         -DE/DX =    0.0                 !
 ! D18   D(3,4,5,7)           -179.9827         -DE/DX =    0.0                 !
 ! D19   D(14,4,5,6)          -179.992          -DE/DX =    0.0                 !
 ! D20   D(14,4,5,7)             0.0149         -DE/DX =    0.0                 !
 ! D21   D(3,4,14,9)           179.9756         -DE/DX =    0.0                 !
 ! D22   D(3,4,14,13)           -0.028          -DE/DX =    0.0                 !
 ! D23   D(5,4,14,9)            -0.0218         -DE/DX =    0.0                 !
 ! D24   D(5,4,14,13)          179.9746         -DE/DX =    0.0                 !
 ! D25   D(4,5,6,1)             -0.0055         -DE/DX =    0.0                 !
 ! D26   D(4,5,6,18)           179.9964         -DE/DX =    0.0                 !
 ! D27   D(7,5,6,1)            179.9876         -DE/DX =    0.0                 !
 ! D28   D(7,5,6,18)            -0.0105         -DE/DX =    0.0                 !
 ! D29   D(4,5,7,8)              0.0017         -DE/DX =    0.0                 !
 ! D30   D(4,5,7,19)           179.9979         -DE/DX =    0.0                 !
 ! D31   D(6,5,7,8)           -179.9914         -DE/DX =    0.0                 !
 ! D32   D(6,5,7,19)             0.0048         -DE/DX =    0.0                 !
 ! D33   D(5,7,8,9)             -0.0114         -DE/DX =    0.0                 !
 ! D34   D(5,7,8,20)           179.992          -DE/DX =    0.0                 !
 ! D35   D(19,7,8,9)           179.9925         -DE/DX =    0.0                 !
 ! D36   D(19,7,8,20)           -0.0041         -DE/DX =    0.0                 !
 ! D37   D(7,8,9,10)          -179.9888         -DE/DX =    0.0                 !
 ! D38   D(7,8,9,14)             0.004          -DE/DX =    0.0                 !
 ! D39   D(20,8,9,10)            0.0079         -DE/DX =    0.0                 !
 ! D40   D(20,8,9,14)         -179.9993         -DE/DX =    0.0                 !
 ! D41   D(8,9,10,11)          179.9883         -DE/DX =    0.0                 !
 ! D42   D(8,9,10,21)           -0.0103         -DE/DX =    0.0                 !
 ! D43   D(14,9,10,11)          -0.0045         -DE/DX =    0.0                 !
 ! D44   D(14,9,10,21)         179.9969         -DE/DX =    0.0                 !
 ! D45   D(8,9,14,4)             0.0127         -DE/DX =    0.0                 !
 ! D46   D(8,9,14,13)         -179.9839         -DE/DX =    0.0                 !
 ! D47   D(10,9,14,4)         -179.9945         -DE/DX =    0.0                 !
 ! D48   D(10,9,14,13)           0.0089         -DE/DX =    0.0                 !
 ! D49   D(9,10,11,12)          -0.0025         -DE/DX =    0.0                 !
 ! D50   D(9,10,11,22)        -179.9998         -DE/DX =    0.0                 !
 ! D51   D(21,10,11,12)        179.9961         -DE/DX =    0.0                 !
 ! D52   D(21,10,11,22)         -0.0013         -DE/DX =    0.0                 !
 ! D53   D(10,11,12,13)          0.0048         -DE/DX =    0.0                 !
 ! D54   D(10,11,12,23)       -179.9924         -DE/DX =    0.0                 !
 ! D55   D(22,11,12,13)       -179.9978         -DE/DX =    0.0                 !
 ! D56   D(22,11,12,23)          0.005          -DE/DX =    0.0                 !
 ! D57   D(11,12,13,14)         -0.0001         -DE/DX =    0.0                 !
 ! D58   D(11,12,13,24)       -179.9939         -DE/DX =    0.0                 !
 ! D59   D(23,12,13,14)        179.9971         -DE/DX =    0.0                 !
 ! D60   D(23,12,13,24)          0.0033         -DE/DX =    0.0                 !
 ! D61   D(12,13,14,4)         179.9968         -DE/DX =    0.0                 !
 ! D62   D(12,13,14,9)          -0.0068         -DE/DX =    0.0                 !
 ! D63   D(24,13,14,4)          -0.0094         -DE/DX =    0.0                 !
 ! D64   D(24,13,14,9)         179.987          -DE/DX =    0.0                 !
 --------------------------------------------------------------------------------
 GradGradGradGradGradGradGradGradGradGradGradGradGradGradGradGradGradGrad

                          Input orientation:                          
 ---------------------------------------------------------------------
 Center     Atomic      Atomic             Coordinates (Angstroms)
 Number     Number       Type             X           Y           Z
 ---------------------------------------------------------------------
      1          6           0        3.563434   -0.311965    0.004330
      2          6           0        2.881389   -1.545333    0.001427
      3          6           0        1.496250   -1.579228    0.002435
      4          6           0        0.727304   -0.390202    0.006376
      5          6           0        1.424088    0.856696    0.009481
      6          6           0        2.840175    0.867176    0.008318
      7          6           0        0.681621    2.086093    0.013898
      8          6           0       -0.680892    2.087086    0.015227
      9          6           0       -1.425157    0.858771    0.012017
     10          6           0       -2.841228    0.871315    0.013198
     11          6           0       -3.566210   -0.306769    0.009886
     12          6           0       -2.885969   -1.541128    0.005205
     13          6           0       -1.500882   -1.577042    0.004021
     14          6           0       -0.730197   -0.389139    0.007430
     15          1           0        4.657142   -0.289286    0.003465
     16          1           0        3.446663   -2.481992   -0.001594
     17          1           0        0.996969   -2.549672    0.000218
     18          1           0        3.356228    1.832347    0.010681
     19          1           0        1.238354    3.028175    0.016250
     20          1           0       -1.236247    3.029977    0.018733
     21          1           0       -3.355868    1.837236    0.016781
     22          1           0       -4.659883   -0.282496    0.010843
     23          1           0       -3.452613   -2.476960    0.002440
     24          1           0       -1.003022   -2.548211    0.000265
 ---------------------------------------------------------------------
                    Distance matrix (angstroms):
                    1          2          3          4          5
     1  C    0.000000
     2  C    1.409394   0.000000
     3  C    2.424708   1.385553   0.000000
     4  C    2.837210   2.444266   1.416008   0.000000
     5  C    2.437744   2.809544   2.437004   1.428381   0.000000
     6  C    1.383291   2.412872   2.791248   2.458705   1.416127
     7  C    3.749083   4.245750   3.754775   2.476728   1.436208
     8  C    4.875435   5.087682   4.264033   2.849570   2.438203
     9  C    5.124131   4.932156   3.805069   2.488584   2.849247
    10  C    6.513058   6.211978   4.981867   3.784956   4.265342
    11  C    7.129648   6.565488   5.219934   4.294326   5.124131
    12  C    6.565489   5.767361   4.382386   3.792146   4.932157
    13  C    5.219934   4.382386   2.997133   2.524561   3.805071
    14  C    4.294325   3.792146   2.524560   1.457502   2.488585
    15  H    1.093943   2.175077   3.413970   3.931134   3.430153
    16  H    2.173175   1.094017   2.149211   3.430826   3.903559
    17  H    3.405010   2.135354   1.091351   2.176251   3.433054
    18  H    2.154310   3.410907   3.885670   3.442526   2.164500
    19  H    4.069727   4.859708   4.614636   3.456381   2.179418
    20  H    5.848566   6.155379   5.358319   3.943768   3.435202
    21  H    7.245410   7.095448   5.934264   4.651224   4.879497
    22  H    8.223373   7.646282   6.291229   5.388266   6.189707
    23  H    7.342487   6.402148   5.029629   4.671860   5.907243
    24  H    5.084617   4.011784   2.680539   2.766056   4.181428
                    6          7          8          9         10
     6  C    0.000000
     7  C    2.478941   0.000000
     8  C    3.726412   1.362515   0.000000
     9  C    4.265342   2.438203   1.436209   0.000000
    10  C    5.681407   3.726412   2.478941   1.416127   0.000000
    11  C    6.513058   4.875436   3.749083   2.437744   1.383291
    12  C    6.211978   5.087682   4.245751   2.809544   2.412872
    13  C    4.981867   4.264033   3.754776   2.437004   2.791248
    14  C    3.784955   2.849570   2.476728   1.428381   2.458705
    15  H    2.153786   4.631123   5.843106   6.189706   7.587663
    16  H    3.403653   5.339766   6.157391   5.907242   7.126181
    17  H    3.882310   4.646499   4.931021   4.181425   5.141505
    18  H    1.094473   2.686619   4.045152   4.879497   6.271527
    19  H    2.689946   1.094292   2.137559   3.435203   4.614655
    20  H    4.614654   2.137559   1.094292   2.179418   2.689946
    21  H    6.271527   4.045153   2.686619   2.164501   1.094473
    22  H    7.587663   5.843107   4.631124   3.430153   2.153786
    23  H    7.126182   6.157392   5.339767   3.903559   3.403653
    24  H    5.141507   4.931023   4.646501   3.433055   3.882310
                   11         12         13         14         15
    11  C    0.000000
    12  C    1.409394   0.000000
    13  C    2.424708   1.385553   0.000000
    14  C    2.837210   2.444266   1.416009   0.000000
    15  H    8.223372   7.646282   6.291230   5.388265   0.000000
    16  H    7.342486   6.402148   5.029629   4.671860   2.504645
    17  H    5.084615   4.011782   2.680537   2.766054   4.301886
    18  H    7.245410   7.095449   5.934265   4.651224   2.488725
    19  H    5.848566   6.155379   5.358320   3.943768   4.763803
    20  H    4.069727   4.859708   4.614637   3.456381   6.763857
    21  H    2.154310   3.410907   3.885671   3.442526   8.290392
    22  H    1.093944   2.175077   3.413970   3.931135   9.317031
    23  H    2.173174   1.094017   2.149211   3.430826   8.399645
    24  H    3.405009   2.135353   1.091351   2.176253   6.094276
                   16         17         18         19         20
    16  H    0.000000
    17  H    2.450629   0.000000
    18  H    4.315304   4.976777   0.000000
    19  H    5.936235   5.583091   2.432165   0.000000
    20  H    7.232694   6.009998   4.746073   2.474603   0.000000
    21  H    8.057946   6.180002   6.712101   4.746074   2.432165
    22  H    8.399645   6.094274   8.290392   6.763858   4.763803
    23  H    6.899279   4.450176   8.057947   7.232695   5.936235
    24  H    4.450177   1.999991   6.180005   6.010000   5.583092
                   21         22         23         24
    21  H    0.000000
    22  H    2.488726   0.000000
    23  H    4.315305   2.504645   0.000000
    24  H    4.976777   4.301885   2.450628   0.000000
 Stoichiometry    C14H10
 Framework group  C1[X(C14H10)]
 Deg. of freedom    66
 Full point group                 C1      NOp   1
 Largest Abelian subgroup         C1      NOp   1
 Largest concise Abelian subgroup C1      NOp   1
                         Standard orientation:                         
 ---------------------------------------------------------------------
 Center     Atomic      Atomic             Coordinates (Angstroms)
 Number     Number       Type             X           Y           Z
 ---------------------------------------------------------------------
      1          6           0        3.564824   -0.298913   -0.000097
      2          6           0        2.883680   -1.532782    0.000298
      3          6           0        1.498566   -1.567687    0.000362
      4          6           0        0.728751   -0.379216    0.000043
      5          6           0        1.424624    0.868195   -0.000181
      6          6           0        2.840703    0.879706   -0.000304
      7          6           0        0.681258    2.097056   -0.000129
      8          6           0       -0.681257    2.097057    0.000165
      9          6           0       -1.424623    0.868195    0.000191
     10          6           0       -2.840703    0.879707    0.000260
     11          6           0       -3.564824   -0.298912    0.000043
     12          6           0       -2.883681   -1.532782   -0.000305
     13          6           0       -1.498567   -1.567687   -0.000329
     14          6           0       -0.728751   -0.379216   -0.000010
     15          1           0        4.658515   -0.275436   -0.000204
     16          1           0        3.449639   -2.469033    0.000602
     17          1           0        0.999994   -2.538497    0.000768
     18          1           0        3.356051    1.845257   -0.000536
     19          1           0        1.237302    3.039548   -0.000268
     20          1           0       -1.237301    3.039548    0.000334
     21          1           0       -3.356050    1.845258    0.000466
     22          1           0       -4.658515   -0.275435    0.000097
     23          1           0       -3.449640   -2.469032   -0.000604
     24          1           0       -0.999996   -2.538498   -0.000704
 ---------------------------------------------------------------------
 Rotational constants (GHZ):           1.6090589           0.5491697           0.4094314

 **********************************************************************

            Population analysis using the SCF Density.

 **********************************************************************

 Orbital symmetries:
       Occupied  (A) (A) (A) (A) (A) (A) (A) (A) (A) (A) (A) (A)
                 (A) (A) (A) (A) (A) (A) (A) (A) (A) (A) (A) (A)
                 (A) (A) (A) (A) (A) (A) (A) (A) (A) (A) (A) (A)
                 (A) (A) (A) (A) (A) (A) (A) (A) (A) (A) (A)
       Virtual   (A) (A) (A) (A) (A) (A) (A) (A) (A) (A) (A) (A)
                 (A) (A) (A) (A) (A) (A) (A) (A) (A) (A) (A) (A)
                 (A) (A) (A) (A) (A) (A) (A) (A) (A) (A) (A) (A)
                 (A) (A) (A) (A) (A) (A) (A) (A) (A) (A) (A) (A)
                 (A) (A) (A) (A) (A) (A) (A) (A) (A) (A) (A) (A)
                 (A) (A) (A) (A) (A) (A) (A) (A) (A) (A) (A) (A)
                 (A) (A) (A) (A) (A) (A) (A) (A) (A) (A) (A) (A)
                 (A) (A) (A) (A) (A) (A) (A) (A) (A) (A) (A) (A)
                 (A) (A) (A) (A) (A) (A) (A) (A) (A) (A) (A) (A)
                 (A) (A) (A) (A) (A) (A) (A) (A) (A) (A) (A) (A)
                 (A) (A) (A) (A) (A) (A) (A) (A) (A) (A) (A) (A)
                 (A) (A) (A) (A) (A) (A) (A) (A) (A) (A) (A) (A)
                 (A) (A) (A) (A) (A) (A) (A) (A) (A) (A) (A) (A)
                 (A) (A) (A) (A) (A) (A) (A) (A) (A) (A) (A) (A)
                 (A)
 The electronic state is 1-A.
 Alpha  occ. eigenvalues --  -10.20161 -10.20148 -10.19903 -10.19894 -10.19121
 Alpha  occ. eigenvalues --  -10.19117 -10.19112 -10.19090 -10.19085 -10.19063
 Alpha  occ. eigenvalues --  -10.19057 -10.19056 -10.19039 -10.19039  -0.87667
 Alpha  occ. eigenvalues --   -0.84298  -0.80293  -0.77049  -0.75028  -0.71866
 Alpha  occ. eigenvalues --   -0.71249  -0.62972  -0.62254  -0.60861  -0.58084
 Alpha  occ. eigenvalues --   -0.53157  -0.53110  -0.49839  -0.48023  -0.47710
 Alpha  occ. eigenvalues --   -0.44063  -0.43516  -0.43012  -0.42607  -0.41439
 Alpha  occ. eigenvalues --   -0.40523  -0.39628  -0.36892  -0.36562  -0.36401
 Alpha  occ. eigenvalues --   -0.33979  -0.33004  -0.32012  -0.29025  -0.26854
 Alpha  occ. eigenvalues --   -0.23084  -0.21977
 Alpha virt. eigenvalues --   -0.04696  -0.04121  -0.00292   0.02580   0.05978
 Alpha virt. eigenvalues --    0.07017   0.07041   0.07102   0.10383   0.10459
 Alpha virt. eigenvalues --    0.12462   0.12756   0.13456   0.14813   0.16499
 Alpha virt. eigenvalues --    0.20862   0.21139   0.23262   0.25294   0.25647
 Alpha virt. eigenvalues --    0.27447   0.28155   0.28573   0.29577   0.30968
 Alpha virt. eigenvalues --    0.32771   0.33130   0.34765   0.36044   0.36676
 Alpha virt. eigenvalues --    0.38411   0.38478   0.41128   0.41320   0.42390
 Alpha virt. eigenvalues --    0.43877   0.44433   0.45131   0.46062   0.47555
 Alpha virt. eigenvalues --    0.47910   0.48119   0.48125   0.49061   0.49943
 Alpha virt. eigenvalues --    0.50275   0.51824   0.52577   0.53949   0.54469
 Alpha virt. eigenvalues --    0.56629   0.57238   0.57340   0.58672   0.62433
 Alpha virt. eigenvalues --    0.63265   0.64682   0.66080   0.66428   0.67528
 Alpha virt. eigenvalues --    0.67947   0.68098   0.69205   0.69354   0.69455
 Alpha virt. eigenvalues --    0.71339   0.72318   0.72524   0.73420   0.73753
 Alpha virt. eigenvalues --    0.73780   0.76235   0.76893   0.78189   0.79552
 Alpha virt. eigenvalues --    0.80764   0.81457   0.81975   0.82990   0.85803
 Alpha virt. eigenvalues --    0.87034   0.91664   0.93803   0.97962   0.98278
 Alpha virt. eigenvalues --    1.08841   1.10825   1.12425   1.13105   1.18780
 Alpha virt. eigenvalues --    1.22288   1.22660   1.23469   1.25707   1.26859
 Alpha virt. eigenvalues --    1.30417   1.33584   1.35199   1.35484   1.37418
 Alpha virt. eigenvalues --    1.39622   1.42233   1.45453   1.46094   1.48364
 Alpha virt. eigenvalues --    1.48401   1.49063   1.49263   1.49879   1.51834
 Alpha virt. eigenvalues --    1.52484   1.67208   1.69260   1.72255   1.75022
 Alpha virt. eigenvalues --    1.76323   1.79801   1.80042   1.82252   1.83307
 Alpha virt. eigenvalues --    1.84688   1.85795   1.88531   1.90533   1.93782
 Alpha virt. eigenvalues --    1.93851   1.98503   2.02274   2.05058   2.06499
 Alpha virt. eigenvalues --    2.06673   2.08540   2.11022   2.15748   2.17757
 Alpha virt. eigenvalues --    2.18250   2.18509   2.19971   2.20889   2.22348
 Alpha virt. eigenvalues --    2.28027   2.28785   2.29335   2.32971   2.33424
 Alpha virt. eigenvalues --    2.36989   2.39253   2.46715   2.47439   2.53134
 Alpha virt. eigenvalues --    2.56343   2.59037   2.59437   2.60346   2.60534
 Alpha virt. eigenvalues --    2.63685   2.64185   2.66345   2.68141   2.73998
 Alpha virt. eigenvalues --    2.78198   2.79339   2.82955   2.90625   2.96980
 Alpha virt. eigenvalues --    3.00405   3.28912   3.35008   3.47648
          Condensed to atoms (all electrons):
               1          2          3          4          5          6
     1  C    5.219135   0.183465   0.129912  -0.148155   0.132124   0.223313
     2  C    0.183465   5.201884   0.251742   0.114827  -0.159358   0.137994
     3  C    0.129912   0.251742   5.400209   0.274301   0.008227  -0.157667
     4  C   -0.148155   0.114827   0.274301   5.494770   0.122786   0.036182
     5  C    0.132124  -0.159358   0.008227   0.122786   5.412998   0.260841
     6  C    0.223313   0.137994  -0.157667   0.036182   0.260841   5.385652
     7  C    0.018767  -0.002069   0.023233   0.010994   0.209827  -0.138580
     8  C   -0.001262   0.000191  -0.003369  -0.114260   0.128947   0.017379
     9  C   -0.000012   0.000207   0.020827  -0.010311  -0.147501  -0.000796
    10  C    0.000001  -0.000004  -0.000252   0.023334  -0.000796   0.000030
    11  C   -0.000001   0.000007  -0.000001  -0.003370  -0.000012   0.000001
    12  C    0.000007  -0.000113   0.000602   0.022846   0.000207  -0.000004
    13  C   -0.000001   0.000602  -0.026281  -0.130447   0.020827  -0.000252
    14  C   -0.003370   0.022846  -0.130447   0.229312  -0.010311   0.023334
    15  H    0.433476  -0.079782   0.014516  -0.001231   0.014698  -0.077426
    16  H   -0.081374   0.430491  -0.073118   0.015346  -0.001257   0.014468
    17  H    0.014753  -0.082107   0.418858  -0.046838   0.018015  -0.002084
    18  H   -0.082425   0.014675  -0.002016   0.016978  -0.072360   0.431192
    19  H    0.000779  -0.000052  -0.000253   0.015521  -0.075207  -0.019495
    20  H    0.000010  -0.000001   0.000043  -0.001554   0.014786  -0.000454
    21  H    0.000000  -0.000000   0.000008  -0.000227  -0.000048  -0.000001
    22  H    0.000000  -0.000000  -0.000000   0.000044   0.000000   0.000000
    23  H    0.000000  -0.000001   0.000004  -0.000374   0.000007  -0.000000
    24  H   -0.000069   0.001557   0.010576  -0.040326  -0.001194   0.000043
               7          8          9         10         11         12
     1  C    0.018767  -0.001262  -0.000012   0.000001  -0.000001   0.000007
     2  C   -0.002069   0.000191   0.000207  -0.000004   0.000007  -0.000113
     3  C    0.023233  -0.003369   0.020827  -0.000252  -0.000001   0.000602
     4  C    0.010994  -0.114260  -0.010311   0.023334  -0.003370   0.022846
     5  C    0.209827   0.128947  -0.147501  -0.000796  -0.000012   0.000207
     6  C   -0.138580   0.017379  -0.000796   0.000030   0.000001  -0.000004
     7  C    5.398317   0.235472   0.128947   0.017379  -0.001262   0.000191
     8  C    0.235472   5.398316   0.209827  -0.138579   0.018767  -0.002069
     9  C    0.128947   0.209827   5.412998   0.260841   0.132124  -0.159358
    10  C    0.017379  -0.138579   0.260841   5.385651   0.223313   0.137994
    11  C   -0.001262   0.018767   0.132124   0.223313   5.219134   0.183465
    12  C    0.000191  -0.002069  -0.159358   0.137994   0.183465   5.201883
    13  C   -0.003369   0.023233   0.008227  -0.157667   0.129911   0.251743
    14  C   -0.114260   0.010994   0.122786   0.036182  -0.148155   0.114826
    15  H   -0.000431   0.000008   0.000000   0.000000   0.000000  -0.000000
    16  H    0.000029  -0.000001   0.000007  -0.000000   0.000000  -0.000001
    17  H   -0.000206  -0.000032  -0.001194   0.000043  -0.000069   0.001557
    18  H   -0.020804   0.000887  -0.000048  -0.000001   0.000000  -0.000000
    19  H    0.434113  -0.081564   0.014786  -0.000454   0.000010  -0.000001
    20  H   -0.081564   0.434113  -0.075207  -0.019495   0.000779  -0.000052
    21  H    0.000887  -0.020804  -0.072360   0.431192  -0.082425   0.014675
    22  H    0.000008  -0.000431   0.014698  -0.077426   0.433476  -0.079782
    23  H   -0.000001   0.000029  -0.001257   0.014468  -0.081374   0.430491
    24  H   -0.000032  -0.000206   0.018015  -0.002084   0.014753  -0.082107
              13         14         15         16         17         18
     1  C   -0.000001  -0.003370   0.433476  -0.081374   0.014753  -0.082425
     2  C    0.000602   0.022846  -0.079782   0.430491  -0.082107   0.014675
     3  C   -0.026281  -0.130447   0.014516  -0.073118   0.418858  -0.002016
     4  C   -0.130447   0.229312  -0.001231   0.015346  -0.046838   0.016978
     5  C    0.020827  -0.010311   0.014698  -0.001257   0.018015  -0.072360
     6  C   -0.000252   0.023334  -0.077426   0.014468  -0.002084   0.431192
     7  C   -0.003369  -0.114260  -0.000431   0.000029  -0.000206  -0.020804
     8  C    0.023233   0.010994   0.000008  -0.000001  -0.000032   0.000887
     9  C    0.008227   0.122786   0.000000   0.000007  -0.001194  -0.000048
    10  C   -0.157667   0.036182   0.000000  -0.000000   0.000043  -0.000001
    11  C    0.129911  -0.148155   0.000000   0.000000  -0.000069   0.000000
    12  C    0.251743   0.114826  -0.000000  -0.000001   0.001557  -0.000000
    13  C    5.400208   0.274301  -0.000000   0.000004   0.010576   0.000008
    14  C    0.274301   5.494771   0.000044  -0.000374  -0.040326  -0.000227
    15  H   -0.000000   0.000044   0.664118  -0.011324  -0.000304  -0.011991
    16  H    0.000004  -0.000374  -0.011324   0.666958  -0.012988  -0.000303
    17  H    0.010576  -0.040326  -0.000304  -0.012988   0.676310   0.000030
    18  H    0.000008  -0.000227  -0.011991  -0.000303   0.000030   0.675317
    19  H    0.000043  -0.001554  -0.000012  -0.000001   0.000009   0.007688
    20  H   -0.000253   0.015522  -0.000000   0.000000   0.000000  -0.000019
    21  H   -0.002016   0.016978  -0.000000   0.000000   0.000001  -0.000000
    22  H    0.014516  -0.001231  -0.000000  -0.000000  -0.000000  -0.000000
    23  H   -0.073118   0.015346  -0.000000  -0.000000   0.000037   0.000000
    24  H    0.418858  -0.046838  -0.000000   0.000037  -0.000035   0.000001
              19         20         21         22         23         24
     1  C    0.000779   0.000010   0.000000   0.000000   0.000000  -0.000069
     2  C   -0.000052  -0.000001  -0.000000  -0.000000  -0.000001   0.001557
     3  C   -0.000253   0.000043   0.000008  -0.000000   0.000004   0.010576
     4  C    0.015521  -0.001554  -0.000227   0.000044  -0.000374  -0.040326
     5  C   -0.075207   0.014786  -0.000048   0.000000   0.000007  -0.001194
     6  C   -0.019495  -0.000454  -0.000001   0.000000  -0.000000   0.000043
     7  C    0.434113  -0.081564   0.000887   0.000008  -0.000001  -0.000032
     8  C   -0.081564   0.434113  -0.020804  -0.000431   0.000029  -0.000206
     9  C    0.014786  -0.075207  -0.072360   0.014698  -0.001257   0.018015
    10  C   -0.000454  -0.019495   0.431192  -0.077426   0.014468  -0.002084
    11  C    0.000010   0.000779  -0.082425   0.433476  -0.081374   0.014753
    12  C   -0.000001  -0.000052   0.014675  -0.079782   0.430491  -0.082107
    13  C    0.000043  -0.000253  -0.002016   0.014516  -0.073118   0.418858
    14  C   -0.001554   0.015522   0.016978  -0.001231   0.015346  -0.046838
    15  H   -0.000012  -0.000000  -0.000000  -0.000000  -0.000000  -0.000000
    16  H   -0.000001   0.000000   0.000000  -0.000000  -0.000000   0.000037
    17  H    0.000009   0.000000   0.000001  -0.000000   0.000037  -0.000035
    18  H    0.007688  -0.000019  -0.000000  -0.000000   0.000000   0.000001
    19  H    0.675530  -0.012792  -0.000019  -0.000000   0.000000   0.000000
    20  H   -0.012792   0.675530   0.007688  -0.000012  -0.000001   0.000009
    21  H   -0.000019   0.007688   0.675317  -0.011991  -0.000303   0.000030
    22  H   -0.000000  -0.000012  -0.011991   0.664118  -0.011324  -0.000304
    23  H    0.000000  -0.000001  -0.000303  -0.011324   0.666958  -0.012988
    24  H    0.000000   0.000009   0.000030  -0.000304  -0.012988   0.676310
 Mulliken charges:
               1
     1  C   -0.039072
     2  C   -0.037001
     3  C   -0.159655
     4  C    0.119852
     5  C    0.123753
     6  C   -0.133670
     7  C   -0.115587
     8  C   -0.115586
     9  C    0.123752
    10  C   -0.133669
    11  C   -0.039072
    12  C   -0.037001
    13  C   -0.159655
    14  C    0.119852
    15  H    0.055643
    16  H    0.053401
    17  H    0.045993
    18  H    0.043418
    19  H    0.042924
    20  H    0.042924
    21  H    0.043418
    22  H    0.055643
    23  H    0.053401
    24  H    0.045993
 Sum of Mulliken charges =  -0.00000
 Mulliken charges with hydrogens summed into heavy atoms:
               1
     1  C    0.016571
     2  C    0.016400
     3  C   -0.113662
     4  C    0.119852
     5  C    0.123753
     6  C   -0.090251
     7  C   -0.072663
     8  C   -0.072663
     9  C    0.123752
    10  C   -0.090251
    11  C    0.016571
    12  C    0.016400
    13  C   -0.113662
    14  C    0.119852
 Electronic spatial extent (au):  <R**2>=           2632.9494
 Charge=              0.0000 electrons
 Dipole moment (field-independent basis, Debye):
    X=             -0.0000    Y=             -0.0568    Z=             -0.0000  Tot=              0.0568
 Quadrupole moment (field-independent basis, Debye-Ang):
   XX=            -71.5863   YY=            -71.9166   ZZ=            -87.2445
   XY=              0.0000   XZ=             -0.0002   YZ=             -0.0000
 Traceless Quadrupole moment (field-independent basis, Debye-Ang):
   XX=              5.3295   YY=              4.9992   ZZ=            -10.3287
   XY=              0.0000   XZ=             -0.0002   YZ=             -0.0000
 Octapole moment (field-independent basis, Debye-Ang**2):
  XXX=              0.0000  YYY=             -1.0539  ZZZ=              0.0000  XYY=             -0.0000
  XXY=             -0.7418  XXZ=             -0.0011  XZZ=              0.0000  YZZ=              0.0247
  YYZ=              0.0003  XYZ=             -0.0091
 Hexadecapole moment (field-independent basis, Debye-Ang**3):
 XXXX=          -2392.1414 YYYY=           -907.4056 ZZZZ=            -96.3866 XXXY=              0.0000
 XXXZ=             -0.0087 YYYX=              0.0000 YYYZ=              0.0001 ZZZX=              0.0001
 ZZZY=             -0.0000 XXYY=           -548.2265 XXZZ=           -499.0876 YYZZ=           -196.2734
 XXYZ=             -0.0003 YYXZ=              0.0068 ZZXY=              0.0000
 N-N= 7.732490513694D+02 E-N=-2.793452005530D+03  KE= 5.332653205267D+02
 Unable to Open any file for archive entry.
 1\1\GINC-NODE02\FOpt\RB3LYP\def2SVPP\C14H10\XUHJ\12-Mar-2024\0\\#N opt
  freq B3LYP/def2SVPP symm=veryloose em=gd3bj scale=0.961 press=0.987\\
 c1ccc2c(c1)ccc1ccccc12_1\\0,1\C,3.5634339494,-0.3119652491,0.004329670
 1\C,2.8813886779,-1.5453334041,0.0014274946\C,1.4962502536,-1.57922841
 09,0.0024349036\C,0.7273038959,-0.3902016817,0.0063760109\C,1.42408803
 79,0.8566962983,0.0094812879\C,2.840175376,0.867176337,0.0083178033\C,
 0.6816212225,2.0860934346,0.0138976395\C,-0.6808924236,2.0870857191,0.
 0152270162\C,-1.425156688,0.8587714505,0.0120171875\C,-2.8412275827,0.
 8713154094,0.0131975402\C,-3.56620966,-0.3067692359,0.0098857849\C,-2.
 8859690739,-1.5411280656,0.0052047914\C,-1.5008818151,-1.5770424628,0.
 0040209172\C,-0.7301968821,-0.3891391053,0.0074299965\H,4.6571416579,-
 0.2892855185,0.0034652173\H,3.4466627977,-2.4819921752,-0.0015941046\H
 ,0.9969689189,-2.5496719806,0.0002175956\H,3.356228211,1.8323471452,0.
 0106805338\H,1.2383542764,3.0281750983,0.0162504356\H,-1.2362469545,3.
 0299766485,0.0187326404\H,-3.3558682621,1.837236344,0.0167808553\H,-4.
 6598834608,-0.2824958057,0.0108430611\H,-3.4526128851,-2.4769597509,0.
 0024403508\H,-1.0030215872,-2.5482110384,0.0002653711\\Version=ES64L-G
 16RevC.01\State=1-A\HF=-539.1875237\RMSD=6.292e-09\RMSF=6.637e-06\Dipo
 le=-0.0000165,-0.0223623,-0.0000728\Quadrupole=3.9623282,3.7166573,-7.
 6789856,-0.0001495,-0.008971,0.0352214\PG=C01 [X(C14H10)]\\@
 The archive entry for this job was punched.


 ...THE PHYSICISTS HAVE MADE THEIR UNIVERSE, AND IF YOU DO NOT LIKE
 IT, YOU MUST MAKE YOUR OWN.
                               -- E. R. HARRISON IN "COSMOLOGY" (1980)
 Job cpu time:       0 days  0 hours 54 minutes 19.8 seconds.
 Elapsed time:       0 days  0 hours  6 minutes 59.3 seconds.
 File lengths (MBytes):  RWF=     45 Int=      0 D2E=      0 Chk=      6 Scr=      2
 Normal termination of Gaussian 16 at Tue Mar 12 17:30:29 2024.
 Link1:  Proceeding to internal job step number  2.
 --------------------------------------------------------------------
 #N Geom=AllCheck Guess=TCheck SCRF=Check GenChk RB3LYP/def2SVPP Freq
 --------------------------------------------------------------------
 1/10=4,29=7,30=1,38=1,40=1,113=-987000,114=961000/1,3;
 2/12=2,17=2,18=2,40=1/2;
 3/5=43,7=202,11=2,14=-4,25=1,30=1,70=2,71=2,74=-5,116=1,124=41,140=1/1,2,3;
 4/5=101/1;
 5/5=2,38=6,98=1/2;
 8/6=4,10=90,11=11/1;
 11/6=1,8=1,9=11,15=111,16=1/1,2,10;
 10/6=1/2;
 6/7=2,8=2,9=2,10=2,28=1/1;
 7/8=1,10=1,25=1/1,2,3,16;
 1/10=4,30=1/3;
 99//99;
 Structure from the checkpoint file:  "/home/software/g16/scr/Gau-271652.chk"
 ------------------------
 c1ccc2c(c1)ccc1ccccc12_1
 ------------------------
 Charge =  0 Multiplicity = 1
 Redundant internal coordinates found in file.  (old form).
 C,0,3.5634339494,-0.3119652491,0.0043296701
 C,0,2.8813886779,-1.5453334041,0.0014274946
 C,0,1.4962502536,-1.5792284109,0.0024349036
 C,0,0.7273038959,-0.3902016817,0.0063760109
 C,0,1.4240880379,0.8566962983,0.0094812879
 C,0,2.840175376,0.867176337,0.0083178033
 C,0,0.6816212225,2.0860934346,0.0138976395
 C,0,-0.6808924236,2.0870857191,0.0152270162
 C,0,-1.425156688,0.8587714505,0.0120171875
 C,0,-2.8412275827,0.8713154094,0.0131975402
 C,0,-3.56620966,-0.3067692359,0.0098857849
 C,0,-2.8859690739,-1.5411280656,0.0052047914
 C,0,-1.5008818151,-1.5770424628,0.0040209172
 C,0,-0.7301968821,-0.3891391053,0.0074299965
 H,0,4.6571416579,-0.2892855185,0.0034652173
 H,0,3.4466627977,-2.4819921752,-0.0015941046
 H,0,0.9969689189,-2.5496719806,0.0002175956
 H,0,3.356228211,1.8323471452,0.0106805338
 H,0,1.2383542764,3.0281750983,0.0162504356
 H,0,-1.2362469545,3.0299766485,0.0187326404
 H,0,-3.3558682621,1.837236344,0.0167808553
 H,0,-4.6598834608,-0.2824958057,0.0108430611
 H,0,-3.4526128851,-2.4769597509,0.0024403508
 H,0,-1.0030215872,-2.5482110384,0.0002653711
 Recover connectivity data from disk.

 GradGradGradGradGradGradGradGradGradGradGradGradGradGradGradGradGradGrad
 Berny optimization.
 Initialization pass.
                           ----------------------------
                           !    Initial Parameters    !
                           ! (Angstroms and Degrees)  !
 --------------------------                            --------------------------
 ! Name  Definition              Value          Derivative Info.                !
 --------------------------------------------------------------------------------
 ! R1    R(1,2)                  1.4094         calculate D2E/DX2 analytically  !
 ! R2    R(1,6)                  1.3833         calculate D2E/DX2 analytically  !
 ! R3    R(1,15)                 1.0939         calculate D2E/DX2 analytically  !
 ! R4    R(2,3)                  1.3856         calculate D2E/DX2 analytically  !
 ! R5    R(2,16)                 1.094          calculate D2E/DX2 analytically  !
 ! R6    R(3,4)                  1.416          calculate D2E/DX2 analytically  !
 ! R7    R(3,17)                 1.0914         calculate D2E/DX2 analytically  !
 ! R8    R(4,5)                  1.4284         calculate D2E/DX2 analytically  !
 ! R9    R(4,14)                 1.4575         calculate D2E/DX2 analytically  !
 ! R10   R(5,6)                  1.4161         calculate D2E/DX2 analytically  !
 ! R11   R(5,7)                  1.4362         calculate D2E/DX2 analytically  !
 ! R12   R(6,18)                 1.0945         calculate D2E/DX2 analytically  !
 ! R13   R(7,8)                  1.3625         calculate D2E/DX2 analytically  !
 ! R14   R(7,19)                 1.0943         calculate D2E/DX2 analytically  !
 ! R15   R(8,9)                  1.4362         calculate D2E/DX2 analytically  !
 ! R16   R(8,20)                 1.0943         calculate D2E/DX2 analytically  !
 ! R17   R(9,10)                 1.4161         calculate D2E/DX2 analytically  !
 ! R18   R(9,14)                 1.4284         calculate D2E/DX2 analytically  !
 ! R19   R(10,11)                1.3833         calculate D2E/DX2 analytically  !
 ! R20   R(10,21)                1.0945         calculate D2E/DX2 analytically  !
 ! R21   R(11,12)                1.4094         calculate D2E/DX2 analytically  !
 ! R22   R(11,22)                1.0939         calculate D2E/DX2 analytically  !
 ! R23   R(12,13)                1.3856         calculate D2E/DX2 analytically  !
 ! R24   R(12,23)                1.094          calculate D2E/DX2 analytically  !
 ! R25   R(13,14)                1.416          calculate D2E/DX2 analytically  !
 ! R26   R(13,24)                1.0914         calculate D2E/DX2 analytically  !
 ! A1    A(2,1,6)              119.5338         calculate D2E/DX2 analytically  !
 ! A2    A(2,1,15)             120.1301         calculate D2E/DX2 analytically  !
 ! A3    A(6,1,15)             120.3361         calculate D2E/DX2 analytically  !
 ! A4    A(1,2,3)              120.3439         calculate D2E/DX2 analytically  !
 ! A5    A(1,2,16)             119.9468         calculate D2E/DX2 analytically  !
 ! A6    A(3,2,16)             119.7092         calculate D2E/DX2 analytically  !
 ! A7    A(2,3,4)              121.4891         calculate D2E/DX2 analytically  !
 ! A8    A(2,3,17)             118.6269         calculate D2E/DX2 analytically  !
 ! A9    A(4,3,17)             119.8841         calculate D2E/DX2 analytically  !
 ! A10   A(3,4,5)              117.9123         calculate D2E/DX2 analytically  !
 ! A11   A(3,4,14)             122.9326         calculate D2E/DX2 analytically  !
 ! A12   A(5,4,14)             119.1551         calculate D2E/DX2 analytically  !
 ! A13   A(4,5,6)              119.6209         calculate D2E/DX2 analytically  !
 ! A14   A(4,5,7)              119.6742         calculate D2E/DX2 analytically  !
 ! A15   A(6,5,7)              120.7049         calculate D2E/DX2 analytically  !
 ! A16   A(1,6,5)              121.1            calculate D2E/DX2 analytically  !
 ! A17   A(1,6,18)             120.3439         calculate D2E/DX2 analytically  !
 ! A18   A(5,6,18)             118.5561         calculate D2E/DX2 analytically  !
 ! A19   A(5,7,8)              121.1707         calculate D2E/DX2 analytically  !
 ! A20   A(5,7,19)             118.2899         calculate D2E/DX2 analytically  !
 ! A21   A(8,7,19)             120.5394         calculate D2E/DX2 analytically  !
 ! A22   A(7,8,9)              121.1707         calculate D2E/DX2 analytically  !
 ! A23   A(7,8,20)             120.5395         calculate D2E/DX2 analytically  !
 ! A24   A(9,8,20)             118.2899         calculate D2E/DX2 analytically  !
 ! A25   A(8,9,10)             120.7049         calculate D2E/DX2 analytically  !
 ! A26   A(8,9,14)             119.6742         calculate D2E/DX2 analytically  !
 ! A27   A(10,9,14)            119.6209         calculate D2E/DX2 analytically  !
 ! A28   A(9,10,11)            121.1            calculate D2E/DX2 analytically  !
 ! A29   A(9,10,21)            118.5561         calculate D2E/DX2 analytically  !
 ! A30   A(11,10,21)           120.3439         calculate D2E/DX2 analytically  !
 ! A31   A(10,11,12)           119.5339         calculate D2E/DX2 analytically  !
 ! A32   A(10,11,22)           120.3361         calculate D2E/DX2 analytically  !
 ! A33   A(12,11,22)           120.1301         calculate D2E/DX2 analytically  !
 ! A34   A(11,12,13)           120.3439         calculate D2E/DX2 analytically  !
 ! A35   A(11,12,23)           119.9468         calculate D2E/DX2 analytically  !
 ! A36   A(13,12,23)           119.7092         calculate D2E/DX2 analytically  !
 ! A37   A(12,13,14)           121.489          calculate D2E/DX2 analytically  !
 ! A38   A(12,13,24)           118.6268         calculate D2E/DX2 analytically  !
 ! A39   A(14,13,24)           119.8841         calculate D2E/DX2 analytically  !
 ! A40   A(4,14,9)             119.1551         calculate D2E/DX2 analytically  !
 ! A41   A(4,14,13)            122.9326         calculate D2E/DX2 analytically  !
 ! A42   A(9,14,13)            117.9123         calculate D2E/DX2 analytically  !
 ! D1    D(6,1,2,3)              0.0057         calculate D2E/DX2 analytically  !
 ! D2    D(6,1,2,16)          -179.9916         calculate D2E/DX2 analytically  !
 ! D3    D(15,1,2,3)          -179.9965         calculate D2E/DX2 analytically  !
 ! D4    D(15,1,2,16)            0.0062         calculate D2E/DX2 analytically  !
 ! D5    D(2,1,6,5)             -0.0027         calculate D2E/DX2 analytically  !
 ! D6    D(2,1,6,18)           179.9954         calculate D2E/DX2 analytically  !
 ! D7    D(15,1,6,5)           179.9995         calculate D2E/DX2 analytically  !
 ! D8    D(15,1,6,18)           -0.0024         calculate D2E/DX2 analytically  !
 ! D9    D(1,2,3,4)             -0.0004         calculate D2E/DX2 analytically  !
 ! D10   D(1,2,3,17)          -179.9943         calculate D2E/DX2 analytically  !
 ! D11   D(16,2,3,4)           179.9969         calculate D2E/DX2 analytically  !
 ! D12   D(16,2,3,17)            0.0031         calculate D2E/DX2 analytically  !
 ! D13   D(2,3,4,5)             -0.0077         calculate D2E/DX2 analytically  !
 ! D14   D(2,3,4,14)           179.9949         calculate D2E/DX2 analytically  !
 ! D15   D(17,3,4,5)           179.9861         calculate D2E/DX2 analytically  !
 ! D16   D(17,3,4,14)           -0.0113         calculate D2E/DX2 analytically  !
 ! D17   D(3,4,5,6)              0.0105         calculate D2E/DX2 analytically  !
 ! D18   D(3,4,5,7)           -179.9827         calculate D2E/DX2 analytically  !
 ! D19   D(14,4,5,6)          -179.992          calculate D2E/DX2 analytically  !
 ! D20   D(14,4,5,7)             0.0149         calculate D2E/DX2 analytically  !
 ! D21   D(3,4,14,9)           179.9756         calculate D2E/DX2 analytically  !
 ! D22   D(3,4,14,13)           -0.028          calculate D2E/DX2 analytically  !
 ! D23   D(5,4,14,9)            -0.0218         calculate D2E/DX2 analytically  !
 ! D24   D(5,4,14,13)          179.9746         calculate D2E/DX2 analytically  !
 ! D25   D(4,5,6,1)             -0.0055         calculate D2E/DX2 analytically  !
 ! D26   D(4,5,6,18)           179.9964         calculate D2E/DX2 analytically  !
 ! D27   D(7,5,6,1)            179.9876         calculate D2E/DX2 analytically  !
 ! D28   D(7,5,6,18)            -0.0105         calculate D2E/DX2 analytically  !
 ! D29   D(4,5,7,8)              0.0017         calculate D2E/DX2 analytically  !
 ! D30   D(4,5,7,19)           179.9979         calculate D2E/DX2 analytically  !
 ! D31   D(6,5,7,8)           -179.9914         calculate D2E/DX2 analytically  !
 ! D32   D(6,5,7,19)             0.0048         calculate D2E/DX2 analytically  !
 ! D33   D(5,7,8,9)             -0.0114         calculate D2E/DX2 analytically  !
 ! D34   D(5,7,8,20)           179.992          calculate D2E/DX2 analytically  !
 ! D35   D(19,7,8,9)           179.9925         calculate D2E/DX2 analytically  !
 ! D36   D(19,7,8,20)           -0.0041         calculate D2E/DX2 analytically  !
 ! D37   D(7,8,9,10)          -179.9888         calculate D2E/DX2 analytically  !
 ! D38   D(7,8,9,14)             0.004          calculate D2E/DX2 analytically  !
 ! D39   D(20,8,9,10)            0.0079         calculate D2E/DX2 analytically  !
 ! D40   D(20,8,9,14)         -179.9993         calculate D2E/DX2 analytically  !
 ! D41   D(8,9,10,11)          179.9883         calculate D2E/DX2 analytically  !
 ! D42   D(8,9,10,21)           -0.0103         calculate D2E/DX2 analytically  !
 ! D43   D(14,9,10,11)          -0.0045         calculate D2E/DX2 analytically  !
 ! D44   D(14,9,10,21)         179.9969         calculate D2E/DX2 analytically  !
 ! D45   D(8,9,14,4)             0.0127         calculate D2E/DX2 analytically  !
 ! D46   D(8,9,14,13)         -179.9839         calculate D2E/DX2 analytically  !
 ! D47   D(10,9,14,4)         -179.9945         calculate D2E/DX2 analytically  !
 ! D48   D(10,9,14,13)           0.0089         calculate D2E/DX2 analytically  !
 ! D49   D(9,10,11,12)          -0.0025         calculate D2E/DX2 analytically  !
 ! D50   D(9,10,11,22)        -179.9998         calculate D2E/DX2 analytically  !
 ! D51   D(21,10,11,12)        179.9961         calculate D2E/DX2 analytically  !
 ! D52   D(21,10,11,22)         -0.0013         calculate D2E/DX2 analytically  !
 ! D53   D(10,11,12,13)          0.0048         calculate D2E/DX2 analytically  !
 ! D54   D(10,11,12,23)       -179.9924         calculate D2E/DX2 analytically  !
 ! D55   D(22,11,12,13)       -179.9978         calculate D2E/DX2 analytically  !
 ! D56   D(22,11,12,23)          0.005          calculate D2E/DX2 analytically  !
 ! D57   D(11,12,13,14)         -0.0001         calculate D2E/DX2 analytically  !
 ! D58   D(11,12,13,24)       -179.9939         calculate D2E/DX2 analytically  !
 ! D59   D(23,12,13,14)        179.9971         calculate D2E/DX2 analytically  !
 ! D60   D(23,12,13,24)          0.0033         calculate D2E/DX2 analytically  !
 ! D61   D(12,13,14,4)         179.9968         calculate D2E/DX2 analytically  !
 ! D62   D(12,13,14,9)          -0.0068         calculate D2E/DX2 analytically  !
 ! D63   D(24,13,14,4)          -0.0094         calculate D2E/DX2 analytically  !
 ! D64   D(24,13,14,9)         179.987          calculate D2E/DX2 analytically  !
 --------------------------------------------------------------------------------
 Trust Radius=3.00D-01 FncErr=1.00D-07 GrdErr=1.00D-07 EigMax=2.50D+02 EigMin=1.00D-04
 Number of steps in this run=      2 maximum allowed number of steps=      2.
 GradGradGradGradGradGradGradGradGradGradGradGradGradGradGradGradGradGrad

                          Input orientation:                          
 ---------------------------------------------------------------------
 Center     Atomic      Atomic             Coordinates (Angstroms)
 Number     Number       Type             X           Y           Z
 ---------------------------------------------------------------------
      1          6           0        3.563434   -0.311965    0.004330
      2          6           0        2.881389   -1.545333    0.001427
      3          6           0        1.496250   -1.579228    0.002435
      4          6           0        0.727304   -0.390202    0.006376
      5          6           0        1.424088    0.856696    0.009481
      6          6           0        2.840175    0.867176    0.008318
      7          6           0        0.681621    2.086093    0.013898
      8          6           0       -0.680892    2.087086    0.015227
      9          6           0       -1.425157    0.858771    0.012017
     10          6           0       -2.841228    0.871315    0.013198
     11          6           0       -3.566210   -0.306769    0.009886
     12          6           0       -2.885969   -1.541128    0.005205
     13          6           0       -1.500882   -1.577042    0.004021
     14          6           0       -0.730197   -0.389139    0.007430
     15          1           0        4.657142   -0.289286    0.003465
     16          1           0        3.446663   -2.481992   -0.001594
     17          1           0        0.996969   -2.549672    0.000218
     18          1           0        3.356228    1.832347    0.010681
     19          1           0        1.238354    3.028175    0.016250
     20          1           0       -1.236247    3.029977    0.018733
     21          1           0       -3.355868    1.837236    0.016781
     22          1           0       -4.659883   -0.282496    0.010843
     23          1           0       -3.452613   -2.476960    0.002440
     24          1           0       -1.003022   -2.548211    0.000265
 ---------------------------------------------------------------------
                    Distance matrix (angstroms):
                    1          2          3          4          5
     1  C    0.000000
     2  C    1.409394   0.000000
     3  C    2.424708   1.385553   0.000000
     4  C    2.837210   2.444266   1.416008   0.000000
     5  C    2.437744   2.809544   2.437004   1.428381   0.000000
     6  C    1.383291   2.412872   2.791248   2.458705   1.416127
     7  C    3.749083   4.245750   3.754775   2.476728   1.436208
     8  C    4.875435   5.087682   4.264033   2.849570   2.438203
     9  C    5.124131   4.932156   3.805069   2.488584   2.849247
    10  C    6.513058   6.211978   4.981867   3.784956   4.265342
    11  C    7.129648   6.565488   5.219934   4.294326   5.124131
    12  C    6.565489   5.767361   4.382386   3.792146   4.932157
    13  C    5.219934   4.382386   2.997133   2.524561   3.805071
    14  C    4.294325   3.792146   2.524560   1.457502   2.488585
    15  H    1.093943   2.175077   3.413970   3.931134   3.430153
    16  H    2.173175   1.094017   2.149211   3.430826   3.903559
    17  H    3.405010   2.135354   1.091351   2.176251   3.433054
    18  H    2.154310   3.410907   3.885670   3.442526   2.164500
    19  H    4.069727   4.859708   4.614636   3.456381   2.179418
    20  H    5.848566   6.155379   5.358319   3.943768   3.435202
    21  H    7.245410   7.095448   5.934264   4.651224   4.879497
    22  H    8.223373   7.646282   6.291229   5.388266   6.189707
    23  H    7.342487   6.402148   5.029629   4.671860   5.907243
    24  H    5.084617   4.011784   2.680539   2.766056   4.181428
                    6          7          8          9         10
     6  C    0.000000
     7  C    2.478941   0.000000
     8  C    3.726412   1.362515   0.000000
     9  C    4.265342   2.438203   1.436209   0.000000
    10  C    5.681407   3.726412   2.478941   1.416127   0.000000
    11  C    6.513058   4.875436   3.749083   2.437744   1.383291
    12  C    6.211978   5.087682   4.245751   2.809544   2.412872
    13  C    4.981867   4.264033   3.754776   2.437004   2.791248
    14  C    3.784955   2.849570   2.476728   1.428381   2.458705
    15  H    2.153786   4.631123   5.843106   6.189706   7.587663
    16  H    3.403653   5.339766   6.157391   5.907242   7.126181
    17  H    3.882310   4.646499   4.931021   4.181425   5.141505
    18  H    1.094473   2.686619   4.045152   4.879497   6.271527
    19  H    2.689946   1.094292   2.137559   3.435203   4.614655
    20  H    4.614654   2.137559   1.094292   2.179418   2.689946
    21  H    6.271527   4.045153   2.686619   2.164501   1.094473
    22  H    7.587663   5.843107   4.631124   3.430153   2.153786
    23  H    7.126182   6.157392   5.339767   3.903559   3.403653
    24  H    5.141507   4.931023   4.646501   3.433055   3.882310
                   11         12         13         14         15
    11  C    0.000000
    12  C    1.409394   0.000000
    13  C    2.424708   1.385553   0.000000
    14  C    2.837210   2.444266   1.416009   0.000000
    15  H    8.223372   7.646282   6.291230   5.388265   0.000000
    16  H    7.342486   6.402148   5.029629   4.671860   2.504645
    17  H    5.084615   4.011782   2.680537   2.766054   4.301886
    18  H    7.245410   7.095449   5.934265   4.651224   2.488725
    19  H    5.848566   6.155379   5.358320   3.943768   4.763803
    20  H    4.069727   4.859708   4.614637   3.456381   6.763857
    21  H    2.154310   3.410907   3.885671   3.442526   8.290392
    22  H    1.093944   2.175077   3.413970   3.931135   9.317031
    23  H    2.173174   1.094017   2.149211   3.430826   8.399645
    24  H    3.405009   2.135353   1.091351   2.176253   6.094276
                   16         17         18         19         20
    16  H    0.000000
    17  H    2.450629   0.000000
    18  H    4.315304   4.976777   0.000000
    19  H    5.936235   5.583091   2.432165   0.000000
    20  H    7.232694   6.009998   4.746073   2.474603   0.000000
    21  H    8.057946   6.180002   6.712101   4.746074   2.432165
    22  H    8.399645   6.094274   8.290392   6.763858   4.763803
    23  H    6.899279   4.450176   8.057947   7.232695   5.936235
    24  H    4.450177   1.999991   6.180005   6.010000   5.583092
                   21         22         23         24
    21  H    0.000000
    22  H    2.488726   0.000000
    23  H    4.315305   2.504645   0.000000
    24  H    4.976777   4.301885   2.450628   0.000000
 Stoichiometry    C14H10
 Framework group  C2V[SGV(C14H10)]
 Deg. of freedom    23
 Full point group                 C2V     NOp   4
 Largest Abelian subgroup         C2V     NOp   4
 Largest concise Abelian subgroup C2      NOp   2
                         Standard orientation:                         
 ---------------------------------------------------------------------
 Center     Atomic      Atomic             Coordinates (Angstroms)
 Number     Number       Type             X           Y           Z
 ---------------------------------------------------------------------
      1          6           0       -0.000000    3.564824   -0.298913
      2          6           0       -0.000000    2.883680   -1.532782
      3          6           0        0.000000    1.498566   -1.567687
      4          6           0       -0.000000    0.728751   -0.379216
      5          6           0       -0.000000    1.424624    0.868195
      6          6           0       -0.000000    2.840703    0.879706
      7          6           0       -0.000000    0.681258    2.097056
      8          6           0       -0.000000   -0.681258    2.097056
      9          6           0       -0.000000   -1.424624    0.868195
     10          6           0       -0.000000   -2.840703    0.879706
     11          6           0       -0.000000   -3.564824   -0.298913
     12          6           0       -0.000000   -2.883680   -1.532782
     13          6           0       -0.000000   -1.498566   -1.567687
     14          6           0       -0.000000   -0.728751   -0.379216
     15          1           0       -0.000000    4.658515   -0.275436
     16          1           0       -0.000000    3.449639   -2.469033
     17          1           0        0.000000    0.999994   -2.538497
     18          1           0       -0.000000    3.356051    1.845257
     19          1           0       -0.000000    1.237302    3.039548
     20          1           0       -0.000000   -1.237302    3.039548
     21          1           0       -0.000000   -3.356051    1.845257
     22          1           0       -0.000000   -4.658515   -0.275436
     23          1           0       -0.000000   -3.449639   -2.469033
     24          1           0       -0.000000   -0.999994   -2.538497
 ---------------------------------------------------------------------
 Rotational constants (GHZ):           1.6090590           0.5491698           0.4094314
 Standard basis: def2SVPP (5D, 7F)
 There are    87 symmetry adapted cartesian basis functions of A1  symmetry.
 There are    28 symmetry adapted cartesian basis functions of A2  symmetry.
 There are    28 symmetry adapted cartesian basis functions of B1  symmetry.
 There are    87 symmetry adapted cartesian basis functions of B2  symmetry.
 There are    80 symmetry adapted basis functions of A1  symmetry.
 There are    28 symmetry adapted basis functions of A2  symmetry.
 There are    28 symmetry adapted basis functions of B1  symmetry.
 There are    80 symmetry adapted basis functions of B2  symmetry.
   216 basis functions,   390 primitive gaussians,   230 cartesian basis functions
    47 alpha electrons       47 beta electrons
       nuclear repulsion energy       773.3040151393 Hartrees.
 NAtoms=   24 NActive=   24 NUniq=   12 SFac= 4.00D+00 NAtFMM=   60 NAOKFM=F Big=F
 Integral buffers will be    131072 words long.
 Raffenetti 2 integral format.
 Two-electron integral symmetry is turned on.
 Nuclear repulsion after empirical dispersion term =      773.2490686389 Hartrees.
 One-electron integrals computed using PRISM.
   4 Symmetry operations used in ECPInt.
 ECPInt:  NShTT=    5460 NPrTT=   21948 LenC2=    5319 LenP2D=   15674.
 LDataN:  DoStor=T MaxTD1= 4 Len=   56
 NBasis=   216 RedAO= T EigKep=  2.51D-04  NBF=    80    28    28    80
 NBsUse=   216 1.00D-06 EigRej= -1.00D+00 NBFU=    80    28    28    80
 Initial guess from the checkpoint file:  "/home/software/g16/scr/Gau-271652.chk"
 B after Tr=    -0.000000   -0.000000   -0.000000
         Rot=    0.500000   -0.500000   -0.500000   -0.500000 Ang=-120.00 deg.
 Initial guess orbital symmetries:
       Occupied  (A1) (B2) (B2) (A1) (B2) (A1) (A1) (B2) (A1) (B2)
                 (A1) (B2) (B2) (A1) (A1) (B2) (A1) (A1) (B2) (B2)
                 (A1) (A1) (B2) (A1) (B2) (B2) (A1) (A1) (B2) (A1)
                 (B2) (A1) (A1) (B2) (A1) (B1) (B2) (B2) (A1) (A2)
                 (A1) (B2) (B1) (B1) (A2) (A2) (B1)
       Virtual   (A2) (B1) (B1) (A2) (A1) (A1) (B2) (A2) (B2) (A1)
                 (A1) (B2) (B1) (A1) (B2) (B2) (A2) (A1) (B2) (A1)
                 (A1) (B2) (B2) (A1) (A1) (B2) (A1) (B2) (A1) (B2)
                 (B2) (A1) (B2) (A1) (A1) (A1) (B2) (B1) (B2) (A2)
                 (A1) (A1) (B2) (B1) (A1) (B2) (B1) (A2) (B2) (A1)
                 (B2) (A2) (B1) (B1) (B1) (A2) (A1) (A1) (B2) (A2)
                 (B2) (A1) (B2) (A2) (A1) (B2) (A1) (B2) (B1) (A1)
                 (B2) (A1) (B2) (A1) (B2) (A1) (A2) (B2) (B2) (A1)
                 (A1) (B2) (B2) (B2) (A1) (A1) (A1) (B2) (B2) (B2)
                 (B1) (A1) (B1) (A2) (A1) (B2) (B2) (B1) (A1) (B2)
                 (A2) (B1) (A2) (B1) (B1) (A2) (A2) (B2) (B1) (B2)
                 (A1) (A1) (A1) (A1) (B2) (A2) (B2) (A1) (A1) (B1)
                 (B2) (A1) (B2) (A1) (B2) (A1) (A2) (A1) (B2) (A1)
                 (B1) (B2) (B2) (A1) (A2) (B2) (B1) (A1) (A2) (B1)
                 (B2) (A2) (B1) (B1) (A2) (A2) (A1) (A1) (B2) (B2)
                 (A1) (A1) (B2) (B1) (A2) (B2) (A1) (B2) (A2) (A1)
                 (A1) (B2) (B2) (B2) (A1) (B2) (A1) (B2) (B2)
 Requested convergence on RMS density matrix=1.00D-08 within 128 cycles.
 Requested convergence on MAX density matrix=1.00D-06.
 Requested convergence on             energy=1.00D-06.
 No special actions if energy rises.
 SCF Done:  E(RB3LYP) =  -539.187523736     A.U. after    2 cycles
            NFock=  2  Conv=0.80D-08     -V/T= 2.0111
 DoSCS=F DFT=T ScalE2(SS,OS)=  1.000000  1.000000
 Range of M.O.s used for correlation:     1   216
 NBasis=   216 NAE=    47 NBE=    47 NFC=     0 NFV=     0
 NROrb=    216 NOA=    47 NOB=    47 NVA=   169 NVB=   169

 **** Warning!!: The largest alpha MO coefficient is  0.17968693D+02

   4 Symmetry operations used in ECPInt.
 ECPInt:  NShTT=    5460 NPrTT=   21948 LenC2=    5319 LenP2D=   15674.
 LDataN:  DoStor=T MaxTD1= 5 Len=  102
 Symmetrizing basis deriv contribution to polar:
 IMax=3 JMax=2 DiffMx= 0.00D+00
 G2DrvN: will do    25 centers at a time, making    1 passes.
 Calling FoFCou, ICntrl=  3107 FMM=F I1Cent=   0 AccDes= 0.00D+00.
 End of G2Drv F.D. properties file   721 does not exist.
 End of G2Drv F.D. properties file   722 does not exist.
 End of G2Drv F.D. properties file   788 does not exist.
          IDoAtm=111111111111111111111111
          Differentiating once with respect to electric field.
                with respect to dipole field.
          Differentiating once with respect to nuclear coordinates.
 Keep R1 ints in memory in symmetry-blocked form, NReq=347173514.
          There are    39 degrees of freedom in the 1st order CPHF.  IDoFFX=4 NUNeed=    39.
     39 vectors produced by pass  0 Test12= 2.04D-14 2.56D-09 XBig12= 4.20D+02 1.38D+01.
 AX will form    39 AO Fock derivatives at one time.
     39 vectors produced by pass  1 Test12= 2.04D-14 2.56D-09 XBig12= 7.58D+01 1.61D+00.
     39 vectors produced by pass  2 Test12= 2.04D-14 2.56D-09 XBig12= 4.62D+00 2.38D-01.
     39 vectors produced by pass  3 Test12= 2.04D-14 2.56D-09 XBig12= 6.68D-02 2.53D-02.
     39 vectors produced by pass  4 Test12= 2.04D-14 2.56D-09 XBig12= 6.72D-04 3.68D-03.
     39 vectors produced by pass  5 Test12= 2.04D-14 2.56D-09 XBig12= 3.59D-06 2.03D-04.
     19 vectors produced by pass  6 Test12= 2.04D-14 2.56D-09 XBig12= 1.03D-08 1.26D-05.
      3 vectors produced by pass  7 Test12= 2.04D-14 2.56D-09 XBig12= 2.27D-11 5.89D-07.
      2 vectors produced by pass  8 Test12= 2.04D-14 2.56D-09 XBig12= 3.59D-14 2.27D-08.
 InvSVY:  IOpt=1 It=  1 EMax= 1.78D-14
 Solved reduced A of dimension   258 with    39 vectors.
 Isotropic polarizability for W=    0.000000      153.35 Bohr**3.
 End of Minotr F.D. properties file   721 does not exist.
 End of Minotr F.D. properties file   722 does not exist.
 End of Minotr F.D. properties file   788 does not exist.

 **********************************************************************

            Population analysis using the SCF Density.

 **********************************************************************

 Orbital symmetries:
       Occupied  (A1) (B2) (B2) (A1) (B2) (A1) (A1) (B2) (A1) (B2)
                 (A1) (B2) (B2) (A1) (A1) (B2) (A1) (A1) (B2) (B2)
                 (A1) (A1) (B2) (A1) (B2) (B2) (A1) (A1) (B2) (A1)
                 (B2) (A1) (A1) (B2) (A1) (B1) (B2) (B2) (A1) (A2)
                 (A1) (B2) (B1) (B1) (A2) (A2) (B1)
       Virtual   (A2) (B1) (B1) (A2) (A1) (A1) (B2) (A2) (B2) (A1)
                 (A1) (B2) (B1) (A1) (B2) (B2) (A2) (A1) (B2) (A1)
                 (A1) (B2) (B2) (A1) (A1) (B2) (A1) (B2) (A1) (B2)
                 (B2) (A1) (B2) (A1) (A1) (A1) (B2) (B1) (B2) (A2)
                 (A1) (A1) (B2) (B1) (A1) (B2) (B1) (A2) (B2) (A1)
                 (B2) (A2) (B1) (B1) (B1) (A2) (A1) (A1) (B2) (A2)
                 (B2) (A1) (B2) (A2) (A1) (B2) (A1) (B2) (B1) (A1)
                 (B2) (A1) (B2) (A1) (B2) (A1) (A2) (B2) (B2) (A1)
                 (A1) (B2) (B2) (B2) (A1) (A1) (A1) (B2) (B2) (B2)
                 (B1) (A1) (B1) (A2) (A1) (B2) (B2) (B1) (A1) (B2)
                 (A2) (B1) (A2) (B1) (B1) (A2) (A2) (B2) (B1) (B2)
                 (A1) (A1) (A1) (A1) (B2) (A2) (B2) (A1) (A1) (B1)
                 (B2) (A1) (B2) (A1) (B2) (A1) (A2) (A1) (B2) (A1)
                 (B1) (B2) (B2) (A1) (A2) (B2) (B1) (A1) (A2) (B1)
                 (B2) (A2) (B1) (B1) (A2) (A2) (A1) (A1) (B2) (B2)
                 (A1) (A1) (B2) (B1) (A2) (B2) (A1) (B2) (A2) (A1)
                 (A1) (B2) (B2) (B2) (A1) (B2) (A1) (B2) (B2)
 The electronic state is 1-A1.
 Alpha  occ. eigenvalues --  -10.20161 -10.20148 -10.19903 -10.19894 -10.19121
 Alpha  occ. eigenvalues --  -10.19117 -10.19112 -10.19090 -10.19085 -10.19063
 Alpha  occ. eigenvalues --  -10.19057 -10.19056 -10.19039 -10.19039  -0.87667
 Alpha  occ. eigenvalues --   -0.84298  -0.80293  -0.77049  -0.75028  -0.71866
 Alpha  occ. eigenvalues --   -0.71249  -0.62972  -0.62254  -0.60861  -0.58084
 Alpha  occ. eigenvalues --   -0.53157  -0.53110  -0.49839  -0.48023  -0.47710
 Alpha  occ. eigenvalues --   -0.44063  -0.43516  -0.43012  -0.42607  -0.41439
 Alpha  occ. eigenvalues --   -0.40523  -0.39628  -0.36892  -0.36562  -0.36401
 Alpha  occ. eigenvalues --   -0.33979  -0.33004  -0.32012  -0.29025  -0.26854
 Alpha  occ. eigenvalues --   -0.23084  -0.21977
 Alpha virt. eigenvalues --   -0.04696  -0.04121  -0.00292   0.02580   0.05978
 Alpha virt. eigenvalues --    0.07017   0.07041   0.07102   0.10383   0.10459
 Alpha virt. eigenvalues --    0.12462   0.12756   0.13456   0.14813   0.16499
 Alpha virt. eigenvalues --    0.20862   0.21139   0.23262   0.25294   0.25647
 Alpha virt. eigenvalues --    0.27447   0.28155   0.28573   0.29577   0.30968
 Alpha virt. eigenvalues --    0.32771   0.33130   0.34765   0.36044   0.36676
 Alpha virt. eigenvalues --    0.38411   0.38478   0.41128   0.41320   0.42390
 Alpha virt. eigenvalues --    0.43877   0.44433   0.45131   0.46062   0.47555
 Alpha virt. eigenvalues --    0.47910   0.48119   0.48125   0.49061   0.49943
 Alpha virt. eigenvalues --    0.50275   0.51824   0.52577   0.53949   0.54469
 Alpha virt. eigenvalues --    0.56629   0.57238   0.57340   0.58672   0.62433
 Alpha virt. eigenvalues --    0.63265   0.64682   0.66080   0.66428   0.67528
 Alpha virt. eigenvalues --    0.67947   0.68098   0.69205   0.69354   0.69455
 Alpha virt. eigenvalues --    0.71339   0.72318   0.72524   0.73420   0.73753
 Alpha virt. eigenvalues --    0.73780   0.76235   0.76893   0.78189   0.79552
 Alpha virt. eigenvalues --    0.80764   0.81457   0.81975   0.82990   0.85803
 Alpha virt. eigenvalues --    0.87034   0.91664   0.93803   0.97962   0.98278
 Alpha virt. eigenvalues --    1.08841   1.10825   1.12425   1.13105   1.18780
 Alpha virt. eigenvalues --    1.22288   1.22660   1.23469   1.25707   1.26859
 Alpha virt. eigenvalues --    1.30417   1.33584   1.35198   1.35484   1.37418
 Alpha virt. eigenvalues --    1.39622   1.42233   1.45453   1.46094   1.48364
 Alpha virt. eigenvalues --    1.48401   1.49063   1.49263   1.49879   1.51834
 Alpha virt. eigenvalues --    1.52484   1.67208   1.69260   1.72255   1.75022
 Alpha virt. eigenvalues --    1.76323   1.79801   1.80042   1.82252   1.83307
 Alpha virt. eigenvalues --    1.84688   1.85795   1.88531   1.90533   1.93782
 Alpha virt. eigenvalues --    1.93851   1.98503   2.02274   2.05058   2.06499
 Alpha virt. eigenvalues --    2.06673   2.08540   2.11022   2.15748   2.17756
 Alpha virt. eigenvalues --    2.18250   2.18509   2.19971   2.20889   2.22348
 Alpha virt. eigenvalues --    2.28027   2.28785   2.29335   2.32971   2.33424
 Alpha virt. eigenvalues --    2.36989   2.39253   2.46715   2.47439   2.53134
 Alpha virt. eigenvalues --    2.56343   2.59037   2.59437   2.60346   2.60534
 Alpha virt. eigenvalues --    2.63685   2.64185   2.66345   2.68141   2.73998
 Alpha virt. eigenvalues --    2.78198   2.79339   2.82955   2.90625   2.96980
 Alpha virt. eigenvalues --    3.00405   3.28912   3.35008   3.47648
          Condensed to atoms (all electrons):
               1          2          3          4          5          6
     1  C    5.219135   0.183465   0.129912  -0.148155   0.132124   0.223313
     2  C    0.183465   5.201884   0.251742   0.114826  -0.159358   0.137994
     3  C    0.129912   0.251742   5.400210   0.274301   0.008227  -0.157667
     4  C   -0.148155   0.114826   0.274301   5.494771   0.122786   0.036182
     5  C    0.132124  -0.159358   0.008227   0.122786   5.412998   0.260841
     6  C    0.223313   0.137994  -0.157667   0.036182   0.260841   5.385652
     7  C    0.018767  -0.002069   0.023233   0.010994   0.209828  -0.138580
     8  C   -0.001262   0.000191  -0.003369  -0.114260   0.128947   0.017379
     9  C   -0.000012   0.000207   0.020827  -0.010311  -0.147501  -0.000796
    10  C    0.000001  -0.000004  -0.000252   0.023334  -0.000796   0.000030
    11  C   -0.000001   0.000007  -0.000001  -0.003370  -0.000012   0.000001
    12  C    0.000007  -0.000113   0.000602   0.022846   0.000207  -0.000004
    13  C   -0.000001   0.000602  -0.026281  -0.130447   0.020827  -0.000252
    14  C   -0.003370   0.022846  -0.130447   0.229311  -0.010311   0.023334
    15  H    0.433476  -0.079782   0.014516  -0.001231   0.014698  -0.077427
    16  H   -0.081374   0.430491  -0.073118   0.015346  -0.001257   0.014468
    17  H    0.014753  -0.082107   0.418858  -0.046838   0.018015  -0.002084
    18  H   -0.082425   0.014675  -0.002016   0.016978  -0.072360   0.431192
    19  H    0.000779  -0.000052  -0.000253   0.015521  -0.075207  -0.019495
    20  H    0.000010  -0.000001   0.000043  -0.001554   0.014786  -0.000454
    21  H    0.000000  -0.000000   0.000008  -0.000227  -0.000048  -0.000001
    22  H    0.000000  -0.000000  -0.000000   0.000044   0.000000   0.000000
    23  H    0.000000  -0.000001   0.000004  -0.000374   0.000007  -0.000000
    24  H   -0.000069   0.001557   0.010576  -0.040326  -0.001194   0.000043
               7          8          9         10         11         12
     1  C    0.018767  -0.001262  -0.000012   0.000001  -0.000001   0.000007
     2  C   -0.002069   0.000191   0.000207  -0.000004   0.000007  -0.000113
     3  C    0.023233  -0.003369   0.020827  -0.000252  -0.000001   0.000602
     4  C    0.010994  -0.114260  -0.010311   0.023334  -0.003370   0.022846
     5  C    0.209828   0.128947  -0.147501  -0.000796  -0.000012   0.000207
     6  C   -0.138580   0.017379  -0.000796   0.000030   0.000001  -0.000004
     7  C    5.398317   0.235472   0.128947   0.017379  -0.001262   0.000191
     8  C    0.235472   5.398317   0.209828  -0.138580   0.018767  -0.002069
     9  C    0.128947   0.209828   5.412998   0.260841   0.132124  -0.159358
    10  C    0.017379  -0.138580   0.260841   5.385652   0.223313   0.137994
    11  C   -0.001262   0.018767   0.132124   0.223313   5.219135   0.183465
    12  C    0.000191  -0.002069  -0.159358   0.137994   0.183465   5.201884
    13  C   -0.003369   0.023233   0.008227  -0.157667   0.129912   0.251742
    14  C   -0.114260   0.010994   0.122786   0.036182  -0.148155   0.114826
    15  H   -0.000431   0.000008   0.000000   0.000000   0.000000  -0.000000
    16  H    0.000029  -0.000001   0.000007  -0.000000   0.000000  -0.000001
    17  H   -0.000206  -0.000032  -0.001194   0.000043  -0.000069   0.001557
    18  H   -0.020804   0.000887  -0.000048  -0.000001   0.000000  -0.000000
    19  H    0.434113  -0.081563   0.014786  -0.000454   0.000010  -0.000001
    20  H   -0.081563   0.434113  -0.075207  -0.019495   0.000779  -0.000052
    21  H    0.000887  -0.020804  -0.072360   0.431192  -0.082425   0.014675
    22  H    0.000008  -0.000431   0.014698  -0.077427   0.433476  -0.079782
    23  H   -0.000001   0.000029  -0.001257   0.014468  -0.081374   0.430491
    24  H   -0.000032  -0.000206   0.018015  -0.002084   0.014753  -0.082107
              13         14         15         16         17         18
     1  C   -0.000001  -0.003370   0.433476  -0.081374   0.014753  -0.082425
     2  C    0.000602   0.022846  -0.079782   0.430491  -0.082107   0.014675
     3  C   -0.026281  -0.130447   0.014516  -0.073118   0.418858  -0.002016
     4  C   -0.130447   0.229311  -0.001231   0.015346  -0.046838   0.016978
     5  C    0.020827  -0.010311   0.014698  -0.001257   0.018015  -0.072360
     6  C   -0.000252   0.023334  -0.077427   0.014468  -0.002084   0.431192
     7  C   -0.003369  -0.114260  -0.000431   0.000029  -0.000206  -0.020804
     8  C    0.023233   0.010994   0.000008  -0.000001  -0.000032   0.000887
     9  C    0.008227   0.122786   0.000000   0.000007  -0.001194  -0.000048
    10  C   -0.157667   0.036182   0.000000  -0.000000   0.000043  -0.000001
    11  C    0.129912  -0.148155   0.000000   0.000000  -0.000069   0.000000
    12  C    0.251742   0.114826  -0.000000  -0.000001   0.001557  -0.000000
    13  C    5.400210   0.274301  -0.000000   0.000004   0.010576   0.000008
    14  C    0.274301   5.494771   0.000044  -0.000374  -0.040326  -0.000227
    15  H   -0.000000   0.000044   0.664118  -0.011324  -0.000304  -0.011991
    16  H    0.000004  -0.000374  -0.011324   0.666958  -0.012988  -0.000303
    17  H    0.010576  -0.040326  -0.000304  -0.012988   0.676310   0.000030
    18  H    0.000008  -0.000227  -0.011991  -0.000303   0.000030   0.675317
    19  H    0.000043  -0.001554  -0.000012  -0.000001   0.000009   0.007688
    20  H   -0.000253   0.015521  -0.000000   0.000000   0.000000  -0.000019
    21  H   -0.002016   0.016978  -0.000000   0.000000   0.000001  -0.000000
    22  H    0.014516  -0.001231  -0.000000  -0.000000  -0.000000  -0.000000
    23  H   -0.073118   0.015346  -0.000000  -0.000000   0.000037   0.000000
    24  H    0.418858  -0.046838  -0.000000   0.000037  -0.000035   0.000001
              19         20         21         22         23         24
     1  C    0.000779   0.000010   0.000000   0.000000   0.000000  -0.000069
     2  C   -0.000052  -0.000001  -0.000000  -0.000000  -0.000001   0.001557
     3  C   -0.000253   0.000043   0.000008  -0.000000   0.000004   0.010576
     4  C    0.015521  -0.001554  -0.000227   0.000044  -0.000374  -0.040326
     5  C   -0.075207   0.014786  -0.000048   0.000000   0.000007  -0.001194
     6  C   -0.019495  -0.000454  -0.000001   0.000000  -0.000000   0.000043
     7  C    0.434113  -0.081563   0.000887   0.000008  -0.000001  -0.000032
     8  C   -0.081563   0.434113  -0.020804  -0.000431   0.000029  -0.000206
     9  C    0.014786  -0.075207  -0.072360   0.014698  -0.001257   0.018015
    10  C   -0.000454  -0.019495   0.431192  -0.077427   0.014468  -0.002084
    11  C    0.000010   0.000779  -0.082425   0.433476  -0.081374   0.014753
    12  C   -0.000001  -0.000052   0.014675  -0.079782   0.430491  -0.082107
    13  C    0.000043  -0.000253  -0.002016   0.014516  -0.073118   0.418858
    14  C   -0.001554   0.015521   0.016978  -0.001231   0.015346  -0.046838
    15  H   -0.000012  -0.000000  -0.000000  -0.000000  -0.000000  -0.000000
    16  H   -0.000001   0.000000   0.000000  -0.000000  -0.000000   0.000037
    17  H    0.000009   0.000000   0.000001  -0.000000   0.000037  -0.000035
    18  H    0.007688  -0.000019  -0.000000  -0.000000   0.000000   0.000001
    19  H    0.675529  -0.012792  -0.000019  -0.000000   0.000000   0.000000
    20  H   -0.012792   0.675529   0.007688  -0.000012  -0.000001   0.000009
    21  H   -0.000019   0.007688   0.675317  -0.011991  -0.000303   0.000030
    22  H   -0.000000  -0.000012  -0.011991   0.664118  -0.011324  -0.000304
    23  H    0.000000  -0.000001  -0.000303  -0.011324   0.666958  -0.012988
    24  H    0.000000   0.000009   0.000030  -0.000304  -0.012988   0.676310
 Mulliken charges:
               1
     1  C   -0.039072
     2  C   -0.037001
     3  C   -0.159655
     4  C    0.119852
     5  C    0.123753
     6  C   -0.133670
     7  C   -0.115587
     8  C   -0.115587
     9  C    0.123753
    10  C   -0.133670
    11  C   -0.039072
    12  C   -0.037001
    13  C   -0.159655
    14  C    0.119852
    15  H    0.055643
    16  H    0.053401
    17  H    0.045993
    18  H    0.043418
    19  H    0.042924
    20  H    0.042924
    21  H    0.043418
    22  H    0.055643
    23  H    0.053401
    24  H    0.045993
 Sum of Mulliken charges =  -0.00000
 Mulliken charges with hydrogens summed into heavy atoms:
               1
     1  C    0.016571
     2  C    0.016400
     3  C   -0.113662
     4  C    0.119852
     5  C    0.123753
     6  C   -0.090251
     7  C   -0.072663
     8  C   -0.072663
     9  C    0.123753
    10  C   -0.090251
    11  C    0.016571
    12  C    0.016400
    13  C   -0.113662
    14  C    0.119852
 APT charges:
               1
     1  C   -0.032016
     2  C   -0.031397
     3  C   -0.051253
     4  C    0.025408
     5  C   -0.016194
     6  C   -0.000002
     7  C   -0.007474
     8  C   -0.007474
     9  C   -0.016194
    10  C   -0.000002
    11  C   -0.032016
    12  C   -0.031397
    13  C   -0.051253
    14  C    0.025408
    15  H    0.020624
    16  H    0.019879
    17  H    0.034228
    18  H    0.019952
    19  H    0.018245
    20  H    0.018245
    21  H    0.019952
    22  H    0.020624
    23  H    0.019879
    24  H    0.034228
 Sum of APT charges =  -0.00000
 APT charges with hydrogens summed into heavy atoms:
               1
     1  C   -0.011392
     2  C   -0.011518
     3  C   -0.017025
     4  C    0.025408
     5  C   -0.016194
     6  C    0.019951
     7  C    0.010771
     8  C    0.010771
     9  C   -0.016194
    10  C    0.019951
    11  C   -0.011392
    12  C   -0.011518
    13  C   -0.017025
    14  C    0.025408
 Electronic spatial extent (au):  <R**2>=           2632.9493
 Charge=             -0.0000 electrons
 Dipole moment (field-independent basis, Debye):
    X=             -0.0000    Y=             -0.0000    Z=             -0.0568  Tot=              0.0568
 Quadrupole moment (field-independent basis, Debye-Ang):
   XX=            -87.2445   YY=            -71.5863   ZZ=            -71.9167
   XY=              0.0000   XZ=             -0.0000   YZ=              0.0000
 Traceless Quadrupole moment (field-independent basis, Debye-Ang):
   XX=            -10.3287   YY=              5.3295   ZZ=              4.9992
   XY=              0.0000   XZ=             -0.0000   YZ=              0.0000
 Octapole moment (field-independent basis, Debye-Ang**2):
  XXX=              0.0000  YYY=             -0.0000  ZZZ=             -1.0538  XYY=              0.0000
  XXY=              0.0000  XXZ=              0.0247  XZZ=              0.0000  YZZ=             -0.0000
  YYZ=             -0.7418  XYZ=             -0.0000
 Hexadecapole moment (field-independent basis, Debye-Ang**3):
 XXXX=            -96.3866 YYYY=          -2392.1412 ZZZZ=           -907.4057 XXXY=             -0.0000
 XXXZ=             -0.0000 YYYX=             -0.0000 YYYZ=              0.0000 ZZZX=             -0.0000
 ZZZY=              0.0000 XXYY=           -499.0875 XXZZ=           -196.2734 YYZZ=           -548.2265
 XXYZ=              0.0000 YYXZ=             -0.0000 ZZXY=             -0.0000
 N-N= 7.732490686389D+02 E-N=-2.793452040080D+03  KE= 5.332653209115D+02
 Symmetry A1   KE= 2.616387126785D+02
 Symmetry A2   KE= 6.554131548188D+00
 Symmetry B1   KE= 8.393230487611D+00
 Symmetry B2   KE= 2.566792461972D+02
  Exact polarizability:      57.871      -0.000     240.116       0.000       0.000     162.068
 Approx polarizability:      94.515       0.000     397.702       0.000       0.000     295.735
   4 Symmetry operations used in ECPInt.
 ECPInt:  NShTT=    5460 NPrTT=   21948 LenC2=    5319 LenP2D=   15674.
 LDataN:  DoStor=T MaxTD1= 6 Len=  172
 Calling FoFJK, ICntrl=    100127 FMM=F ISym2X=1 I1Cent= 0 IOpClX= 0 NMat=1 NMatS=1 NMatT=0.
 Full mass-weighted force constant matrix:
 Low frequencies ---   -4.6356   -4.2445   -2.0463   -0.0006   -0.0005   -0.0004
 Low frequencies ---  100.3378  102.4617  233.2518
 Diagonal vibrational polarizability:
        9.3846891       1.4462788       0.9317989
 Harmonic frequencies (cm**-1), IR intensities (KM/Mole), Raman scattering
 activities (A**4/AMU), depolarization ratios for plane and unpolarized
 incident light, reduced masses (AMU), force constants (mDyne/A),
 and normal coordinates:
                      1                      2                      3
                     A2                     B1                     B1
 Frequencies --    100.3378               102.4617               233.2518
 Red. masses --      3.6578                 4.3386                 3.6588
 Frc consts  --      0.0217                 0.0268                 0.1173
 IR Inten    --      0.0000                 0.7408                 3.1286
  Atom  AN      X      Y      Z        X      Y      Z        X      Y      Z
     1   6    -0.04  -0.00  -0.00     0.24  -0.00  -0.00     0.01   0.00   0.00
     2   6     0.18  -0.00  -0.00     0.07   0.00  -0.00     0.16  -0.00   0.00
     3   6     0.19  -0.00   0.00    -0.15   0.00  -0.00    -0.01  -0.00   0.00
     4   6     0.01  -0.00   0.00    -0.17   0.00   0.00    -0.16  -0.00  -0.00
     5   6    -0.10  -0.00   0.00    -0.06   0.00   0.00    -0.11  -0.00  -0.00
     6   6    -0.17  -0.00  -0.00     0.15  -0.00  -0.00    -0.15  -0.00   0.00
     7   6    -0.08   0.00   0.00    -0.11  -0.00  -0.00     0.19   0.00  -0.00
     8   6     0.08  -0.00   0.00    -0.11  -0.00  -0.00     0.19   0.00   0.00
     9   6     0.10   0.00   0.00    -0.06   0.00  -0.00    -0.11  -0.00   0.00
    10   6     0.17   0.00  -0.00     0.15   0.00   0.00    -0.15  -0.00  -0.00
    11   6     0.04   0.00  -0.00     0.24  -0.00   0.00     0.01   0.00  -0.00
    12   6    -0.18   0.00  -0.00     0.07   0.00   0.00     0.16  -0.00  -0.00
    13   6    -0.19   0.00   0.00    -0.15   0.00   0.00    -0.01  -0.00  -0.00
    14   6    -0.01   0.00   0.00    -0.17   0.00  -0.00    -0.16  -0.00   0.00
    15   1    -0.07  -0.00  -0.00     0.44   0.00   0.00     0.06   0.00   0.00
    16   1     0.34  -0.00  -0.00     0.11   0.00  -0.00     0.36   0.00   0.00
    17   1     0.37  -0.00   0.00    -0.26  -0.00   0.00     0.05   0.00  -0.00
    18   1    -0.30  -0.00  -0.00     0.26   0.00  -0.00    -0.20  -0.00   0.00
    19   1    -0.16   0.00   0.00    -0.10  -0.00   0.00     0.45   0.00  -0.00
    20   1     0.16  -0.00   0.00    -0.10  -0.00  -0.00     0.45   0.00   0.00
    21   1     0.30   0.00  -0.00     0.26   0.00   0.00    -0.20  -0.00  -0.00
    22   1     0.07   0.00  -0.00     0.44   0.00  -0.00     0.06   0.00  -0.00
    23   1    -0.34   0.00  -0.00     0.11   0.00   0.00     0.36   0.00  -0.00
    24   1    -0.37   0.00   0.00    -0.26  -0.00  -0.00     0.05   0.00   0.00
                      4                      5                      6
                     A2                     A1                     A2
 Frequencies --    247.0572               249.8970               408.9710
 Red. masses --      4.2043                 4.5769                 3.1463
 Frc consts  --      0.1512                 0.1684                 0.3101
 IR Inten    --      0.0000                 0.4666                 0.0000
  Atom  AN      X      Y      Z        X      Y      Z        X      Y      Z
     1   6    -0.19   0.00   0.00     0.00   0.10   0.16    -0.00  -0.00   0.00
     2   6    -0.04   0.00   0.00     0.00   0.19   0.11     0.13  -0.00   0.00
     3   6     0.19   0.00  -0.00    -0.00   0.17  -0.05    -0.13  -0.00  -0.00
     4   6     0.12   0.00  -0.00    -0.00   0.02  -0.14    -0.02  -0.00  -0.00
     5   6     0.19  -0.00  -0.00    -0.00  -0.03  -0.09     0.10  -0.00  -0.00
     6   6     0.06  -0.00   0.00    -0.00  -0.04   0.07    -0.14  -0.00   0.00
     7   6     0.14  -0.00  -0.00    -0.00  -0.01  -0.10     0.18  -0.00   0.00
     8   6    -0.14   0.00  -0.00     0.00   0.01  -0.10    -0.18   0.00   0.00
     9   6    -0.19   0.00  -0.00     0.00   0.03  -0.09    -0.10   0.00  -0.00
    10   6    -0.06   0.00   0.00     0.00   0.04   0.07     0.14   0.00   0.00
    11   6     0.19  -0.00   0.00    -0.00  -0.10   0.16     0.00   0.00   0.00
    12   6     0.04  -0.00   0.00    -0.00  -0.19   0.11    -0.13   0.00   0.00
    13   6    -0.19  -0.00  -0.00     0.00  -0.17  -0.05     0.13   0.00  -0.00
    14   6    -0.12  -0.00  -0.00     0.00  -0.02  -0.14     0.02   0.00  -0.00
    15   1    -0.43   0.00   0.00     0.00   0.09   0.27    -0.05  -0.00   0.00
    16   1    -0.11   0.00   0.00     0.00   0.28   0.17     0.26   0.00   0.00
    17   1     0.31   0.00  -0.00    -0.00   0.28  -0.11    -0.32  -0.00  -0.00
    18   1     0.05  -0.00   0.00    -0.00  -0.17   0.14    -0.35  -0.00   0.00
    19   1     0.23  -0.00  -0.00    -0.00   0.01  -0.11     0.34   0.00  -0.00
    20   1    -0.23  -0.00  -0.00     0.00  -0.01  -0.11    -0.34  -0.00  -0.00
    21   1    -0.05   0.00   0.00     0.00   0.17   0.14     0.35   0.00   0.00
    22   1     0.43  -0.00   0.00    -0.00  -0.09   0.27     0.05   0.00   0.00
    23   1     0.11  -0.00   0.00    -0.00  -0.28   0.17    -0.26  -0.00   0.00
    24   1    -0.31  -0.00  -0.00     0.00  -0.28  -0.11     0.32   0.00  -0.00
                      7                      8                      9
                     A1                     B1                     B2
 Frequencies --    414.1220               445.6033               450.2408
 Red. masses --      6.5322                 3.0191                 4.7753
 Frc consts  --      0.6600                 0.3532                 0.5703
 IR Inten    --      0.4569                 6.1679                 1.7967
  Atom  AN      X      Y      Z        X      Y      Z        X      Y      Z
     1   6     0.00   0.26  -0.10    -0.10   0.00   0.00    -0.00  -0.02  -0.05
     2   6     0.00   0.12  -0.02    -0.04   0.00  -0.00    -0.00  -0.13   0.02
     3   6    -0.00   0.10   0.11     0.15   0.00  -0.00     0.00  -0.11   0.17
     4   6    -0.00   0.06   0.10    -0.16  -0.00  -0.00    -0.00   0.02   0.17
     5   6     0.00   0.20   0.03    -0.08  -0.00  -0.00    -0.00   0.10   0.18
     6   6    -0.00   0.27  -0.06     0.16  -0.00  -0.00     0.00   0.12   0.05
     7   6     0.00   0.02  -0.05    -0.00  -0.00  -0.00    -0.00   0.04   0.15
     8   6    -0.00  -0.02  -0.05    -0.00  -0.00   0.00    -0.00   0.04  -0.15
     9   6    -0.00  -0.20   0.03    -0.08  -0.00   0.00    -0.00   0.10  -0.18
    10   6     0.00  -0.27  -0.06     0.16  -0.00   0.00     0.00   0.12  -0.05
    11   6    -0.00  -0.26  -0.10    -0.10   0.00  -0.00    -0.00  -0.02   0.05
    12   6    -0.00  -0.12  -0.02    -0.04   0.00   0.00    -0.00  -0.13  -0.02
    13   6     0.00  -0.10   0.11     0.15   0.00   0.00     0.00  -0.11  -0.17
    14   6     0.00  -0.06   0.10    -0.16  -0.00   0.00    -0.00   0.02  -0.17
    15   1    -0.00   0.26  -0.17    -0.16   0.00   0.00    -0.00  -0.01  -0.18
    16   1     0.00  -0.00  -0.10     0.01   0.00   0.00     0.00  -0.23  -0.04
    17   1    -0.00   0.07   0.12     0.42   0.00  -0.00     0.00  -0.23   0.24
    18   1    -0.00   0.32  -0.08     0.43  -0.00   0.00     0.00   0.24  -0.01
    19   1     0.00  -0.10   0.03     0.14   0.00  -0.00     0.00  -0.13   0.24
    20   1    -0.00   0.10   0.03     0.14   0.00   0.00     0.00  -0.13  -0.24
    21   1     0.00  -0.32  -0.08     0.43  -0.00  -0.00     0.00   0.24   0.01
    22   1     0.00  -0.26  -0.17    -0.16   0.00  -0.00    -0.00  -0.01   0.18
    23   1    -0.00   0.00  -0.10     0.01   0.00  -0.00     0.00  -0.23   0.04
    24   1     0.00  -0.07   0.12     0.42   0.00   0.00     0.00  -0.23  -0.24
                     10                     11                     12
                     B2                     B1                     A1
 Frequencies --    508.4556               519.0788               560.4854
 Red. masses --      5.4253                 3.1578                 7.1356
 Frc consts  --      0.8264                 0.5013                 1.3207
 IR Inten    --      0.9324                 3.8495                 0.3489
  Atom  AN      X      Y      Z        X      Y      Z        X      Y      Z
     1   6    -0.00   0.02   0.12    -0.14  -0.00  -0.00     0.00   0.02  -0.10
     2   6     0.00  -0.10   0.19     0.16   0.00  -0.00    -0.00   0.21  -0.17
     3   6    -0.00  -0.11   0.05    -0.09   0.00  -0.00     0.00   0.17  -0.01
     4   6    -0.00  -0.15  -0.02    -0.09   0.00   0.00     0.00   0.03  -0.02
     5   6     0.00   0.04  -0.12     0.18  -0.00   0.00     0.00  -0.13   0.11
     6   6     0.00   0.01   0.06     0.06  -0.00  -0.00    -0.00  -0.12  -0.14
     7   6    -0.00   0.27  -0.07    -0.03  -0.00   0.00    -0.00   0.01   0.32
     8   6    -0.00   0.27   0.07    -0.03  -0.00  -0.00     0.00  -0.01   0.32
     9   6     0.00   0.04   0.12     0.18  -0.00  -0.00    -0.00   0.13   0.11
    10   6     0.00   0.01  -0.06     0.06  -0.00   0.00     0.00   0.12  -0.14
    11   6    -0.00   0.02  -0.12    -0.14  -0.00   0.00    -0.00  -0.02  -0.10
    12   6     0.00  -0.10  -0.19     0.16   0.00   0.00     0.00  -0.21  -0.17
    13   6    -0.00  -0.11  -0.05    -0.09   0.00   0.00    -0.00  -0.17  -0.01
    14   6    -0.00  -0.15   0.02    -0.09   0.00  -0.00    -0.00  -0.03  -0.02
    15   1    -0.00   0.02   0.03    -0.39  -0.00  -0.00    -0.00   0.02   0.15
    16   1     0.00  -0.11   0.19     0.34   0.00  -0.00    -0.00   0.20  -0.18
    17   1    -0.00   0.02  -0.02    -0.15   0.00   0.00    -0.00   0.11   0.02
    18   1    -0.00  -0.14   0.14    -0.04   0.00  -0.00    -0.00  -0.03  -0.19
    19   1    -0.00   0.43  -0.16    -0.33  -0.00   0.00    -0.00   0.13   0.25
    20   1    -0.00   0.43   0.16    -0.33  -0.00  -0.00     0.00  -0.13   0.25
    21   1    -0.00  -0.14  -0.14    -0.04   0.00   0.00     0.00   0.03  -0.19
    22   1    -0.00   0.02  -0.03    -0.39  -0.00   0.00     0.00  -0.02   0.15
    23   1     0.00  -0.11  -0.19     0.34   0.00   0.00     0.00  -0.20  -0.18
    24   1    -0.00   0.02   0.02    -0.15   0.00  -0.00     0.00  -0.11   0.02
                     13                     14                     15
                     A2                     A2                     B2
 Frequencies --    561.9668               611.8088               633.0314
 Red. masses --      2.5935                 3.1094                 6.8521
 Frc consts  --      0.4826                 0.6857                 1.6178
 IR Inten    --      0.0000                 0.0000                 5.1348
  Atom  AN      X      Y      Z        X      Y      Z        X      Y      Z
     1   6     0.07  -0.00   0.00    -0.15   0.00   0.00     0.00   0.23  -0.08
     2   6    -0.02  -0.00   0.00     0.15  -0.00   0.00    -0.00   0.10   0.03
     3   6     0.01  -0.00   0.00    -0.11  -0.00  -0.00     0.00   0.06   0.27
     4   6     0.19  -0.00   0.00    -0.03  -0.00  -0.00    -0.00  -0.20   0.08
     5   6     0.12   0.00  -0.00     0.06   0.00  -0.00     0.00  -0.10  -0.04
     6   6    -0.06   0.00   0.00     0.13   0.00   0.00    -0.00  -0.06  -0.24
     7   6    -0.12  -0.00  -0.00    -0.14   0.00  -0.00     0.00  -0.04   0.00
     8   6     0.12   0.00  -0.00     0.14  -0.00  -0.00     0.00  -0.04  -0.00
     9   6    -0.12  -0.00  -0.00    -0.06  -0.00  -0.00     0.00  -0.10   0.04
    10   6     0.06  -0.00   0.00    -0.13  -0.00   0.00    -0.00  -0.06   0.24
    11   6    -0.07   0.00   0.00     0.15  -0.00   0.00     0.00   0.23   0.08
    12   6     0.02   0.00   0.00    -0.15   0.00   0.00    -0.00   0.10  -0.03
    13   6    -0.01   0.00   0.00     0.11   0.00  -0.00     0.00   0.06  -0.27
    14   6    -0.19   0.00   0.00     0.03   0.00  -0.00    -0.00  -0.20  -0.08
    15   1    -0.04  -0.00  -0.00    -0.41   0.00  -0.00     0.00   0.23   0.07
    16   1    -0.29  -0.00   0.00     0.29  -0.00   0.00    -0.00  -0.17  -0.13
    17   1    -0.36  -0.00  -0.00    -0.23   0.00  -0.00     0.00   0.14   0.23
    18   1    -0.37   0.00   0.00     0.12   0.00   0.00     0.00  -0.15  -0.19
    19   1    -0.28  -0.00  -0.00    -0.29   0.00  -0.00    -0.00  -0.03   0.00
    20   1     0.28   0.00  -0.00     0.29  -0.00  -0.00    -0.00  -0.03  -0.00
    21   1     0.37  -0.00   0.00    -0.12   0.00   0.00     0.00  -0.15   0.19
    22   1     0.04   0.00  -0.00     0.41  -0.00  -0.00     0.00   0.23  -0.07
    23   1     0.29   0.00   0.00    -0.29   0.00   0.00    -0.00  -0.17   0.13
    24   1     0.36   0.00  -0.00     0.23  -0.00  -0.00     0.00   0.14  -0.23
                     16                     17                     18
                     A1                     B2                     B1
 Frequencies --    729.5034               729.8475               748.7060
 Red. masses --      5.3678                 5.7463                 1.7240
 Frc consts  --      1.6831                 1.8034                 0.5694
 IR Inten    --      0.0689                 2.4493                 3.3301
  Atom  AN      X      Y      Z        X      Y      Z        X      Y      Z
     1   6    -0.00   0.09  -0.03     0.00  -0.19   0.01    -0.04  -0.00   0.00
     2   6    -0.00  -0.00   0.07    -0.00   0.10  -0.11     0.08   0.00   0.00
     3   6    -0.00   0.00   0.27     0.00   0.09   0.05    -0.03   0.00   0.00
     4   6     0.00  -0.07   0.09    -0.00   0.03   0.05     0.08   0.00   0.00
     5   6     0.00  -0.11  -0.09     0.00  -0.07   0.07    -0.09  -0.00  -0.00
     6   6    -0.00  -0.17  -0.20    -0.00  -0.21  -0.04     0.07  -0.00  -0.00
     7   6    -0.00  -0.02  -0.12     0.00   0.25   0.15    -0.05   0.00   0.00
     8   6     0.00   0.02  -0.12     0.00   0.25  -0.15    -0.05   0.00  -0.00
     9   6    -0.00   0.11  -0.09     0.00  -0.07  -0.07    -0.09  -0.00   0.00
    10   6     0.00   0.17  -0.20    -0.00  -0.21   0.04     0.07  -0.00   0.00
    11   6     0.00  -0.09  -0.03     0.00  -0.19  -0.01    -0.04  -0.00  -0.00
    12   6     0.00   0.00   0.07    -0.00   0.10   0.11     0.08   0.00  -0.00
    13   6     0.00  -0.00   0.27     0.00   0.09  -0.05    -0.03   0.00  -0.00
    14   6    -0.00   0.07   0.09    -0.00   0.03  -0.05     0.08   0.00  -0.00
    15   1     0.00   0.08   0.14     0.00  -0.20   0.29    -0.32  -0.00   0.00
    16   1     0.00  -0.24  -0.07    -0.00   0.16  -0.06    -0.14  -0.00  -0.00
    17   1     0.00  -0.02   0.28     0.00  -0.01   0.11    -0.33  -0.00   0.00
    18   1     0.00  -0.31  -0.13    -0.00  -0.17  -0.07    -0.01  -0.00  -0.00
    19   1    -0.00   0.01  -0.14    -0.00   0.25   0.15     0.49   0.00  -0.00
    20   1     0.00  -0.01  -0.14    -0.00   0.25  -0.15     0.49   0.00   0.00
    21   1    -0.00   0.31  -0.13    -0.00  -0.17   0.07    -0.01  -0.00   0.00
    22   1    -0.00  -0.08   0.14     0.00  -0.20  -0.29    -0.32  -0.00  -0.00
    23   1    -0.00   0.24  -0.07    -0.00   0.16   0.06    -0.14  -0.00   0.00
    24   1     0.00   0.02   0.28     0.00  -0.01  -0.11    -0.33  -0.00  -0.00
                     19                     20                     21
                     B1                     A2                     A2
 Frequencies --    761.8231               782.3944               835.3473
 Red. masses --      1.5294                 1.4399                 1.5478
 Frc consts  --      0.5230                 0.5193                 0.6363
 IR Inten    --     65.4563                 0.0000                 0.0000
  Atom  AN      X      Y      Z        X      Y      Z        X      Y      Z
     1   6    -0.08  -0.00   0.00    -0.03  -0.00   0.00    -0.07  -0.00  -0.00
     2   6     0.00   0.00  -0.00    -0.06  -0.00  -0.00     0.04   0.00  -0.00
     3   6    -0.08   0.00   0.00    -0.05   0.00  -0.00     0.03   0.00   0.00
     4   6     0.09   0.00   0.00     0.03   0.00  -0.00     0.10   0.00   0.00
     5   6    -0.05  -0.00  -0.00     0.09   0.00   0.00    -0.07   0.00   0.00
     6   6    -0.00  -0.00  -0.00    -0.04   0.00   0.00    -0.04  -0.00   0.00
     7   6     0.00   0.00   0.00    -0.03   0.00   0.00     0.03  -0.00  -0.00
     8   6     0.00   0.00  -0.00     0.03  -0.00   0.00    -0.03   0.00  -0.00
     9   6    -0.05  -0.00   0.00    -0.09  -0.00   0.00     0.07  -0.00   0.00
    10   6    -0.00  -0.00   0.00     0.04  -0.00   0.00     0.04   0.00   0.00
    11   6    -0.08  -0.00  -0.00     0.03   0.00   0.00     0.07   0.00  -0.00
    12   6     0.00   0.00   0.00     0.06   0.00  -0.00    -0.04  -0.00  -0.00
    13   6    -0.08   0.00  -0.00     0.05  -0.00  -0.00    -0.03  -0.00   0.00
    14   6     0.09   0.00  -0.00    -0.03  -0.00  -0.00    -0.10  -0.00   0.00
    15   1     0.33  -0.00   0.00     0.39   0.00  -0.00     0.29  -0.00   0.00
    16   1     0.43  -0.00  -0.00     0.43   0.00  -0.00    -0.02   0.00  -0.00
    17   1     0.12  -0.00   0.00     0.32   0.00  -0.00    -0.39  -0.00   0.00
    18   1     0.41  -0.00   0.00     0.14   0.00   0.00     0.48   0.00   0.00
    19   1     0.00   0.00  -0.00    -0.13   0.00   0.00     0.05  -0.00  -0.00
    20   1     0.00   0.00   0.00     0.13  -0.00   0.00    -0.05   0.00  -0.00
    21   1     0.41  -0.00  -0.00    -0.14  -0.00   0.00    -0.48  -0.00   0.00
    22   1     0.33  -0.00  -0.00    -0.39  -0.00  -0.00    -0.29   0.00   0.00
    23   1     0.43  -0.00   0.00    -0.43  -0.00  -0.00     0.02  -0.00  -0.00
    24   1     0.12  -0.00  -0.00    -0.32  -0.00  -0.00     0.39   0.00   0.00
                     22                     23                     24
                     B1                     A1                     B2
 Frequencies --    845.5586               845.8838               893.5689
 Red. masses --      1.4013                 5.6932                 3.9011
 Frc consts  --      0.5903                 2.4001                 1.8353
 IR Inten    --     31.4570                 0.0473                 1.5014
  Atom  AN      X      Y      Z        X      Y      Z        X      Y      Z
     1   6     0.02   0.00  -0.00    -0.00   0.24   0.00    -0.00   0.12   0.01
     2   6    -0.06  -0.00   0.00     0.00  -0.12   0.20     0.00   0.00   0.06
     3   6    -0.03  -0.00  -0.00     0.00  -0.11  -0.12     0.00  -0.05  -0.18
     4   6    -0.01  -0.00  -0.00     0.00  -0.06  -0.12    -0.00  -0.10  -0.08
     5   6     0.08  -0.00   0.00    -0.00  -0.05  -0.05     0.00  -0.03   0.06
     6   6     0.01   0.00  -0.00    -0.00   0.04  -0.11    -0.00   0.01  -0.04
     7   6    -0.08  -0.00   0.00     0.00   0.03   0.20    -0.00   0.04   0.23
     8   6    -0.08  -0.00  -0.00     0.00  -0.03   0.20    -0.00   0.04  -0.23
     9   6     0.08   0.00  -0.00     0.00   0.05  -0.05     0.00  -0.03  -0.06
    10   6     0.01   0.00  -0.00     0.00  -0.04  -0.11    -0.00   0.01   0.04
    11   6     0.02   0.00   0.00     0.00  -0.24   0.00    -0.00   0.12  -0.01
    12   6    -0.06   0.00   0.00    -0.00   0.12   0.20     0.00   0.00  -0.06
    13   6    -0.03   0.00   0.00    -0.00   0.11  -0.12     0.00  -0.05   0.18
    14   6    -0.01  -0.00   0.00    -0.00   0.06  -0.12    -0.00  -0.10   0.08
    15   1     0.03   0.00  -0.00     0.00   0.24  -0.18     0.00   0.12  -0.01
    16   1     0.27  -0.00   0.00    -0.00  -0.21   0.15    -0.00   0.08   0.10
    17   1     0.32   0.00  -0.00    -0.00   0.11  -0.23    -0.00   0.16  -0.30
    18   1    -0.27   0.00  -0.00     0.00  -0.11  -0.02     0.00  -0.02  -0.02
    19   1     0.49  -0.00   0.00    -0.00   0.19   0.12     0.00  -0.24   0.40
    20   1     0.49  -0.00  -0.00    -0.00  -0.19   0.12     0.00  -0.24  -0.40
    21   1    -0.27   0.00   0.00    -0.00   0.11  -0.02     0.00  -0.02   0.02
    22   1     0.03  -0.00   0.00    -0.00  -0.24  -0.18     0.00   0.12   0.01
    23   1     0.27   0.00  -0.00     0.00   0.21   0.15    -0.00   0.08  -0.10
    24   1     0.32   0.00   0.00     0.00  -0.11  -0.23    -0.00   0.16   0.30
                     25                     26                     27
                     B1                     A2                     A2
 Frequencies --    903.7537               935.5432               978.7989
 Red. masses --      1.6391                 2.6331                 1.4680
 Frc consts  --      0.7888                 1.3578                 0.8286
 IR Inten    --      8.2312                 0.0000                 0.0000
  Atom  AN      X      Y      Z        X      Y      Z        X      Y      Z
     1   6    -0.05  -0.00  -0.00     0.01   0.00  -0.00     0.05  -0.00  -0.00
     2   6     0.02   0.00  -0.00    -0.04  -0.00   0.00     0.05  -0.00   0.00
     3   6     0.08   0.00   0.00    -0.08  -0.00  -0.00    -0.09   0.00   0.00
     4   6    -0.05   0.00   0.00     0.19   0.00  -0.00     0.06   0.00  -0.00
     5   6     0.10   0.00  -0.00    -0.15   0.00  -0.00    -0.01   0.00  -0.00
     6   6    -0.08   0.00   0.00     0.09  -0.00  -0.00    -0.06  -0.00  -0.00
     7   6    -0.06  -0.00  -0.00     0.02  -0.00   0.00     0.02   0.00  -0.00
     8   6    -0.06  -0.00   0.00    -0.02   0.00   0.00    -0.02  -0.00   0.00
     9   6     0.10   0.00   0.00     0.15  -0.00  -0.00     0.01   0.00  -0.00
    10   6    -0.08   0.00  -0.00    -0.09   0.00  -0.00     0.06  -0.00   0.00
    11   6    -0.05  -0.00   0.00    -0.01  -0.00  -0.00    -0.05   0.00  -0.00
    12   6     0.02   0.00   0.00     0.04   0.00   0.00    -0.05  -0.00  -0.00
    13   6     0.08   0.00  -0.00     0.08   0.00  -0.00     0.09  -0.00   0.00
    14   6    -0.05   0.00  -0.00    -0.19  -0.00  -0.00    -0.06   0.00  -0.00
    15   1     0.37  -0.00  -0.00    -0.21   0.00   0.00    -0.31  -0.00  -0.00
    16   1    -0.19  -0.00  -0.00     0.43  -0.00   0.00    -0.26  -0.00   0.00
    17   1    -0.34  -0.00   0.00     0.14  -0.00  -0.00     0.40   0.00   0.00
    18   1     0.31   0.00   0.00    -0.31  -0.00   0.00     0.38  -0.00  -0.00
    19   1     0.29   0.00  -0.00     0.28  -0.00   0.00    -0.11   0.00  -0.00
    20   1     0.29   0.00   0.00    -0.28   0.00   0.00     0.11  -0.00  -0.00
    21   1     0.31   0.00  -0.00     0.31   0.00   0.00    -0.38  -0.00   0.00
    22   1     0.37  -0.00   0.00     0.21  -0.00   0.00     0.31   0.00  -0.00
    23   1    -0.19  -0.00   0.00    -0.43   0.00   0.00     0.26  -0.00  -0.00
    24   1    -0.34  -0.00  -0.00    -0.14   0.00  -0.00    -0.40  -0.00   0.00
                     28                     29                     30
                     B1                     A2                     B1
 Frequencies --    983.1725              1007.5352              1019.2682
 Red. masses --      1.3759                 1.3506                 1.3460
 Frc consts  --      0.7836                 0.8078                 0.8239
 IR Inten    --      2.3891                 0.0000                 0.0391
  Atom  AN      X      Y      Z        X      Y      Z        X      Y      Z
     1   6     0.05  -0.00  -0.00    -0.04  -0.00  -0.00     0.07   0.00  -0.00
     2   6     0.05   0.00  -0.00     0.05   0.00   0.00    -0.07  -0.00   0.00
     3   6    -0.07   0.00   0.00    -0.03   0.00   0.00     0.05  -0.00  -0.00
     4   6     0.01  -0.00   0.00     0.00  -0.00   0.00    -0.00   0.00   0.00
     5   6     0.03   0.00  -0.00     0.02   0.00   0.00     0.01   0.00   0.00
     6   6    -0.08   0.00   0.00     0.00   0.00  -0.00    -0.05  -0.00  -0.00
     7   6    -0.02  -0.00  -0.00    -0.10   0.00  -0.00    -0.01  -0.00   0.00
     8   6    -0.02  -0.00   0.00     0.10  -0.00  -0.00    -0.01  -0.00  -0.00
     9   6     0.03   0.00   0.00    -0.02  -0.00   0.00     0.01   0.00  -0.00
    10   6    -0.08   0.00  -0.00    -0.00  -0.00  -0.00    -0.05  -0.00   0.00
    11   6     0.05  -0.00   0.00     0.04   0.00  -0.00     0.07   0.00   0.00
    12   6     0.05   0.00   0.00    -0.05  -0.00   0.00    -0.07  -0.00  -0.00
    13   6    -0.07   0.00  -0.00     0.03  -0.00   0.00     0.05  -0.00   0.00
    14   6     0.01  -0.00  -0.00    -0.00   0.00   0.00    -0.00   0.00  -0.00
    15   1    -0.27  -0.00  -0.00     0.22  -0.00  -0.00    -0.41   0.00  -0.00
    16   1    -0.30   0.00  -0.00    -0.27   0.00   0.00     0.41  -0.00   0.00
    17   1     0.39   0.00   0.00     0.17   0.00  -0.00    -0.28  -0.00   0.00
    18   1     0.40   0.00   0.00    -0.06   0.00  -0.00     0.28  -0.00  -0.00
    19   1     0.07   0.00  -0.00     0.57   0.00  -0.00     0.02   0.00  -0.00
    20   1     0.07   0.00   0.00    -0.57  -0.00  -0.00     0.02   0.00   0.00
    21   1     0.40   0.00  -0.00     0.06  -0.00  -0.00     0.28  -0.00   0.00
    22   1    -0.27  -0.00   0.00    -0.22   0.00  -0.00    -0.41   0.00   0.00
    23   1    -0.30   0.00   0.00     0.27  -0.00   0.00     0.41  -0.00  -0.00
    24   1     0.39   0.00  -0.00    -0.17  -0.00   0.00    -0.28  -0.00  -0.00
                     31                     32                     33
                     A2                     B2                     B2
 Frequencies --   1021.1065              1022.9133              1066.7151
 Red. masses --      1.4522                 7.4873                 1.8845
 Frc consts  --      0.8921                 4.6159                 1.2634
 IR Inten    --      0.0000                 1.0611                 5.7633
  Atom  AN      X      Y      Z        X      Y      Z        X      Y      Z
     1   6    -0.07  -0.00  -0.00    -0.00   0.04  -0.01     0.00   0.12   0.05
     2   6     0.06  -0.00  -0.00     0.00  -0.15   0.26     0.00   0.00  -0.09
     3   6    -0.04   0.00   0.00    -0.00  -0.02  -0.03     0.00  -0.08  -0.04
     4   6     0.02  -0.00  -0.00    -0.00   0.34   0.02    -0.00   0.05   0.03
     5   6    -0.03  -0.00   0.00     0.00   0.01   0.02     0.00  -0.02   0.00
     6   6     0.06   0.00   0.00     0.00  -0.16  -0.25    -0.00  -0.04   0.03
     7   6     0.07   0.00  -0.00     0.00  -0.02  -0.00    -0.00   0.01  -0.00
     8   6    -0.07  -0.00  -0.00     0.00  -0.02   0.00    -0.00   0.01   0.00
     9   6     0.03   0.00  -0.00     0.00   0.01  -0.02     0.00  -0.02  -0.00
    10   6    -0.06  -0.00   0.00     0.00  -0.16   0.25    -0.00  -0.04  -0.03
    11   6     0.07   0.00  -0.00    -0.00   0.04   0.01     0.00   0.12  -0.05
    12   6    -0.06  -0.00  -0.00     0.00  -0.15  -0.26     0.00   0.00   0.09
    13   6     0.04  -0.00   0.00    -0.00  -0.02   0.03     0.00  -0.08   0.04
    14   6    -0.02   0.00  -0.00    -0.00   0.34  -0.02    -0.00   0.05  -0.03
    15   1     0.36  -0.00  -0.00     0.00   0.02  -0.02     0.00   0.13   0.27
    16   1    -0.31  -0.00  -0.00    -0.00  -0.16   0.27    -0.00  -0.14  -0.19
    17   1     0.19   0.00   0.00     0.00  -0.06   0.01     0.00  -0.41   0.13
    18   1    -0.31   0.00   0.00    -0.00  -0.21  -0.24    -0.00  -0.31   0.18
    19   1    -0.35   0.00  -0.00    -0.00   0.03  -0.03     0.00   0.05  -0.02
    20   1     0.35  -0.00  -0.00    -0.00   0.03   0.03     0.00   0.05   0.02
    21   1     0.31  -0.00   0.00    -0.00  -0.21   0.24     0.00  -0.31  -0.18
    22   1    -0.36   0.00  -0.00     0.00   0.02   0.02     0.00   0.13  -0.27
    23   1     0.31   0.00  -0.00    -0.00  -0.16  -0.27    -0.00  -0.14   0.19
    24   1    -0.19  -0.00   0.00     0.00  -0.06  -0.01     0.00  -0.41  -0.13
                     34                     35                     36
                     A1                     A1                     B2
 Frequencies --   1070.8081              1117.9868              1161.2985
 Red. masses --      2.2740                 2.0783                 1.2975
 Frc consts  --      1.5363                 1.5305                 1.0310
 IR Inten    --      0.9388                 2.1525                 2.1600
  Atom  AN      X      Y      Z        X      Y      Z        X      Y      Z
     1   6     0.00  -0.13  -0.06    -0.00   0.02   0.04     0.00  -0.01   0.03
     2   6    -0.00  -0.01   0.14     0.00   0.01   0.03    -0.00   0.03   0.01
     3   6     0.00   0.07   0.04    -0.00  -0.06  -0.10     0.00  -0.05  -0.03
     4   6    -0.00   0.02  -0.03    -0.00   0.02   0.08    -0.00  -0.03   0.03
     5   6    -0.00   0.03  -0.00     0.00   0.04   0.07     0.00   0.02   0.02
     6   6     0.00   0.01  -0.08    -0.00  -0.04  -0.11    -0.00   0.02  -0.06
     7   6     0.00   0.01   0.01     0.00  -0.02  -0.05    -0.00  -0.01  -0.03
     8   6    -0.00  -0.01   0.01    -0.00   0.02  -0.05    -0.00  -0.01   0.03
     9   6     0.00  -0.03  -0.00    -0.00  -0.04   0.07     0.00   0.02  -0.02
    10   6    -0.00  -0.01  -0.08     0.00   0.04  -0.11    -0.00   0.02   0.06
    11   6    -0.00   0.13  -0.06     0.00  -0.02   0.04     0.00  -0.01  -0.03
    12   6     0.00   0.01   0.14    -0.00  -0.01   0.03    -0.00   0.03  -0.01
    13   6    -0.00  -0.07   0.04     0.00   0.06  -0.10     0.00  -0.05   0.03
    14   6     0.00  -0.02  -0.03     0.00  -0.02   0.08    -0.00  -0.03  -0.03
    15   1    -0.00  -0.14  -0.27     0.00   0.01   0.42    -0.00  -0.02   0.42
    16   1     0.00   0.20   0.28    -0.00   0.24   0.16     0.00   0.27   0.15
    17   1    -0.00   0.27  -0.06     0.00  -0.07  -0.10     0.00  -0.21   0.05
    18   1     0.00   0.30  -0.25     0.00   0.08  -0.18     0.00   0.33  -0.23
    19   1    -0.00  -0.01   0.02    -0.00  -0.34   0.13    -0.00   0.02  -0.05
    20   1     0.00   0.01   0.02     0.00   0.34   0.13    -0.00   0.02   0.05
    21   1    -0.00  -0.30  -0.25    -0.00  -0.08  -0.18     0.00   0.33   0.23
    22   1     0.00   0.14  -0.27    -0.00  -0.01   0.42    -0.00  -0.02  -0.42
    23   1    -0.00  -0.20   0.28     0.00  -0.24   0.16     0.00   0.27  -0.15
    24   1     0.00  -0.27  -0.06    -0.00   0.07  -0.10     0.00  -0.21  -0.05
                     37                     38                     39
                     A1                     B2                     A1
 Frequencies --   1167.9186              1178.1214              1182.0543
 Red. masses --      1.1462                 1.0704                 1.1971
 Frc consts  --      0.9211                 0.8753                 0.9855
 IR Inten    --      0.0544                 0.3982                 0.3065
  Atom  AN      X      Y      Z        X      Y      Z        X      Y      Z
     1   6     0.00  -0.02   0.04     0.00   0.01  -0.02    -0.00   0.00  -0.00
     2   6    -0.00  -0.01  -0.01     0.00   0.04   0.01    -0.00   0.03  -0.00
     3   6     0.00   0.00  -0.00    -0.00  -0.02   0.00     0.00  -0.04  -0.01
     4   6     0.00  -0.02   0.01    -0.00  -0.01   0.02    -0.00   0.03   0.05
     5   6    -0.00  -0.01  -0.01     0.00  -0.01  -0.01     0.00   0.02  -0.04
     6   6     0.00   0.04  -0.02     0.00  -0.01  -0.00    -0.00  -0.01  -0.02
     7   6     0.00   0.04   0.00    -0.00  -0.00   0.00     0.00   0.03   0.02
     8   6    -0.00  -0.04   0.00    -0.00  -0.00  -0.00    -0.00  -0.03   0.02
     9   6     0.00   0.01  -0.01     0.00  -0.01   0.01    -0.00  -0.02  -0.04
    10   6    -0.00  -0.04  -0.02     0.00  -0.01   0.00     0.00   0.01  -0.02
    11   6    -0.00   0.02   0.04     0.00   0.01   0.02     0.00  -0.00  -0.00
    12   6     0.00   0.01  -0.01     0.00   0.04  -0.01     0.00  -0.03  -0.00
    13   6    -0.00  -0.00  -0.00    -0.00  -0.02  -0.00    -0.00   0.04  -0.01
    14   6    -0.00   0.02   0.01    -0.00  -0.01  -0.02     0.00  -0.03   0.05
    15   1    -0.00  -0.02   0.37    -0.00   0.01  -0.37     0.00   0.00  -0.15
    16   1     0.00  -0.10  -0.06    -0.00   0.42   0.24     0.00   0.41   0.22
    17   1    -0.00   0.04  -0.02    -0.00  -0.27   0.13     0.00  -0.27   0.11
    18   1     0.00   0.31  -0.16    -0.00  -0.17   0.09    -0.00  -0.16   0.07
    19   1     0.00   0.42  -0.21     0.00  -0.00   0.00    -0.00   0.34  -0.16
    20   1    -0.00  -0.42  -0.21     0.00  -0.00  -0.00     0.00  -0.34  -0.16
    21   1     0.00  -0.31  -0.16    -0.00  -0.17  -0.09    -0.00   0.16   0.07
    22   1     0.00   0.02   0.37    -0.00   0.01   0.37    -0.00  -0.00  -0.15
    23   1    -0.00   0.10  -0.06    -0.00   0.42  -0.24    -0.00  -0.41   0.22
    24   1     0.00  -0.04  -0.02    -0.00  -0.27  -0.13    -0.00   0.27   0.11
                     40                     41                     42
                     A1                     B2                     A1
 Frequencies --   1240.3345              1247.6244              1268.4291
 Red. masses --      2.7939                 1.7099                 1.5304
 Frc consts  --      2.5324                 1.5682                 1.4508
 IR Inten    --      3.0042                 0.5820                 9.1769
  Atom  AN      X      Y      Z        X      Y      Z        X      Y      Z
     1   6    -0.00  -0.05  -0.01    -0.00   0.05  -0.00    -0.00   0.03   0.01
     2   6     0.00   0.02   0.02     0.00  -0.01  -0.00     0.00   0.02  -0.01
     3   6     0.00  -0.04   0.07    -0.00   0.00  -0.05    -0.00  -0.04   0.04
     4   6    -0.00   0.08  -0.11     0.00   0.00   0.05     0.00  -0.05  -0.08
     5   6     0.00   0.16  -0.13    -0.00  -0.11   0.11     0.00  -0.09  -0.00
     6   6    -0.00  -0.01  -0.01     0.00  -0.00   0.02     0.00   0.03   0.03
     7   6    -0.00   0.02   0.10     0.00  -0.00  -0.01    -0.00  -0.03  -0.01
     8   6    -0.00  -0.02   0.10     0.00  -0.00   0.01     0.00   0.03  -0.01
     9   6    -0.00  -0.16  -0.13    -0.00  -0.11  -0.11    -0.00   0.09  -0.00
    10   6     0.00   0.01  -0.01     0.00  -0.00  -0.02    -0.00  -0.03   0.03
    11   6     0.00   0.05  -0.01    -0.00   0.05   0.00     0.00  -0.03   0.01
    12   6    -0.00  -0.02   0.02     0.00  -0.01   0.00    -0.00  -0.02  -0.01
    13   6    -0.00   0.04   0.07    -0.00   0.00   0.05     0.00   0.04   0.04
    14   6     0.00  -0.08  -0.11     0.00   0.00  -0.05    -0.00   0.05  -0.08
    15   1     0.00  -0.07   0.45    -0.00   0.06  -0.21    -0.00   0.03  -0.03
    16   1    -0.00  -0.13  -0.06     0.00  -0.01  -0.00    -0.00   0.18   0.09
    17   1     0.00  -0.27   0.19    -0.00   0.10  -0.10    -0.00  -0.39   0.22
    18   1    -0.00  -0.11   0.03     0.00   0.21  -0.08    -0.00   0.40  -0.17
    19   1    -0.00  -0.16   0.22    -0.00   0.50  -0.31     0.00  -0.18   0.08
    20   1     0.00   0.16   0.22    -0.00   0.50   0.31    -0.00   0.18   0.08
    21   1     0.00   0.11   0.03     0.00   0.21   0.08     0.00  -0.40  -0.17
    22   1    -0.00   0.07   0.45    -0.00   0.06   0.21     0.00  -0.03  -0.03
    23   1     0.00   0.13  -0.06     0.00  -0.01   0.00     0.00  -0.18   0.09
    24   1    -0.00   0.27   0.19    -0.00   0.10   0.10     0.00   0.39   0.22
                     43                     44                     45
                     B2                     A1                     B2
 Frequencies --   1307.0470              1337.5023              1401.1383
 Red. masses --      1.6611                 2.7275                 7.7598
 Frc consts  --      1.6719                 2.8748                 8.9756
 IR Inten    --      0.0004                 2.3316                 0.1410
  Atom  AN      X      Y      Z        X      Y      Z        X      Y      Z
     1   6    -0.00  -0.00  -0.03    -0.00   0.04  -0.02     0.00  -0.02   0.18
     2   6    -0.00  -0.01  -0.03     0.00   0.01   0.07    -0.00  -0.21  -0.11
     3   6    -0.00  -0.04  -0.02     0.00   0.01  -0.04     0.00   0.16  -0.07
     4   6     0.00  -0.03   0.10    -0.00   0.20  -0.05     0.00   0.03   0.26
     5   6    -0.00   0.09   0.07     0.00   0.00   0.11    -0.00  -0.19  -0.19
     6   6     0.00  -0.01  -0.03    -0.00  -0.10   0.01     0.00   0.19  -0.10
     7   6     0.00  -0.01  -0.05     0.00  -0.04  -0.04    -0.00   0.03   0.04
     8   6     0.00  -0.01   0.05    -0.00   0.04  -0.04    -0.00   0.03  -0.04
     9   6    -0.00   0.09  -0.07    -0.00  -0.00   0.11    -0.00  -0.19   0.19
    10   6     0.00  -0.01   0.03     0.00   0.10   0.01     0.00   0.19   0.10
    11   6    -0.00  -0.00   0.03     0.00  -0.04  -0.02     0.00  -0.02  -0.18
    12   6    -0.00  -0.01   0.03    -0.00  -0.01   0.07    -0.00  -0.21   0.11
    13   6    -0.00  -0.04   0.02    -0.00  -0.01  -0.04    -0.00   0.16   0.07
    14   6     0.00  -0.03  -0.10     0.00  -0.20  -0.05     0.00   0.03  -0.26
    15   1    -0.00  -0.01   0.15     0.00   0.04  -0.18    -0.00  -0.02   0.01
    16   1     0.00   0.17   0.08    -0.00  -0.35  -0.14     0.00   0.25   0.17
    17   1     0.00   0.39  -0.26     0.00  -0.32   0.14     0.00   0.10  -0.03
    18   1     0.00  -0.39   0.17    -0.00   0.15  -0.12     0.00  -0.07   0.04
    19   1    -0.00   0.01  -0.07    -0.00   0.21  -0.21    -0.00  -0.22   0.19
    20   1    -0.00   0.01   0.07     0.00  -0.21  -0.21    -0.00  -0.22  -0.19
    21   1     0.00  -0.39  -0.17     0.00  -0.15  -0.12     0.00  -0.07  -0.04
    22   1    -0.00  -0.01  -0.15    -0.00  -0.04  -0.18    -0.00  -0.02  -0.01
    23   1     0.00   0.17  -0.08     0.00   0.35  -0.14     0.00   0.25  -0.17
    24   1     0.00   0.39   0.26    -0.00   0.32   0.14     0.00   0.10   0.03
                     46                     47                     48
                     A1                     B2                     A1
 Frequencies --   1401.2064              1451.0686              1466.3627
 Red. masses --      4.6428                 1.9594                 2.8263
 Frc consts  --      5.3708                 2.4308                 3.5806
 IR Inten    --      0.9064                 0.0815                 2.4011
  Atom  AN      X      Y      Z        X      Y      Z        X      Y      Z
     1   6     0.00   0.03  -0.17    -0.00  -0.02  -0.07     0.00  -0.03  -0.00
     2   6    -0.00   0.10   0.02     0.00  -0.04   0.00    -0.00  -0.09   0.01
     3   6    -0.00  -0.17   0.08    -0.00   0.01   0.05    -0.00   0.11   0.00
     4   6     0.00  -0.11  -0.14    -0.00   0.02  -0.08     0.00  -0.04  -0.10
     5   6    -0.00   0.09   0.18    -0.00  -0.01  -0.04    -0.00  -0.01   0.16
     6   6     0.00  -0.09   0.08     0.00   0.08   0.00     0.00   0.10  -0.08
     7   6     0.00   0.01  -0.05     0.00  -0.07   0.12     0.00   0.08  -0.05
     8   6    -0.00  -0.01  -0.05     0.00  -0.07  -0.12    -0.00  -0.08  -0.05
     9   6     0.00  -0.09   0.18    -0.00  -0.01   0.04     0.00   0.01   0.16
    10   6    -0.00   0.09   0.08     0.00   0.08  -0.00    -0.00  -0.10  -0.08
    11   6    -0.00  -0.03  -0.17    -0.00  -0.02   0.07    -0.00   0.03  -0.00
    12   6     0.00  -0.10   0.02     0.00  -0.04  -0.00     0.00   0.09   0.01
    13   6    -0.00   0.17   0.08    -0.00   0.01  -0.05     0.00  -0.11   0.00
    14   6    -0.00   0.11  -0.14    -0.00   0.02   0.08    -0.00   0.04  -0.10
    15   1    -0.00   0.03   0.23     0.00  -0.03   0.35    -0.00  -0.04   0.20
    16   1     0.00   0.19   0.06    -0.00   0.16   0.13     0.00   0.03   0.10
    17   1     0.00   0.34  -0.19    -0.00   0.02   0.06    -0.00  -0.31   0.23
    18   1     0.00  -0.06   0.08    -0.00  -0.21   0.16     0.00  -0.42   0.20
    19   1    -0.00   0.22  -0.18    -0.00   0.44  -0.17     0.00   0.02  -0.01
    20   1     0.00  -0.22  -0.18    -0.00   0.44   0.17    -0.00  -0.02  -0.01
    21   1    -0.00   0.06   0.08    -0.00  -0.21  -0.16    -0.00   0.42   0.20
    22   1     0.00  -0.03   0.23     0.00  -0.03  -0.35     0.00   0.04   0.20
    23   1    -0.00  -0.19   0.06    -0.00   0.16  -0.13    -0.00  -0.03   0.10
    24   1    -0.00  -0.34  -0.19    -0.00   0.02  -0.06     0.00   0.31   0.23
                     49                     50                     51
                     A1                     B2                     B2
 Frequencies --   1484.1738              1499.1559              1552.6701
 Red. masses --      2.9009                 2.3436                 3.4018
 Frc consts  --      3.7648                 3.1033                 4.8319
 IR Inten    --      2.4597                12.4163                 5.6604
  Atom  AN      X      Y      Z        X      Y      Z        X      Y      Z
     1   6    -0.00   0.03  -0.11     0.00   0.07  -0.06    -0.00   0.01   0.15
     2   6     0.00  -0.11  -0.01    -0.00  -0.05  -0.06     0.00   0.04  -0.08
     3   6     0.00   0.01   0.05     0.00  -0.09   0.09     0.00  -0.10   0.05
     4   6    -0.00   0.15   0.00    -0.00   0.08  -0.04    -0.00   0.03   0.04
     5   6     0.00  -0.11  -0.03     0.00  -0.08  -0.03     0.00   0.13  -0.13
     6   6    -0.00   0.07   0.04    -0.00  -0.05   0.09    -0.00  -0.08  -0.02
     7   6    -0.00  -0.13   0.01    -0.00   0.05  -0.03     0.00  -0.09   0.12
     8   6     0.00   0.13   0.01    -0.00   0.05   0.03     0.00  -0.09  -0.12
     9   6    -0.00   0.11  -0.03     0.00  -0.08   0.03     0.00   0.13   0.13
    10   6     0.00  -0.07   0.04    -0.00  -0.05  -0.09    -0.00  -0.08   0.02
    11   6     0.00  -0.03  -0.11     0.00   0.07   0.06    -0.00   0.01  -0.15
    12   6    -0.00   0.11  -0.01    -0.00  -0.05   0.06     0.00   0.04   0.08
    13   6    -0.00  -0.01   0.05     0.00  -0.09  -0.09     0.00  -0.10  -0.05
    14   6     0.00  -0.15   0.00    -0.00   0.08   0.04    -0.00   0.03  -0.04
    15   1     0.00   0.03   0.44    -0.00   0.09   0.12     0.00   0.02  -0.36
    16   1    -0.00   0.28   0.23    -0.00   0.35   0.18    -0.00   0.05  -0.09
    17   1     0.00   0.24  -0.07    -0.00   0.35  -0.13     0.00   0.23  -0.14
    18   1    -0.00  -0.07   0.13    -0.00   0.24  -0.06     0.00   0.20  -0.19
    19   1     0.00   0.01  -0.09     0.00  -0.22   0.13    -0.00   0.31  -0.10
    20   1    -0.00  -0.01  -0.09     0.00  -0.22  -0.13    -0.00   0.31   0.10
    21   1     0.00   0.07   0.13    -0.00   0.24   0.06     0.00   0.20   0.19
    22   1    -0.00  -0.03   0.44    -0.00   0.09  -0.12     0.00   0.02   0.36
    23   1     0.00  -0.28   0.23    -0.00   0.35  -0.18    -0.00   0.05   0.09
    24   1    -0.00  -0.24  -0.07    -0.00   0.35   0.13     0.00   0.23   0.14
                     52                     53                     54
                     A1                     B2                     A1
 Frequencies --   1580.3856              1630.5064              1664.3984
 Red. masses --      3.8773                 7.3813                 5.6850
 Frc consts  --      5.7057                11.5619                 9.2788
 IR Inten    --      1.2233                 0.0637                 3.9030
  Atom  AN      X      Y      Z        X      Y      Z        X      Y      Z
     1   6    -0.00  -0.08  -0.15     0.00  -0.06  -0.20    -0.00   0.09  -0.21
     2   6     0.00   0.16   0.15     0.00   0.24   0.16    -0.00  -0.11   0.05
     3   6     0.00   0.00  -0.10     0.00  -0.14  -0.08    -0.00   0.16  -0.08
     4   6    -0.00  -0.09   0.09    -0.00   0.07   0.24     0.00  -0.05   0.09
     5   6     0.00  -0.06  -0.04     0.00  -0.12  -0.21    -0.00   0.02  -0.07
     6   6    -0.00   0.10   0.02    -0.00   0.04   0.10     0.00  -0.16   0.17
     7   6     0.00  -0.11   0.01    -0.00  -0.00   0.06    -0.00   0.21  -0.02
     8   6    -0.00   0.11   0.01    -0.00  -0.00  -0.06     0.00  -0.21  -0.02
     9   6    -0.00   0.06  -0.04     0.00  -0.12   0.21     0.00  -0.02  -0.07
    10   6     0.00  -0.10   0.02    -0.00   0.04  -0.10    -0.00   0.16   0.17
    11   6     0.00   0.08  -0.15     0.00  -0.06   0.20     0.00  -0.09  -0.21
    12   6    -0.00  -0.16   0.15    -0.00   0.24  -0.16     0.00   0.11   0.05
    13   6    -0.00  -0.00  -0.10     0.00  -0.14   0.08     0.00  -0.16  -0.08
    14   6     0.00   0.09   0.09    -0.00   0.07  -0.24    -0.00   0.05   0.09
    15   1     0.00  -0.10   0.22     0.00  -0.08   0.19    -0.00   0.09   0.26
    16   1    -0.00  -0.35  -0.14    -0.00  -0.30  -0.16     0.00   0.06   0.17
    17   1     0.00  -0.32   0.05     0.00   0.01  -0.18    -0.00  -0.20   0.12
    18   1     0.00  -0.17   0.17    -0.00   0.06   0.10     0.00   0.27  -0.04
    19   1    -0.00   0.04  -0.08    -0.00  -0.01   0.06    -0.00  -0.11   0.19
    20   1     0.00  -0.04  -0.08    -0.00  -0.01  -0.06     0.00   0.11   0.19
    21   1    -0.00   0.17   0.17    -0.00   0.06  -0.10    -0.00  -0.27  -0.04
    22   1    -0.00   0.10   0.22     0.00  -0.08  -0.19     0.00  -0.09   0.26
    23   1     0.00   0.35  -0.14    -0.00  -0.30   0.16    -0.00  -0.06   0.17
    24   1    -0.00   0.32   0.05     0.00   0.01   0.18     0.00   0.20   0.12
                     55                     56                     57
                     B2                     A1                     B2
 Frequencies --   1679.4886              1683.9015              3163.3416
 Red. masses --      6.3324                 6.7174                 1.0865
 Frc consts  --     10.5238                11.2224                 6.4059
 IR Inten    --      0.3651                 0.2624                 0.1196
  Atom  AN      X      Y      Z        X      Y      Z        X      Y      Z
     1   6     0.00  -0.10   0.16     0.00  -0.05  -0.02    -0.00  -0.01  -0.00
     2   6     0.00   0.16  -0.02     0.00   0.14   0.04     0.00   0.00  -0.01
     3   6    -0.00  -0.21   0.09     0.00  -0.16   0.03    -0.00   0.00   0.00
     4   6     0.00   0.09  -0.13    -0.00   0.19   0.01     0.00   0.00   0.00
     5   6    -0.00  -0.16   0.10     0.00  -0.21  -0.00    -0.00  -0.00   0.00
     6   6     0.00   0.21  -0.15     0.00   0.10  -0.01     0.00   0.01   0.03
     7   6    -0.00   0.04  -0.05    -0.00   0.34  -0.06     0.00  -0.02  -0.04
     8   6    -0.00   0.04   0.05     0.00  -0.34  -0.06     0.00  -0.02   0.04
     9   6     0.00  -0.16  -0.10    -0.00   0.21  -0.00    -0.00  -0.00  -0.00
    10   6     0.00   0.21   0.15     0.00  -0.10  -0.01     0.00   0.01  -0.03
    11   6     0.00  -0.10  -0.16    -0.00   0.05  -0.02    -0.00  -0.01   0.00
    12   6     0.00   0.16   0.02    -0.00  -0.14   0.04     0.00   0.00   0.01
    13   6    -0.00  -0.21  -0.09    -0.00   0.16   0.03    -0.00   0.00  -0.00
    14   6     0.00   0.09   0.13     0.00  -0.19   0.01     0.00   0.00  -0.00
    15   1    -0.00  -0.11  -0.19    -0.00  -0.06   0.00     0.00   0.18   0.00
    16   1    -0.00  -0.08  -0.18    -0.00  -0.09  -0.10     0.00  -0.05   0.08
    17   1    -0.00   0.21  -0.13    -0.00   0.19  -0.15    -0.00  -0.02  -0.03
    18   1    -0.00  -0.29   0.10    -0.00  -0.08   0.09     0.00  -0.15  -0.29
    19   1     0.00  -0.11   0.04     0.00  -0.23   0.30    -0.00   0.30   0.51
    20   1     0.00  -0.11  -0.04    -0.00   0.23   0.30    -0.00   0.30  -0.51
    21   1    -0.00  -0.29  -0.10     0.00   0.08   0.09     0.00  -0.15   0.29
    22   1    -0.00  -0.11   0.19     0.00   0.06   0.00     0.00   0.18  -0.00
    23   1    -0.00  -0.08   0.18     0.00   0.09  -0.10     0.00  -0.05  -0.08
    24   1    -0.00   0.21   0.13     0.00  -0.19  -0.15    -0.00  -0.02   0.03
                     58                     59                     60
                     A1                     B2                     B2
 Frequencies --   3165.7034              3166.4898              3175.5231
 Red. masses --      1.0866                 1.0862                 1.0895
 Frc consts  --      6.4161                 6.4169                 6.4731
 IR Inten    --      2.5084                 1.7968                 0.0600
  Atom  AN      X      Y      Z        X      Y      Z        X      Y      Z
     1   6    -0.00   0.03   0.00    -0.00   0.03   0.00     0.00  -0.01   0.00
     2   6     0.00  -0.01   0.02     0.00  -0.01   0.02     0.00   0.02  -0.04
     3   6    -0.00  -0.00  -0.00    -0.00  -0.00  -0.01     0.00   0.01   0.02
     4   6    -0.00  -0.00   0.00     0.00   0.00   0.00    -0.00   0.00   0.00
     5   6     0.00   0.00  -0.00    -0.00   0.00  -0.00     0.00   0.00  -0.00
     6   6    -0.00  -0.02  -0.04     0.00  -0.02  -0.03    -0.00  -0.02  -0.03
     7   6    -0.00   0.00   0.01    -0.00  -0.02  -0.03    -0.00  -0.00  -0.01
     8   6     0.00  -0.00   0.01     0.00  -0.02   0.03    -0.00  -0.00   0.01
     9   6    -0.00  -0.00  -0.00    -0.00   0.00   0.00     0.00   0.00   0.00
    10   6     0.00   0.02  -0.04     0.00  -0.02   0.03    -0.00  -0.02   0.03
    11   6     0.00  -0.03   0.00    -0.00   0.03  -0.00     0.00  -0.01  -0.00
    12   6    -0.00   0.01   0.02     0.00  -0.01  -0.02    -0.00   0.02   0.04
    13   6     0.00   0.00  -0.00    -0.00  -0.00   0.01     0.00   0.01  -0.02
    14   6     0.00   0.00   0.00     0.00   0.00  -0.00    -0.00   0.00  -0.00
    15   1     0.00  -0.37  -0.01    -0.00  -0.33  -0.01    -0.00   0.12  -0.00
    16   1    -0.00   0.11  -0.19     0.00   0.12  -0.20    -0.00  -0.27   0.45
    17   1     0.00   0.03   0.05    -0.00   0.04   0.08     0.00  -0.11  -0.21
    18   1     0.00   0.26   0.48     0.00   0.20   0.37    -0.00   0.18   0.33
    19   1    -0.00  -0.04  -0.06     0.00   0.19   0.33     0.00   0.04   0.07
    20   1     0.00   0.04  -0.06    -0.00   0.19  -0.33     0.00   0.04  -0.07
    21   1    -0.00  -0.26   0.48     0.00   0.20  -0.37    -0.00   0.18  -0.33
    22   1    -0.00   0.37  -0.01     0.00  -0.33   0.01    -0.00   0.12   0.00
    23   1     0.00  -0.11  -0.19     0.00   0.12   0.20    -0.00  -0.27  -0.45
    24   1    -0.00  -0.03   0.05    -0.00   0.04  -0.08     0.00  -0.11   0.21
                     61                     62                     63
                     A1                     A1                     B2
 Frequencies --   3176.4908              3183.2467              3189.3352
 Red. masses --      1.0906                 1.0970                 1.0948
 Frc consts  --      6.4835                 6.5491                 6.5610
 IR Inten    --     16.0109                30.6701                44.2579
  Atom  AN      X      Y      Z        X      Y      Z        X      Y      Z
     1   6    -0.00  -0.02   0.00     0.00   0.01   0.00     0.00  -0.05  -0.00
     2   6     0.00   0.03  -0.04    -0.00   0.00  -0.01    -0.00  -0.00   0.01
     3   6     0.00   0.00   0.01    -0.00   0.00   0.00     0.00  -0.01  -0.03
     4   6    -0.00   0.00   0.00     0.00   0.00   0.00    -0.00  -0.00   0.00
     5   6     0.00   0.00  -0.00    -0.00  -0.00   0.00     0.00   0.00   0.00
     6   6    -0.00  -0.01  -0.03     0.00  -0.00  -0.01    -0.00  -0.01  -0.02
     7   6    -0.00   0.01   0.01     0.00  -0.03  -0.05     0.00  -0.00  -0.00
     8   6     0.00  -0.01   0.01    -0.00   0.03  -0.05     0.00  -0.00   0.00
     9   6    -0.00  -0.00  -0.00     0.00   0.00   0.00     0.00   0.00  -0.00
    10   6     0.00   0.01  -0.03    -0.00   0.00  -0.01    -0.00  -0.01   0.02
    11   6     0.00   0.02   0.00    -0.00  -0.01   0.00     0.00  -0.05   0.00
    12   6    -0.00  -0.03  -0.04     0.00  -0.00  -0.01    -0.00  -0.00  -0.01
    13   6    -0.00  -0.00   0.01     0.00  -0.00   0.00     0.00  -0.01   0.03
    14   6     0.00  -0.00   0.00    -0.00  -0.00   0.00    -0.00  -0.00  -0.00
    15   1     0.00   0.20   0.00    -0.00  -0.06  -0.00     0.00   0.53   0.01
    16   1    -0.00  -0.28   0.47     0.00  -0.05   0.08    -0.00   0.07  -0.13
    17   1     0.00  -0.06  -0.12    -0.00  -0.01  -0.02     0.00   0.16   0.31
    18   1    -0.00   0.17   0.31    -0.00   0.04   0.07    -0.00   0.12   0.22
    19   1    -0.00  -0.06  -0.09     0.00   0.35   0.59    -0.00   0.01   0.02
    20   1     0.00   0.06  -0.09    -0.00  -0.35   0.59    -0.00   0.01  -0.02
    21   1     0.00  -0.17   0.31     0.00  -0.04   0.07    -0.00   0.12  -0.22
    22   1    -0.00  -0.20   0.00     0.00   0.06  -0.00    -0.00   0.53  -0.01
    23   1     0.00   0.28   0.47    -0.00   0.05   0.08    -0.00   0.07   0.13
    24   1    -0.00   0.06  -0.12     0.00   0.01  -0.02     0.00   0.16  -0.31
                     64                     65                     66
                     A1                     B2                     A1
 Frequencies --   3191.6988              3199.5709              3211.9503
 Red. masses --      1.0963                 1.0971                 1.0913
 Frc consts  --      6.5802                 6.6173                 6.6335
 IR Inten    --      0.6955                 9.7735                18.6204
  Atom  AN      X      Y      Z        X      Y      Z        X      Y      Z
     1   6    -0.00  -0.05  -0.00    -0.00   0.02   0.00     0.00   0.01   0.00
     2   6     0.00  -0.01   0.03    -0.00   0.02  -0.03    -0.00   0.01  -0.02
     3   6    -0.00  -0.00  -0.01    -0.00  -0.02  -0.04    -0.00  -0.03  -0.05
     4   6    -0.00  -0.00   0.00     0.00  -0.00   0.00     0.00  -0.00   0.00
     5   6     0.00   0.00   0.00    -0.00  -0.00   0.00    -0.00   0.00   0.00
     6   6    -0.00  -0.01  -0.02     0.00   0.00   0.01     0.00   0.00   0.00
     7   6    -0.00  -0.00  -0.01     0.00   0.00   0.00     0.00   0.00   0.00
     8   6     0.00   0.00  -0.01     0.00   0.00  -0.00    -0.00  -0.00   0.00
     9   6    -0.00  -0.00   0.00    -0.00  -0.00  -0.00     0.00  -0.00   0.00
    10   6     0.00   0.01  -0.02     0.00   0.00  -0.01    -0.00  -0.00   0.00
    11   6    -0.00   0.05  -0.00    -0.00   0.02  -0.00    -0.00  -0.01   0.00
    12   6    -0.00   0.01   0.03    -0.00   0.02   0.03     0.00  -0.01  -0.02
    13   6     0.00   0.00  -0.01    -0.00  -0.02   0.04    -0.00   0.03  -0.05
    14   6     0.00   0.00   0.00     0.00  -0.00  -0.00    -0.00   0.00   0.00
    15   1     0.00   0.56   0.01    -0.00  -0.23  -0.01    -0.00  -0.06  -0.00
    16   1    -0.00   0.16  -0.27     0.00  -0.19   0.31     0.00  -0.10   0.17
    17   1     0.00   0.07   0.14    -0.00   0.26   0.49    -0.00   0.31   0.59
    18   1    -0.00   0.11   0.22     0.00  -0.04  -0.08     0.00  -0.01  -0.03
    19   1     0.00   0.04   0.06    -0.00  -0.00  -0.01     0.00  -0.00  -0.01
    20   1    -0.00  -0.04   0.06    -0.00  -0.00   0.01    -0.00   0.00  -0.01
    21   1     0.00  -0.11   0.22     0.00  -0.04   0.08    -0.00   0.01  -0.03
    22   1    -0.00  -0.56   0.01     0.00  -0.23   0.01     0.00   0.06  -0.00
    23   1     0.00  -0.16  -0.27     0.00  -0.19  -0.31    -0.00   0.10   0.17
    24   1    -0.00  -0.07   0.14    -0.00   0.26  -0.49     0.00  -0.31   0.59

 -------------------
 - Thermochemistry -
 -------------------
 Temperature   298.150 Kelvin.  Pressure   0.98700 Atm.
 Thermochemistry will use frequencies scaled by 0.9610.
 Atom     1 has atomic number  6 and mass  12.00000
 Atom     2 has atomic number  6 and mass  12.00000
 Atom     3 has atomic number  6 and mass  12.00000
 Atom     4 has atomic number  6 and mass  12.00000
 Atom     5 has atomic number  6 and mass  12.00000
 Atom     6 has atomic number  6 and mass  12.00000
 Atom     7 has atomic number  6 and mass  12.00000
 Atom     8 has atomic number  6 and mass  12.00000
 Atom     9 has atomic number  6 and mass  12.00000
 Atom    10 has atomic number  6 and mass  12.00000
 Atom    11 has atomic number  6 and mass  12.00000
 Atom    12 has atomic number  6 and mass  12.00000
 Atom    13 has atomic number  6 and mass  12.00000
 Atom    14 has atomic number  6 and mass  12.00000
 Atom    15 has atomic number  1 and mass   1.00783
 Atom    16 has atomic number  1 and mass   1.00783
 Atom    17 has atomic number  1 and mass   1.00783
 Atom    18 has atomic number  1 and mass   1.00783
 Atom    19 has atomic number  1 and mass   1.00783
 Atom    20 has atomic number  1 and mass   1.00783
 Atom    21 has atomic number  1 and mass   1.00783
 Atom    22 has atomic number  1 and mass   1.00783
 Atom    23 has atomic number  1 and mass   1.00783
 Atom    24 has atomic number  1 and mass   1.00783
 Molecular mass:   178.07825 amu.
 Principal axes and moments of inertia in atomic units:
                           1         2         3
     Eigenvalues --  1121.612793286.308344407.92112
           X            0.00000   0.00000   1.00000
           Y            1.00000   0.00000  -0.00000
           Z            0.00000   1.00000   0.00000
 This molecule is an asymmetric top.
 Rotational symmetry number  2.
 Warning -- assumption of classical behavior for rotation
           may cause significant error
 Rotational temperatures (Kelvin)      0.07722     0.02636     0.01965
 Rotational constants (GHZ):           1.60906     0.54917     0.40943
 Zero-point vibrational energy     492925.4 (Joules/Mol)
                                  117.81200 (Kcal/Mol)
 Warning -- explicit consideration of  15 degrees of freedom as
           vibrations may cause significant error
 Vibrational temperatures:    138.73   141.67   322.51   341.60   345.52
          (Kelvin)            565.47   572.59   616.12   622.53   703.02
                              717.71   774.96   777.01   845.93   875.27
                             1008.66  1009.13  1035.21  1053.35  1081.79
                             1155.01  1169.12  1169.57  1235.51  1249.59
                             1293.54  1353.35  1359.40  1393.08  1409.31
                             1411.85  1414.35  1474.91  1480.57  1545.80
                             1605.69  1614.84  1628.95  1634.38  1714.97
                             1725.05  1753.81  1807.21  1849.32  1937.30
                             1937.40  2006.34  2027.49  2052.11  2072.83
                             2146.82  2185.14  2254.44  2301.30  2322.17
                             2328.27  4373.84  4377.11  4378.19  4390.68
                             4392.02  4401.36  4409.78  4413.05  4423.93
                             4441.05
 
 Zero-point correction=                           0.187745 (Hartree/Particle)
 Thermal correction to Energy=                    0.197456
 Thermal correction to Enthalpy=                  0.198400
 Thermal correction to Gibbs Free Energy=         0.153357
 Sum of electronic and zero-point Energies=           -538.999778
 Sum of electronic and thermal Energies=              -538.990067
 Sum of electronic and thermal Enthalpies=            -538.989123
 Sum of electronic and thermal Free Energies=         -539.034167
 
                     E (Thermal)             CV                S
                      KCal/Mol        Cal/Mol-Kelvin    Cal/Mol-Kelvin
 Total                  123.906             41.858             94.802
 Electronic               0.000              0.000              0.000
 Translational            0.889              2.981             41.464
 Rotational               0.889              2.981             29.786
 Vibrational            122.128             35.896             23.551
 Vibration     1          0.603              1.952              3.525
 Vibration     2          0.604              1.950              3.484
 Vibration     3          0.649              1.804              1.925
 Vibration     4          0.656              1.783              1.822
 Vibration     5          0.657              1.779              1.802
 Vibration     6          0.760              1.485              0.989
 Vibration     7          0.764              1.474              0.970
 Vibration     8          0.790              1.409              0.864
 Vibration     9          0.794              1.399              0.850
 Vibration    10          0.845              1.275              0.687
 Vibration    11          0.854              1.253              0.661
 Vibration    12          0.894              1.165              0.568
 Vibration    13          0.895              1.161              0.565
 Vibration    14          0.945              1.057              0.471
 Vibration    15          0.967              1.014              0.436
                       Q            Log10(Q)             Ln(Q)
 Total Bot       0.288849D-70        -70.539330       -162.422809
 Total V=0       0.656852D+16         15.817468         36.421065
 Vib (Bot)       0.423067D-84        -84.373591       -194.277373
 Vib (Bot)    1  0.212982D+01          0.328342          0.756036
 Vib (Bot)    2  0.208487D+01          0.319078          0.734705
 Vib (Bot)    3  0.880892D+00         -0.055078         -0.126821
 Vib (Bot)    4  0.826839D+00         -0.082579         -0.190145
 Vib (Bot)    5  0.816432D+00         -0.088080         -0.202811
 Vib (Bot)    6  0.455807D+00         -0.341219         -0.785686
 Vib (Bot)    7  0.448526D+00         -0.348212         -0.801789
 Vib (Bot)    8  0.407448D+00         -0.389927         -0.897841
 Vib (Bot)    9  0.401851D+00         -0.395935         -0.911674
 Vib (Bot)   10  0.339737D+00         -0.468857         -1.079583
 Vib (Bot)   11  0.329814D+00         -0.481731         -1.109226
 Vib (Bot)   12  0.294528D+00         -0.530874         -1.222382
 Vib (Bot)   13  0.293356D+00         -0.532604         -1.226367
 Vib (Bot)   14  0.257110D+00         -0.589882         -1.358253
 Vib (Bot)   15  0.243344D+00         -0.613779         -1.413279
 Vib (V=0)       0.962069D+02          1.983206          4.566501
 Vib (V=0)    1  0.268772D+01          0.429384          0.988694
 Vib (V=0)    2  0.264398D+01          0.422259          0.972287
 Vib (V=0)    3  0.151290D+01          0.179811          0.414029
 Vib (V=0)    4  0.146626D+01          0.166212          0.382717
 Vib (V=0)    5  0.145737D+01          0.163571          0.376635
 Vib (V=0)    6  0.117658D+01          0.070621          0.162612
 Vib (V=0)    7  0.117170D+01          0.068815          0.158452
 Vib (V=0)    8  0.114499D+01          0.058802          0.135397
 Vib (V=0)    9  0.114147D+01          0.057465          0.132317
 Vib (V=0)   10  0.110450D+01          0.043166          0.099394
 Vib (V=0)   11  0.109898D+01          0.040990          0.094383
 Vib (V=0)   12  0.108030D+01          0.033544          0.077238
 Vib (V=0)   13  0.107971D+01          0.033305          0.076688
 Vib (V=0)   14  0.106223D+01          0.026220          0.060373
 Vib (V=0)   15  0.105607D+01          0.023694          0.054557
 Electronic      0.100000D+01          0.000000          0.000000
 Translational   0.946353D+08          7.976053         18.365541
 Rotational      0.721453D+06          5.858208         13.489023
 ***** Axes restored to original set *****
 -------------------------------------------------------------------
 Center     Atomic                   Forces (Hartrees/Bohr)
 Number     Number              X              Y              Z
 -------------------------------------------------------------------
      1        6          -0.000002048    0.000005707    0.000000019
      2        6          -0.000003452   -0.000001604   -0.000000002
      3        6           0.000004595    0.000002256    0.000000003
      4        6          -0.000006187   -0.000011831   -0.000000032
      5        6           0.000002325    0.000026086    0.000000079
      6        6           0.000004734   -0.000008410   -0.000000030
      7        6           0.000011115   -0.000013884   -0.000000051
      8        6          -0.000011135   -0.000013868   -0.000000034
      9        6          -0.000002287    0.000026089    0.000000082
     10        6          -0.000004747   -0.000008404   -0.000000022
     11        6           0.000002056    0.000005704    0.000000016
     12        6           0.000003450   -0.000001609   -0.000000008
     13        6          -0.000004592    0.000002262    0.000000010
     14        6           0.000006169   -0.000011840   -0.000000041
     15        1           0.000003056    0.000002331    0.000000005
     16        1          -0.000001620   -0.000005694   -0.000000016
     17        1          -0.000002871   -0.000002741   -0.000000006
     18        1           0.000001041    0.000001386    0.000000003
     19        1          -0.000005685    0.000006396    0.000000024
     20        1           0.000005695    0.000006388    0.000000015
     21        1          -0.000001039    0.000001388    0.000000005
     22        1          -0.000003052    0.000002336    0.000000010
     23        1           0.000001611   -0.000005696   -0.000000019
     24        1           0.000002867   -0.000002746   -0.000000011
 -------------------------------------------------------------------
 Cartesian Forces:  Max     0.000026089 RMS     0.000006440
 FormGI is forming the generalized inverse of G from B-inverse, IUseBI=4.

 GradGradGradGradGradGradGradGradGradGradGradGradGradGradGradGradGradGrad
 Berny optimization.
 Internal  Forces:  Max     0.000012996 RMS     0.000003503
 Search for a local minimum.
 Step number   1 out of a maximum of    2
 All quantities printed in internal units (Hartrees-Bohrs-Radians)
 Second derivative matrix not updated -- analytic derivatives used.
 ITU=  0
     Eigenvalues ---    0.00901   0.01319   0.01536   0.01687   0.01752
     Eigenvalues ---    0.01816   0.01932   0.02173   0.02181   0.02301
     Eigenvalues ---    0.02401   0.02465   0.02526   0.02569   0.02603
     Eigenvalues ---    0.02662   0.02707   0.02781   0.02831   0.02943
     Eigenvalues ---    0.02947   0.10923   0.10947   0.11406   0.11512
     Eigenvalues ---    0.12128   0.12139   0.12362   0.12395   0.12558
     Eigenvalues ---    0.12771   0.17771   0.18889   0.19271   0.19361
     Eigenvalues ---    0.19497   0.20097   0.20115   0.20646   0.21955
     Eigenvalues ---    0.26602   0.27691   0.29658   0.34760   0.35390
     Eigenvalues ---    0.35576   0.35625   0.35688   0.35702   0.35704
     Eigenvalues ---    0.35839   0.35888   0.36069   0.37254   0.37396
     Eigenvalues ---    0.38207   0.41376   0.42539   0.44268   0.44924
     Eigenvalues ---    0.47401   0.48824   0.48941   0.51666   0.51701
     Eigenvalues ---    0.53785
 Angle between quadratic step and forces=  26.24 degrees.
 Linear search not attempted -- first point.
 Iteration  1 RMS(Cart)=  0.00004104 RMS(Int)=  0.00000001
 Iteration  2 RMS(Cart)=  0.00000001 RMS(Int)=  0.00000001
 ClnCor:  largest displacement from symmetrization is 3.61D-08 for atom    18.
 Variable       Old X    -DE/DX   Delta X   Delta X   Delta X     New X
                                 (Linear)    (Quad)   (Total)
    R1        2.66337   0.00001   0.00000   0.00002   0.00002   2.66338
    R2        2.61404  -0.00000   0.00000  -0.00001  -0.00001   2.61403
    R3        2.06725   0.00000   0.00000   0.00001   0.00001   2.06726
    R4        2.61832  -0.00000   0.00000  -0.00001  -0.00001   2.61831
    R5        2.06739   0.00000   0.00000   0.00001   0.00001   2.06740
    R6        2.67587  -0.00000   0.00000   0.00000   0.00000   2.67587
    R7        2.06235   0.00000   0.00000   0.00001   0.00001   2.06236
    R8        2.69925   0.00001   0.00000   0.00004   0.00004   2.69929
    R9        2.75428  -0.00000   0.00000  -0.00001  -0.00001   2.75427
   R10        2.67609   0.00000   0.00000   0.00001   0.00001   2.67610
   R11        2.71404  -0.00001   0.00000  -0.00004  -0.00004   2.71400
   R12        2.06825   0.00000   0.00000   0.00001   0.00001   2.06826
   R13        2.57478   0.00001   0.00000   0.00002   0.00002   2.57481
   R14        2.06791   0.00000   0.00000   0.00001   0.00001   2.06792
   R15        2.71404  -0.00001   0.00000  -0.00004  -0.00004   2.71400
   R16        2.06791   0.00000   0.00000   0.00001   0.00001   2.06792
   R17        2.67609   0.00000   0.00000   0.00001   0.00001   2.67610
   R18        2.69925   0.00001   0.00000   0.00004   0.00004   2.69929
   R19        2.61404  -0.00000   0.00000  -0.00001  -0.00001   2.61403
   R20        2.06825   0.00000   0.00000   0.00001   0.00001   2.06826
   R21        2.66337   0.00001   0.00000   0.00002   0.00002   2.66338
   R22        2.06725   0.00000   0.00000   0.00001   0.00001   2.06726
   R23        2.61832  -0.00000   0.00000  -0.00001  -0.00001   2.61831
   R24        2.06739   0.00000   0.00000   0.00001   0.00001   2.06740
   R25        2.67587  -0.00000   0.00000   0.00000   0.00000   2.67587
   R26        2.06235   0.00000   0.00000   0.00001   0.00001   2.06236
    A1        2.08626   0.00000   0.00000   0.00000   0.00000   2.08626
    A2        2.09667   0.00000   0.00000   0.00002   0.00002   2.09668
    A3        2.10026  -0.00000   0.00000  -0.00002  -0.00002   2.10024
    A4        2.10040  -0.00000   0.00000  -0.00001  -0.00001   2.10039
    A5        2.09347   0.00000   0.00000   0.00004   0.00004   2.09351
    A6        2.08932  -0.00000   0.00000  -0.00003  -0.00003   2.08929
    A7        2.12038   0.00000   0.00000   0.00001   0.00001   2.12040
    A8        2.07043   0.00000   0.00000   0.00000   0.00000   2.07043
    A9        2.09237  -0.00000   0.00000  -0.00001  -0.00001   2.09236
   A10        2.05796   0.00000   0.00000   0.00000   0.00000   2.05796
   A11        2.14558  -0.00000   0.00000  -0.00001  -0.00001   2.14557
   A12        2.07965   0.00000   0.00000   0.00001   0.00001   2.07966
   A13        2.08778  -0.00001   0.00000  -0.00003  -0.00003   2.08775
   A14        2.08871  -0.00001   0.00000  -0.00003  -0.00003   2.08868
   A15        2.10670   0.00001   0.00000   0.00006   0.00006   2.10676
   A16        2.11359   0.00000   0.00000   0.00002   0.00002   2.11361
   A17        2.10040  -0.00000   0.00000  -0.00001  -0.00001   2.10039
   A18        2.06919  -0.00000   0.00000  -0.00001  -0.00001   2.06919
   A19        2.11483   0.00000   0.00000   0.00002   0.00002   2.11485
   A20        2.06455   0.00001   0.00000   0.00007   0.00007   2.06462
   A21        2.10381  -0.00001   0.00000  -0.00009  -0.00009   2.10372
   A22        2.11483   0.00000   0.00000   0.00002   0.00002   2.11485
   A23        2.10381  -0.00001   0.00000  -0.00009  -0.00009   2.10372
   A24        2.06455   0.00001   0.00000   0.00007   0.00007   2.06462
   A25        2.10670   0.00001   0.00000   0.00006   0.00006   2.10676
   A26        2.08871  -0.00001   0.00000  -0.00003  -0.00003   2.08868
   A27        2.08778  -0.00001   0.00000  -0.00003  -0.00003   2.08775
   A28        2.11359   0.00000   0.00000   0.00002   0.00002   2.11361
   A29        2.06919  -0.00000   0.00000  -0.00001  -0.00001   2.06919
   A30        2.10040  -0.00000   0.00000  -0.00001  -0.00001   2.10039
   A31        2.08626   0.00000   0.00000   0.00000   0.00000   2.08626
   A32        2.10026  -0.00000   0.00000  -0.00002  -0.00002   2.10024
   A33        2.09667   0.00000   0.00000   0.00002   0.00002   2.09668
   A34        2.10040  -0.00000   0.00000  -0.00001  -0.00001   2.10039
   A35        2.09347   0.00000   0.00000   0.00004   0.00004   2.09351
   A36        2.08932  -0.00000   0.00000  -0.00003  -0.00003   2.08929
   A37        2.12038   0.00000   0.00000   0.00001   0.00001   2.12040
   A38        2.07043   0.00000   0.00000   0.00000   0.00000   2.07043
   A39        2.09237  -0.00000   0.00000  -0.00001  -0.00001   2.09236
   A40        2.07965   0.00000   0.00000   0.00001   0.00001   2.07966
   A41        2.14558  -0.00000   0.00000  -0.00001  -0.00001   2.14557
   A42        2.05796   0.00000   0.00000   0.00000   0.00000   2.05796
    D1       -0.00000   0.00000   0.00000   0.00000   0.00000   0.00000
    D2        3.14159  -0.00000   0.00000  -0.00000   0.00000   3.14159
    D3        3.14159   0.00000   0.00000   0.00000  -0.00000   3.14159
    D4        0.00000   0.00000   0.00000   0.00000   0.00000   0.00000
    D5       -0.00000  -0.00000   0.00000  -0.00000   0.00000  -0.00000
    D6       -3.14159   0.00000   0.00000   0.00000  -0.00000   3.14159
    D7        3.14159  -0.00000   0.00000  -0.00000   0.00000   3.14159
    D8       -0.00000   0.00000   0.00000  -0.00000   0.00000   0.00000
    D9        0.00000   0.00000   0.00000   0.00000  -0.00000   0.00000
   D10        3.14159  -0.00000   0.00000  -0.00000   0.00000   3.14159
   D11        3.14159   0.00000   0.00000   0.00000   0.00000   3.14159
   D12        0.00000  -0.00000   0.00000  -0.00000   0.00000   0.00000
   D13        0.00000  -0.00000   0.00000  -0.00000   0.00000   0.00000
   D14        3.14159  -0.00000   0.00000  -0.00000   0.00000   3.14159
   D15        3.14159   0.00000   0.00000   0.00000   0.00000   3.14159
   D16       -0.00000  -0.00000   0.00000  -0.00000   0.00000   0.00000
   D17       -0.00000   0.00000   0.00000   0.00000   0.00000   0.00000
   D18        3.14159  -0.00000   0.00000  -0.00000   0.00000   3.14159
   D19       -3.14159   0.00000   0.00000   0.00000  -0.00000   3.14159
   D20        0.00000   0.00000   0.00000   0.00000  -0.00000   0.00000
   D21        3.14159   0.00000   0.00000   0.00000   0.00000   3.14159
   D22        0.00000   0.00000   0.00000   0.00000   0.00000   0.00000
   D23       -0.00000   0.00000   0.00000   0.00000   0.00000   0.00000
   D24        3.14159  -0.00000   0.00000  -0.00000   0.00000   3.14159
   D25        0.00000   0.00000   0.00000   0.00000   0.00000   0.00000
   D26        3.14159  -0.00000   0.00000  -0.00000   0.00000   3.14159
   D27        3.14159   0.00000   0.00000   0.00000   0.00000   3.14159
   D28       -0.00000   0.00000   0.00000   0.00000  -0.00000  -0.00000
   D29       -0.00000  -0.00000   0.00000  -0.00000   0.00000   0.00000
   D30        3.14159   0.00000   0.00000  -0.00000   0.00000   3.14159
   D31        3.14159  -0.00000   0.00000  -0.00000   0.00000   3.14159
   D32        0.00000  -0.00000   0.00000  -0.00000   0.00000   0.00000
   D33        0.00000   0.00000   0.00000   0.00000  -0.00000   0.00000
   D34       -3.14159   0.00000   0.00000   0.00000  -0.00000   3.14159
   D35        3.14159  -0.00000   0.00000  -0.00000   0.00000   3.14159
   D36        0.00000  -0.00000   0.00000  -0.00000  -0.00000   0.00000
   D37        3.14159   0.00000   0.00000   0.00000   0.00000  -3.14159
   D38        0.00000   0.00000   0.00000   0.00000   0.00000   0.00000
   D39       -0.00000   0.00000   0.00000   0.00000   0.00000   0.00000
   D40        3.14159   0.00000   0.00000   0.00000   0.00000  -3.14159
   D41        3.14159  -0.00000   0.00000  -0.00000  -0.00000   3.14159
   D42       -0.00000  -0.00000   0.00000  -0.00000  -0.00000  -0.00000
   D43        0.00000  -0.00000   0.00000   0.00000   0.00000   0.00000
   D44        3.14159   0.00000   0.00000   0.00000   0.00000  -3.14159
   D45       -0.00000  -0.00000   0.00000  -0.00000   0.00000   0.00000
   D46        3.14159  -0.00000   0.00000  -0.00000   0.00000   3.14159
   D47        3.14159  -0.00000   0.00000  -0.00000  -0.00000   3.14159
   D48       -0.00000  -0.00000   0.00000  -0.00000  -0.00000  -0.00000
   D49       -0.00000   0.00000   0.00000   0.00000  -0.00000  -0.00000
   D50        3.14159   0.00000   0.00000   0.00000   0.00000   3.14159
   D51        3.14159   0.00000   0.00000   0.00000   0.00000   3.14159
   D52        0.00000  -0.00000   0.00000   0.00000  -0.00000   0.00000
   D53        0.00000  -0.00000   0.00000  -0.00000   0.00000   0.00000
   D54        3.14159  -0.00000   0.00000  -0.00000   0.00000   3.14159
   D55        3.14159  -0.00000   0.00000  -0.00000   0.00000   3.14159
   D56       -0.00000   0.00000   0.00000  -0.00000   0.00000   0.00000
   D57       -0.00000  -0.00000   0.00000  -0.00000   0.00000   0.00000
   D58        3.14159   0.00000   0.00000   0.00000   0.00000   3.14159
   D59        3.14159  -0.00000   0.00000  -0.00000   0.00000   3.14159
   D60        0.00000   0.00000   0.00000   0.00000  -0.00000   0.00000
   D61        3.14159   0.00000   0.00000   0.00000   0.00000   3.14159
   D62        0.00000   0.00000   0.00000   0.00000   0.00000   0.00000
   D63        0.00000   0.00000   0.00000   0.00000  -0.00000   0.00000
   D64        3.14159   0.00000   0.00000   0.00000   0.00000   3.14159
         Item               Value     Threshold  Converged?
 Maximum Force            0.000013     0.000450     YES
 RMS     Force            0.000004     0.000300     YES
 Maximum Displacement     0.000147     0.001800     YES
 RMS     Displacement     0.000041     0.001200     YES
 Predicted change in Energy=-4.257355D-09
 Optimization completed.
    -- Stationary point found.
                           ----------------------------
                           !   Optimized Parameters   !
                           ! (Angstroms and Degrees)  !
 --------------------------                            --------------------------
 ! Name  Definition              Value          Derivative Info.                !
 --------------------------------------------------------------------------------
 ! R1    R(1,2)                  1.4094         -DE/DX =    0.0                 !
 ! R2    R(1,6)                  1.3833         -DE/DX =    0.0                 !
 ! R3    R(1,15)                 1.0939         -DE/DX =    0.0                 !
 ! R4    R(2,3)                  1.3856         -DE/DX =    0.0                 !
 ! R5    R(2,16)                 1.094          -DE/DX =    0.0                 !
 ! R6    R(3,4)                  1.416          -DE/DX =    0.0                 !
 ! R7    R(3,17)                 1.0914         -DE/DX =    0.0                 !
 ! R8    R(4,5)                  1.4284         -DE/DX =    0.0                 !
 ! R9    R(4,14)                 1.4575         -DE/DX =    0.0                 !
 ! R10   R(5,6)                  1.4161         -DE/DX =    0.0                 !
 ! R11   R(5,7)                  1.4362         -DE/DX =    0.0                 !
 ! R12   R(6,18)                 1.0945         -DE/DX =    0.0                 !
 ! R13   R(7,8)                  1.3625         -DE/DX =    0.0                 !
 ! R14   R(7,19)                 1.0943         -DE/DX =    0.0                 !
 ! R15   R(8,9)                  1.4362         -DE/DX =    0.0                 !
 ! R16   R(8,20)                 1.0943         -DE/DX =    0.0                 !
 ! R17   R(9,10)                 1.4161         -DE/DX =    0.0                 !
 ! R18   R(9,14)                 1.4284         -DE/DX =    0.0                 !
 ! R19   R(10,11)                1.3833         -DE/DX =    0.0                 !
 ! R20   R(10,21)                1.0945         -DE/DX =    0.0                 !
 ! R21   R(11,12)                1.4094         -DE/DX =    0.0                 !
 ! R22   R(11,22)                1.0939         -DE/DX =    0.0                 !
 ! R23   R(12,13)                1.3856         -DE/DX =    0.0                 !
 ! R24   R(12,23)                1.094          -DE/DX =    0.0                 !
 ! R25   R(13,14)                1.416          -DE/DX =    0.0                 !
 ! R26   R(13,24)                1.0914         -DE/DX =    0.0                 !
 ! A1    A(2,1,6)              119.5338         -DE/DX =    0.0                 !
 ! A2    A(2,1,15)             120.1301         -DE/DX =    0.0                 !
 ! A3    A(6,1,15)             120.3361         -DE/DX =    0.0                 !
 ! A4    A(1,2,3)              120.3439         -DE/DX =    0.0                 !
 ! A5    A(1,2,16)             119.9468         -DE/DX =    0.0                 !
 ! A6    A(3,2,16)             119.7092         -DE/DX =    0.0                 !
 ! A7    A(2,3,4)              121.4891         -DE/DX =    0.0                 !
 ! A8    A(2,3,17)             118.6269         -DE/DX =    0.0                 !
 ! A9    A(4,3,17)             119.8841         -DE/DX =    0.0                 !
 ! A10   A(3,4,5)              117.9123         -DE/DX =    0.0                 !
 ! A11   A(3,4,14)             122.9326         -DE/DX =    0.0                 !
 ! A12   A(5,4,14)             119.1551         -DE/DX =    0.0                 !
 ! A13   A(4,5,6)              119.6209         -DE/DX =    0.0                 !
 ! A14   A(4,5,7)              119.6742         -DE/DX =    0.0                 !
 ! A15   A(6,5,7)              120.7049         -DE/DX =    0.0                 !
 ! A16   A(1,6,5)              121.1            -DE/DX =    0.0                 !
 ! A17   A(1,6,18)             120.3439         -DE/DX =    0.0                 !
 ! A18   A(5,6,18)             118.5561         -DE/DX =    0.0                 !
 ! A19   A(5,7,8)              121.1707         -DE/DX =    0.0                 !
 ! A20   A(5,7,19)             118.2899         -DE/DX =    0.0                 !
 ! A21   A(8,7,19)             120.5395         -DE/DX =    0.0                 !
 ! A22   A(7,8,9)              121.1707         -DE/DX =    0.0                 !
 ! A23   A(7,8,20)             120.5395         -DE/DX =    0.0                 !
 ! A24   A(9,8,20)             118.2899         -DE/DX =    0.0                 !
 ! A25   A(8,9,10)             120.7049         -DE/DX =    0.0                 !
 ! A26   A(8,9,14)             119.6742         -DE/DX =    0.0                 !
 ! A27   A(10,9,14)            119.6209         -DE/DX =    0.0                 !
 ! A28   A(9,10,11)            121.1            -DE/DX =    0.0                 !
 ! A29   A(9,10,21)            118.5561         -DE/DX =    0.0                 !
 ! A30   A(11,10,21)           120.3439         -DE/DX =    0.0                 !
 ! A31   A(10,11,12)           119.5338         -DE/DX =    0.0                 !
 ! A32   A(10,11,22)           120.3361         -DE/DX =    0.0                 !
 ! A33   A(12,11,22)           120.1301         -DE/DX =    0.0                 !
 ! A34   A(11,12,13)           120.3439         -DE/DX =    0.0                 !
 ! A35   A(11,12,23)           119.9468         -DE/DX =    0.0                 !
 ! A36   A(13,12,23)           119.7092         -DE/DX =    0.0                 !
 ! A37   A(12,13,14)           121.4891         -DE/DX =    0.0                 !
 ! A38   A(12,13,24)           118.6269         -DE/DX =    0.0                 !
 ! A39   A(14,13,24)           119.8841         -DE/DX =    0.0                 !
 ! A40   A(4,14,9)             119.1551         -DE/DX =    0.0                 !
 ! A41   A(4,14,13)            122.9326         -DE/DX =    0.0                 !
 ! A42   A(9,14,13)            117.9123         -DE/DX =    0.0                 !
 ! D1    D(6,1,2,3)              0.0            -DE/DX =    0.0                 !
 ! D2    D(6,1,2,16)           180.0            -DE/DX =    0.0                 !
 ! D3    D(15,1,2,3)           180.0            -DE/DX =    0.0                 !
 ! D4    D(15,1,2,16)            0.0            -DE/DX =    0.0                 !
 ! D5    D(2,1,6,5)              0.0            -DE/DX =    0.0                 !
 ! D6    D(2,1,6,18)           180.0            -DE/DX =    0.0                 !
 ! D7    D(15,1,6,5)           180.0            -DE/DX =    0.0                 !
 ! D8    D(15,1,6,18)            0.0            -DE/DX =    0.0                 !
 ! D9    D(1,2,3,4)              0.0            -DE/DX =    0.0                 !
 ! D10   D(1,2,3,17)           180.0            -DE/DX =    0.0                 !
 ! D11   D(16,2,3,4)           180.0            -DE/DX =    0.0                 !
 ! D12   D(16,2,3,17)            0.0            -DE/DX =    0.0                 !
 ! D13   D(2,3,4,5)              0.0            -DE/DX =    0.0                 !
 ! D14   D(2,3,4,14)           180.0            -DE/DX =    0.0                 !
 ! D15   D(17,3,4,5)           180.0            -DE/DX =    0.0                 !
 ! D16   D(17,3,4,14)            0.0            -DE/DX =    0.0                 !
 ! D17   D(3,4,5,6)              0.0            -DE/DX =    0.0                 !
 ! D18   D(3,4,5,7)            180.0            -DE/DX =    0.0                 !
 ! D19   D(14,4,5,6)           180.0            -DE/DX =    0.0                 !
 ! D20   D(14,4,5,7)             0.0            -DE/DX =    0.0                 !
 ! D21   D(3,4,14,9)           180.0            -DE/DX =    0.0                 !
 ! D22   D(3,4,14,13)            0.0            -DE/DX =    0.0                 !
 ! D23   D(5,4,14,9)             0.0            -DE/DX =    0.0                 !
 ! D24   D(5,4,14,13)          180.0            -DE/DX =    0.0                 !
 ! D25   D(4,5,6,1)              0.0            -DE/DX =    0.0                 !
 ! D26   D(4,5,6,18)           180.0            -DE/DX =    0.0                 !
 ! D27   D(7,5,6,1)            180.0            -DE/DX =    0.0                 !
 ! D28   D(7,5,6,18)             0.0            -DE/DX =    0.0                 !
 ! D29   D(4,5,7,8)              0.0            -DE/DX =    0.0                 !
 ! D30   D(4,5,7,19)           180.0            -DE/DX =    0.0                 !
 ! D31   D(6,5,7,8)            180.0            -DE/DX =    0.0                 !
 ! D32   D(6,5,7,19)             0.0            -DE/DX =    0.0                 !
 ! D33   D(5,7,8,9)              0.0            -DE/DX =    0.0                 !
 ! D34   D(5,7,8,20)           180.0            -DE/DX =    0.0                 !
 ! D35   D(19,7,8,9)           180.0            -DE/DX =    0.0                 !
 ! D36   D(19,7,8,20)            0.0            -DE/DX =    0.0                 !
 ! D37   D(7,8,9,10)          -180.0            -DE/DX =    0.0                 !
 ! D38   D(7,8,9,14)             0.0            -DE/DX =    0.0                 !
 ! D39   D(20,8,9,10)            0.0            -DE/DX =    0.0                 !
 ! D40   D(20,8,9,14)         -180.0            -DE/DX =    0.0                 !
 ! D41   D(8,9,10,11)          180.0            -DE/DX =    0.0                 !
 ! D42   D(8,9,10,21)            0.0            -DE/DX =    0.0                 !
 ! D43   D(14,9,10,11)           0.0            -DE/DX =    0.0                 !
 ! D44   D(14,9,10,21)        -180.0            -DE/DX =    0.0                 !
 ! D45   D(8,9,14,4)             0.0            -DE/DX =    0.0                 !
 ! D46   D(8,9,14,13)          180.0            -DE/DX =    0.0                 !
 ! D47   D(10,9,14,4)          180.0            -DE/DX =    0.0                 !
 ! D48   D(10,9,14,13)           0.0            -DE/DX =    0.0                 !
 ! D49   D(9,10,11,12)           0.0            -DE/DX =    0.0                 !
 ! D50   D(9,10,11,22)         180.0            -DE/DX =    0.0                 !
 ! D51   D(21,10,11,12)        180.0            -DE/DX =    0.0                 !
 ! D52   D(21,10,11,22)          0.0            -DE/DX =    0.0                 !
 ! D53   D(10,11,12,13)          0.0            -DE/DX =    0.0                 !
 ! D54   D(10,11,12,23)        180.0            -DE/DX =    0.0                 !
 ! D55   D(22,11,12,13)        180.0            -DE/DX =    0.0                 !
 ! D56   D(22,11,12,23)          0.0            -DE/DX =    0.0                 !
 ! D57   D(11,12,13,14)          0.0            -DE/DX =    0.0                 !
 ! D58   D(11,12,13,24)        180.0            -DE/DX =    0.0                 !
 ! D59   D(23,12,13,14)        180.0            -DE/DX =    0.0                 !
 ! D60   D(23,12,13,24)          0.0            -DE/DX =    0.0                 !
 ! D61   D(12,13,14,4)         180.0            -DE/DX =    0.0                 !
 ! D62   D(12,13,14,9)           0.0            -DE/DX =    0.0                 !
 ! D63   D(24,13,14,4)           0.0            -DE/DX =    0.0                 !
 ! D64   D(24,13,14,9)         180.0            -DE/DX =    0.0                 !
 --------------------------------------------------------------------------------
 GradGradGradGradGradGradGradGradGradGradGradGradGradGradGradGradGradGrad


 ----------------------------------------------------------------------

 Electric dipole moment (input orientation):
 (Debye = 10**-18 statcoulomb cm , SI units = C m)
                  (au)            (Debye)         (10**-30 SI)
   Tot        0.223656D-01      0.568476D-01      0.189623D+00
   x         -0.163511D-04     -0.415604D-04     -0.138631D-03
   y         -0.223655D-01     -0.568473D-01     -0.189622D+00
   z         -0.691618D-04     -0.175792D-03     -0.586378D-03

 Dipole polarizability, Alpha (input orientation).
 (esu units = cm**3 , SI units = C**2 m**2 J**-1)
 Alpha(0;0):
               (au)            (10**-24 esu)      (10**-40 SI)
   iso        0.153352D+03      0.227244D+02      0.252843D+02
   aniso      0.158369D+03      0.234679D+02      0.261116D+02
   xx         0.240116D+03      0.355815D+02      0.395898D+02
   yx        -0.566322D-01     -0.839203D-02     -0.933739D-02
   yy         0.162067D+03      0.240159D+02      0.267213D+02
   zx        -0.138194D+00     -0.204782D-01     -0.227850D-01
   zy         0.322311D+00      0.477616D-01      0.531419D-01
   zz         0.578724D+02      0.857580D+01      0.954186D+01

 ----------------------------------------------------------------------

 Dipole orientation:
     6          6.73434920          0.00525047          0.58457754
     6          5.44717524          0.00716922          2.91625304
     6          2.82969256          0.01107103          2.98221275
     6          1.37495388          0.01323957          0.73632852
     6          2.68996130          0.01127932         -1.62093606
     6          5.36596132          0.00729028         -1.64268995
     6          1.28520534          0.01337335         -3.94314827
     6         -1.28957337          0.01721150         -3.94314827
     6         -2.69432934          0.01930553         -1.62093606
     6         -5.37032936          0.02329457         -1.64268995
     6         -6.73871724          0.02533438          0.58457754
     6         -5.45154327          0.02341563          2.91625304
     6         -2.83406060          0.01951382          2.98221275
     6         -1.37932191          0.01734529          0.73632852
     1          8.80112380          0.00216959          0.54021332
     1          6.51668096          0.00557494          4.68550936
     1          1.88752875          0.01247549          4.81677879
     1          6.33982568          0.00583857         -3.46731600
     1          2.33597585          0.01180700         -5.72419851
     1         -2.34034389          0.01877785         -5.72419851
     1         -6.34419371          0.02474628         -3.46731600
     1         -8.80549184          0.02841527          0.54021332
     1         -6.52104899          0.02500991          4.68550936
     1         -1.89189678          0.01810937          4.81677879

 Electric dipole moment (dipole orientation):
 (Debye = 10**-18 statcoulomb cm , SI units = C m)
                  (au)            (Debye)         (10**-30 SI)
   Tot        0.223656D-01      0.568476D-01      0.189623D+00
   x          0.000000D+00      0.000000D+00      0.000000D+00
   y          0.000000D+00      0.000000D+00      0.000000D+00
   z          0.223656D-01      0.568476D-01      0.189623D+00

 Dipole polarizability, Alpha (dipole orientation).
 (esu units = cm**3 , SI units = C**2 m**2 J**-1)
 Alpha(0;0):
               (au)            (10**-24 esu)      (10**-40 SI)
   iso        0.153352D+03      0.227244D+02      0.252843D+02
   aniso      0.158369D+03      0.234679D+02      0.261116D+02
   xx         0.240116D+03      0.355815D+02      0.395897D+02
   yx        -0.271667D+00     -0.402568D-01     -0.447918D-01
   yy         0.578717D+02      0.857569D+01      0.954175D+01
   zx         0.000000D+00      0.000000D+00      0.000000D+00
   zy         0.000000D+00      0.000000D+00      0.000000D+00
   zz         0.162068D+03      0.240160D+02      0.267215D+02

 ----------------------------------------------------------------------
 Unable to Open any file for archive entry.
 1\1\GINC-NODE02\Freq\RB3LYP\def2SVPP\C14H10\XUHJ\12-Mar-2024\0\\#N Geo
 m=AllCheck Guess=TCheck SCRF=Check GenChk RB3LYP/def2SVPP Freq\\c1ccc2
 c(c1)ccc1ccccc12_1\\0,1\C,3.5634340233,-0.3119655506,0.0044271559\C,2.
 8813884518,-1.5453324809,0.0011290044\C,1.4962499797,-1.5792272921,0.0
 020731713\C,0.7273038634,-0.3902015488,0.0063330523\C,1.4240881747,0.8
 566957397,0.0096618898\C,2.8401756063,0.8671753965,0.0086218638\C,0.68
 16213202,2.0860930358,0.0140265826\C,-0.6808936558,2.087085954,0.01506
 15204\C,-1.4251573138,0.8587720968,0.0118261169\C,-2.8412279135,0.8713
 156585,0.0129373387\C,-3.5662096708,-0.3067698992,0.0098426837\C,-2.88
 59682251,-1.5411295815,0.0055097676\C,-1.5008807891,-1.5770431652,0.00
 43497289\C,-0.7301969277,-0.3891394108,0.0074401393\H,4.6571418122,-0.
 2892861488,0.0036690087\H,3.4466623418,-2.4819903134,-0.0021960816\H,0
 .9969683374,-2.5496696059,-0.0005501921\H,3.3562286167,1.8323454883,0.
 0112162194\H,1.2383544795,3.0281742685,0.0165187186\H,-1.2362487338,3.
 0299776091,0.0183983752\H,-3.3558691258,1.8372368576,0.016314588\H,-4.
 6598831331,-0.2824964667,0.0107460254\H,-3.452611071,-2.4769625418,0.0
 030444618\H,-1.0030186359,-2.5482121368,0.000968956\\Version=ES64L-G16
 RevC.01\State=1-A1\HF=-539.1875237\RMSD=7.998e-09\RMSF=6.440e-06\ZeroP
 oint=0.1877454\Thermal=0.1974563\ETot=-538.9900674\HTot=-538.9891232\G
 Tot=-539.0341666\Dipole=-0.0000164,-0.0223655,-0.0000692\DipoleDeriv=0
 .0798565,0.0352909,-0.0000403,0.0412344,-0.0583793,0.0001517,-0.000021
 9,0.0001562,-0.1175238,-0.0739654,-0.0803192,-0.0002804,-0.0297566,0.0
 960166,0.000679,-0.0001241,0.0007173,-0.1162418,-0.099634,0.0833748,0.
 000257,0.0179441,0.0466618,0.0004425,0.0000546,0.0003929,-0.1007858,0.
 1381054,-0.0564077,-0.0002761,-0.0467144,-0.06582,-0.0001804,-0.000246
 1,-0.000173,0.0039371,0.0308336,-0.1419083,-0.0004614,-0.1700121,-0.08
 0562,-0.000124,-0.0005483,-0.0001452,0.0011456,0.0031421,0.081965,0.00
 01728,0.1685152,0.1002886,0.0005025,0.0004405,0.000568,-0.1034361,-0.0
 353815,0.0862275,0.0002091,-0.077996,0.12433,0.0007881,-0.0002988,0.00
 06637,-0.11137,-0.0353931,-0.0859936,-0.0003235,0.0782299,0.1243416,0.
 0006698,0.0001844,0.0007942,-0.1113699,0.0312894,0.1417449,0.0004156,0
 .1698487,-0.0810163,-0.0003827,0.0005025,-0.0003615,0.0011442,0.002776
 1,-0.0818219,-0.0003335,-0.1683722,0.1006535,0.0007587,-0.0006012,0.00
 06932,-0.1034349,0.0797444,-0.0354919,-0.0002592,-0.0414355,-0.0582675
 ,0.0002147,-0.0002776,0.0002102,-0.1175234,-0.0738041,0.0805677,0.0002
 17,0.0300051,0.0958558,0.0006333,0.0000607,0.000595,-0.1162424,-0.0997
 819,-0.0831607,-0.000258,-0.0177299,0.0468092,0.0004699,-0.0000556,0.0
 005195,-0.1007853,0.1382558,0.0561099,0.0000718,0.0464166,-0.0659698,-
 0.0002514,0.0000418,-0.0002587,0.0039366,-0.1239429,-0.0004144,0.00018
 01,-0.0024107,0.0702669,-0.0001382,0.0001739,-0.0001397,0.1155474,0.00
 61925,0.0711438,0.0003027,0.0933308,-0.0618554,-0.0006186,0.0003713,-0
 .0006018,0.1152992,0.0437786,-0.0833398,-0.0002146,-0.0507648,-0.04192
 14,-0.0004031,-0.0001138,-0.0003784,0.1008261,0.0287868,-0.0370119,-0.
 0000564,-0.0952961,-0.0743857,-0.0004841,-0.0002367,-0.0005282,0.10545
 62,0.0019807,-0.1005697,-0.0002314,-0.0447103,-0.0543935,-0.0004658,-0
 .0000586,-0.0004235,0.1071466,0.002193,0.1004864,0.0003903,0.0446271,-
 0.0546051,-0.0005341,0.0002175,-0.0005764,0.1071459,0.02898,0.0368604,
 0.0001719,0.0951446,-0.0745783,-0.0006289,0.0003522,-0.0005847,0.10545
 56,-0.1239384,0.0006973,0.0001835,0.0026935,0.0702623,-0.0001421,0.000
 1897,-0.0001406,0.1155474,0.0059518,-0.0712435,-0.0001375,-0.0934305,-
 0.0616155,-0.0004764,-0.0002062,-0.0004932,0.1153,0.0439745,0.0832139,
 0.0003004,0.0506389,-0.0421166,-0.0004805,0.0001997,-0.0005051,0.10082
 55\Polar=240.1159182,-0.0566322,162.0673717,-0.1381936,0.3223112,57.87
 23537\Quadrupole=3.9623338,3.716653,-7.6789868,-0.0001523,-0.0088168,0
 .0352461\PG=C02V [SGV(C14H10)]\NImag=0\\0.74968547,-0.02288539,0.68407
 675,-0.00053396,0.00170604,0.13808771,-0.17298445,-0.04993548,-0.00007
 400,0.71820516,-0.11662209,-0.27662537,-0.00056078,-0.03488810,0.71059
 204,-0.00028025,-0.00061129,-0.06675819,-0.00054730,0.00179735,0.13801
 923,-0.02563041,-0.07705883,-0.00021096,-0.37784338,0.02707648,0.00032
 026,0.72760057,-0.03047608,0.02810985,0.00007750,-0.03885705,-0.128130
 19,-0.00016417,0.04151501,0.70043081,-0.00006689,0.00011278,0.01051483
 ,0.00011634,-0.00021410,-0.06553629,-0.00031422,0.00169220,0.14314843,
 0.00273117,0.01648112,0.00004228,-0.04592184,0.02009672,0.00010434,-0.
 15600118,0.09393935,0.00035135,0.65058464,0.00049007,-0.05441422,-0.00
 014160,0.06352174,0.03139386,0.00001875,0.05680728,-0.26004713,-0.0006
 1316,-0.02063728,0.66811456,-0.00000718,-0.00015371,-0.00875335,0.0002
 3865,0.00005164,0.00977628,0.00023651,-0.00064128,-0.07571120,-0.00041
 582,0.00150737,0.18580699,-0.02833944,0.07250149,0.00025317,-0.0450285
 3,-0.02946012,-0.00006376,0.05615654,-0.01321976,-0.00007494,-0.171288
 13,-0.05000620,-0.00009073,0.69414466,0.03113395,0.01453168,-0.0000091
 2,-0.01507837,-0.00742203,0.00001601,0.01177257,-0.04688191,-0.0001885
 5,-0.06732648,-0.23856272,-0.00041817,-0.01600159,0.65856767,0.0001252
 2,-0.00004045,0.00985617,-0.00001928,0.00002690,-0.00890529,0.00000236
 ,-0.00016962,0.01119699,-0.00014430,-0.00043129,-0.08687448,-0.0004414
 7,0.00150291,0.17656987,-0.19992354,0.08283985,0.00035789,0.06130711,0
 .02504629,0.00003919,-0.04686185,0.02252263,0.00009968,-0.01225278,-0.
 05820931,-0.00016297,-0.30258719,0.00180171,0.00017927,0.66988443,0.14
 585822,-0.31273503,-0.00087463,-0.02181558,-0.06018027,-0.00020293,0.0
 2728153,-0.01555146,-0.00004642,-0.03389602,0.02580508,0.00007367,-0.0
 3776337,-0.11633311,-0.00010470,-0.00345086,0.76113522,0.00055280,-0.0
 0082691,-0.06566526,-0.00010574,-0.00023842,0.01077237,0.00011440,-0.0
 0004282,-0.00722183,-0.00008777,0.00009208,0.01028619,0.00005690,-0.00
 013466,-0.07323535,-0.00041080,0.00191897,0.14154191,-0.00301422,-0.01
 811805,-0.00004918,0.00801821,0.00767159,0.00001725,-0.00864425,-0.000
 46223,0.00000860,0.04042165,0.00266778,-0.00001503,-0.13733897,0.05174
 474,0.00020957,-0.04523792,0.04317495,0.00017233,0.78990866,-0.0036523
 8,0.01273534,0.00002347,-0.00639351,-0.00530695,-0.00000991,0.00034158
 ,-0.00456761,-0.00002859,-0.00517563,-0.04018316,-0.00015029,0.0786837
 2,-0.24669795,-0.00060010,0.02337495,-0.00319551,-0.00004611,0.0480959
 9,0.66518019,-0.00000444,0.00003442,0.00604206,-0.00002625,-0.00002056
 ,-0.00053885,0.00001108,-0.00002798,0.00459266,-0.00003929,-0.00015623
 ,0.00967625,0.00029289,-0.00057970,-0.07194186,0.00011109,-0.00006111,
 0.00598988,-0.00034385,0.00158959,0.13945961,-0.00148773,0.01534635,0.
 00004853,-0.01007764,-0.00717640,-0.00001441,0.00793308,-0.00552681,-0
 .00002323,-0.02702359,-0.00759779,-0.00000788,-0.04567922,0.04814532,0
 .00019108,0.01986450,-0.00537316,-0.00002860,-0.44934369,-0.02322670,0
 .00022064,0.78976775,0.00020317,0.00752294,0.00002338,-0.00553636,-0.0
 0427907,-0.00000968,0.00590692,-0.00368965,-0.00001537,-0.01529981,-0.
 00187326,0.00002559,0.02438264,0.01918212,0.00000990,0.00881383,-0.008
 81555,-0.00004643,0.02369709,-0.12640149,-0.00021358,-0.04827511,0.665
 32065,0.00000169,0.00001191,-0.00008638,-0.00000934,-0.00000844,0.0002
 0597,0.00001214,-0.00000671,-0.00016579,-0.00003170,0.00001976,-0.0064
 0172,0.00011759,-0.00000810,0.01001152,0.00001527,-0.00003568,0.004037
 35,0.00036577,-0.00017805,-0.06314901,-0.00064181,0.00166301,0.1394600
 7,0.00060869,-0.00609705,-0.00001912,0.00387004,0.00332531,0.00000737,
 -0.00750555,-0.00025455,0.00000722,-0.01209430,0.03177406,0.00011522,0
 .00997148,-0.01234981,-0.00005297,-0.00747038,0.00293068,0.00001462,-0
 .04578513,-0.02428791,-0.00003286,-0.13752992,-0.07884365,-0.00019418,
 0.69419138,-0.00011772,-0.01221687,-0.00003851,0.01116198,0.00636546,0
 .00001117,-0.01425011,0.00830928,0.00002701,0.03770408,0.00511668,-0.0
 0004452,0.01229775,-0.02569794,-0.00005929,-0.01161166,0.00416369,0.00
 002210,-0.04805059,0.01928769,0.00006508,-0.05190467,-0.24650762,-0.00
 050061,0.01595194,0.65852110,-0.00000063,-0.00003398,0.00026162,0.0000
 3161,0.00001711,0.00001991,-0.00003607,0.00001641,0.00306581,0.0001335
 6,-0.00004003,0.01027928,0.00002326,-0.00004063,-0.00953920,-0.0000303
 6,0.00001108,-0.00013743,-0.00010636,0.00004708,0.01001186,-0.00011086
 ,-0.00048021,-0.07194125,-0.00034267,0.00147856,0.17656972,-0.00060010
 ,0.00571378,0.00001821,-0.00434064,-0.00240240,-0.00000448,0.00318355,
 -0.00309979,-0.00001177,-0.00844044,0.00125246,0.00001375,-0.00745766,
 0.01162862,0.00004151,0.00615757,-0.00266930,-0.00001335,0.01985941,-0
 .00885568,-0.00003937,-0.04533514,-0.02331358,-0.00003324,-0.30253421,
 -0.00153052,0.00016892,0.66989472,-0.00045239,0.00248219,0.00000770,-0
 .00191476,-0.00150266,-0.00000184,0.00293961,-0.00104437,-0.00000641,-
 0.00325507,-0.00530746,-0.00002820,-0.00291372,0.00415102,0.00001547,0
 .00265942,-0.00062404,-0.00000219,0.00533130,-0.00881048,-0.00004377,-
 0.04311358,-0.00309861,0.00000454,0.03803455,-0.11638592,-0.00016227,0
 .00358675,0.76112496,-0.00000087,0.00000303,0.00010436,-0.00000297,-0.
 00000147,-0.00044023,0.00000691,-0.00000183,0.00030677,-0.00000019,-0.
 00003161,0.00460692,-0.00000347,0.00000446,-0.00013747,0.00000313,0.00
 000185,-0.00056801,0.00000451,-0.00003303,0.00403737,-0.00009448,-0.00
 001045,0.00599019,0.00029129,-0.00013230,-0.07323552,-0.00038905,0.001
 91361,0.14154187,-0.00029462,-0.00035997,-0.00000094,0.00011834,-0.000
 49034,-0.00000155,-0.00009571,-0.00029215,-0.00000109,-0.00132513,0.00
 034334,0.00000184,0.00061775,0.00009895,0.00000004,-0.00060778,0.00045
 691,0.00000195,-0.00151044,-0.00018997,0.00000049,-0.00298235,0.003675
 32,0.00001820,-0.02849088,-0.03107123,-0.00006706,-0.20025818,-0.14602
 332,-0.00034970,0.74975226,0.00035167,-0.00596565,-0.00001853,0.005214
 42,0.00291078,0.00000483,-0.00479054,0.00438493,0.00001823,0.01468255,
 -0.00069455,-0.00001237,0.00607829,-0.01222590,-0.00004323,-0.00570927
 ,0.00248985,0.00001170,-0.01533315,0.00754558,0.00003522,0.01814099,0.
 01270358,0.00000687,-0.07243876,0.01468263,0.00006979,-0.08300494,-0.3
 1240146,-0.00070028,0.02279223,0.68401018,0.00000127,-0.00001799,-0.00
 005952,0.00001609,0.00000915,0.00007269,-0.00001500,0.00001483,-0.0003
 3728,0.00004619,-0.00000151,-0.00029156,0.00001853,-0.00003870,0.00026
 160,-0.00001712,0.00000703,0.00010439,-0.00004635,0.00002375,-0.000086
 30,0.00006294,0.00001782,0.00604196,-0.00019500,0.00003846,0.00985665,
 -0.00015479,-0.00065255,-0.06566419,-0.00039274,0.00167124,0.13808749,
 0.00011144,-0.00521033,-0.00001614,0.00516771,0.00296548,0.00000551,-0
 .00506904,0.00512373,0.00001961,0.01942754,-0.00218622,-0.00001756,0.0
 0384886,-0.01115828,-0.00003741,-0.00433432,0.00191888,0.00000888,-0.0
 1005904,0.00554476,0.00002492,0.00801631,0.00637407,0.00001324,-0.0449
 6332,0.01513309,0.00007411,0.06130213,0.02163819,0.00002866,-0.1727411
 4,0.04978308,0.00023424,0.71830717,0.00049443,0.00291766,0.00000842,-0
 .00297380,-0.00053461,-0.00000043,0.00359080,-0.00343974,-0.00001303,-
 0.01028771,-0.00583984,-0.00002627,-0.00332161,0.00638657,0.00002221,0
 .00240652,-0.00150896,-0.00000513,0.00718481,-0.00429761,-0.00001937,-
 0.00769103,-0.00530506,-0.00000892,0.02951484,-0.00748702,-0.00001797,
 -0.02522368,-0.06017530,-0.00020033,0.11646969,-0.27686790,-0.00073806
 ,0.03487955,0.71049036,0.00000150,0.00001275,0.00007271,-0.00001286,-0
 .00000493,0.00033249,0.00001487,-0.00001420,-0.00010473,-0.00004262,-0
 .00003240,0.00517127,-0.00001317,0.00002814,0.00001998,0.00001039,-0.0
 0000476,-0.00044025,0.00003000,-0.00001813,0.00020591,-0.00003027,-0.0
 0001957,-0.00053884,0.00011859,-0.00000707,-0.00890550,-0.00011628,-0.
 00023582,0.01077239,0.00044049,-0.00068756,-0.06675897,-0.00033159,0.0
 0174420,0.13801890,-0.00008827,0.00479709,0.00001465,-0.00508178,-0.00
 358842,-0.00000733,0.00555876,-0.00646471,-0.00002539,-0.04314070,-0.0
 3011903,-0.00005501,-0.00748431,0.01427315,0.00005214,0.00318378,-0.00
 294578,-0.00001129,0.00793250,-0.00592388,-0.00002445,-0.00864406,-0.0
 0033569,0.00000899,0.05615844,-0.01192302,-0.00007093,-0.04693461,-0.0
 2723583,-0.00005416,-0.02547306,0.07713701,0.00026583,-0.37782562,-0.0
 2671285,0.00015388,0.72747911,0.00029869,0.00437751,0.00001436,-0.0051
 2135,-0.00342704,-0.00000640,0.00645035,-0.00428354,-0.00001328,-0.023
 48813,0.00878923,0.00002262,0.00027759,0.00828811,0.00001594,0.0030936
 2,-0.00104459,-0.00000652,0.00550986,-0.00368907,-0.00001507,0.0004681
 3,-0.00456779,-0.00002869,0.01306931,-0.04688380,-0.00018954,-0.022476
 93,-0.01547894,-0.00000852,0.03055426,0.02795300,0.00003080,0.03922068
 ,-0.12814789,-0.00022336,-0.04155182,0.70055187,0.00000074,0.00001095,
 -0.00033731,-0.00001207,-0.00000756,-0.00010469,0.00001455,-0.00000350
 ,-0.00156786,-0.00003450,0.00002764,0.00722642,0.00000885,0.00000534,0
 .00306574,0.00000739,-0.00000195,0.00030677,0.00001091,-0.00000641,-0.
 00016579,0.00001147,-0.00002808,0.00459266,0.00000637,-0.00017061,0.01
 119699,-0.00003944,-0.00000491,-0.00722160,0.00012176,-0.00000448,0.01
 051432,0.00035781,-0.00017342,-0.06553634,-0.00057105,0.00175548,0.143
 14882,-0.00134710,-0.01468160,-0.00004461,0.01944572,0.01025080,0.0000
 2089,-0.04306221,0.02356371,0.00011096,-0.23681270,-0.00529066,0.00010
 137,-0.01219585,-0.03767887,-0.00009952,-0.00843750,0.00325959,0.00001
 996,-0.02699005,0.01533644,0.00006303,0.04042515,0.00505792,-0.0000076
 4,-0.17111671,0.06722746,0.00027173,-0.01211803,0.03395137,0.00012198,
 0.00270623,-0.01656459,-0.00005991,-0.04604394,-0.01998376,-0.00001953
 ,-0.15622182,-0.09409154,-0.00023004,0.65064504,-0.00034239,-0.0006726
 5,-0.00000092,0.00214932,-0.00585796,-0.00003574,0.03019461,0.00871099
 ,-0.00001828,0.00547047,-0.11334072,-0.00010309,-0.03174885,0.00521791
 ,0.00000839,-0.00124795,-0.00531038,-0.00002973,0.00763442,-0.00190669
 ,0.00000812,-0.00278550,-0.04018664,-0.00015211,0.04990718,-0.23873358
 ,-0.00050748,0.05826465,0.02567075,0.00000346,-0.00057353,-0.05438936,
 -0.00014071,-0.06340877,0.03151557,0.00011526,-0.05695947,-0.25982720,
 -0.00052632,0.02066501,0.66805437,-0.00000026,0.00000994,-0.00029148,-
 0.00000416,-0.00004188,0.00517121,0.00013147,-0.00001325,0.00722616,0.
 00013466,-0.00009494,-0.08134888,-0.00008117,0.00001288,0.01027961,0.0
 0000602,-0.00003314,0.00460691,0.00003920,0.00000229,-0.00640183,-0.00
 003190,-0.00015805,0.00967624,0.00021816,-0.00052060,-0.08687503,0.000
 19717,0.00002187,0.01028575,-0.00001045,-0.00012860,-0.00875327,-0.000
 15384,0.00008237,0.00977667,-0.00011520,-0.00049820,-0.07571049,-0.000
 28812,0.00147591,0.18580680,-0.33685395,-0.00591678,0.00020821,-0.0105
 0952,0.00294001,0.00001957,0.00066401,-0.00301328,-0.00000540,0.000757
 40,0.00001246,-0.00000097,0.00083458,0.00296645,0.00001475,-0.01213280
 ,-0.00322225,0.00000221,-0.00060924,-0.00052243,-0.00000098,-0.0000858
 4,0.00031729,0.00000071,0.00002791,0.00005298,0.00000022,-0.00000354,-
 0.00001605,-0.00000002,-0.00000369,0.00000006,0.,-0.00000122,-0.000010
 26,-0.00000009,-0.00004433,-0.00004060,-0.00000005,0.00004418,0.000007
 00,-0.00000067,0.35675132,-0.00627514,-0.05931933,-0.00006193,-0.02846
 505,0.00431362,0.00002464,-0.00177859,-0.00453108,-0.00003072,0.000327
 65,-0.00101994,-0.00000163,0.00183757,-0.00447990,-0.00004060,0.028213
 57,0.00532213,-0.00001712,0.00093982,0.00069522,0.00000071,0.00029526,
 -0.00028053,0.00000028,-0.00015430,-0.00020536,-0.00000081,0.00006796,
 0.00006753,0.00000004,-0.00001467,-0.00007673,-0.00000019,-0.00004989,
 0.00010535,0.00000061,0.00007307,-0.00004745,-0.00000037,-0.00023564,0
 .00015529,0.00000335,0.00625096,0.05692609,0.00020710,-0.00006220,-0.0
 3775965,-0.00007757,0.00000085,0.00331831,-0.00000158,-0.00002979,0.00
 583759,0.,-0.00000139,-0.00057346,0.00001126,-0.00004146,0.00819805,0.
 00009944,0.00000669,0.00394847,0.00000355,0.00000182,0.00023458,0.0000
 0064,0.00000026,-0.00044371,-0.00000043,-0.00000097,0.00009551,0.00000
 024,0.00000010,0.00003762,-0.00000005,-0.00000020,-0.00001285,-0.00000
 021,0.00000058,-0.00007916,0.00000030,-0.00000028,0.00005351,-0.000001
 42,0.00000316,-0.00086951,-0.00023130,0.00009151,0.02581034,0.01151853
 ,-0.01455016,-0.00005113,-0.13239062,0.12231327,0.00045023,-0.01173607
 ,0.02841617,0.00009964,-0.00511988,-0.00185310,0.00000426,-0.00061325,
 -0.00064645,-0.00000204,-0.00088737,-0.00277206,-0.00000350,0.00027449
 ,-0.00006915,-0.00000109,-0.00014931,-0.00014703,-0.00000026,-0.000405
 39,-0.00002328,-0.00000011,-0.00006957,0.00011361,0.00000039,-0.000016
 09,0.00007307,0.00000028,0.00006376,-0.00007267,-0.00000030,-0.0000776
 1,0.00001894,0.00000024,0.00024666,0.00144802,0.00000447,0.00082890,0.
 00076846,-0.00000080,0.13700786,0.01690889,-0.01797537,-0.00007901,0.1
 2279299,-0.26313002,-0.00079112,-0.00278915,0.00419762,0.00000341,-0.0
 0085113,0.00140254,-0.00001998,-0.00087651,0.00042302,0.00000404,-0.00
 405956,-0.00317592,-0.00002472,0.00012824,0.00000917,0.00000264,-0.000
 05983,-0.00003370,-0.00000040,0.00007389,0.00009579,0.00000166,-0.0000
 5121,0.00000888,0.00000014,0.00003601,0.00004777,-0.00000005,0.0000373
 8,-0.00004097,-0.00000004,0.00000130,-0.00002983,-0.00000059,-0.000052
 02,0.00007978,-0.00000045,-0.00015131,0.00119500,0.00001423,-0.1321555
 5,0.27690164,0.00004617,-0.00005519,0.00342998,0.00045172,-0.00079076,
 -0.03741396,0.00000312,-0.00002022,0.00377854,0.00000736,-0.00001922,0
 .00807051,-0.00000275,0.00000386,-0.00066762,-0.00000748,-0.00002569,0
 .00580933,-0.00000048,0.00000279,-0.00087731,0.00000001,-0.00000034,0.
 00011087,0.00000019,0.00000173,-0.00045743,-0.00000012,0.00000001,-0.0
 0002234,0.00000017,-0.00000008,0.00005662,0.00000004,0.00000004,-0.000
 03620,0.00000018,-0.00000060,0.00016089,-0.00000017,-0.00000158,0.0002
 3699,-0.00000365,0.00001353,-0.00336735,-0.00049302,0.00087694,0.02573
 102,-0.00532987,0.00134416,0.00001403,-0.01084123,-0.03013872,-0.00008
 132,-0.11554099,-0.11299628,-0.00029092,0.01265985,0.01381163,0.000036
 03,-0.00168337,0.00280644,0.00001426,-0.00052252,0.00078989,0.00000244
 ,0.00061649,0.00062388,0.00000166,0.00012976,0.00004256,-0.00000015,0.
 00010664,-0.00004252,-0.00000023,0.00010726,-0.00009437,-0.00000029,0.
 00000564,-0.00006479,-0.00000022,-0.00011868,-0.00011276,-0.00000052,-
 0.00266877,0.00165879,0.00000716,-0.00029496,-0.00129436,-0.00000619,-
 0.00057869,-0.00128869,-0.00000344,0.00122683,0.00027592,-0.00000376,0
 .12614456,-0.00002464,0.00159901,-0.00001886,0.00196603,0.00231903,-0.
 00000935,-0.11354218,-0.28083734,-0.00066446,-0.01391939,-0.01886812,-
 0.00005968,0.00421008,-0.00229756,-0.00002786,0.00075719,0.00040113,0.
 00000228,-0.00113254,-0.00063506,-0.00000192,-0.00002490,0.00001265,0.
 00000079,0.00013200,-0.00013193,-0.00000042,-0.00011906,0.00010731,0.0
 0000007,-0.00012508,0.00003212,0.00000024,0.00007318,0.00084771,0.0000
 0365,-0.00087283,-0.00079359,-0.00000184,-0.00184493,-0.00001339,0.000
 01119,0.00014222,-0.00001722,-0.00000059,-0.00019391,0.00095039,0.0000
 1814,0.12446830,0.29579612,0.00000979,-0.00001989,0.00770198,0.0000179
 7,0.00001496,0.00486057,-0.00029260,-0.00066487,-0.03820341,-0.0000497
 4,-0.00008068,0.00383417,0.00001860,-0.00002680,0.00567885,0.00000234,
 0.00000226,-0.00052158,-0.00000377,-0.00000325,0.00026270,-0.00000036,
 0.00000074,-0.00023747,0.00000031,-0.00000029,-0.00002723,-0.00000036,
 0.00000005,0.00011294,-0.00000040,0.00000020,-0.00001637,0.00000005,0.
 00000379,-0.00035015,-0.00000067,-0.00000376,0.00001443,-0.00000789,0.
 00001077,-0.00317844,0.00000098,0.00000049,0.00013996,-0.00000522,0.00
 001779,-0.00486829,0.00030792,0.00074510,0.02441400,0.01161215,0.01613
 611,0.00004446,-0.00112175,0.00276016,0.00001512,-0.00062025,0.0008109
 8,0.00000260,-0.00498348,0.00178302,0.00001335,-0.01063432,-0.02791367
 ,-0.00007544,-0.12024102,-0.11474377,-0.00029228,0.00114886,-0.0022703
 6,-0.00001060,0.00012623,0.00039516,0.00000111,0.00013399,-0.00018802,
 -0.00000076,0.00003982,0.00011582,0.00000035,-0.00002293,0.00000060,0.
 00000002,-0.00001323,-0.00011442,-0.00000035,-0.00043769,0.00021824,0.
 00000111,-0.00009979,-0.00159387,-0.00000468,0.00097387,-0.00063061,-0
 .00000629,0.00037815,0.00077523,0.00000228,0.00003908,-0.00008493,-0.0
 0000110,0.12401196,-0.01545676,-0.01870039,-0.00005979,0.00427428,-0.0
 0258769,-0.00003464,0.00062505,0.00048514,0.00000259,0.00023092,0.0012
 9331,-0.00001275,0.00109601,0.00137185,-0.00000819,-0.11500291,-0.2719
 0019,-0.00063769,0.00204552,0.00054091,0.00001118,-0.00037653,0.000180
 05,0.00000090,0.00014723,0.00025171,0.00000100,-0.00004261,-0.00004258
 ,-0.00000018,-0.00002715,0.00006066,0.00000022,0.00005182,-0.00002424,
 -0.00000010,-0.00008764,-0.00000754,-0.00000038,0.00037930,-0.00008223
 ,-0.00000123,0.00013152,0.00113733,0.00001811,-0.00072344,-0.00094028,
 -0.00000306,-0.00007765,-0.00006486,0.00000316,0.12326035,0.28862003,-
 0.00005326,-0.00008371,0.00441500,0.00001980,-0.00003349,0.00756558,0.
 00000202,0.00000245,-0.00050479,0.00000855,-0.00001393,0.00535918,0.00
 001429,0.00001378,0.00375220,-0.00029308,-0.00063789,-0.03756398,0.000
 00275,0.00001445,-0.00357454,-0.00000127,0.00000031,-0.00001762,0.0000
 0027,0.00000125,-0.00010701,-0.00000014,-0.00000030,0.00002571,-0.0000
 0007,0.00000020,-0.00000289,0.00000017,0.00000003,-0.00000459,0.000000
 16,-0.00000061,0.00013688,0.00000142,0.00000026,0.00022338,-0.00000393
 ,0.00001869,-0.00474977,-0.00000235,-0.00000419,0.00022511,-0.00000108
 ,0.00000317,-0.00106779,0.00030665,0.00072035,0.02553529,0.00012648,-0
 .00036103,-0.00000127,0.00019007,0.00014047,0.00000023,0.00050278,0.00
 063589,0.00000166,-0.00168179,0.00236657,0.00001149,0.00979075,0.01388
 754,0.00003823,0.00093524,0.00167512,0.00000267,-0.12821161,-0.1203397
 1,-0.00030410,-0.01149580,-0.02949207,-0.00007865,-0.00489313,0.002316
 19,0.00001795,0.00008824,-0.00142550,-0.00000435,-0.00046348,-0.000022
 62,-0.00000027,-0.00011160,0.00013163,0.00000059,0.00024127,0.00001251
 ,-0.00000073,-0.00039549,0.00036541,0.00000115,0.00003055,-0.00003333,
 -0.00000005,-0.00001415,-0.00003039,-0.00000006,-0.00012509,0.00020167
 ,0.00000075,-0.00021965,-0.00036360,-0.00000083,0.13456359,0.00036007,
 0.00008168,0.00000022,0.00008107,0.00021804,0.00000085,-0.00129775,-0.
 00073851,-0.00000160,0.00415819,-0.00219351,-0.00002176,-0.01515176,-0
 .01899844,-0.00005829,-0.00239849,0.00097570,0.00001218,-0.12068477,-0
 .26386682,-0.00060629,0.00223269,0.00372495,-0.00000595,0.00071228,0.0
 0146290,-0.00002493,-0.00001564,-0.00005678,-0.00000069,-0.00007390,0.
 00012678,0.00000268,0.00007146,-0.00001680,-0.00000051,-0.00011619,-0.
 00000893,0.00000246,0.00070907,0.00029298,0.00000153,0.00003492,-0.000
 02710,-0.00000042,0.00006429,0.00003650,-0.00000005,0.00022957,-0.0003
 3570,-0.00000135,0.00127047,0.00038074,-0.00000030,0.13014537,0.278012
 45,0.00000096,0.00000076,-0.00007710,0.00000005,0.00000080,-0.00007616
 ,-0.00000432,-0.00000306,0.00009560,0.00001703,-0.00002040,0.00382259,
 -0.00005158,-0.00008028,0.00355840,-0.00000993,0.00000910,-0.00237533,
 -0.00030517,-0.00060655,-0.03829198,0.00001948,0.00001807,0.00510262,0
 .00001299,-0.00002614,0.00934844,0.00000001,0.00000037,0.00017153,-0.0
 0000042,0.00000264,-0.00072270,0.00000040,-0.00000055,0.00012914,-0.00
 000113,0.00000236,-0.00077592,0.00000221,0.00000179,-0.00037379,0.0000
 0016,-0.00000037,0.00010118,0.00000024,0.00000002,0.00003723,0.0000008
 4,-0.00000132,0.00004309,0.00000422,0.00000094,0.00016612,0.00031996,0
 .00068232,0.02553942,-0.00046334,0.00002349,-0.00000012,-0.00011190,-0
 .00013149,-0.00000022,0.00024142,-0.00001287,-0.00000081,-0.00039706,-
 0.00036440,-0.00000111,-0.00489754,-0.00230695,0.00000365,0.00009034,0
 .00142528,0.00000447,-0.01145591,0.02951419,0.00010382,-0.12785948,0.1
 2014042,0.00043942,0.00979253,-0.01392961,-0.00004780,0.00093630,-0.00
 167505,-0.00000769,0.00012649,0.00036097,0.00000096,0.00018975,-0.0001
 4042,-0.00000064,0.00050375,-0.00063770,-0.00000228,-0.00169133,-0.002
 36733,-0.00000315,-0.00008266,0.00013007,0.00000044,-0.00000353,0.0000
 2103,0.00000014,-0.00001779,0.00005852,0.00000022,-0.00000929,-0.00007
 059,-0.00000005,0.00125630,-0.00032920,-0.00000631,0.13418331,0.000074
 77,0.00012663,0.00000257,-0.00007133,-0.00001650,-0.00000040,0.0001158
 3,-0.00000908,0.00000228,-0.00070806,0.00029454,0.00000260,-0.00070305
 ,0.00146730,-0.00002384,0.00001543,-0.00005888,-0.00000072,-0.00221057
 ,0.00368518,-0.00000271,0.12048549,-0.26421781,-0.00079002,0.01510969,
 -0.01900022,-0.00008122,0.00239856,0.00097465,0.00000854,-0.00036014,0
 .00008168,0.00000076,-0.00008103,0.00021836,0.00000097,0.00129594,-0.0
 0073947,-0.00000356,-0.00415895,-0.00218400,-0.00001543,-0.00000224,0.
 00000037,0.00000009,0.00001866,-0.00000959,-0.00000033,-0.00002372,0.0
 0001755,-0.00000001,0.00000924,0.00001089,-0.00000063,0.00032873,0.000
 91042,0.00002028,-0.12993455,0.27839151,0.00000003,0.00000261,-0.00072
 270,-0.00000004,-0.00000035,0.00012915,-0.00000041,0.00000238,-0.00077
 592,-0.00000217,0.00000234,-0.00037378,0.00000861,-0.00002263,0.009348
 46,0.00000011,-0.00000179,0.00017152,0.00000570,-0.00002674,0.00510249
 ,0.00044048,-0.00078976,-0.03829311,0.00004201,-0.00005922,0.00355839,
 0.00000491,0.00001163,-0.00237534,-0.00000127,0.00000022,-0.00007710,-
 0.00000045,0.00000102,-0.00007616,0.00000370,-0.00000210,0.00009560,-0
 .00000869,-0.00001679,0.00382262,0.00000003,0.,-0.00002915,0.00000013,
 -0.00000033,0.00009238,-0.00000004,-0.00000007,0.00002717,0.00000020,-
 0.00000057,0.00021270,-0.00000427,0.00002077,-0.00572548,-0.00048415,0
 .00088045,0.02554064,-0.00002289,-0.00000048,0.00000001,-0.00001314,0.
 00011440,0.00000036,-0.00043788,-0.00021762,-0.00000024,-0.00009801,0.
 00159389,0.00000517,0.00013405,0.00018819,0.00000040,0.00003972,-0.000
 11594,-0.00000037,0.00012620,-0.00039508,-0.00000133,0.00114919,0.0022
 6949,0.00000344,-0.01059509,0.02793110,0.00009725,-0.11990542,0.114521
 14,0.00041656,0.01161110,-0.01618039,-0.00005549,-0.00113204,-0.002762
 33,-0.00000196,-0.00062235,-0.00080936,-0.00000241,-0.00498642,-0.0017
 7388,0.00000235,-0.00000309,-0.00000830,-0.00000002,-0.00005209,0.0000
 0289,0.00000002,0.00002265,0.00001087,0.00000002,-0.00002815,-0.000009
 61,0.,-0.00000920,-0.00000922,0.00000014,-0.00022098,-0.00126959,-0.00
 000363,0.12365185,0.00002727,0.00006062,0.00000018,-0.00005184,-0.0000
 2433,-0.00000002,0.00008827,-0.00000735,-0.00000051,-0.00037928,-0.000
 08400,-0.00000066,-0.00014705,0.00025165,0.00000122,0.00004249,-0.0000
 4247,-0.00000024,0.00037661,0.00018008,0.00000033,-0.00204639,0.000540
 58,0.00001428,-0.00107858,0.00133274,-0.00000667,0.11478028,-0.2722347
 2,-0.00081274,0.01541247,-0.01869934,-0.00008316,-0.00427645,-0.002577
 43,-0.00002813,-0.00062344,0.00048723,0.00000354,-0.00022179,0.0012962
 3,-0.00001240,0.00001031,0.00000145,0.,0.00001059,-0.00000659,0.000000
 10,-0.00001732,0.00000966,0.00000001,0.00000967,0.00001287,0.,0.000070
 62,0.00001080,-0.00000068,0.00036448,0.00038206,0.00000039,-0.12301868
 ,0.28897897,0.00000010,0.00000020,-0.00000289,-0.00000015,-0.00000015,
 -0.00000459,0.00000071,-0.00000028,0.00013688,-0.00000093,-0.00000216,
 0.00022338,-0.00000064,0.00000097,-0.00010701,0.00000012,-0.00000012,0
 .00002571,0.00000106,0.00000091,-0.00001762,-0.00000991,0.00001101,-0.
 00357454,0.00000753,-0.00002864,0.00375207,0.00041736,-0.00081255,-0.0
 3756505,0.00004222,-0.00005924,0.00441501,-0.00000664,-0.00002928,0.00
 756561,-0.00000184,0.00000368,-0.00050479,0.00000715,-0.00001122,0.005
 35919,0.00000003,0.00000001,-0.00000056,0.00000004,0.00000011,-0.00004
 127,-0.00000006,0.,0.00000972,0.00000006,0.00000002,0.00000795,0.00000
 039,-0.00000062,0.00021270,0.00000142,0.00000163,0.00016613,-0.0004547
 9,0.00090798,0.02553645,-0.00000367,-0.00000016,0.,-0.00000114,0.00001
 041,-0.00000003,-0.00004438,0.00004060,0.00000020,0.00004451,-0.000006
 84,-0.00000071,0.00002806,-0.00005332,-0.00000011,-0.00000362,0.000016
 15,0.00000008,-0.00008674,-0.00031757,-0.00000125,-0.00060985,0.000524
 34,0.00000226,0.00082755,-0.00297424,-0.00000362,-0.01216930,0.0032477
 5,0.00002225,-0.33683553,0.00632115,0.00024605,-0.01047217,-0.00291845
 ,0.00000142,0.00067100,0.00300565,0.00001321,0.00075689,-0.00001506,-0
 .00000105,-0.00001488,-0.00000122,0.00000003,-0.00001050,0.00000928,0.
 00000004,0.00002117,-0.00003694,-0.00000007,-0.00000309,-0.00001030,-0
 .00000003,-0.00008285,0.00000237,0.00000005,0.00003054,-0.00003501,-0.
 00000005,0.00097460,-0.00013126,-0.00000474,0.35673240,0.00001456,-0.0
 0007675,-0.00000021,0.00005004,0.00010526,0.00000053,-0.00007307,-0.00
 004740,-0.00000026,0.00023581,0.00015496,0.00000299,0.00015396,-0.0002
 0551,-0.00000105,-0.00006786,0.00006760,0.00000014,-0.00029554,-0.0002
 7963,0.00000073,-0.00093792,0.00069583,0.00000214,-0.00184537,-0.00447
 289,-0.00003779,-0.02818807,0.00535851,0.00002571,0.00667951,-0.059337
 69,-0.00007180,0.02848660,0.00427638,-0.00001861,0.00177096,-0.0045380
 5,-0.00003343,-0.00033024,-0.00101944,-0.00000113,0.00000125,0.0000061
 2,-0.00000008,-0.00000165,0.00000072,0.,-0.00002927,0.00007850,0.00000
 002,0.00000831,0.00000145,0.,-0.00012995,0.00000056,0.00000019,0.00003
 325,-0.00002709,-0.00000042,0.00063088,0.00113660,0.00001773,-0.006687
 78,0.05694495,0.00000004,-0.00000020,-0.00001285,0.00000010,0.00000056
 ,-0.00007916,-0.00000015,-0.00000034,0.00005351,0.00000004,0.00000317,
 -0.00086951,0.00000053,-0.00000089,0.00009551,-0.00000018,0.00000008,0
 .00003762,-0.00000118,0.00000075,-0.00044370,-0.00000226,0.00000103,0.
 00023459,-0.00000013,-0.00003694,0.00819808,-0.00007498,0.00000190,0.0
 0394859,0.00024716,-0.00007153,-0.03775971,0.00009855,0.00000517,0.003
 31819,0.00000939,-0.00003437,0.00583757,-0.00000203,-0.00000137,-0.000
 57346,0.00000004,-0.00000007,0.00003033,0.,-0.00000001,0.00000187,-0.0
 0000005,0.00000003,0.00007784,0.00000003,0.00000001,-0.00000056,-0.000
 00036,0.00000009,-0.00002915,0.00000016,-0.00000037,0.00010118,-0.0000
 0238,0.00001831,-0.00474978,-0.00027130,0.00010136,0.02581040,-0.00001
 625,-0.00007297,-0.00000017,0.00006382,0.00007252,0.00000015,-0.000077
 64,-0.00001887,0.00000012,0.00024462,-0.00144826,-0.00000449,-0.000405
 46,0.00002401,0.00000003,-0.00006966,-0.00011349,-0.00000032,-0.000149
 00,0.00014720,0.00000065,0.00027440,0.00006877,-0.00000066,-0.00061102
 ,0.00064796,0.00000196,-0.00087738,0.00276867,0.00001363,0.01151502,0.
 01450707,0.00003875,-0.13274929,-0.12250436,-0.00030669,-0.01177351,-0
 .02839289,-0.00007604,-0.00511591,0.00186257,0.00001575,-0.00001051,0.
 00000167,0.00000001,-0.00002601,0.00000936,0.00000004,0.00002627,0.000
 02725,0.00000008,-0.00005211,-0.00001052,-0.00000002,-0.00000359,-0.00
 001866,0.00000001,-0.00001420,-0.00006422,-0.00000016,0.00037807,0.000
 72152,0.00000212,0.00082800,-0.00076790,-0.00000555,0.13739463,-0.0000
 3592,0.00004793,0.,-0.00003753,-0.00004103,0.00000001,-0.00000123,-0.0
 0002980,-0.00000059,0.00005178,0.00008182,-0.00000052,-0.00007315,0.00
 009587,0.00000177,0.00005132,0.00000897,0.00000006,0.00006000,-0.00003
 400,-0.00000049,-0.00012862,0.00000926,0.00000284,0.00087802,0.0004208
 0,0.00000270,0.00405617,-0.00318587,-0.00003089,-0.01695197,-0.0179718
 7,-0.00005336,-0.12298407,-0.26277250,-0.00060388,0.00281243,0.0042349
 3,-0.00000072,0.00086060,0.00139859,-0.00002129,-0.00000927,0.00000073
 ,0.,-0.00000931,0.00000791,0.00000006,-0.00000431,-0.00001450,-0.00000
 010,-0.00000282,-0.00000657,0.00000011,-0.00002104,-0.00000953,-0.0000
 0030,0.00003046,0.00003655,-0.00000003,-0.00077716,-0.00094020,-0.0000
 0302,0.00015186,0.00119590,0.00001400,0.13236006,0.27651611,-0.0000000
 6,0.00000003,0.00005662,-0.00000019,-0.00000007,-0.00003620,0.00000018
 ,-0.00000058,0.00016089,0.00000015,0.00000062,0.00023700,-0.00000027,0
 .00000169,-0.00045743,0.00000019,0.00000018,-0.00002234,0.00000038,-0.
 00000056,0.00011087,-0.00000127,0.00000269,-0.00087731,0.00000267,0.00
 000288,-0.00066763,0.00001761,-0.00002992,0.00580930,-0.00005855,-0.00
 007718,0.00342999,-0.00030818,-0.00060424,-0.03741280,0.00002048,0.000
 02291,0.00377866,0.00001265,-0.00002205,0.00807049,-0.00000002,0.,0.00
 000187,-0.00000002,0.00000004,-0.00000801,-0.00000002,-0.00000012,0.00
 001844,0.,0.00000012,-0.00004127,0.,-0.00000030,0.00009238,0.00000013,
 0.00000005,0.00003723,-0.00000252,-0.00000415,0.00022511,-0.00000271,0
 .00001470,-0.00336735,0.00032481,0.00067542,0.02572977,0.00000592,0.00
 006483,0.00000018,-0.00011862,0.00011417,0.00000018,-0.00266991,-0.001
 65606,-0.00000309,-0.00029037,0.00129478,0.00000182,0.00010651,0.00004
 217,0.00000003,0.00010757,0.00009437,0.00000030,0.00012974,-0.00004273
 ,-0.00000041,0.00061723,-0.00062571,-0.00000220,-0.00169363,-0.0028073
 6,-0.00000310,-0.00052478,-0.00078854,-0.00000244,-0.00533179,-0.00133
 409,0.00000574,-0.01080001,0.03015783,0.00010514,-0.11521010,0.1127537
 4,0.00040706,0.01265994,-0.01385769,-0.00004954,0.00002127,0.00002936,
 0.00000013,0.00002624,0.00000425,0.,-0.00338423,-0.00012598,0.00000314
 ,0.00002266,0.00001730,0.00000004,-0.00001784,0.00002377,0.00000011,-0
 .00012572,-0.00022987,-0.00000058,0.00003932,0.00007751,-0.00000060,-0
 .00057701,0.00128950,0.00000453,0.00122671,-0.00027630,-0.00000547,0.1
 2578094,0.00012512,0.00003184,0.00000005,-0.00007177,0.00084765,0.0000
 0376,0.00087556,-0.00079245,-0.00000316,0.00184534,-0.00001796,0.00000
 838,-0.00013235,-0.00013180,-0.00000022,0.00011906,0.00010700,-0.00000
 011,0.00002473,0.00001268,0.00000075,0.00113071,-0.00063580,-0.0000036
 4,-0.00421099,-0.00228733,-0.00002145,-0.00075584,0.00040339,0.0000034
 3,0.00003471,0.00160092,-0.00001890,-0.00194693,0.00227794,-0.00000651
 ,0.11329965,-0.28116717,-0.00083727,0.01387333,-0.01886821,-0.00008072
 ,0.00003703,0.00007841,-0.00000003,-0.00002731,-0.00001446,-0.00000008
 ,0.00013360,0.00183810,0.00000164,-0.00001088,0.00000965,0.,-0.0000584
 7,0.00001760,0.00000001,-0.00020198,-0.00033507,-0.00000102,0.00008479
 ,-0.00006510,0.00000304,-0.00014141,-0.00001890,-0.00000038,0.00019353
 ,0.00095051,0.00001785,-0.12421923,0.29615858,0.00000037,0.00000010,-0
 .00001637,-0.00000040,0.00000362,-0.00035015,0.00000474,-0.00000124,0.
 00001444,0.00000352,0.00000879,-0.00317845,-0.00000051,-0.00000036,-0.
 00002723,0.00000037,-0.00000009,0.00011294,-0.00000020,0.00000081,-0.0
 0023747,0.00000323,-0.00000231,0.00026270,-0.00000744,-0.00002251,0.00
 567888,-0.00000234,0.00000346,-0.00052157,0.00000998,-0.00001786,0.007
 70198,0.00000584,-0.00003083,0.00486044,0.00040875,-0.00083686,-0.0382
 0447,0.00003623,-0.00005972,0.00383417,0.00000016,-0.00000002,0.000077
 84,-0.00000009,-0.00000010,0.00001844,0.00000394,0.00000184,0.00127485
 ,-0.00000004,-0.00000001,0.00000972,-0.00000015,-0.00000005,0.00002717
 ,-0.00000050,-0.00000100,0.00004309,-0.00000058,0.00000304,-0.00106779
 ,0.00000011,-0.00000147,0.00013995,-0.00000402,0.00001821,-0.00486829,
 -0.00046097,0.00093456,0.02441516\\0.00000205,-0.00000571,-0.00000002,
 0.00000345,0.00000160,0.,-0.00000459,-0.00000226,0.,0.00000619,0.00001
 183,0.00000003,-0.00000233,-0.00002609,-0.00000008,-0.00000473,0.00000
 841,0.00000003,-0.00001112,0.00001388,0.00000005,0.00001114,0.00001387
 ,0.00000003,0.00000229,-0.00002609,-0.00000008,0.00000475,0.00000840,0
 .00000002,-0.00000206,-0.00000570,-0.00000002,-0.00000345,0.00000161,0
 .,0.00000459,-0.00000226,-0.00000001,-0.00000617,0.00001184,0.00000004
 ,-0.00000306,-0.00000233,0.,0.00000162,0.00000569,0.00000002,0.0000028
 7,0.00000274,0.,-0.00000104,-0.00000139,0.,0.00000569,-0.00000640,-0.0
 0000002,-0.00000569,-0.00000639,-0.00000002,0.00000104,-0.00000139,0.,
 0.00000305,-0.00000234,0.,-0.00000161,0.00000570,0.00000002,-0.0000028
 7,0.00000275,0.00000001\\\@
 The archive entry for this job was punched.


 A DANDELION FROM A LOVER MEANS MORE THAN AN ORCHID FROM A FRIEND.
 Job cpu time:       0 days  0 hours 30 minutes 59.1 seconds.
 Elapsed time:       0 days  0 hours  3 minutes 55.4 seconds.
 File lengths (MBytes):  RWF=    132 Int=      0 D2E=      0 Chk=      6 Scr=      2
 Normal termination of Gaussian 16 at Tue Mar 12 17:34:26 2024.
