%nprocshared=8
%mem=8800MB
#N opt freq B3LYP/def2SVPP symm=veryloose em=gd3bj scale=0.961 press=0.987

c1ccc2cc3c(ccc4c5ccccc5ccc34)cc2c1_2

0 1
C         -5.71510       -0.99690        0.99080
C         -5.46480        0.26080        1.52960
C         -4.18110        0.80450        1.46040
C         -3.13020        0.09690        0.85090
C         -1.82750        0.62730        0.77050
C         -0.74110       -0.05930        0.16200
C         -1.03540       -1.33290       -0.37310
C         -0.02800       -2.07090       -0.98590
C          1.26940       -1.57000       -1.07920
C          1.63390       -0.30790       -0.56760
C          2.98250        0.20590       -0.66780
C          4.06760       -0.48110       -1.27610
C          5.35620        0.05900       -1.34830
C          5.61050        1.31100       -0.81330
C          4.57600        2.01750       -0.20860
C          3.27820        1.48150       -0.13210
C          2.27160        2.21980        0.48070
C          0.97400        1.71840        0.57380
C          0.60810        0.45580        0.06230
C         -2.33270       -1.87110       -0.29780
C         -3.38510       -1.17310        0.30750
C         -4.68160       -1.71050        0.38290
H         -6.71330       -1.42350        1.04270
H         -6.26690        0.82010        2.00390
H         -4.00520        1.78930        1.88740
H         -1.67060        1.61180        1.20230
H         -0.23550       -3.05400       -1.40400
H          1.99710       -2.20790       -1.57210
H          3.93020       -1.46570       -1.71300
H          6.15480       -0.50450       -1.82380
H          6.60800        1.73810       -0.86480
H          4.79120        2.99990        0.20720
H          2.48030        3.20270        0.89840
H          0.24770        2.35750        1.06690
H         -2.52820       -2.85580       -0.71970
H         -4.89480       -2.69260       -0.03320

