%nprocshared=8
%mem=8800MB
#N opt freq B3LYP/def2SVPP symm=veryloose em=gd3bj scale=0.961 press=0.987

c1ccc2c(c1)ccc1c2ccc2ccc3ccccc3c21_2

0 1
C         -5.25590       -1.41160       -0.20030
C         -5.22500       -0.04980       -0.45130
C         -4.00720        0.63810       -0.41360
C         -2.77180       -0.00490       -0.12700
C         -2.84200       -1.39350        0.12150
C         -4.06960       -2.07900        0.08620
C         -1.68110       -2.08800        0.43370
C         -0.44580       -1.43920        0.44830
C         -0.27770       -0.07570        0.12880
C         -1.48620        0.65850       -0.06890
C         -1.37490        2.05420       -0.16390
C         -0.15670        2.70790       -0.02670
C          1.02970        1.99410        0.10590
C          2.20700        2.72930        0.26540
C          3.43700        2.09810        0.36410
C          3.53210        0.72080        0.20390
C          4.81020        0.13400        0.20870
C          4.98060       -1.21970       -0.05350
C          3.87310       -1.99020       -0.35680
C          2.59800       -1.41180       -0.34530
C          2.35770       -0.05480       -0.00050
C          1.03540        0.57710        0.07790
H         -6.19670       -1.95390       -0.22590
H         -6.14340        0.48480       -0.67880
H         -4.04510        1.70180       -0.62980
H         -4.10900       -3.14820        0.28510
H         -1.71600       -3.14630        0.68360
H          0.39470       -2.03490        0.79160
H         -2.25020        2.68510       -0.28510
H         -0.15320        3.79640       -0.04190
H          2.18000        3.81590        0.32590
H          4.32660        2.70710        0.50830
H          5.69480        0.74030        0.39460
H          5.97470       -1.65710       -0.05930
H          3.99090       -3.03760       -0.62170
H          1.78540       -2.04770       -0.68330

