%nprocshared=16
%mem=1600MB
#N opt freq B3LYP/def2SVPP symm=veryloose em=gd3bj scale=0.961 press=0.987

C1=CCC=C1_1

0 1
C          0.62275        1.00656       -0.00561
C          1.18703       -0.21138        0.00398
C          0.11892       -1.26554        0.00808
C         -1.13130       -0.43559        0.00486
C         -0.81189        0.86620       -0.00572
H          1.14117        1.95314       -0.00926
H          2.24720       -0.41284        0.01003
H          0.17945       -1.88770        0.90615
H          0.17936       -1.89406       -0.88516
H         -2.13303       -0.83742        0.01100
H         -1.50318        1.69525       -0.01097

