%nprocshared=16
%mem=3840MB
#N opt freq B3LYP/def2SVPP symm=veryloose em=gd3bj scale=0.961 press=0.987

c1ccc(-c2ccccc2)cc1_1

0 1
C          1.43129       -0.27008        0.04021
C          0.53150       -1.32674       -0.03847
C         -0.84400       -1.07445       -0.11745
C         -1.35507        0.23731       -0.10635
C         -2.81306        0.50873       -0.18710
C         -3.76206       -0.36350        0.37746
C         -5.13527       -0.10051        0.30579
C         -5.59276        1.05364       -0.32282
C         -4.68000        1.93462       -0.88970
C         -3.30952        1.66025       -0.82913
C         -0.41804        1.28438       -0.01472
C          0.95782        1.03682        0.04954
H          2.49968       -0.46372        0.09364
H          0.89473       -2.35033       -0.04442
H         -1.51331       -1.92786       -0.20074
H         -3.44386       -1.26412        0.89821
H         -5.84384       -0.79510        0.74843
H         -6.65780        1.26425       -0.37062
H         -5.02913        2.83839       -1.38313
H         -2.62975        2.36287       -1.30485
H         -0.74927        2.31914        0.02017
H          1.65450        1.86927        0.11059

